Geometry = GenFormat {
<<< "system.gen"
}

Driver = VelocityVerlet{
  Steps = 100000
  TimeStep [fs] = 0.2
  MDRestartFrequency = 5
  Thermostat = None {
    #InitialTemperature [Kelvin] = 300.0
  }
  Xlbomd{ 
    IntegrationSteps = 6 
    MinSccIterations = 2
    MaxSccIterations = 200
    SccTolerance = 1e-6 
  }
  Velocities [m/s] {
      7.62799073E+00      1.34767574E+02      6.77407357E+02
     -9.20070203E+02     -2.89163708E+03      1.70142160E+03
      5.22815457E+02     -2.18619881E+03     -1.15973751E+03
     -8.33111104E+02      3.13955227E+02     -1.10720485E+02
      1.37973736E+02      2.23271884E+02      2.32864302E+03
     -9.97980094E+02     -9.12549635E+02     -1.39967028E+03
     -3.02637044E+02     -4.59406906E+01      1.56180557E+02
      1.02826684E+02     -1.40952893E+02      4.54157368E+03
      8.90978231E+02      3.28850271E+02     -3.20282479E+02
      3.65479482E+01      3.47022254E+02     -2.36027980E+02
     -2.53183982E+03      1.42955060E+03     -1.93582362E+03
     -1.88095132E+03      3.52540021E+02      1.38120023E+03
     -8.20536561E+01      1.51057225E+02     -2.34979458E+02
     -6.53229302E+02     -1.16046193E+03     -1.15849372E+03
      1.10823987E+03      7.60496379E+02     -3.93975223E+02
      3.28591381E+02      7.27155569E+02      5.66366433E+02
      8.99458328E+01      2.31406509E+03      1.34326557E+03
     -4.26332852E+02      7.71401036E+02     -2.83362490E+02
     -4.51381646E+02      5.78616435E+02     -2.40550290E+01
      1.33543867E+03      5.18419734E+02     -2.16617876E+03
      9.05581333E+01     -2.68566834E+02      2.35316864E+02
      5.78658296E+02      4.30833928E+01      6.93428128E+02
      2.51889069E+01     -1.02000651E+03     -8.14779377E+02
     -1.01281752E+03      1.26004952E+03      4.06217429E+03
      1.91738914E+02      4.88976637E+01      3.01119614E+02
      5.73806241E+01      1.88545891E+03     -1.75729675E+02
      3.35152453E+03      1.75784800E+03      2.97904996E+03
      3.59870424E+02      1.44893363E+03     -6.64229162E+02
     -8.68470903E+02      9.23581178E+02     -6.65842224E+01
     -9.77349889E+02     -1.48448120E+03      1.93956504E+03
      1.55275539E+03      1.82653640E+03     -5.95743423E+02
     -1.79723353E+03      1.74445224E+03     -3.27379783E+02
      6.77850069E+02     -4.89543834E+01     -4.62308212E+02
     -1.06429063E+03      8.33309512E+02     -7.42992928E+02
      2.19654349E+03     -5.20961681E+02      4.73815791E+02
      4.43169943E+02      5.41518422E+02      4.79742328E+02
      6.47297452E+02      5.88202995E+02     -2.75305533E+02
      9.38534904E+02     -8.61193249E+02      1.88361396E+03
     -6.31391032E+02      3.20052065E+02     -2.79501554E+02
     -3.04373068E+02      8.89440319E+02      1.04965423E+03
     -1.86973882E+02     -2.99716218E+03      2.72590872E+03
      1.19231682E+01      3.90003439E+01      6.29094576E+02
      7.04645822E+02     -1.89122462E+03     -3.15014961E+02
      1.18688284E+03      7.98968529E+02      8.89600060E+02
      8.74480224E+02      5.29034002E+02      4.85042535E+02
     -3.54453905E+02     -6.12022251E+02      2.13145753E+02
      1.60210314E+03      2.63247011E+03      2.32457585E+03
      1.60841123E+02      5.27100342E+02      6.42881122E+02
      3.34282802E+02     -2.94841661E+03     -5.64337275E+02
      1.94537729E+03     -5.82433517E+01      4.91768079E+02
      1.10923547E+02     -7.87469229E+02      6.10091649E+02
      5.24016077E+02     -1.86587827E+03      2.14347887E+03
      4.34306587E+03     -9.26160452E+02      1.71968541E+01
      2.15233584E+02      1.96515654E+02     -1.30107124E+02
     -5.08216361E+02     -2.70967590E+01     -5.57198884E+02
     -5.25575159E+02      4.20942562E+02     -1.30281547E+03
     -1.67438680E+02     -1.39065604E+02     -8.31492582E+01
     -1.76759351E+03     -2.91079175E+01     -1.96282946E+02
      9.35217597E+02      8.75049173E+02     -1.74543691E+03
     -4.22662740E+02      1.58296231E+03      4.85006594E+02
      2.17963624E+02      7.23594391E+02      4.62722930E+02
     -2.39569007E+02     -1.77408678E+03     -3.66702202E+01
     -1.12221270E+03      1.02980469E+03     -1.30089993E+03
      1.69551973E+03      1.56796480E+02     -1.79091716E+03
      2.10373740E+02      3.64836008E+02     -3.06369897E+02
      5.53653482E+02     -1.72377757E+03      5.29042004E+02
      5.81031339E+02      1.51956190E+02     -6.36109265E+02
      6.00806501E+02     -5.71910843E+02     -6.03912005E+02
      5.67823724E+00      2.01772477E+02      6.76369851E+02
      7.94432222E+02      1.76545993E+02     -2.62761232E+02
     -3.31311420E+02     -7.60695383E+02      6.05918884E+02
     -1.22923128E+03     -3.61847660E+03      1.12229860E+03
     -1.66437818E+03     -2.89197701E+03     -2.31241520E+01
     -8.38470485E+02      2.48737020E+02     -3.35646490E+02
     -2.23227390E+03      3.03775734E+02     -9.68198944E+02
     -7.19775358E+01     -1.00702291E+02      3.84542562E+02
      2.05026884E+02      5.09884611E+02      7.17974055E+01
      4.14740355E+02      1.51834799E+03      3.58282641E+03
      1.02561015E+03     -7.23438330E+02      2.79523222E+03
      2.24488226E+02      9.82522695E+01      3.26803385E+02
     -2.67248937E+02     -2.82542492E+02     -1.05199080E+03
     -1.45313755E+03     -1.25606574E+03     -1.05913063E+03
      5.48923967E+02     -2.47643419E+01     -3.46040182E+02
      4.98391441E+02      3.97007883E+02      2.25836896E+03
      1.30358253E+03     -2.82888963E+03     -2.11278937E+03
      3.52730700E+02      1.64156771E+02      4.71645234E+02
     -2.56092418E+03      1.33668236E+03      1.21531530E+03
      5.97592483E+02     -1.52177586E+03      1.74689194E+03
     -4.24388407E+02      1.33211128E+02      9.45047134E+01
      2.26619980E+03      2.26101000E+03      5.78952417E+02
     -3.17843936E+03     -7.28337849E+02      9.01939162E+02
      2.04861395E+02      7.93014452E+02      3.08960879E+03
     -1.98353975E+02      6.75412601E+02      1.70301459E+01
      3.91665845E+02      1.81773008E+03      4.78944623E+02
     -7.58772300E+02      7.88759653E+02     -5.10876719E+02
      1.29320860E+03      2.58463595E+03      2.84072175E+01
      5.30149413E+02     -8.79171647E+02     -5.41909385E+01
     -1.05512449E+03      5.71311144E+02     -3.98967601E+02
      5.24268993E+02      1.39571955E+03     -1.80270161E+03
     -1.58782865E+02      8.45186050E+02     -1.41834609E+01
     -3.63406697E+02      1.41002573E+02      2.48729294E+02
     -8.54212096E+02      1.66328236E+02      3.01466885E+03
     -4.36329873E+02     -3.48050549E+02      5.24452138E+02
     -1.01006435E+03      1.82648639E+03     -6.14445435E+02
      6.19374362E+02      7.96770473E+02      1.12910443E+03
      1.49264470E+02     -1.42407076E+01      8.15547268E+01
     -2.24811078E+03      1.96641514E+03      2.67988932E+03
      1.36294749E+03      1.68911610E+02      8.46990340E+02
      1.12931910E+02      2.00601402E+02      6.45716728E+02
      2.59772299E+02     -4.33439033E+02      7.84046230E+02
     -2.03683368E+03      1.28522249E+03     -1.73249513E+02
      5.65745613E+01      6.37071546E+02      1.22322518E+02
     -1.92889584E+03     -4.65354234E+02     -7.38878733E+02
     -2.46731196E+03     -2.44012693E+03      1.81682337E+03
      2.29999273E+01      3.16600380E+02      2.32861248E+02
      3.41919557E+01     -5.17839992E+01      7.02217947E+02
     -3.70814426E+02      8.49170337E+02     -1.64393439E+03
      4.09180059E+02      2.51634056E+02      2.59420201E+02
     -1.63244271E+03      2.11357013E+03      2.35947393E+03
     -5.05544020E+02     -1.99891020E+03      2.93726743E+02
      4.02979042E+02     -2.91792534E+02      5.07583142E+02
     -5.73198775E+02      9.11350892E+01      1.07426575E+03
      7.11864118E+02      4.98174603E+02      1.57131635E+03
     -3.99640374E+02      3.00507606E+03     -5.90546664E+02
      8.27163437E+02     -3.85966777E+01     -1.52741766E+02
      1.48315872E+02      3.26004418E+03     -1.20054680E+03
     -4.86536500E+02      3.33500096E+02     -2.01721927E+03
      1.50387233E+03     -2.82827362E+02      2.59732270E+01
      1.37331889E+02      6.40880994E+02      5.08903004E+02
     -7.89188323E+02     -7.06929276E+02     -9.48847939E+02
     -1.22944392E+03     -2.52247340E+03     -1.38002278E+03
      2.52397338E+02      4.50540936E+02     -4.27564503E+02
      5.71528471E+02      2.10100409E+03     -2.41075308E+03
     -1.04423109E+03      3.94251126E+02      9.74365941E+02
     -1.31599992E+02      7.53712423E+01      8.24669429E+02
     -8.87017129E+01     -8.41811641E+02     -4.64630917E+02
      1.88854151E+03      2.96100865E+03     -1.21095011E+02
     -3.75089530E+02      3.92736260E+02      2.14220934E+02
     -1.53105452E+03     -1.89591392E+03     -2.25947510E+03
     -1.22217311E+03      1.43714304E+03      4.28623185E+02
      1.70771907E+02     -4.11375170E+02      1.97318549E+02
      3.38353344E+02     -6.19650704E+02      5.70324647E+02
      5.94738133E+02     -1.92890409E+02      9.24696580E+02
      4.14621491E+02     -2.74496949E+02      6.32355959E+02
     -5.66194553E+02      5.45158075E+02      3.12030358E+03
      1.30543069E+03      2.38317003E+02     -2.00606996E+03
     -1.65884380E+02     -3.88619982E+01      2.55384661E+02
     -4.90763743E+02     -1.32142350E+02     -1.39864518E+03
     -1.56682169E+02     -1.77758852E+03      1.98358291E+03
     -3.51019439E+02      2.27158527E+01      3.32365339E+01
     -2.39511466E+03      1.59558549E+03      3.44664586E+02
      4.40120257E+03     -2.18310554E+03     -3.54421093E+03
     -8.37879476E+02      3.30012015E+02     -2.12340792E+02
     -1.75126947E+03     -1.05920744E+03      1.41997778E+03
     -1.32388539E+03     -1.83560630E+03      1.59561408E+03
     -5.59847258E+02     -4.95847232E+02     -3.01019197E+03
      2.71567161E+02      8.63558876E+02     -7.68298910E+02
      7.17782132E+02      2.93326216E+02     -1.84095908E+03
      6.18341801E+02      2.54582885E+03      3.01763663E+03
      3.17768266E+02     -9.53703845E+02      1.16160456E+03
      2.76555345E+02      7.23948813E+02      1.18629500E+03
      3.12213621E+01     -6.34848832E+01      5.57184478E+02
      1.11810061E+03      1.39224007E+03      8.20866971E+02
     -2.81425569E+02      4.88181211E+02      9.51514602E+02
     -1.76057290E+03      2.60065521E+02     -8.94123402E+02
      5.04211172E+02      4.34145440E+03      3.29831421E+02
      4.09444350E+02      8.58652156E+02      4.06191466E+02
     -7.61233507E+02     -7.98818859E+02      3.22735470E+03
     -4.14401097E+02      1.34399965E+03     -2.69532303E+03
      2.31829245E+02     -7.15685259E+02      1.69933176E+02
      8.35608785E+02     -5.57858655E+02      2.93338341E+02
     -2.73710415E+01     -4.82398429E+02     -4.77566125E+02
      6.86852937E+02      1.24750680E+02     -4.61902493E+01
      9.17658550E+02      1.10440310E+03     -2.11371258E+03
      1.32990840E+02      2.51613773E+02      1.73627515E+03
     -3.38452181E+02      5.08120616E+01      4.46157500E+02
      2.49191759E+03      3.72195127E+02      6.63790184E+02
      1.99130183E+03      1.34038376E+03      1.27018870E+03
     -4.83642363E+02     -1.67665096E+02     -3.85362040E+02
     -1.62777181E+03      1.11391136E+03     -4.99232412E+02
     -1.65850004E+03      1.17405219E+03      2.18029806E+03
      3.67118674E+02      5.48816988E+02     -5.44065406E+01
     -1.42397135E+03     -9.04009278E+02     -4.62075128E+02
     -8.97580126E+02     -4.50282017E+02      3.96768430E+02
     -1.12312499E+02      8.16311593E+02      3.52419626E+02
      1.40234864E+03     -3.49482764E+03     -3.34248109E+02
      2.19152604E+02     -3.26907966E+03      2.26719804E+02
     -1.79712285E+03      6.69867949E+02      1.53246378E+03
     -2.45525885E+02     -3.37860332E+02      3.37537731E+02
     -4.16399353E+02     -3.20008525E+02      7.98607499E+02
     -1.09098827E+03     -6.95039022E+02      1.86987343E+03
     -2.26178835E+03     -6.27419056E+02     -8.08556647E+02
      9.48843421E+02      4.37989187E+02      9.69627803E+02
      3.80459975E+02      7.92047053E+02      3.84621190E+02
      3.76994571E+02      1.70760676E+03     -1.79636586E+03
      1.83175583E+02      4.87012738E+01      9.34350871E+01
     -6.32278699E+02     -5.93804187E+02     -1.28086681E+03
     -1.21411481E+03      1.50224222E+03     -1.04666221E+03
      4.96213027E+02      2.09673631E+02     -3.07420979E+02
      1.33345866E+03     -9.05145686E+02      1.24098208E+03
     -1.91405708E+03     -9.09205790E+01      1.71068642E+03
     -1.16998607E+02     -3.37499055E+02      2.17306194E+02
     -1.97877251E+02     -3.11401040E+02     -2.17240355E+03
      2.21829110E+02      1.48543154E+03     -2.74130017E+03
     -9.40745049E+01     -3.77397417E+02     -1.15369079E+03
      8.74888468E+02     -7.07053642E+02     -1.72747083E+02
     -1.73569910E+03      9.36479039E+02     -7.92511277E+02
     -5.85592867E+02      4.42946962E+02      7.25690873E+02
      4.56707633E+02     -2.54544544E+02     -2.35062770E+03
     -1.67616945E+03     -4.41749246E+02      2.23660368E+03
     -2.31499567E+02      6.06594010E+02     -5.53081226E+02
     -1.41924551E+03      6.94103375E+02      1.44229872E+03
      5.24800521E+02     -1.24075130E+03      3.54726992E+02
     -3.54194899E+01      4.29813863E+02     -2.54603228E+02
      5.44366764E+01      1.45937191E+03     -1.73487542E+03
     -2.63415150E+02      9.93362759E+02      1.19069749E+03
      1.68156468E+01      1.60042559E+02      1.15627566E+01
      7.38863528E+02     -8.66806193E+00      2.30302680E+03
     -3.19655524E+03      2.54949519E+02      2.16332730E+02
     -2.04841009E+03     -3.94234186E+03     -5.78541354E+02
      1.90784390E+02     -1.65757534E+02     -5.49109728E+02
     -4.92540010E+02      5.88082048E+02     -3.01052273E+03
      1.73632719E+02     -1.26467189E+03     -2.79622335E+03
     -7.70408483E+02     -1.07116589E+02      1.55648955E+03
     -2.60410781E+02      6.86429418E+02      3.75574120E+02
     -2.57827450E+03     -6.10031196E+02      3.09313530E+03
      2.65745319E+03      1.73473588E+03     -1.17078832E+03
     -8.88365402E+01     -3.67588141E+02     -8.33800445E+02
     -2.19934324E+03     -2.56346653E+02      4.42324005E+02
      4.33390796E+03      8.22801145E+02     -4.46792063E+02
      1.22688305E+02      1.96241927E+02      1.00022495E+03
      6.42622275E+01      3.33003325E+02      8.31754063E+01
     -1.22508812E+03     -1.36311410E+03     -1.26313972E+03
      6.89441223E+02      1.02425795E+01      6.26691480E+02
      5.93312137E+02      6.93307515E+02     -9.07434913E+02
      1.01573776E+02     -2.37273408E+03     -8.19365999E+02
     -4.56289429E+02     -1.76407317E+02      3.34566859E+01
     -1.71347980E+03     -7.14424078E+02      2.35118813E+03
      2.00078915E+03     -3.67232653E+01     -1.89356003E+03
     -6.90247466E+02      2.89080478E+02     -1.52863307E+02
      1.21117435E+03      1.19146781E+03      2.29434574E+03
     -1.34889055E+03      5.29031836E+02     -1.04090676E+03
      4.19016291E+02      2.96184423E+01      3.92644731E+01
     -4.54805296E+03      5.98521336E+02     -2.05595681E+03
      1.41134763E+03      4.42065033E+02     -9.12478960E+02
      7.71420541E+01      8.00058502E+02      3.42620661E+02
      2.29901635E+02     -3.70303241E+03      4.57234069E+02
      1.46598365E+03      5.39695536E+02     -9.32593268E+02
      1.26699255E+02      3.12971493E+02      7.67633089E+02
     -3.39474712E+03      2.80256486E+03      5.27480043E+01
     -4.17310898E+03      2.70317495E+03     -1.19734588E+03
      2.62727502E+03      4.25032438E+02      2.25756732E+03
     -3.87107133E+01      4.38460804E+02     -1.47441974E+02
     -8.56228718E+02      4.12256933E+03      2.46647533E+03
      2.10625037E+02      1.87450927E+03      3.70603484E+02
      1.93692443E+03     -2.27712828E+02      1.26170509E+03
      4.21829436E+02      2.41490891E+02      8.90941012E+02
      9.93727097E+02      5.81623177E+01      2.41526767E+03
      1.84379821E+03      2.12283154E+02      7.85755593E+02
     -1.72473271E+02     -1.20200511E+02     -5.39095309E+02
      2.07990251E+03      1.35717141E+03     -1.39905563E+03
     -1.12160975E+03      3.24456200E+02     -1.65137506E+03
      2.58290738E+02     -9.66804854E+02      6.74919749E+01
     -2.25712070E+03      8.80230572E+02      4.37201640E+02
     -4.49046371E+03     -3.65784081E+02      1.26975843E+03
     -6.21878980E+02      3.14986163E+02      1.79199037E+02
      2.70780076E+03      1.59463017E+03      2.96737835E+02
      1.25288774E+03     -4.29522860E+03      1.28043855E+03
     -2.71080076E+02      1.36243961E+02      6.85361238E+01
     -9.00042743E+02      9.44388507E+02      2.27175700E+03
      2.26236265E+03     -2.36186205E+03      9.44067412E+02
     -2.56926954E+02      6.10525620E+01      3.38935095E+02
      5.99638363E+02      1.06208033E+03      9.87291808E+02
      3.14180261E+03      3.84942593E+02      7.58155694E+02
     -1.01081327E+03     -2.72187904E+02      1.86562420E+00
      1.10128538E+03      1.60571907E+03     -1.15173102E+03
      1.51579270E+03      6.87386403E+02      1.98977267E+03
     -4.42856478E+02     -1.63919113E+02     -4.64662242E+01
      5.85762973E+02      2.60048152E+03     -1.37214696E+03
      5.90820139E+02     -1.32427716E+03     -3.04274918E+02
      2.67938349E+02      1.27994207E+02     -3.07561299E+02
      9.09753978E+02     -1.31271132E+02     -3.17788488E+02
      5.93520844E+02     -3.99009555E+03     -2.59226496E+02
     -5.32433597E+02     -7.77961011E+02      8.50798219E+02
     -6.00029587E+02      9.15947903E+02      8.79933329E+01
     -1.05400119E+03     -1.64044267E+03      2.44469024E+03
     -6.34116561E+02     -1.46919620E+02     -4.57461732E+02
     -1.36033616E+03      2.45934542E+03      1.71871326E+03
      1.64768495E+02      8.90087941E+02     -5.06831222E+02
     -1.97909723E+03      6.82327319E+02     -5.63114206E+02
      9.41213350E+02     -1.29600169E+03      2.90344087E+02
     -3.08482661E+02      1.21155970E+03      4.31025523E+02
     -9.60024935E+02      2.79030610E+03      1.37653671E+03
      6.00727271E+02      1.25423641E+03      2.98084453E+01
     -6.24774785E+02      8.69900216E+02      4.81154193E+02
     -1.59292795E+03      1.64515298E+03      3.83300625E+02
     -1.60536255E+02      1.21318151E+03      8.83727692E+02
      4.51287258E+02     -5.47679668E+02     -1.10189244E+03
      2.77531699E+03      3.34221115E+03     -2.17131038E+03
     -1.55920383E+02     -1.62882472E+03     -2.10259956E+03
     -4.56062558E+02     -4.11866906E+02      3.34563651E+02
      2.52771940E+03      5.38228244E+02      1.18482774E+03
     -1.50495003E+03      1.57596319E+02      4.50433965E+02
      2.95167618E+02      5.68958485E+02     -1.53786967E+02
     -1.61255909E+03      2.32364736E+02     -2.38937571E+03
     -2.32296560E+03      3.08682594E+01      2.15963772E+02
      2.29379129E+02      5.75551947E+02      4.94861895E+02
      1.14169242E+03     -1.03647979E+03     -3.31267117E+03
     -1.05073447E+03     -1.55059264E+03     -9.44393427E+02
      7.15796850E+02      5.29085066E+02     -3.44968980E+02
      3.45319049E+02     -4.50922751E+03      6.51111552E+02
      2.42495329E+03      1.24520952E+03     -1.67133866E+03
     -5.04325865E+02     -1.26716851E+02     -5.68434977E+02
     -2.27415794E+02      1.92679077E+03     -3.02929715E+03
      5.41071744E+02      1.39734523E+03     -6.09353145E+02
     -6.90598278E+02      2.32180870E+03      1.88462118E+03
     -3.33729689E+02      1.84206284E+02      8.24634042E+02
      1.84978610E+03      3.15013735E+03     -1.38460850E+03
     -3.80718119E+02      1.09393332E+02     -1.76468648E+03
     -6.53702396E+02     -2.69941319E+03      1.54705445E+03
     -1.06879803E+03     -5.94112355E+02     -5.89856705E+01
     -2.98570633E+02     -7.57554812E+02     -1.25561411E+03
     -1.21404414E+03     -2.33753826E+03      2.36642519E+03
     -1.34365502E+03      3.18334093E+02     -1.08856910E+02
     -6.56847514E+01     -3.86984632E+02      4.46121910E+02
      1.83817510E+03     -2.71795639E+03     -1.25370491E+03
      1.12574381E+03      6.18363095E+02     -9.56047163E+01
      7.16387920E+01      8.64109719E+02     -4.75306374E+02
     -1.66181002E+03      3.28480191E+02      5.35187190E+02
     -8.46787436E+02      2.79914588E+02      3.30548693E+02
     -7.69065389E+01      3.55861401E+03     -9.25814855E+01
      2.54131857E+03      9.84595571E+02      1.97263560E+03
      2.08957862E+02     -8.71932449E+02      9.84622647E+02
     -2.06771144E+03      3.04841694E+03      2.77568527E+02
      3.05496617E+02      3.79895239E+02     -6.18966115E+02
      4.77601044E+02      3.06338593E+02     -4.10954980E+02
      4.89827072E+02      9.02141541E+02      1.93726884E+03
     -4.64632214E+02     -2.06727531E+02     -5.66211487E+02
      1.81181840E+03     -2.27599962E+04     -1.64550672E+04
     -1.70790612E+03      4.92378327E+02      1.08133342E+03
      1.64114510E+03      1.48622240E+03      1.79676651E+03
      6.18761495E+02      5.44222229E+02     -1.03497923E+02
      1.02519882E+03     -7.47121767E+02      2.68650821E+02
     -3.60718040E+02     -1.61692782E+03      2.71909809E+03
     -3.69379992E+02     -1.06985075E+02     -1.39593880E+02
     -1.83312270E+03     -7.43479018E+02      1.96484734E+03
     -2.83776812E+03      1.07437138E+03      1.89965124E+03
     -4.00381640E+02      2.51546567E+03     -6.27367896E+00
      4.39564422E+02      3.43302149E+02     -2.98577244E+02
     -4.91810733E+02      9.27192749E+02     -9.54192824E+02
      3.65121366E+03      2.60814871E+03      2.23062531E+03
      8.40589954E+02     -5.53275345E+02     -3.10550257E+03
  }
}

Hamiltonian = DFTB {
  SCC = Yes
  SCCTolerance = 1e-6
  MaxSCCIterations = 200
  ForceEvaluation = Dynamics
  MaxAngularMomentum = {
    C = "p"
    H = "s"
  }
  Charge = 0.0
  SpinPolarisation = {}
  Eigensolver = Standard {}
  Filling = Fermi {
    Temperature [Kelvin] = 300.0
  }
  SlaterKosterFiles = Type2FileNames {
    Prefix = "../../pbc-0-3/"
    Separator = "-"
    Suffix = ".skf"
    LowerCaseTypeName = No
  }
  KPointsAndWeights = {
    0.0000000000000 0.0000000000000 0.0000000000000 1.00000000000000
  }
  Dispersion = LennardJones { 
    Parameters = UFFParameters {}
  }
}

ParserOptions = {
  ParserVersion = 3
}
