Geometry = GenFormat {
<<< "system.gen"
}

Driver = VelocityVerlet{
  Steps = 100000
  TimeStep [fs] = 0.2
  MDRestartFrequency = 5
  Thermostat = None {
    #InitialTemperature [Kelvin] = 300.0
  }
  Xlbomd{ 
    IntegrationSteps = 6 
    MinSccIterations = 2
    MaxSccIterations = 200
    SccTolerance = 1e-6 
  }
  Velocities [m/s] {
     -3.30869920E+02     -1.44847196E+01     -6.83918583E+01
     -2.03756436E+03     -8.15543867E+02      7.57387444E+02
     -9.77034676E+02     -1.77461255E+03     -1.67702616E+03
      1.24296137E+03     -7.60194909E+02     -4.31642704E+02
      1.72073113E+02      4.57072241E+02     -3.03349608E+03
     -2.09577689E+03     -6.88310123E+02     -2.86352006E+03
      4.33060556E+02      1.92811644E+01      3.51742898E+02
     -3.86485469E+03      7.60754198E+02      1.25201742E+03
      1.74077242E+03     -2.11707577E+02     -1.59518857E+03
     -1.03906267E+02     -1.08890778E+03     -2.65394905E+02
      9.29960386E+02     -3.38012385E+03     -1.04970998E+02
     -1.89659655E+02      8.72728247E+02     -3.79657188E+02
      2.25015504E+02      6.67549994E+02     -5.00005801E+02
      9.60249464E+02      1.14878041E+03     -2.72683664E+01
     -2.20005548E+02     -8.92050262E+02      2.79923675E+03
     -2.69467654E+00     -3.94727356E+02     -1.81597928E+01
      1.14726479E+03     -2.08130241E+03     -2.24438852E+03
      1.86525209E+03      2.53642426E+03     -2.59863865E+02
      4.89873976E+02     -7.30247988E+02      9.52264204E+01
     -3.10372488E+03      1.25222786E+03      1.67413115E+03
     -4.20236798E+02     -1.00967709E+02      3.32603900E+03
      3.17578940E+02      4.34643925E+02     -1.25203852E+02
     -2.07097409E+03     -5.48246969E+02      9.01438529E+01
      1.19597941E+03      1.54528508E+02     -1.65807440E+03
      8.29048266E+02     -1.96586238E+02      6.35932841E+02
      4.69692326E+03      1.10484972E+03      2.93277027E+03
     -5.90997937E+02     -1.23648839E+03     -1.41510881E+03
      4.16647358E+01      1.39959700E+03     -1.09264870E+03
      9.25085292E+02     -3.00753060E+02      4.37282032E+02
      4.88643154E+02      1.77087228E+03     -2.13714568E+03
     -1.08450892E+03      1.29400303E+03     -1.14627869E+02
      6.58710669E+02      1.88588433E+03     -2.04935481E+03
      5.05824300E+02     -2.85576013E+02     -3.23816139E+02
      2.51642681E+03      4.08196851E+03      1.71988286E+03
      5.49875120E+02     -3.11179791E+03      2.52235193E+03
      5.41040431E+02     -2.12224203E+02     -5.42897378E+02
      7.97716513E+02      5.24481678E+02     -2.61851183E+03
      2.89699926E+03     -1.66740338E+02      7.38010634E+02
      4.38390892E+02      5.55509672E+01      1.11614103E+02
      2.66707665E+02      1.80382240E+03     -3.04319394E+03
     -3.30935530E+02     -1.75742623E+03     -1.47533839E+03
     -9.40347061E+01     -2.39467219E+02      4.91149948E+01
      2.33129934E+03     -7.58130509E+02      4.76357904E+02
     -4.12087223E+02     -8.63143971E+02     -2.49391732E+02
     -1.22248536E+02     -1.41599083E+02      2.22838343E+01
      4.22440893E+03      9.35732994E+02     -8.39013577E+02
      2.56985884E+02     -3.16138207E+02      3.39085991E+02
     -1.73931196E+02      4.86218114E+02     -1.12674881E+02
      3.35919821E+03     -1.44916512E+03     -7.72226596E+02
     -2.80863262E+03      2.35375655E+03     -1.06982699E+02
     -2.38107073E+02      2.05145252E+02     -4.57346835E+02
     -7.69474045E+02     -7.92066534E+02      3.99530581E+02
     -2.76161259E+03     -8.49828919E+01      3.29677287E+03
      1.55985892E+02      5.08363952E+01     -4.58527994E+02
      4.21570853E+03     -2.56187255E+03     -1.45610526E+03
      7.56548587E+01      1.03332739E+03      9.94679974E+02
      8.28981521E+02      5.69247650E+02      1.60320354E+02
      2.79269474E+02     -2.20428831E+03      6.36485395E+02
     -9.26433495E+02     -7.00600279E+02     -3.25792898E+03
      1.63238048E+03     -7.97107353E+02      6.29795864E+02
     -1.34204771E+01      5.41507366E+01     -8.04849349E+02
      2.73222774E+02     -2.63467212E+03     -1.70960805E+03
     -1.42925276E+03      6.47427037E+02      2.50206097E+03
     -4.46497862E+02     -9.89541543E+02      2.30588083E+02
      8.42194161E+02     -1.27418406E+02     -7.81141179E+02
     -2.36780120E+03     -2.15130752E+03      7.73656500E+02
     -1.76320852E+03      2.77088380E+02     -3.30768145E+03
     -3.61256081E+02     -5.52022006E+02     -6.75734195E+02
     -5.14541571E+02     -1.25634496E+03     -5.35096708E+01
     -7.22541805E+02      7.55423392E+02      2.31010376E+03
      7.84230861E+02     -8.49464438E+02     -4.11015578E+02
     -1.15528594E+03      1.72489300E+03      1.26166524E+02
     -9.28869062E+02     -2.47315015E+03      2.54894506E+03
      4.28479072E+02     -3.97731414E+01      9.13949881E+01
     -2.70553898E+03      1.57199396E+03     -1.48138268E+03
     -3.05495740E+02      1.44089436E+03     -4.02115851E+02
      5.21130520E+02     -3.14340770E+02     -1.98981595E+02
     -7.17378554E+02     -3.07791530E+03     -1.77691576E+02
      2.24173971E+03      8.22025543E+02      1.21093255E+03
      2.69653370E+02     -5.78088581E+02      9.27118441E+00
      7.16648571E+02      2.48529349E+02      1.62980644E+03
     -1.06512764E+03      1.32188528E+03     -4.54610190E+02
      2.45708655E+02     -3.66364411E+02      6.92774498E+01
      2.04050506E+03     -5.34394424E+02      2.16458756E+03
     -3.04367128E+03      5.13043740E+02     -1.26939486E+03
      1.44196464E+03      1.28937899E+02      4.45398440E+01
     -7.96603032E+02     -3.44935205E+03     -8.88853273E+02
      1.39305406E+03     -1.12445951E+03      3.43855831E+03
      4.80698111E+02     -8.20209997E+02     -4.62608852E+02
      1.23748544E+03      2.32887166E+03     -6.32061762E+01
     -4.47458441E+02     -1.17308259E+03     -9.09822318E+02
      1.76424871E+03      1.05561066E+03      6.52382894E+02
     -4.21936309E+02      3.02882034E+02     -2.05854150E+02
      9.79480097E+02      1.47492187E+03      4.38503579E+02
     -6.10263656E+02     -4.14657854E+02      1.13767253E+03
      1.32091484E+03     -1.38437207E+03     -6.75719361E+02
     -1.41479469E+01      2.84103924E+02      8.98835667E+02
      1.56280409E+03      8.67624172E+02     -5.42477927E+02
      1.22477407E+03     -1.12562190E+03     -4.35178303E+02
      6.36199682E+02      1.64003067E+02     -1.05940673E+03
      2.14984700E+03     -2.01923215E+03     -1.06759945E+03
     -7.46424119E+02     -3.36676879E+03      3.34153737E+03
     -5.93560785E+01     -6.72362650E+02     -2.88490271E+02
     -2.97118098E+03     -3.24669428E+03     -2.69849799E+03
      2.57990061E+02      6.75837996E+02     -3.79904900E+01
      2.67917582E+02      1.11247883E+02     -5.71096141E+01
      6.40434601E+02      1.00069236E+03      1.62361998E+03
     -1.87259040E+03      1.57732890E+03      1.20370025E+03
      7.39757167E+02     -4.57641179E+02     -3.23272510E+02
     -1.86741715E+03     -6.57237665E+02     -7.36064386E+02
      3.14213647E+03      2.84877436E+02      9.66747358E+02
     -6.33336599E-01     -8.68712028E+01      2.92940708E+02
     -1.28324564E+02     -2.29641704E+03      1.19115923E+03
      2.88520764E+03     -1.05302609E+02      1.14515705E+03
      1.50769407E+02     -5.84556896E+02     -3.99859373E+02
     -6.76522986E+02      1.42224170E+03      1.12365768E+03
      5.53749967E+02     -4.68827748E+02     -1.18884815E+03
      4.98745393E+02      2.29690530E+02     -5.58525006E+02
      6.44494255E+01      3.96852858E+03      4.31251059E+02
     -1.54280439E+02     -2.08713106E+03      1.19793195E+03
      1.71332338E+02      2.22124401E+02     -3.71060730E+02
     -2.54180565E+02     -2.44251298E+03     -3.41567111E+03
     -7.66715829E+02      2.83365010E+03      1.31163565E+02
     -1.38687342E+03      1.74741087E+03      5.65037028E+02
      5.95464181E+02     -1.90692968E+02     -2.45033370E+02
      1.89728608E+03      2.04119612E+03     -2.55630924E+03
      1.01146641E+03      1.06689835E+02     -8.26352769E+02
     -2.01602668E+02      8.80930801E+02     -9.39570495E+01
      8.50946837E+02     -4.72280556E+02     -1.68308823E+02
      1.28031937E+03      2.54424888E+03     -8.09737328E+02
      2.14902022E+02     -2.53264133E+03      2.33433702E+03
      4.83262290E+01      4.25874365E+01     -1.06528827E+02
     -1.96268499E+03      1.93220460E+03     -3.55058801E+02
     -1.32531419E+03     -1.11089211E+03     -1.41733954E+03
     -1.44249562E+02      2.57025412E+02      2.77844358E+02
     -1.72615330E+03     -1.69524147E+02     -3.14110571E+02
      2.21342083E+03      6.41774527E+02      2.78771516E+03
      1.95254040E+02      2.10488989E+02      7.25761618E+02
      7.47066714E+02     -2.11534879E+03     -3.20200202E+03
     -2.56736173E+03     -1.19983841E+02     -1.90819331E+03
      1.40993612E+02      7.90156600E+02      2.50462965E+02
     -1.44020215E+03      5.01676522E+02     -6.51920324E+02
      1.07152141E+03     -1.05116890E+03      1.49026199E+03
      1.44391927E+02     -3.05477489E+02      1.57881118E+02
      1.31213861E+03     -4.74701147E+02      2.59600872E+03
      3.97348495E+03      8.35951693E+02      3.77101101E+03
     -3.01073663E+04      1.37236341E+04      3.00685845E+03
      1.11868979E+03     -1.13496720E+03      1.00758577E+03
      1.36763074E+02      2.48735882E+03      4.69132155E+02
      8.00782889E+02     -5.74983131E+02      4.34889779E+02
      9.77971054E+02     -9.18456725E+02      3.46614763E+02
      1.83616549E+03     -3.22288884E+03      1.95237875E+03
      5.97688454E+01     -5.34258969E+02     -5.02203262E+02
      1.09134552E+03     -1.86558334E+03      1.99006303E+01
      2.71517009E+03     -5.41129980E+02     -6.19195587E+02
     -3.34066699E+02     -1.86548000E+03     -3.21740899E+02
     -2.47394099E+02      1.04256134E+02     -4.69634653E+02
     -1.42926972E+01      8.15060808E+01     -1.10503756E+03
      1.02260746E+03      1.34573364E+03      1.37789938E+03
      1.12115893E+03     -1.92713626E+03     -2.57107565E+03
      3.16076905E+02      6.82007199E+02      3.88760537E+02
     -2.19581070E+03     -6.37670210E+02      6.25590527E+02
      1.37655270E+03      2.58815015E+03      4.27333500E+02
     -2.57065488E+02      2.43945295E+02     -4.21252749E+02
     -2.54741868E+03      1.85612382E+03      1.33028136E+03
      2.40341731E+03      9.90639313E+02     -1.42525293E+03
      2.71369464E+02     -6.12204367E+02      1.36203139E+02
     -8.33471208E+01      8.31306014E+02      2.25644815E+02
     -3.72591196E+01     -5.75694694E+01      1.94709011E+03
     -2.04146827E+02     -4.40904991E+02      9.81858581E+02
     -5.94107500E+01      1.02361726E+03      1.85731506E+03
     -1.63023653E+03     -5.74438344E+02     -9.33363534E+02
      4.25593393E+02     -1.12173191E+02     -1.09759371E+03
     -9.79293762E+02     -3.67421996E+02     -3.89533251E+03
      1.21628297E+03      3.25611378E+02     -2.57166006E+03
     -1.51354826E+02     -1.95200087E+02      5.07578580E+02
      9.43366699E+02     -2.16824391E+02      1.41458889E+03
     -7.65347673E+02      1.08785305E+03      3.66735308E+03
      2.64863932E+02      1.74906293E+02     -2.33514860E+02
     -1.37035092E+03      3.71582994E+03      1.54212570E+03
      7.58383246E+02     -1.22722103E+02      7.40383765E+02
      4.18846284E+02     -4.94120750E+02      7.72231501E+02
     -2.56716340E+03      5.84834498E+02     -2.87481608E+03
     -1.09227579E+03      2.26524133E+03      1.33976533E+02
      2.36686583E+02     -6.44137537E+02      1.26381654E+02
      2.35316048E+02     -3.26252740E+02      2.51803310E+03
      2.14784739E+03     -2.09309875E+03     -1.34834303E+03
      1.48713263E+03     -4.01119179E+02     -2.07182881E+03
      4.11861828E+02     -5.19334609E+02     -5.19479673E+02
      8.18502215E+02     -6.97131577E+01      7.69049814E+02
      1.74449578E+03      5.66860341E+02     -2.40678001E+03
     -1.78916981E+03     -3.76802724E+01     -3.65288500E+03
      2.04778611E+02     -1.47697894E+02      4.21462572E+02
     -2.73985588E+03     -1.46543534E+03      1.21102538E+03
      4.67220203E+02      1.85393894E+03      1.29108074E+03
     -2.43717157E+02     -5.46795684E+02     -8.38475757E+02
      3.84219791E+02     -9.37556009E+02      5.79392330E+02
     -3.92917782E+02     -6.47255808E+00     -1.97228298E+03
     -1.27470871E+02      3.24462196E+02     -5.63610110E+01
      5.86180754E+02      2.29396468E+03      4.02753301E+03
      9.98792210E+01     -6.76215922E+02      4.09844540E+02
     -5.79120316E+02      2.90804869E+02      8.49611134E+02
     -2.11120843E+03      2.47533575E+02     -1.56622787E+01
      4.80178041E+02      1.01876999E+03     -5.45533795E+02
      2.51479971E+02     -7.65066296E+02      2.81632353E+02
     -2.40692690E+02      2.13908137E+03      3.63543198E+02
      3.05658144E+03      8.38420380E+02      1.03276255E+03
      7.10906516E+02      4.30398741E+02     -3.92161752E+02
      8.95825405E+02     -1.45753140E+03      7.85040651E+02
      5.27050795E+02     -1.66294285E+03     -3.52967346E+03
      2.58319828E+02     -2.53767194E+02     -1.48668959E+02
     -1.72638480E+03     -2.29290747E+03     -3.79205305E+03
      7.05781908E+01     -2.44825069E+03      7.96209373E+01
      3.80926652E+02      2.67815423E+02     -3.31080527E+02
     -1.59718550E+03     -2.49890814E+03     -8.45541425E+02
      9.78210302E+02     -8.74089946E+02     -8.99421659E+02
     -1.15140262E+02     -7.61910816E+02      7.25021066E+01
     -1.20824766E+03      7.90251679E+02      2.26687363E+03
     -5.64633419E+02     -1.98043712E+01     -1.35907316E+03
     -1.00313467E+03     -1.73775753E+03     -2.45713024E+01
     -5.11578851E+02     -7.06628568E+02     -2.06999620E+02
      1.59709427E+02     -5.40565116E+02     -2.21999984E+02
     -6.40953980E+02      1.19283444E+03     -1.86096543E+03
      1.77393143E+03     -2.51599015E+03      1.26742392E+03
      1.38113225E+02     -3.12878759E+02     -5.91171690E+02
     -4.09354016E+02      1.91536122E+03     -1.73674812E+03
      2.02203511E+03      2.06416785E+02     -7.11049289E+02
      1.22985634E+02     -3.96113230E+02     -1.92541710E+02
     -1.78021386E+03     -8.71054793E+02      9.60559615E+02
      1.44327418E+03      1.56407103E+03     -1.05336436E+03
     -2.47857011E+02      1.63032594E+01     -4.22533430E+01
     -1.00549875E+03     -1.23916190E+03      3.06584390E+03
     -2.24581261E+03     -1.07407777E+02     -5.59287437E+02
      1.24347462E+02     -3.10779990E+02     -2.28193262E+02
      7.61684347E+00      8.76326959E+02     -3.05649795E+02
     -1.86250530E+03      1.17487287E+03     -3.20968117E+02
      4.05727507E+02     -4.99092469E+02     -4.96805338E+02
      1.96040835E+03      1.13159554E+03      6.94608038E+02
      3.92648418E+02      5.40085653E+02      8.97546397E+02
      7.32648315E+02      4.14879417E+02     -7.46946506E+01
     -8.82256526E+02      2.56893293E+03      1.79582608E+03
      8.84689940E+02      1.10159732E+03     -1.82386153E+03
     -2.11240125E+02      5.79921225E+02      3.40324799E+02
      2.26732649E+03      3.10247893E+03     -8.37121197E+02
      4.53809112E+02     -3.38016768E+03     -7.38316606E+01
      3.26131399E+01     -3.79337803E+02     -9.26028654E+01
      3.10979616E+02     -1.54627152E+03     -1.74901113E+03
      9.19892992E+02      1.16672348E+03     -1.37358811E+03
      1.18155128E+03     -1.18333466E+02      5.20221863E+02
      5.33421753E+03     -1.27202876E+03     -8.48864549E+02
      1.50706104E+03     -3.25358142E+03      1.67035514E+03
     -1.32017983E+03      1.63430742E+03     -1.72842243E+03
      4.06656072E+02     -1.38405991E+01     -1.87450906E+02
     -1.76706422E+03      3.14363462E+01      3.68215306E+03
      1.47251466E+02     -2.88333362E+03     -5.27079737E+02
     -1.31640929E+03      3.14269866E+03      3.07649160E+02
      5.85619384E+02     -4.88463724E+02      3.38883416E+02
      2.38403291E+03      2.81100790E+03      3.27841786E+02
     -2.36275340E+03     -1.43901388E+02      3.51480990E+02
     -2.55583266E+02     -1.49896579E+02     -1.30543274E+02
     -2.03925128E+03     -2.23990395E+03     -3.00452050E+03
      2.10910152E+03      2.77965525E+01      2.91134215E+03
     -2.10013244E+02      7.21570497E+01      1.83364009E+02
      1.44950353E+03     -1.70060786E+02      1.07508256E+03
      2.72303615E+03     -1.30230588E+02     -1.58028829E+03
      5.21792937E+02      4.77035075E+02     -7.62902505E+02
     -6.38430425E+02      1.15370284E+03     -1.97691706E+03
      2.69630776E+02     -3.00586412E+03      3.27704931E+02
      4.94520678E+02     -7.22345057E+02      1.48053776E+02
     -4.31290731E+03      8.56181430E+02     -2.55319674E+02
     -3.11604433E+03     -4.94292725E+02      1.51213855E+03
     -4.67890485E+02     -1.23895256E+02      8.96830882E+01
     -5.06026412E+02     -7.84887421E+01      2.66573545E+03
     -2.31462311E+03     -2.53038414E+03      2.04592570E+03
      1.34284470E+01      1.15698469E+02     -3.72864116E+02
      2.39878371E+03      5.54801208E+02      1.50227499E+03
      2.18169709E+02     -1.81794884E+03     -1.47653660E+03
      1.17529242E+03     -1.52791656E+02     -3.84848086E+02
      1.13669973E+03      1.10359903E+03     -2.32829511E+03
     -3.07448827E+03     -1.11492458E+03      1.33804347E+03
      8.53078351E+02     -4.79623715E+01      2.69218669E+02
      4.37187326E+02      3.73774229E+02      3.73502830E+01
     -1.86953685E+03     -5.17463283E+02      6.58248621E+02
     -9.91586578E+02     -1.50741414E+03     -4.43649698E+03
      5.87015466E+02     -7.78965912E+01     -3.79825823E+00
     -1.90553292E+03      3.01409970E+02      2.15589578E+03
      8.22209163E+02     -1.30342885E+03     -1.91572099E+03
     -3.43255611E+03     -2.00314263E+03     -1.87687522E+03
     -5.22658846E+02      1.50582419E+02      4.22635216E+02
      3.93114557E+03     -1.66148869E+03     -5.53398510E+02
     -9.77596279E+02     -1.53561302E+02      1.16752546E+03
      9.96823248E+02     -3.52350879E+02     -2.58477157E+02
      1.18900030E+03      2.32219749E+03      1.39851105E+03
      9.24721791E+01      2.21007099E+03      1.07515493E+03
      1.01984597E+02     -1.85490363E+02      8.69024019E+02
      1.78787966E+03     -5.24541003E+02     -1.34487175E+03
      3.06551692E+02     -4.21326599E+02     -8.07979302E+02
      9.41283489E+02      5.38429535E+02     -8.75972112E+02
      5.85128675E+02     -1.14797626E+03     -5.10969906E+02
      7.60551204E+02      9.30454090E+02      1.11601219E+03
     -2.17740620E+02      1.22606272E+03      1.84797618E+03
      2.21886066E+03     -1.18004682E+03      3.11995926E+02
      2.44002332E+03      3.48292620E+02      1.74306996E+03
     -9.99128026E+01      9.09790689E+01     -6.88278940E+02
      4.23075655E+02     -1.47795909E+03     -1.71223457E+03
     -1.22912303E+03      1.24130750E+03     -1.82609757E+03
     -3.58748738E+01     -3.40893885E+02     -1.45972585E+02
     -4.67164655E+02     -6.77549470E+01      3.17774211E+03
      4.60860033E+02      3.27214737E+03      3.79288593E+02
      7.13325855E+02      1.40896846E+02     -2.06761148E+02
     -2.89064181E+02     -7.70397854E+02     -4.29376437E+02
     -1.20369205E+03      1.82420746E+03      9.50882576E+02
      2.81443006E+02     -5.82751959E+02      4.94061639E+02
      1.18901428E+03     -3.72360362E+03     -4.38456429E+02
      1.59306083E+03     -8.49843689E+02     -5.11591555E+01
      3.74505974E+02     -2.87854890E+03     -9.33738509E+02
      7.58016394E+01     -9.00453186E+02      2.13874337E+02
      1.79306997E+03     -2.66316979E+03      1.63693270E+03
      2.42430694E+02     -3.83293919E+02     -1.13912559E+03
     -2.38840105E+02      2.78607180E+03      8.03587041E+02
     -8.77096295E+02      7.95103240E+02      2.54423523E+02
      5.46926141E+02      4.96846892E+03      4.05303808E+02
      1.48615854E+03     -6.84552273E+02      1.61332247E+03
      3.69155905E+02      1.87418938E+02      2.62402039E+02
     -7.49379260E+02     -1.63920636E+03      3.28974741E+03
      1.83025452E+03      1.10169905E+03      8.13601230E+02
      8.71593736E+02      2.36465383E+01     -5.62255015E+02
     -2.93820663E+02     -2.52286320E+03     -5.53118347E+02
      8.08645251E+02     -1.87473104E+03      1.41160216E+03
      6.00765712E+02      6.45550236E+01     -5.01598766E+02
      6.53388193E+02      7.85848318E+02      2.83509259E+03
     -9.48262055E+02      9.00118962E+02     -1.27732359E+03
     -2.30647585E+01     -6.84882949E+02      4.61816223E+02
      1.81852936E+03      3.66181718E+02      1.93501068E+03
     -7.96926121E+02      9.65322192E+02      7.93391918E+02
      7.38014308E+02      3.76389304E+02      1.17501905E+02
      2.59524693E+03     -1.31895969E+03     -3.88847059E+02
      6.81606201E+01      2.88833644E+03      1.18906464E+03
     -2.05205301E+02     -8.31022679E+02      7.89661780E+02
     -1.52258960E+03      7.05913243E+00      1.83029473E+03
     -1.39215260E+03      2.69468675E+02     -2.33099748E+02
      4.61820052E+02     -2.93950835E+02     -1.21805395E+01
      4.51503409E+02      1.25357578E+02      1.50419341E+03
     -6.45418567E+02      2.26690329E+02     -5.64592649E+02
      2.01997527E+02      6.15203023E+02      8.34323563E+02
      8.70375106E+02      1.19189254E+03     -1.26444382E+03
      8.14140232E+02      2.94496419E+03      1.28183728E+03
      3.08385589E+03      8.94117117E+02      1.66074534E+03
      3.23535248E+01     -1.56119689E+02     -1.22247289E+01
      1.44123841E+03      6.98510562E+02      2.75399398E+03
      1.20526600E+03     -6.06331153E+02     -3.68909760E+02
     -1.60924041E+03     -1.43227831E+03     -4.90925210E+02
  }
}

Hamiltonian = DFTB {
  SCC = Yes
  SCCTolerance = 1e-6
  MaxSCCIterations = 200
  ForceEvaluation = Dynamics
  MaxAngularMomentum = {
    C = "p"
    H = "s"
  }
  Charge = 0.0
  SpinPolarisation = {}
  Eigensolver = Standard {}
  Filling = Fermi {
    Temperature [Kelvin] = 300.0
  }
  SlaterKosterFiles = Type2FileNames {
    Prefix = "../../pbc-0-3/"
    Separator = "-"
    Suffix = ".skf"
    LowerCaseTypeName = No
  }
  KPointsAndWeights = {
    0.0000000000000 0.0000000000000 0.0000000000000 1.00000000000000
  }
  Dispersion = LennardJones { 
    Parameters = UFFParameters {}
  }
}

ParserOptions = {
  ParserVersion = 3
}
