Geometry = GenFormat {
<<< "system.gen"
}

Driver = VelocityVerlet{
  Steps = 50000
  TimeStep [fs] = 0.2
  MDRestartFrequency = 5
  Thermostat = None {
    #InitialTemperature [Kelvin] = 300.0
  }
  Xlbomd{ 
    IntegrationSteps = 6 
    MinSccIterations = 2
    MaxSccIterations = 200
    SccTolerance = 1e-6 
  }
  Velocities [m/s] {
     -8.75310152E+02      1.92048242E+02      5.34865288E+02
      1.44879318E+03      1.41949823E+03      1.37378510E+03
     -1.53213977E+03     -4.03286319E+02      9.42589520E+02
      1.83526952E+02     -4.08659453E+02      8.44860700E+01
     -6.57825818E+02     -9.48135941E+02      1.99940341E+02
     -1.08700318E+03      8.98985408E+02     -7.90095629E+02
      4.68362534E+01     -2.10973974E+02      3.69571096E+02
     -6.17300849E+01     -1.42612694E+03     -2.32127385E+03
     -1.27684708E+02      1.41324277E+03      1.59833589E+02
      4.46812613E+02      2.30725027E+02      1.67191385E+01
      1.00461642E+03      9.11242084E+02     -1.69527035E+03
      3.80183604E+03      1.03928168E+03     -1.56321140E+03
     -6.14969346E+02      5.98859076E+01      2.72191911E+01
     -3.37192361E+02     -4.29941128E+02     -1.95716798E+03
      1.70207875E+02      8.67580559E+02     -1.33346192E+03
     -6.77655211E+02     -2.43655098E+02     -1.65310379E+02
     -3.68735355E+02      1.05945100E+03     -1.35924262E+03
     -4.16029737E+03      2.38665871E+03     -2.01093313E+03
      3.36278249E+02      2.46752430E+02      2.90377190E+02
      2.14195903E+03     -3.87417972E+02      3.48061531E+02
      1.18326034E+03      1.20259225E+02     -1.52656006E+03
      2.95665289E+02     -1.21989002E+02      5.50655739E+01
      1.33662641E+03     -1.43701383E+02      1.18739555E+03
     -2.26798057E+03     -6.07153614E+01      2.68888105E+02
      2.57175654E+02      1.54085891E+02      1.75695035E+02
      4.66931255E+02      2.49970246E+03     -9.39531127E+02
     -2.68071162E+03      1.64918298E+03      6.01823458E+02
     -1.11228787E+03      2.73360638E+02     -2.57620422E+03
     -3.32384307E+02      8.29349127E+02      1.63493652E+02
     -1.24333347E+03     -2.21971977E+02      1.94205002E+03
      1.01916901E+03     -6.96140702E+02     -1.68324677E+03
      6.47230754E+02     -1.40356313E+03      9.26200699E+02
      2.77798809E+02     -5.94509757E+02     -3.82599905E+02
      5.72758459E+02      8.69214318E+02      2.40673631E+03
      2.18380369E+03      7.69698366E+02      2.36633695E+03
     -3.78431547E+02     -5.23674015E+02     -2.11177144E+02
     -1.57331849E+03      1.10410441E+03      5.64687015E+02
      1.84352127E+03      6.36696444E+02     -4.18287045E+01
      5.18507555E+02      6.86790383E+02     -4.11394477E+01
      8.82226394E+02      2.11920128E+03      8.37087339E+02
      2.07343215E+02      3.83086078E+02     -2.31196722E+03
      5.41813461E+02      4.55610421E+01     -4.68375668E+02
      1.07278306E+03     -9.38607014E+02      3.31034475E+03
      1.55010273E+03     -5.67328878E+02      1.28397859E+03
     -1.88769816E+02     -1.53739190E+02      8.02768292E+02
      1.38858842E+03     -2.40633247E+00      5.67340406E+02
      1.99208132E+03      6.93161706E+01      4.72807634E+02
      2.14815082E+02      1.17673494E+03     -4.78344698E+02
      1.97922396E+03      1.75148252E+03     -4.04655210E+03
     -2.09970018E+03     -5.13139195E+02     -1.20560801E+03
      1.61510142E+02      6.63548302E+02      4.56952903E+02
     -2.17311685E+03     -2.37838124E+03      1.15263499E+02
     -9.02569481E+02      1.69244632E+03      1.40291643E+02
      7.53761515E+01     -1.19081961E+03     -2.67375575E+02
      1.91053142E+03      1.11975054E+03      2.44059950E+03
     -7.45821145E+02      2.23580409E+03     -1.90907232E+03
      2.74582177E+02      7.74217301E+01     -7.53686830E+02
     -1.40747175E+03     -6.70880323E+02     -3.51874245E+03
     -1.79099004E+03      1.08788563E+03      5.88840176E+02
     -8.77524266E+02     -2.33919065E+03     -6.52467525E+02
      1.08596327E+03     -4.43798420E+02     -4.06858480E+02
      1.33848270E+03      3.97823890E+02      6.12493431E+01
      9.75315024E+02      2.51962701E+03     -4.63476426E+02
      8.90812790E+02      1.64166584E+03      1.20034308E+03
      4.74388378E+02      2.70741568E+02     -1.96940608E+02
     -1.28220063E+03      1.82161667E+03     -1.10944317E+02
     -2.82198394E+02     -2.35695451E+03      2.09414887E+03
     -4.62693734E+01      1.76466207E+02     -8.47188077E+02
     -6.13504224E+02     -2.36358158E+03      3.44902024E+03
      2.02846856E+03      1.00032481E+03      2.54702372E+02
      3.91057816E+02      4.53311371E+02      7.02326116E+02
     -1.64323079E+03      7.65365803E+02      2.91918620E+02
     -9.65296311E+02     -6.93119253E+01     -1.17276404E+02
     -3.55724449E+02      2.73519888E+02     -2.70701267E+02
      2.25453343E+03      6.30154553E+02      8.41588420E+02
     -2.91454436E+02     -9.98020410E+02     -7.71225516E+02
      2.96387501E+02      1.85508636E+02     -7.00763854E+02
     -2.07130267E+03      1.72057767E+03      1.37455499E+03
      2.80981414E+03     -2.77401360E+03      2.37845241E+03
      4.98579171E+01      4.43768116E+02      5.72901994E+02
     -4.95208735E+02     -5.08041689E+02      9.07702843E+02
     -1.93807199E+02     -3.12960323E+03      6.90423306E+02
     -9.75139184E+02      4.87081659E+02      6.44657257E+01
     -9.11135588E+02     -5.76440471E+02      3.29268203E+03
     -1.28687418E+03     -2.05567957E+02      1.88595660E+03
     -5.62792187E+02      2.50319884E+02      6.44626950E+02
     -1.03546242E+03      1.51994639E+03     -1.78601064E+03
      1.75831876E+03      6.67871180E+02      8.53310883E+02
     -3.06844416E+01      4.59877430E+02      2.68400504E+02
     -2.10711870E+03     -3.42267682E+02     -3.87940014E+03
      8.72093479E+02     -3.32808337E+02     -2.67045951E+03
     -2.11921209E+03     -1.21789619E+02     -3.18819327E+02
     -5.88225446E+02      5.82306156E+02      8.71436187E+01
      4.65990716E+02     -2.57773810E+02      1.77559238E+03
     -2.36924801E+03     -1.87550780E+03     -1.27539535E+03
     -1.11750860E+03      2.29525666E+03     -2.35798649E+03
     -6.65522912E+01      9.68514412E+02      4.79005556E+01
     -2.65023079E+03     -2.56621464E+03     -9.30502550E+02
     -6.63408138E+02     -6.08670120E+02     -9.33757586E+02
      4.73182248E+01     -9.36570037E+02     -3.32190800E+02
     -7.93147354E+02     -9.55451357E+01      3.07737724E+02
     -3.26707755E+03      5.47704581E+01     -1.69071269E+02
      7.37557398E+02     -4.01565041E+02      4.76334078E+02
     -1.30980769E+03      2.42617482E+03     -1.62010613E+03
     -1.02362052E+03      3.62424491E+03      4.68497882E+02
      3.99991162E+02      7.04997772E+01      9.42026212E+01
      1.43881671E+02      1.40333291E+03     -1.34811392E+03
      1.72478506E+03      1.18062858E+03     -2.22884116E+03
     -5.49260569E+02      6.47262669E+02      4.77429627E+02
     -1.88133776E+03     -1.60827011E+03      1.76175806E+03
     -1.54191755E+03      1.77326393E+03     -8.15927823E+02
     -3.64008342E+02     -3.60632626E+02     -6.33767290E+02
     -8.79307103E+02      3.46802284E+03      1.72539386E+03
      3.31251335E+02     -4.93967912E+02      1.22082257E+03
     -3.97285298E+02     -1.09777785E+03     -8.54124565E+02
      7.87463490E+02      2.11723346E+03      1.37035524E+03
     -1.12309020E+03     -2.45479696E+03     -2.30488026E+03
      5.81644416E+01      3.68400320E+02      1.76793932E+02
      3.54622750E+02     -2.08505159E+03      2.63444444E+03
     -2.00048903E+03      1.17735545E+03      2.37984360E+02
      2.45318041E+02      5.74432366E+02      2.90680670E+02
      6.98248762E+02     -9.70892727E+02     -9.48922051E+02
     -2.22887078E+03     -5.18317461E+02     -6.99295781E+01
      1.35121984E+03      1.42872577E+03     -5.03851782E+02
     -9.99469830E+02      2.96755649E+02      6.68117158E+02
      3.16328970E+03     -9.49982348E+02      8.99936264E+02
      6.04511763E+02      1.34292955E+03      1.75187825E+02
      1.81848452E+02      2.66234123E+02     -3.31474379E+02
      1.96956077E+02      3.22960659E+02      8.56712426E+02
      2.51675399E+03      1.69877643E+03     -1.18043389E+03
     -8.52889371E+02      1.33454038E+03      1.10572170E+03
     -4.45109624E+02      6.74341539E+01      2.56504102E+02
      2.22576625E+03      1.50460613E+03     -4.27073136E+02
     -4.03470954E+03      4.14610756E+02      3.20353406E+02
     -2.60504567E+02      4.47198320E+02     -4.75594291E+02
      2.65153733E+03      5.88260888E+02     -1.25440657E+03
      2.56649184E+01     -1.60289369E+03     -4.22261051E+02
     -8.20045231E+02      9.72742609E+02     -3.00991131E+02
      1.03450338E+03      1.07707218E+03      2.90312391E+03
      1.75662346E+03      1.56604053E+03      1.31285919E+03
     -4.41550050E+02      2.24883857E+02     -2.14306788E+02
      3.51954955E+02      1.27762711E+02     -8.42466506E+02
      2.81804312E+02      2.51420884E+03      5.06452941E+00
      7.58840624E+02      2.92146769E+01      7.77272950E+01
      9.00846196E+02      8.59869716E+02     -2.01060345E+03
     -3.56756884E+02      3.28730349E+03      7.32265928E+02
     -3.58148763E+02      3.15769772E+02      8.39096647E+02
      1.08007962E+03      1.39391822E+02      6.51437323E+02
     -8.38928277E+02      7.93159757E+01      1.52925013E+03
     -8.55342855E+02      1.21395691E+02      3.93968842E+02
     -4.41204880E+03     -1.96489395E+03      2.99788157E+03
     -6.78554178E+02     -4.15091286E+01      7.73071927E+02
      1.71727517E+02     -2.80259321E+02      2.28375021E+02
      1.37546815E+03      3.63442254E+01      3.07352201E+03
     -1.96843737E+03     -1.31468827E+03     -1.76921382E+03
     -7.70715259E+02     -1.21346301E+03     -1.72222312E+03
      7.96408430E+02      4.86452819E+02     -5.15073635E+02
     -1.90827231E+03      3.67282655E+03     -2.75543669E+03
      2.75739601E+02      1.89770349E+02      6.97729788E+01
     -6.10831995E+02     -8.37719764E+02      1.17651703E+03
      1.05791156E+04     -1.88951897E+04     -2.87801110E+03
      1.09289901E+03      8.63006912E+01     -2.11781232E+03
     -7.41682571E+02     -3.03460951E+03      2.42779423E+03
     -1.08592639E+02      1.95827489E+02     -7.52496839E+02
     -2.22769109E+03      9.16280085E+02      2.95000275E+03
      4.01305926E+03      8.23402741E+02      1.50258357E+03
      2.89516492E+02     -9.96688734E+02      5.03709232E+01
     -2.44192759E+03     -7.59687886E+02     -1.82947678E+03
      3.56581826E+03     -8.57285215E+02     -1.79039349E+03
      1.76815153E+02     -2.06031606E+02     -6.78854971E+02
     -6.95211681E+01     -1.39140372E+03      1.35192317E+03
     -1.21863368E+03     -1.70627167E+02      3.56030741E+02
     -4.65863656E+01     -7.76238098E+02      3.79619980E+02
     -3.17967412E+02     -5.28152174E+02      1.02507396E+03
     -7.02137196E+01     -1.41262725E+03      1.04835239E+03
      1.35010677E+02     -4.60619452E+01     -1.89008159E+02
     -2.19423178E+02      3.32256478E+03     -1.26535130E+03
     -2.50891029E+02     -8.98204862E+02     -3.07813863E+03
      2.33070513E+02     -2.09801112E+02      5.09017442E+02
     -2.04907060E+03     -1.84800548E+02     -1.20487953E+03
      9.11459295E+02      1.14155431E+02     -1.31099367E+02
     -6.20023979E+02     -6.18136657E+01      3.19524658E+02
     -1.24545136E+03      3.45621359E+02     -1.31709005E+03
      2.56205414E+02      2.53930002E+02      2.17898489E+03
      6.53349206E+01      8.63971518E+02      4.59784545E+02
      2.36074721E+02     -6.22598877E+02     -1.03736390E+03
      3.73694698E+03     -2.19499802E+03     -1.73927816E+03
      6.57602666E+02     -1.74493633E+03      1.37649000E+03
      6.28914677E+02     -6.04911774E+02      1.46832892E+02
     -1.06082353E+03      1.36905095E+02      2.18860102E+03
      1.29181565E+03      3.02034545E+03     -8.85198077E+01
      3.92098787E+03      4.09331058E+02      1.12942844E+03
     -5.19469641E+02      3.14843601E+02      3.14764095E+02
     -1.52526583E+03      1.10763867E+03     -1.40564614E+03
      3.19530060E+03     -3.28060425E+02      5.43565743E+02
     -2.80405096E+02     -3.79609913E+02     -4.59396683E+02
     -2.55172070E+02     -1.77111552E+02     -1.92963484E+03
      5.27055670E+02      3.10187363E+01     -1.11105696E+03
     -1.17488128E+03      9.33189769E+01     -1.08895448E+02
      7.29155047E+02     -2.98529595E+02      1.36793494E+03
     -9.17001605E+02     -1.93219775E+03     -1.15780479E+03
     -6.04568566E+02      8.07082843E+02      6.19541980E+02
      4.32314280E+02     -6.81325749E+02      1.56360596E+03
      1.85176135E+03     -1.98458082E+03     -8.13004447E+02
      1.22932502E+02     -1.58918825E+02     -4.66473955E+02
      1.47831857E+02     -2.07182101E+03     -5.65646954E+02
      4.06116923E+03      2.85798127E+03      6.80250285E+02
      7.31284341E+02     -5.04889872E+02      1.89238541E+02
      6.05477858E+02      1.48525313E+03      5.95665029E+02
      1.78862344E+03     -5.63814100E+02      3.23806248E+02
     -5.15003862E+02      3.53833135E+02     -2.65260004E+02
      5.74982911E+02      1.65386360E+03     -4.42361882E+02
     -2.55227875E+03      4.19571413E+02     -2.78499274E+02
      9.40576275E+01      5.01736630E+02     -4.75223195E+02
      1.17007079E+03     -1.90041701E+02      9.28204008E+02
      8.29684817E+02      3.23442773E+03     -1.86426098E+03
     -8.92692196E+02      4.55165559E+01     -4.24502882E+02
     -1.37643352E+03      1.12070575E+03      2.49844406E+02
     -1.23602098E+03      1.54792023E+02      8.19393669E+01
     -1.80736123E+03      1.38177164E+03      5.17353397E+01
      6.65060899E+02      2.81801652E+02      3.80312213E+01
     -2.12440310E+03      2.13079381E+03     -7.81701678E+02
     -5.14715283E+02      1.30280585E+03      2.30047890E+03
     -2.16054658E+03     -2.09298348E+03      2.42604654E+03
     -6.66776501E+02     -2.19457000E+02     -4.55381945E+01
     -1.46995775E+03      1.05448752E+03     -4.61096278E+02
     -2.31045844E+03      3.84148126E+02      1.38365199E+03
      3.15408904E+02      3.94353381E+02     -1.95452118E+02
     -1.23160479E+03     -1.37442913E+03     -1.32824837E+03
      4.11871703E+00     -2.26365176E+03      1.21138708E+03
      4.17150726E+01      1.16657658E+03     -8.18905864E+02
     -4.64634083E+02     -1.03440077E+03     -9.15116331E+02
     -1.29118041E+03     -1.87712354E+03     -1.40786182E+03
     -2.41055225E+02     -2.14195880E+02      5.49983881E+02
     -1.95300307E+03      1.78903122E+03     -1.36716616E+03
      3.10481465E+02     -2.31892418E+03     -9.39299945E+01
      9.69626904E+02     -2.22153164E+02     -1.76141466E+02
      9.24961564E+02     -1.52472441E+03      7.17709915E+02
     -1.40360601E+03      1.96445124E+03     -3.17085776E+03
      2.06573673E+01     -9.24479285E+01      2.24676312E+02
      1.65503817E+03     -1.75182450E+03     -1.58419911E+03
     -1.96805186E+03     -2.26627971E+03      7.64917549E+02
     -6.77934073E+02      1.42575686E+02     -4.23430441E+02
      2.13632797E+03      2.28149391E+03      3.44790217E+02
      3.46463699E+03     -1.05254698E+03      5.85456491E+02
     -1.89356779E+02      1.34364150E+02      3.08943575E+02
     -2.05293001E+03      1.93169820E+03     -4.30590253E+02
     -3.12311154E+03      1.15421859E+03      3.00507844E+02
      7.41942561E+02      1.94557931E+02      1.87871491E+02
     -9.87968367E+02     -1.15410104E+03      2.28313870E+02
     -2.13870758E+03      1.14597939E+03      1.25897224E+03
      4.23147474E+02     -9.13621556E+02      1.61197958E+03
     -5.39739837E+01      5.06032233E+02     -3.68778134E+02
     -1.61693877E+03      7.07208663E+02     -2.19680521E+03
     -1.20976351E+03      9.49855597E+02     -1.11258220E+03
      9.22752769E+01     -1.89979950E+03     -1.04387781E+03
      1.94704099E+02      5.45984887E+01      2.13841359E+02
     -1.50300715E+03      6.03910102E+02      6.19933814E+02
     -7.74078702E+02      4.09527099E+03      9.92007159E+02
     -1.15200968E+01      1.93490455E+02     -6.67719954E+02
     -7.64007219E+02      6.90968431E+02     -1.71593310E+03
     -3.85245850E+02      1.32193450E+03     -9.99026546E+02
      4.33364941E+02     -2.28762386E+01      2.02012272E+02
     -4.57251839E+02     -1.06614336E+03     -1.02423328E+03
     -2.27536524E+03      1.54897593E+02     -2.14146359E+01
      3.63464345E+02     -3.95739759E+02     -3.23544997E+02
      9.31042207E+02     -1.39536741E+03      4.31594934E+03
      8.41895745E+02     -5.44736753E+02      7.46448319E+02
      5.51198630E+00      7.71122937E+02     -2.68599441E+02
      9.09917941E+02     -4.78988190E+02      1.86686986E+03
      7.02301517E+02     -3.24199981E+03     -2.13702129E+03
     -7.83807687E+02     -9.72161776E+02      4.17414212E+01
      8.07941872E+02     -9.36225753E+02      2.13650502E+03
      1.40125784E+03      9.97847590E+02      8.43991130E+02
      1.91741957E+02      6.70224399E+02      4.69692041E+02
     -1.03748573E+03      9.16397752E+02     -1.13455078E+03
     -1.32491480E+03      1.36641282E+03     -6.26249616E+00
     -4.34364248E+02      2.46399377E+02      2.01190405E+02
     -1.41281417E+03     -1.45455239E+03      7.13580540E+02
      6.42826344E+02     -4.35360527E+02      1.16013059E+03
      4.44648800E+02      1.85992149E+02      2.27806143E+02
      2.71636565E+02     -1.02610221E+03      9.41473705E+02
      1.72690083E+03      1.00273799E+03      1.49937500E+03
     -9.98147919E+02      6.90236928E+02     -7.93419738E+02
     -2.60808361E+02      4.56397937E+01     -3.58444387E+02
      3.87776351E+02     -1.14551974E+03      9.07695195E+02
     -1.86758951E+03      2.66579995E+03     -1.86284222E+03
      2.40413786E+02     -9.85906205E+02      1.30738394E+03
     -4.05490619E+02      8.85745554E+02     -1.51320899E+02
     -1.47638119E+03     -1.57173096E+03      2.75059693E+02
      4.46749625E+02      5.95315072E+02      1.09087342E+02
     -2.99064744E+02     -7.74663298E+02     -6.23229442E+02
     -1.56682998E+03      2.97060338E+03      9.99670116E+02
     -3.46464593E+03     -1.52403445E+02     -2.72299907E+01
     -8.57118521E+02     -1.54594763E+02     -4.65957666E+02
     -1.60566601E+03      1.95094251E+03     -5.94306750E+02
     -2.21740565E+03     -1.35985015E+03     -9.56921840E+02
      7.74103046E+02     -1.44786896E+02     -1.91251407E+02
      3.01259494E+03      4.12603475E+02      1.61769884E+03
     -2.80109075E+03      2.03225023E+03      7.29653699E+01
     -5.28592503E+02      2.19987500E+02      1.19038407E+03
     -9.86088981E+02      3.88572357E+03     -8.00084022E+02
     -1.74678127E+03     -1.96452424E+03      1.55580859E+03
     -2.45369796E+02      2.44562075E+02      1.09551525E+03
      5.27113470E+02     -6.30457111E+02     -1.18278233E+03
      1.16750998E+03     -4.40030212E+02      2.63129904E+03
      1.74346438E+02      3.21676836E+02     -4.73294080E+01
     -6.45542586E+00      3.08325100E+03     -3.03869928E+01
     -9.30634352E+02      2.18791629E+03     -2.17331660E+03
     -5.52259581E+02      3.10405845E+02     -2.67420241E+02
     -4.07280791E+02     -4.10385607E+02      1.13791529E+03
     -2.95724891E+02      2.44156653E+03     -9.19685338E+02
     -6.21575665E+02      5.03938776E+02      2.97694213E+02
     -8.01236912E+02      1.27445600E+03      1.37818646E+03
      8.41595103E+02      1.27239945E+03      7.10065316E+02
     -2.72288964E+03      7.83021132E+02     -1.75046651E+02
     -2.42027055E+01     -3.86552208E+01      8.70718205E+02
     -1.33053828E+03     -4.16369780E+03      1.49684649E+02
     -2.03692959E+01      1.98850691E+03      4.45221610E+02
      6.81743365E+02      3.03353584E+03     -4.37063654E+03
     -2.76694154E+02     -3.58094185E+02     -3.13003349E+01
     -1.20336774E+02      2.51589637E+03     -4.42465041E+03
      3.34877556E+03      4.02703443E+02      5.31717946E+02
      1.84019780E+02      1.45019608E+02      3.03756897E+02
      1.64957110E+03     -5.31310255E+02     -8.04397932E+02
     -1.18764716E+03      8.33125897E+02     -1.82654696E+03
      3.36254374E+02      6.65778131E+02      4.57456091E+01
      1.75264040E+03     -5.08327952E+02     -2.17773752E+03
     -2.22840514E+03     -1.66826039E+03      1.59785381E+03
     -4.95530045E+02      3.59249402E+02      3.96554313E+02
      1.93293555E+03      1.08594726E+03     -7.12546844E+02
     -5.68915689E+02     -1.61436816E+03      1.45555398E+03
     -9.69399580E+01     -2.99283481E+02      1.34461086E+02
     -2.19747694E+03     -6.46511394E+02     -1.29440690E+03
     -5.17552123E+03      4.24287652E+02      1.46620588E+03
     -4.75104513E+02      1.45973432E+02      6.67785606E+01
     -8.25384017E+02     -9.97053645E+02      2.32352709E+03
      1.51022648E+02      1.22337593E+03     -9.41564322E+02
     -6.45803303E+02      2.26636575E+02     -1.23833345E+02
      2.41156920E+03     -8.48297366E+02     -1.06583043E+03
      2.74316301E+03     -6.78233559E+02      6.97996146E+02
     -2.91951992E+02      3.90750521E+02      7.13016568E+02
      8.99513415E+01     -1.06392807E+02      1.88935438E+03
     -1.50129917E+03      7.40299158E+02     -2.23141526E+03
     -2.10420134E+02      1.77189936E+03     -4.96494916E+02
      2.29850899E+03     -1.50709396E+03     -1.36889633E+03
      2.38246502E+03      1.86703182E+03      1.17965967E+03
     -1.85622069E+03      1.84006538E+03     -8.12352114E+01
      6.80685662E+01      9.10852906E+02      6.81595866E+02
     -6.17855466E+02      1.48752092E+03     -6.67316089E+02
     -1.04354826E+03      1.52126332E+03      4.83171856E+02
      2.86403378E+03      8.08295105E+02     -2.97362973E+03
  }
}

Hamiltonian = DFTB {
  SCC = Yes
  SCCTolerance = 1e-6
  MaxSCCIterations = 200
  ForceEvaluation = Dynamics
  MaxAngularMomentum = {
    C = "p"
    H = "s"
  }
  Charge = 0.0
  SpinPolarisation = {}
  Eigensolver = Standard {}
  Filling = Fermi {
    Temperature [Kelvin] = 300.0
  }
  SlaterKosterFiles = Type2FileNames {
    Prefix = "../../pbc-0-3/"
    Separator = "-"
    Suffix = ".skf"
    LowerCaseTypeName = No
  }
  KPointsAndWeights = {
    0.0000000000000 0.0000000000000 0.0000000000000 1.00000000000000
  }
  Dispersion = LennardJones { 
    Parameters = UFFParameters {}
  }
}

ParserOptions = {
  ParserVersion = 3
}
