Geometry = GenFormat {
<<< "system.gen"
}

Driver = VelocityVerlet{
  Steps = 100000
  TimeStep [fs] = 0.2
  MDRestartFrequency = 5
  Thermostat = None {
    #InitialTemperature [Kelvin] = 300.0
  }
  Xlbomd{ 
    IntegrationSteps = 6 
    MinSccIterations = 2
    MaxSccIterations = 200
    SccTolerance = 1e-6 
  }
  Velocities [m/s] {
     -5.66880345E+02      3.73955867E+02      7.20231683E+02
      7.09858320E+02     -6.91093935E+02      8.67564165E+02
     -3.80835055E+03     -1.94674374E+02     -2.97911493E+02
      2.83992201E+01      1.64893845E+02      1.18651149E+03
     -3.54082837E+02     -3.60498221E+02     -1.83762744E+03
     -3.07190561E+02      1.05749992E+03      1.99135958E+03
     -1.01002348E+02      1.05489614E+02      2.05589715E+02
     -1.03967208E+03      2.21993947E+03     -1.06240697E+03
      6.99658215E+02      7.13786876E+02     -1.81416049E+02
     -4.73484577E+02      4.01053787E+02     -3.73657909E+01
     -9.39946982E+02     -2.69650580E+03      1.29320793E+03
     -1.34958397E+02     -6.24706331E+02      3.33949913E+03
      4.17577060E+02      3.69615718E+02      4.24338108E+02
      2.65214166E+03      1.22296918E+03      1.17612942E+03
     -1.69633064E+03     -4.73404291E+02     -1.27960969E+03
     -6.34813117E+02      1.60820147E+02      1.95756272E+02
     -2.48584216E+03      1.11901804E+03      7.60541814E+02
     -2.56064759E+02     -2.67743798E+03     -1.27532852E+02
     -3.00379478E+02     -5.76905776E+02      8.75831222E+02
     -1.73437327E+03      3.00766759E+03      1.44344290E+02
     -2.14121616E+03     -3.99018397E+02      7.33997943E+02
      4.94353259E+02      4.90935058E+02     -3.46196865E+02
     -8.50435586E+02      1.63850017E+03     -5.34561490E+02
     -1.33008538E+03      9.43205482E+01      2.78752565E+03
     -3.69614910E+02      5.05835706E+02      5.02181124E+02
     -2.07177870E+03     -1.29530312E+03     -3.51977850E+02
      2.20678725E+02      2.66149201E+02      7.59258331E+02
     -2.16097489E+03      1.81619475E+03     -5.92230623E+02
     -4.10239471E+02     -3.27162784E+02      7.79421835E+01
      1.14959303E+02      1.63643133E+03      6.76782115E+02
      9.86897863E+02      2.65985097E+02      6.75375051E+02
      2.66203012E+03      3.09879525E+02      1.21065896E+02
      3.02434628E+02      6.83561207E+02      3.73178578E+02
      2.32968381E+02      2.66600566E+03      1.15007694E+03
     -2.22539165E+02     -1.12205930E+03     -4.37253126E+03
      7.06834795E+01     -1.72413630E+02      9.73787777E+02
      1.01551084E+03     -1.98185116E+03      1.03484318E+03
      9.18029472E+02     -7.87575808E+02      6.50137627E+02
      2.20070354E+02     -4.11134136E+02      2.47300185E+01
      8.68638985E+02     -1.56655521E+03      1.38697152E+03
     -6.76108425E+00     -1.75083211E+03     -2.70790706E+00
      4.17855036E+02     -1.80244619E+02      4.82981460E+02
     -5.59334899E+02     -2.16150038E+03     -5.36861863E+02
     -3.77066917E+02      2.71071587E+01     -1.24892329E+03
      9.01486625E+02      6.20136366E+02      4.34987332E+02
     -4.67434668E+02     -1.28129477E+03      1.88021347E+03
      4.42380546E+02      1.34452686E+03      1.06306116E+03
     -2.09614147E+02     -1.79201655E+02      1.35581308E+02
     -3.56514964E+02      5.71821559E+02     -7.53503793E+02
     -5.54780293E+03      9.45268961E+02     -3.13066572E+03
     -2.82341517E+02      2.87623089E+02     -5.51651000E+02
     -1.00632344E+03     -9.98174276E+01      9.92434783E+02
      2.63283906E+03      1.47451135E+03      2.83176902E+03
     -2.80876937E+02      1.57380793E+02     -9.39429851E+02
     -2.14057751E+03     -1.69373030E+03     -1.33338032E+03
      1.89472628E+03      8.11683764E+02      4.98659651E+02
      1.01277398E+02      4.66461172E+02     -3.44940302E+02
     -1.65631386E+02      1.23209104E+02     -1.19426769E+03
      1.24307962E+03      1.67402922E+03      8.85925416E+02
      1.04300055E+01      3.54093793E+02      2.06381380E+02
      7.74897390E+01     -4.45990594E+02     -9.83446497E+01
      1.42562429E+03     -3.43100799E+02     -2.24575114E+03
     -1.05512986E+01      6.21956027E+02     -6.55999234E+02
      2.31980525E+03      4.26100662E+02     -2.33485169E+03
     -7.28032452E+02     -1.85912439E+01      6.73888062E+01
     -2.19817451E+03     -4.78074516E+02      1.14076590E+03
     -4.40806604E+02      2.09882291E+03      2.07701092E+03
     -2.86974830E+02      6.69799838E+02     -1.32573077E+02
     -4.11369995E+02      2.23425261E+03      1.13112124E+03
      1.73966870E+03      7.96694020E+02      7.68637994E+02
     -9.98551269E+02      6.05309639E+02     -2.52961435E+02
      5.37897976E+02      3.73473418E+02     -2.30988127E+03
     -7.40578059E+02      1.39248558E+03     -1.75928314E+03
      3.17698239E+02     -3.19469611E+02     -9.92563490E+02
      3.37516985E+02      5.29561034E+02     -1.16267986E+03
      1.50874051E+02      1.22835739E+02      1.27397826E+03
     -9.61578331E+01     -8.60511044E+02      6.38619551E+02
      7.99080437E+02     -1.25676666E+02     -1.31944555E+03
     -8.93012058E+02      1.81949261E+03      1.09054988E+03
     -7.52899668E+01      3.98993123E+02     -2.30391155E+02
     -1.34129380E+03      1.26925551E+03     -4.76060020E+02
     -1.24635737E+02      2.69631586E+03      1.20106717E+03
      2.26608802E+02      8.70106863E+02      2.77185720E+02
     -8.05532161E+02      7.73337568E+02      5.18932041E+02
     -2.93546137E+02      2.92438013E+03     -1.03071207E+03
     -1.28357161E+02     -1.00463962E+02     -6.96453710E+02
     -1.22779691E+03     -5.66627681E+02     -2.12953035E+03
     -1.12777080E+02      1.58314417E+03      1.85198920E+03
      4.54758572E+01      4.54877242E+02     -8.04093060E+01
      1.41822470E+03      3.06821240E+02      3.56974769E+02
     -1.98709779E+03      1.31312485E+03      4.28312950E+02
      1.07985340E+03     -2.24043719E+03     -1.03630704E+03
      1.81325044E+01      8.13822015E+01     -4.45838816E+01
     -3.01723056E+02     -1.74866752E+03      1.75635454E+03
     -1.06055365E+03      1.61098357E+03      1.22598568E+03
     -7.62312785E+02      3.27212023E+01     -5.06543644E+02
     -1.94503667E+02      7.29857499E+02      1.03194623E+03
     -6.42020952E+02     -2.00203169E+03     -2.39936119E+03
      1.11081441E+02     -3.59504718E+02      7.77063479E+02
      2.39298131E+01      4.97015982E+02      2.22843211E+02
      2.46552432E+03      1.56553814E+01      1.36614103E+03
      1.96777297E+03      8.20263679E+02     -2.88308450E+02
      6.27682130E+01      1.50807707E+02      5.51527984E+02
      1.88114981E+03      1.73497262E+03      6.91388088E+02
      4.77923920E+02      1.57005600E+03      3.26047476E+03
     -3.77554451E+02      1.21006400E+02      4.11991579E+02
     -1.80847429E+03      3.95315908E+02      6.32547288E+02
     -7.81902363E+02     -1.42012786E+03     -1.27600090E+02
     -2.39026585E+02     -6.63478999E+02     -8.38274690E+01
     -1.18110714E+03      1.20125611E+03     -6.68259840E+02
      1.24244835E+01      1.95472406E+03     -1.03037079E+03
     -1.32769419E+02     -4.99709769E+02      3.88421056E+02
      6.30985874E+01     -6.18752809E+02      1.40233661E+03
      1.53235277E+03     -1.87430044E+03     -2.83017905E+02
     -8.00100371E+02      1.16242918E+03     -6.82640718E+02
      7.04161376E+02     -1.33402421E+03     -2.41715223E+02
     -2.38356220E+03      3.87305013E+02      1.33623396E+03
     -7.60045831E+01      1.33370666E+02      9.45263596E+02
     -1.65225615E+03      1.54691462E+03      1.00444609E+03
      1.36677775E+03      1.03682503E+03      1.21436981E+03
      5.10428444E+02      3.20937031E+02      5.15735521E+02
      2.51233863E+03      1.32480272E+02      7.72617288E+02
     -8.54552995E+02     -1.47917745E+03     -3.03160606E+03
      1.03317620E+03     -1.37195765E+03      4.90691703E+02
      2.87427208E+02     -4.56465385E+01      3.21989930E+02
     -2.07724928E+03     -2.06047995E+03      5.95566322E+02
     -2.23141022E+03      1.23713010E+03     -9.13528888E+02
     -1.50371947E+03      3.58934028E+02     -3.82035876E+02
     -6.64663734E+02      9.67664676E+02      5.30695030E+02
     -2.80092772E+02      1.19835613E+03      1.32622375E+03
     -9.68711793E+02     -1.42585223E+02      1.78973103E+01
     -8.96748008E+02      6.75135605E+02      4.02591600E+02
      1.69220930E+03      4.24752536E+01      7.67332272E+01
     -6.81753822E+02      8.88045027E+02     -4.67988860E+02
     -6.39454834E+02      4.98961752E+02      8.86780409E+02
      2.32336146E+02      7.41345355E+02     -1.94829427E+03
      3.99694971E+02     -4.72282059E+01      1.12456022E+03
     -2.62042207E+02      5.15322312E+01      5.56414998E+02
      1.38798938E+03      6.40965840E+02      1.04861626E+03
      8.86365415E+02     -9.36313746E+01     -2.38811857E+02
     -2.42816135E+02     -6.89755724E+02      3.26236049E+02
      2.67100935E+03      1.18386107E+03      6.71348244E+02
      2.92775917E+03      8.54845717E+01      2.81528037E+03
      9.02099639E+02      1.65234940E+02     -2.00442165E+02
     -2.24946958E+03     -4.38649913E+02      2.40370363E+03
     -1.77123302E+03     -3.08975910E+02      2.65277798E+03
     -4.34766190E+02      3.91391019E+02      7.69868715E+02
     -3.48668688E+03     -2.80860792E+01      1.67147106E+03
     -1.86113999E+03      2.97167053E+02     -1.89916386E+03
      5.86218661E+02     -2.73418237E+01      1.20325251E+02
     -3.81788584E+02     -1.06001649E+02     -8.34695025E+02
     -2.52506031E+03      4.03217176E+02     -1.61727621E+03
     -4.95535430E+01      6.76383456E+02     -3.86736308E+02
      2.80037127E+03     -9.76596011E+02     -1.09982163E+03
     -6.29565453E+02     -2.24028067E+03     -1.59089872E+03
      2.61785935E+03     -5.59313156E+02     -3.94274774E+02
      1.03740642E+01      5.33931270E+01     -5.46860868E+02
      2.31714155E+02      4.23701696E+02     -2.97311710E+02
     -1.84321284E+03     -2.31750499E+03      1.41365081E+03
      4.51651495E+02     -2.91081079E+03     -3.02116539E+02
      4.78210291E+02     -7.31726414E+00      6.02967195E+02
      2.79317425E+03      3.29462856E+02     -2.71259068E+02
     -2.02275499E+03     -1.63684606E+03      1.45098511E+03
     -6.28406456E+02      2.06369759E+02      4.49700660E+02
     -1.68199909E+03     -1.18112288E+03      2.95476789E+03
      1.09071059E+03      7.36938212E+02     -3.98679112E+02
     -7.86711162E+02      2.41637197E+02      4.69527884E+01
     -6.94985803E+02      1.92029260E+03     -1.64381791E+03
     -7.78749059E+02     -2.73833045E+03      8.99212101E+02
     -9.02784551E+02     -1.22018526E+02      2.09756211E+02
     -5.83222831E+02      1.35778600E+03     -9.80292064E+02
     -1.04175895E+03      1.96407974E+02     -8.76836178E+02
      2.57899168E+02     -4.18852660E+02     -2.40757863E+02
      9.59693324E+02     -7.92822441E+02      4.55523678E+02
     -1.36573412E+03     -1.83125742E+03      1.69530979E+03
      5.95029710E+01     -5.31241074E+01     -4.60167326E+02
     -2.97182419E+03      1.22029379E+03     -3.63969701E+02
      1.78179665E+03     -2.55738108E+03      1.58856347E+03
      3.82459983E+02     -1.84043092E+02     -7.07109759E+02
      1.92101821E+03      2.38231658E+02     -5.81627890E+02
      3.79302572E+02     -7.48366798E+02      8.29670147E+01
     -6.93189889E+02      7.23021632E+02     -3.10520393E+02
      2.69398888E+02      1.00112173E+03     -1.35116152E+03
      4.44183456E+02      1.26515502E+03      1.81553304E+03
     -2.55707020E+02     -1.21049863E+03     -2.75819599E+02
      7.64028609E+02     -2.56175754E+03     -1.55763500E+03
     -9.32586595E+02     -1.21976674E+03      7.82415484E+01
     -2.30631039E+02     -6.95735705E+02     -2.32555813E+03
     -9.55319740E+02     -5.97838754E+02      5.21400050E+02
      8.36006290E+01     -1.23133544E+01      2.38963533E+03
      2.52448373E+03      3.04638334E+02      2.05836795E+03
     -1.61959169E+03      3.84132936E-01     -8.51385009E+02
     -2.34700121E+02      8.47075034E+01     -1.52013174E+02
      3.65897017E+02      1.14052117E+03      7.41871370E+02
     -3.80834548E+02     -1.10645314E+03      1.16693988E+03
     -3.73876842E+01      1.75422437E+02      8.08753530E+02
     -9.96730777E+02     -1.19550473E+03      6.02341028E+02
     -1.20648158E+03     -1.01999235E+03      1.64869685E+03
     -3.15584263E+02     -2.76806467E+02     -1.30360596E+02
     -4.39149727E+02      8.39376241E+02     -1.56449744E+03
     -2.05363508E+03     -2.16525739E+02      1.64271303E+03
      8.75559024E+02      7.68504760E+02      1.54063412E+03
      1.60349996E+03     -1.97746369E+02     -1.46809086E+03
      8.86120978E+02      1.25356715E+03      2.90007984E+03
     -1.86526964E+02     -9.03887797E+02      4.67157640E+02
     -1.02110915E+03     -1.95378945E+02     -1.82804230E+03
      1.04289928E+03      2.17084029E+03      3.83486824E+02
      7.90077315E+01      3.40155139E+02      1.03882759E+03
     -1.82269823E+02     -6.71967155E+02      8.79333949E+02
     -1.85732725E+03      1.29668400E+03      1.48523668E+03
     -4.86516746E+02      4.79832752E+02     -5.62107935E+02
      2.61921411E+02      9.82126646E+02      6.38999833E+02
      3.57293272E+02      2.12371283E+03      6.68582573E+02
     -5.42494330E+02      5.90236580E+02      3.62288722E+02
      5.64982929E+02      1.73585958E+03     -2.22236632E+03
     -4.56103942E+02     -8.95874579E+01     -3.09584152E+03
      5.07164343E+02      6.84326245E+01     -3.94802394E+02
     -7.31875809E+01      1.02482399E+01     -1.04283248E+02
      4.12894452E+02      3.65254051E+01     -8.98579698E+02
      2.49381438E+03     -6.58909596E+02      4.03109651E+02
     -3.72227418E+02     -8.24744001E+02      1.00657047E+03
      8.41080050E+01      1.51768025E+03      1.06556900E+03
      7.02149040E+02     -2.65986901E+03      8.79869876E+02
     -2.22106771E+03      1.08563391E+03     -8.22670324E+02
      2.89653881E+02      4.77664101E+02      4.02759460E+02
      2.53660604E+03      3.53045491E+02      2.22957778E+03
     -7.57202674E+02      6.88496040E+02      3.08443053E+03
      4.00485566E+02      5.18894176E+02      4.39663604E+01
      3.17691269E+03      1.99714724E+03     -2.16239267E+03
     -1.16887870E+02      4.34340132E+02      1.93635392E+03
      7.94412547E+02     -6.05778322E+01     -7.80430695E+01
      1.41746607E+03     -2.46078310E+03     -1.61808698E+03
      3.14588065E+03     -3.02085251E+03     -2.18854175E+03
      1.22754685E+02      2.90192289E+02     -1.36141809E+01
      1.26448504E+03      3.24681370E+03     -2.12576075E+02
     -1.15976377E+03     -4.20359681E+02     -6.92020230E+02
     -4.41078691E+02     -5.37284263E+01      5.36747592E+02
      4.32070166E+02      2.19645265E+03     -1.68262950E+03
      3.31199022E+02     -5.74930264E+02     -3.79266840E+02
      1.12489182E+02      2.15343063E+01     -8.56029001E+02
     -1.78488174E+03     -3.10825049E+02     -7.38928508E+02
     -7.48893454E+02      1.87939157E+03      6.94639533E+02
      1.00522595E+02     -4.10144941E+02      5.16787822E+02
     -5.70155616E+02     -1.09517566E+03      3.08180590E+02
     -2.20838573E+03      1.42197279E+03     -5.96128938E+02
     -7.59847273E+02      5.90079008E+02     -9.08570919E+02
      4.14105365E+02     -2.98646035E+03      2.00004665E+03
      1.13780356E+03     -1.00956261E+03      1.22768673E+03
      3.11657319E+02      8.15010003E+01      4.96911737E+02
      2.36229853E+02     -1.16252528E+03     -2.80561075E+03
     -1.34222980E+03      1.86378769E+03     -1.12447490E+03
     -1.13639990E+03      3.48179780E+02      5.00114017E+02
      3.26155605E+02      5.44865834E+02      5.09299322E+01
      2.62273539E+03      1.37262202E+03     -4.99404566E+01
     -4.69966591E+02     -1.04435986E+03     -2.11726475E+02
     -2.41701329E+03     -1.15007602E+03     -1.78067956E+03
     -4.96890114E+01      8.47911255E+02      1.87970624E+02
      2.99277357E+02     -1.54919852E+03      5.66191854E+02
     -2.08953908E+03     -3.74438402E+02     -9.59310983E+02
      1.18636868E+02     -1.94308663E+02      9.35059093E+01
     -3.99278645E+02      4.34773386E+02      7.96158328E+02
     -7.11379744E+02      9.56123264E+02      6.58578533E+02
     -2.99501366E+02      7.76783469E+02     -7.54794095E+00
      1.72656505E+03      1.06934208E+03      7.28106743E+02
      9.65272557E+01     -1.23056858E+03     -1.00635344E+03
     -3.17392357E+01      2.58265106E+02      2.40987614E+02
      8.42478638E+02     -8.89783145E+01      6.61098923E+02
      7.14995609E+02      1.59836924E+02     -9.69074336E+02
     -1.86599799E+01      5.58974056E+02     -5.87484354E+02
     -6.06611635E+02     -1.50630716E+03     -7.68455100E+02
     -2.91255126E+03      1.76900025E+03      2.50857361E+02
      1.06037901E+02     -5.66255231E+01     -2.72828356E+02
     -2.12291930E+02     -1.48409775E+03      1.29729588E+03
      2.53138862E+03     -8.92677589E+02     -1.63257796E+03
     -4.41835406E+01      7.41397063E+02     -9.41693976E+01
     -1.00211261E+03     -3.04299912E+03     -2.45685593E+03
      5.03185164E+02      2.49770512E+03      8.37375901E+02
     -1.40667898E+02      3.72216220E+02     -2.39744126E+02
     -1.13318450E+03     -2.22118001E+02     -7.57216844E+02
     -2.55266895E+02      6.97856168E+02     -1.15485150E+03
      7.30275736E+02      3.57605437E+02      5.16291941E+02
      2.50672245E+02     -1.52700348E+01      9.91986182E+02
     -1.39717303E+02      7.25792089E+02     -1.66353290E+03
      1.10125552E+03     -8.06327464E+02     -7.21965578E+02
     -6.78670150E+02      9.88650713E+02      4.94303973E+02
      6.01248015E+02     -9.40819337E+02      2.13834640E+03
     -8.00747777E+02     -4.51394609E+02      1.71966240E+03
     -2.92450977E+03     -1.98475444E+03      1.32797393E+02
      6.60553770E+02      3.04723102E+01     -2.80241815E+02
     -1.81502405E+03     -2.13641177E+03     -1.17676449E+03
     -1.28478950E+03      7.77734883E+02      2.26451404E+02
     -4.34664698E+02      8.60062910E+02      2.18339790E+02
     -1.60943552E+03      3.97708475E+02     -1.65964156E+03
     -7.11439607E+02      1.02732253E+03     -4.29833521E+02
     -2.32194736E+02     -4.81123472E+02     -6.89327111E+02
     -9.04952844E+02      9.22483401E+02      7.05323159E+02
      3.16735824E+02     -8.30182126E+02      3.01848995E+02
     -3.61068899E+02     -1.42790607E+01     -2.10793735E+02
     -1.73350030E+02      1.13436204E+03      4.52454270E+02
     -1.24918934E+03     -2.06878221E+03     -2.02540604E+03
     -9.42922446E+02      1.30190150E+03     -3.53436121E+02
      4.86064334E+03      4.36497058E+02      1.13441459E+03
     -2.48247544E+03     -8.83871871E+02      1.81569210E+03
      4.82247633E+02      6.77852725E+02      1.14155650E+02
      3.86782437E+02      2.87191303E+02      3.27150703E+03
      5.36607129E+02      1.01994791E+03     -7.01779716E+02
     -3.61963726E+01     -2.04090717E+02      2.55067356E+02
      5.65286169E+02     -1.06544472E+03      5.56427840E+02
      1.43605821E+03      7.82110953E+02     -2.82911660E+03
     -4.71899629E+02      6.35317367E+02      2.65236281E+01
     -4.28288784E+02      1.55895737E+02      1.32047383E+02
     -2.11403966E+03     -7.13220832E+02      8.62114939E+01
     -9.21479911E+02     -6.30863787E+01     -2.05179420E+02
     -2.33857429E+03      3.43276363E+02      6.99402115E+02
      1.29212339E+03      4.22349679E+02     -2.84204685E+03
      9.15764281E+01      2.50812943E+01      4.04453687E+02
     -8.39577783E+00      1.05534527E+02      2.73597370E+02
     -1.87532215E+03      2.28228739E+03     -5.59342609E+02
      5.54835699E+02     -2.03375559E+03     -8.22484521E+02
     -7.31012499E+02     -2.92226929E+03      4.32188531E+03
     -2.42739992E+02      6.51526328E+01     -3.94681006E+02
      8.84596984E+02     -9.03986715E+01     -2.83717627E+03
      3.27052619E+03     -1.34309504E+03     -1.16829347E+03
      1.46195744E+02      1.33295048E+03      8.44419258E+01
      1.28830723E+03      2.78934311E+02      7.73430826E+01
      8.02088701E+02     -1.29949310E+03     -1.46541021E+03
     -6.22934942E+02      6.78468768E+02      6.12928528E+02
      9.63614721E+02     -3.63156262E+03      1.88595364E+02
     -5.37648823E+02      3.12874616E+03     -4.35537380E+02
     -4.69442877E+02     -3.38700484E+02     -4.18464012E+02
      1.75578669E+02     -2.27523633E+03     -1.60947826E+03
     -5.01327647E+02      1.22089452E+03     -4.15435637E+03
      1.54256890E+04     -2.04061343E+04     -1.18532082E+04
      7.35903799E+02      3.55330844E+02     -2.69998688E+03
     -1.76873917E+03     -4.34869170E+02      2.73844967E+03
     -3.40913888E+02      1.10095225E+02     -1.47610379E+01
     -5.15504539E+02      3.29771468E+03      1.04340217E+03
      2.25861181E+02      3.36773900E+03     -1.02529748E+03
     -1.02334890E+02      9.20099167E+01     -6.99850762E+02
      8.54560101E+01     -9.36683983E+02     -4.00530732E+03
     -2.40185276E+03     -1.14033314E+03      1.42230300E+03
      1.85701566E+02     -5.91700424E+01     -1.43495489E+02
     -1.43804052E+03     -2.21658654E+03     -7.08317638E+02
      7.73601849E+02     -1.35740163E+03      1.03739385E+03
     -1.10772933E+03     -6.32322212E+01      3.24267543E+01
     -3.28093120E+03     -9.96479501E+02      3.80460710E+02
      1.52447819E+01      1.64834367E+03      2.37307727E+03
     -1.98749528E+03     -2.65959944E+02     -9.75256152E+02
      5.70757812E+00      6.37909186E+02      1.01066295E+02
      7.22787467E+02     -1.40875518E+03      1.02577971E+02
      1.19214460E+03      1.49236532E+03     -1.21419906E+03
     -2.59124773E+03      7.33053748E+02     -2.34609946E+03
  }
}

Hamiltonian = DFTB {
  SCC = Yes
  SCCTolerance = 1e-6
  MaxSCCIterations = 200
  ForceEvaluation = Dynamics
  MaxAngularMomentum = {
    C = "p"
    H = "s"
  }
  Charge = 0.0
  SpinPolarisation = {}
  Eigensolver = Standard {}
  Filling = Fermi {
    Temperature [Kelvin] = 300.0
  }
  SlaterKosterFiles = Type2FileNames {
    Prefix = "../../pbc-0-3/"
    Separator = "-"
    Suffix = ".skf"
    LowerCaseTypeName = No
  }
  KPointsAndWeights = {
    0.0000000000000 0.0000000000000 0.0000000000000 1.00000000000000
  }
  Dispersion = LennardJones { 
    Parameters = UFFParameters {}
  }
}

ParserOptions = {
  ParserVersion = 3
}
