Geometry = GenFormat {
<<< "system.gen"
}

Driver = VelocityVerlet{
  Steps = 100000
  TimeStep [fs] = 0.2
  MDRestartFrequency = 5
  Thermostat = None {
    #InitialTemperature [Kelvin] = 300.0
  }
  Xlbomd{ 
    IntegrationSteps = 6 
    MinSccIterations = 2
    MaxSccIterations = 200
    SccTolerance = 1e-6 
  }
  Velocities [m/s] {
      8.50331377E+02     -4.54437260E+02      1.12459881E+03
      1.42779034E+03     -4.43933954E+02     -6.79321109E+02
      1.07735103E+03     -5.62763714E+02      2.00712528E+02
      2.82675463E+02      3.25225624E+02      8.37577906E+01
     -9.14885948E+01      5.12835781E+01     -1.20134262E+03
     -6.29844693E+02     -1.30994385E+03      1.87187243E+03
     -9.36276846E+01      3.38502341E+02     -8.31524543E+01
      1.52222454E+03     -1.48511376E+03      3.99727030E+02
      3.41717882E+02      2.13559141E+03     -6.17863536E+02
      1.31578360E+02      7.09711404E+02      5.29284391E+02
     -3.90563794E+02     -2.18719267E+03      2.36405693E+03
      4.10323845E+02     -3.09492872E+03     -2.34210310E+03
      3.11355334E+02      3.58666450E+02     -2.13381222E+02
      6.28044770E+01     -9.67130226E+02      4.99809445E+02
     -2.71602252E+02     -2.36976212E+03     -9.03063033E+02
     -7.04641096E+02     -1.92771991E+02      5.16937308E+02
      1.42631489E+02     -2.14356368E+03     -8.25021987E+02
      1.72329762E+03     -7.24703324E+02      2.92507272E+03
      8.65431590E+02     -5.29434861E+02     -7.49000873E+01
     -4.40348458E+02     -1.91231480E+03      1.66970543E+03
     -1.94007476E+03      5.48875570E+02      1.92850358E+03
      6.22082185E+02      1.24584163E+02      6.26428144E+01
     -9.76244012E+02      1.38367518E+03      1.54693406E+03
      2.02013161E+03     -1.76549509E+03      2.00558257E+03
      3.37255403E+02     -1.00278660E+02      4.05995695E+02
      4.95535820E+02     -7.43519415E+02     -4.31781174E+02
      4.98805888E+02     -1.26921367E+03      6.44419564E+02
      1.16554349E+03      4.48554255E+03     -1.39840963E+03
     -8.30817802E+01      1.12626268E+02      1.54216001E+02
      2.65968105E+03      1.51452121E+03      1.91735615E+03
     -8.65529295E+02     -8.87379823E+02     -2.06605175E+03
      2.39792970E+02     -2.27834502E+03      1.72902230E+02
     -1.55793793E+02     -3.36669825E+01      2.26553716E+02
     -3.34912227E+02     -8.24793989E+02     -2.86372296E+01
      7.11623907E+02      1.10002903E+03     -5.91408731E+02
     -9.31693339E+03      8.35554776E+03     -2.51614866E+04
      4.76641894E+02     -3.83725933E+02     -1.18280934E+03
      1.78999099E+03     -4.01484383E+02      1.09217468E+03
      3.09812074E+02      4.48870070E+01      9.68918206E+01
     -3.15593626E+03     -1.66931151E+03     -3.29296047E+03
      3.25019253E+03     -2.73077232E+03     -1.68832487E+03
      5.20864817E+02     -7.24126375E+02     -2.77221421E+02
      1.21492211E+02     -3.26064482E+03     -1.14258699E+03
     -4.05135827E+02     -3.07904859E+03     -5.50104363E+02
      5.70509445E+02      4.91669004E+02      6.67362894E+01
     -2.62929423E+02     -1.02311933E+03      1.68980029E+03
      2.38933909E+03      3.49018783E+00      2.10403424E+03
      5.33802387E+02     -1.43321109E+02      4.32132843E+02
      1.80044521E+02     -1.06220700E+02      7.00278302E+02
     -4.23418088E+02     -3.53559241E+02      1.75089138E+03
      4.49541014E+01      5.28780447E+02      1.34173415E+01
     -1.49968548E+03      1.50085202E+03      1.58184100E+03
      8.29847377E+02     -8.04704621E+02      3.12825629E+02
      4.56544815E+02      4.07171752E+01      3.06917577E+02
      2.49491503E+02      2.22948011E+03     -4.10184120E+03
      1.34256395E+03      2.37249791E+02     -2.51081319E+03
     -1.79526289E+02     -5.07386320E+02      7.20552942E+02
     -1.76675256E+02     -2.45596751E+03     -3.94535871E+02
      2.60730830E+03      1.92274321E+03     -1.79848977E+02
      4.07537889E+02      2.12874733E+03      4.72394723E+02
     -3.46632577E+02      4.85428285E+02     -6.20500635E+02
     -2.87013702E+03      1.52401724E+03      8.25106108E+02
     -1.64372989E+03      1.79843898E+03      6.95336634E+01
     -8.83504443E+02      2.09505680E+02      5.58381847E+02
      5.99740858E+01      9.47358977E+01      8.91220537E+00
      1.63525909E+03     -1.01005362E+03     -4.15277870E+02
     -1.56961005E+03     -1.15138427E+03      2.65376463E+03
      1.15806948E+02     -1.91098333E+02      3.03309187E+02
     -1.11622535E+03     -4.37598506E+02      1.63515688E+03
      2.40389910E+03     -1.91589082E+00      6.93067217E+02
     -2.80828861E+02     -8.34988270E+02      2.30519403E+02
      9.75289682E+02      7.84217057E+02     -6.95126381E+02
      1.12114008E+03     -7.84613299E+02      1.06712087E+03
     -1.98774834E+02     -1.56337379E+02     -2.79471751E+02
     -1.42599785E+02     -1.46104532E+03      9.13444915E+01
      7.83045144E+01      1.51216246E+03     -7.69017628E+02
      6.31242313E+02     -3.15736702E+02     -1.30371235E+01
      4.35843192E+02     -1.39788530E+02     -6.74062921E+02
      2.70191431E+02     -1.80004854E+03     -1.16402310E+03
     -5.44937004E+02     -5.37086684E+02     -6.82079660E+02
      2.57044400E+03     -8.00728525E+02      1.65691055E+03
      7.93295370E+02      1.22623925E+03      2.02601261E+02
     -5.44601457E+02      7.75227878E+02      1.03541898E+03
      8.32627505E+02     -3.55871514E+02     -1.76571250E+01
     -8.58078635E+02      1.22164642E+03     -1.19590723E+02
      9.16036913E+02      6.68534654E+02     -3.13187241E+02
      2.22567697E+03     -1.57932642E+03     -9.39279811E+02
      2.54324551E+03     -1.21434002E+03      2.71218209E+03
      7.28102638E+02     -2.98051960E+02      1.54950590E+03
      9.52668873E+02     -2.16332559E+03      2.03838902E+03
      8.50080602E+01     -2.35532455E+03     -6.17378676E+02
     -2.37089712E+02      1.38838361E+03     -3.04536334E+02
     -2.16893723E+02     -6.85655452E+02      9.93008144E+00
      1.32853364E+03     -2.48139890E+03      1.16792718E+03
      1.10970622E+02      5.05495290E+02     -2.63292717E+03
     -1.01839320E+03     -1.12241897E+02     -3.67860024E+02
      8.84806533E+02     -1.07522142E+02     -6.52915185E+02
     -2.64059549E+02      2.40281721E+03      1.76248731E+03
      1.76916973E+03     -2.85910646E+03     -1.04230431E+03
      3.77255827E+02     -7.55899171E+01     -5.18281610E+02
      6.72812307E+02      1.51188310E+03      4.03557282E+02
      3.11885981E+03     -5.76756894E+02      1.83186979E+03
      4.16805948E+01     -3.49835394E+02      5.57917418E+02
      1.31902082E+03      1.03841223E+03      6.30379785E+02
     -8.72128189E+02     -1.31328151E+03      3.82595803E+02
      1.82848757E+02     -2.77340492E+02      4.43916357E+02
      1.19912731E+03      1.83345180E+03     -4.88266690E+02
     -1.98386745E+03      9.75613318E+02     -2.00009568E+02
      8.33000568E+01     -5.74756493E+01      5.56769993E+02
     -2.08562658E+03     -8.87711185E+02     -1.73641355E+03
     -7.50087662E+02      2.49736412E+03      3.50235986E+03
      7.45486671E+02     -3.35263466E+02      2.48348598E+02
      1.22755391E+02     -1.52872931E+03      2.96517397E+03
      4.22990521E+02      1.15223039E+03     -1.87548335E+02
     -1.52026565E+02     -1.45611151E+02      5.11640506E+01
     -1.21438820E+03     -1.93278413E+03     -3.46786750E+03
      2.09801846E+03     -2.62658048E+03     -5.52951807E+02
      1.11896833E+02     -1.04196909E+02     -2.08867344E+01
      1.86488959E+03      7.36874673E+02      1.16856023E+03
      1.61492582E+03      8.38448711E+02      3.18650400E+02
      4.24663513E+01      7.73511969E+01     -1.32809438E+02
     -8.58375913E+02     -6.10525132E+02      2.90782085E+03
      4.81900003E+02     -1.08480463E+03      3.33354650E+03
      6.78434488E+01      5.48974783E+02      2.16083325E+03
      2.81445527E+02     -9.49660494E+02      4.69952574E+02
     -1.50796231E+03     -2.18162798E+03      1.58494240E+03
     -2.28593065E+03      3.65934555E+03     -2.79759034E+03
     -1.83867944E+03     -1.71763737E+03      8.99117449E+02
     -3.97779949E+02      1.05206768E+02      8.09650616E+02
     -7.46588106E+02      3.29460518E+03      1.45526741E+03
      5.51745970E+02      1.02768670E+03     -3.84089630E+02
      1.08982864E+02     -6.86823327E+01      2.24627603E+02
      2.92583135E+02      1.27225426E+03     -3.32151878E+02
      9.87998642E+02      3.48116942E+02     -7.61045354E+02
     -5.36529060E+02     -1.02873874E+03     -7.61096824E+02
     -2.23314919E+02     -2.93414684E+03     -4.65595273E+02
      2.32721745E+03     -4.31054136E+01     -2.40155783E+03
     -1.89387337E+02      3.07794271E+02     -1.14592929E+02
     -2.51356082E+02      1.20909399E+03     -1.72844243E+03
      1.25237948E+03      1.30334553E+03     -1.17613493E+03
     -6.83421167E+00     -1.72863418E+02      6.66345203E+02
      2.17665497E+02      1.88940489E+03      8.88765973E+02
      1.17650276E+03      3.93844205E+02     -3.67392745E+02
     -2.52031054E+02      7.38433161E+01     -3.52609229E+02
      2.56778504E+03     -9.04600133E+02     -1.94778718E+03
      2.41860585E+02     -1.11718355E+03     -8.27572715E+02
     -6.10094809E+02     -2.97416865E+02      3.59640837E+02
     -1.36935905E+02      4.69096193E+02      2.19646636E+03
     -1.87917666E+03      1.67460225E+03      1.49547360E+03
     -3.13663344E+01      1.11997741E+02      9.19316252E+02
      2.88260025E+03      5.43300789E+01     -1.24355319E+02
      1.92278260E+03     -1.34681759E+03      1.11773584E+03
      5.29777475E+02     -2.81622836E+02      4.14658496E+02
      1.28152297E+03      5.63489802E+02     -7.30887793E+02
      1.00563680E+02     -2.73694308E+03     -2.47594068E+02
      1.31976757E+03     -5.00926517E+01     -9.07292266E+02
     -3.92745348E+02      4.34865171E+02      8.33064941E+02
      7.70176373E+02     -1.25425740E+02     -2.57758678E+03
      2.11663571E+02      2.58277446E+03     -3.07859201E+02
      1.52167870E+03     -5.17432337E+03     -6.70020569E+02
     -5.48259846E+02     -5.43053536E+02      3.27465172E+02
     -3.88561915E+02      2.76485851E+02     -1.35317633E+02
     -1.48099615E+03     -5.13153953E+01     -8.27318747E+02
      6.39650741E+02     -7.41360060E+02      3.74276266E+02
     -1.08554946E+03     -1.56764841E+03      9.60347773E+02
     -1.52755189E+03     -2.40034501E+03      1.68621345E+03
      9.52904236E+02      1.71766076E+02      5.70527168E+02
      5.21471748E+02     -1.58795331E+03     -5.70223561E+02
     -1.17380961E+03      6.45667981E+02      1.99665994E+03
     -5.50335549E+02     -3.30851842E+01     -9.84108459E+02
      3.13026419E+03     -9.11065766E+01      3.89062991E+02
     -3.36427545E+01     -7.54917415E+02     -1.07477709E+03
      3.41824021E+02     -6.59709112E+02      6.04915270E+00
      3.05972519E+03     -4.64287629E+02     -1.22505839E+03
     -1.40027330E+03      2.14762070E+03      2.63314568E+03
     -5.33612562E+02      1.53148835E+02      4.07353363E+02
      1.55992580E+02      7.31917286E+02      1.85986717E+03
      1.02041063E+02     -8.79216949E+02     -2.71438894E+03
      8.93259537E+01      2.32389690E+02      2.91239844E+02
     -2.14855192E+03     -1.32356695E+02      2.73044158E+03
     -3.14075225E+03     -4.02572649E+02      2.51814296E+03
     -2.36089331E+02     -3.66365148E+02      2.32841228E+02
      1.66021873E+03      3.69225034E+02      2.08843944E+03
      6.92028600E+02      1.17076831E+03      7.01930213E+02
      5.54693985E+02      1.00303085E+01      6.36646590E+02
      3.64386752E+01      1.07871797E+03     -9.53115780E+02
     -2.83634136E+02      7.65563390E+02     -1.05654178E+03
      1.88858162E+03     -1.28473294E+02      1.39143323E+03
      6.74969918E+01     -1.33968073E+02     -1.64534237E+02
     -4.05905244E+02      7.35852461E+02      1.42701576E+03
      1.95895099E+03     -4.86012668E+02     -1.28452086E+03
     -8.59185419E+02     -4.04532333E+03      8.36610353E+02
      3.95085987E+02      1.11432513E+02      1.09002848E+03
     -8.67658770E+02     -1.12476369E+03     -1.30044800E+02
      4.82363102E+03      5.62830963E+01     -2.14306085E+03
      2.64470009E+02     -2.51331942E+02      4.70533838E+02
     -2.15330395E+03      1.11113708E+03      2.57613184E+02
     -1.42437882E+03      6.43912845E+02      2.53964153E+03
     -2.46421484E+00      8.40939537E+02      6.66896448E+02
      9.76682688E+02      5.65457257E+02     -1.11667160E+03
      2.30474474E+03      6.93309110E+02      2.59936899E+03
     -1.35755297E+02     -6.86370962E+02     -4.17911978E+02
     -1.02225291E+03     -6.83339048E+02     -8.08789529E+02
      4.72965320E+02     -1.29856954E+03     -3.05109076E+02
      4.93884339E+02     -2.48020199E+01      1.70160798E+02
     -4.67177759E+01      2.56551025E+02     -8.31593424E+02
      1.80056573E+03     -4.26550127E+02      1.55101544E+03
     -2.76076292E+02     -3.24407599E+02      7.08821810E+02
     -2.79843839E+03      4.15776166E+02      1.14208475E+03
     -3.97634876E+02     -1.21834155E+03     -2.31733955E+03
     -5.03729126E+01     -6.89092611E+02      7.58237254E+01
      1.78782686E+03     -3.90049469E+02      1.55379250E+03
     -8.08815383E+02      8.09982159E+02     -1.39370462E+03
     -3.66123676E+02     -9.28967736E+01      1.30709971E+02
     -3.61558133E+03     -1.12409834E+03     -2.06770591E+02
      1.94501677E+03     -7.56146492E+02      3.71664438E+02
      4.87730458E+02      2.35928100E+01     -6.84991976E+02
      2.50691661E+03      6.57367056E+02      7.49142348E+02
     -8.80978021E+02     -4.67692775E+01     -1.52366743E+03
      6.28779700E+02     -1.17142848E+03      2.64675723E+03
     -5.75227258E+02     -2.32245768E+02     -4.09193087E+02
      7.26711361E+02      9.69070107E+02      8.01067239E+02
     -1.15261011E+03      9.61286104E+02     -1.94571381E+03
     -4.21061192E+03      2.30866326E+03     -8.66682087E+02
     -4.38827627E+02     -4.12160969E+02      6.78139471E+01
      4.04057837E+02      1.96103391E+03      5.76047973E+01
     -1.73687246E+03     -9.63999250E+02      1.14300177E+03
      2.79816302E+02     -7.58673421E+02     -6.86586091E+01
      2.96408055E+03      2.00498139E+03      1.31797701E+03
     -2.25947269E+03      4.55440926E+03     -1.97335540E+02
     -4.50239589E+02     -3.12526631E+02     -4.61984930E+02
      1.67473702E+03      4.36875344E+03      4.84814093E+02
      1.45746349E+03      1.64517157E+03      1.66116906E+03
     -1.42355750E+02      3.37960735E+02      1.15160068E+03
      1.59641253E+03      5.17068746E+02     -7.47521026E+01
      1.43472234E+02      3.48908087E+03      1.99105939E+03
      9.39918080E+01      1.95637505E+02      2.46228351E+02
      2.15005097E+03     -1.17799765E+03     -2.08022066E+03
      6.12877751E+02     -2.17109629E+03      6.71712667E+02
      1.31922013E+02      2.81769543E+02      8.06110889E+02
     -1.34866571E+03      8.98503203E+02      2.66317194E+03
     -3.94131949E+02     -3.72569226E+02      1.53995308E+03
      2.96133416E+02      1.03080753E+03      1.70804208E+02
     -2.30620208E+03      1.70188721E+03      1.85188620E+03
      1.90512092E+03     -5.32075296E+02     -1.11724504E+02
     -3.56709575E+02      2.65017028E+02     -4.26073756E+02
     -1.56399431E+03     -1.04029957E+03     -2.37136674E+03
      1.36293611E+03     -1.58953067E+02      6.42741905E+01
     -3.87311808E+02     -9.91479599E+02     -1.44165629E+00
      1.23148834E+03     -4.40921024E+01     -2.39617948E+02
      1.26698382E+03     -5.10230540E+02     -3.24819593E+03
      1.87401225E+03      2.93076063E+03     -1.64785397E+03
     -2.52798178E+02     -2.33748825E+02      5.12874968E+01
     -2.25882043E+03      3.20533085E+03      1.48147033E+03
      3.98780897E+02      7.08753028E+02      6.95658415E+02
      1.55786631E+03     -4.59805424E+02     -4.26535761E+03
     -1.17567534E+02      3.69317397E+02      8.46436505E+02
      3.17604376E+03     -2.77757719E+03     -2.86657557E+02
     -2.92415094E+03      6.16319308E+02      7.07394590E+02
      2.26555266E+02      7.48679639E+02     -3.50616503E+01
     -4.94540112E+02      2.25790894E+03      1.98590374E+03
     -1.52145813E+03     -1.41776193E+03      1.90871534E+03
     -1.34632669E+02      1.34785790E+02     -5.55375584E+02
     -1.24535492E+03     -3.10680563E+02      1.93030883E+03
     -1.95081588E+03     -1.21069969E+03      1.24258047E+03
     -2.71700035E+02      2.38229055E+02     -7.21113420E+02
      1.88078892E+03     -2.06020760E+03      3.34202338E+03
     -1.10314652E+03      9.03778109E+02     -3.64730633E+03
      1.49399811E+02     -3.64370358E+02      2.02056951E+02
      1.15011682E+03     -1.31185039E+03      3.30697849E+02
     -1.06247458E+02     -2.84309561E+03      1.05227855E+03
      3.40533047E+02      1.85349327E+02      3.25245094E+02
     -1.29406505E+03      1.04031069E+03      1.10005547E+02
     -1.78685321E+03      2.50807360E+02      8.74910106E+02
      1.38576068E+02     -1.69734864E+02      4.87216119E+02
      9.02490274E+00      1.69628627E+03      3.19141738E+03
     -1.19008390E+03      4.17478052E+03      4.31797424E+02
     -1.32559294E+03      4.61557301E+02      1.60724266E+02
     -1.71906103E+03      8.79830279E+02     -1.04300916E+03
      6.92553180E+02      2.92057752E+02      4.09103172E+03
     -1.01292938E+02      1.87931900E+02      1.34146113E+03
      7.43034355E+00      2.23433313E+03      2.53266996E+03
      3.23777760E+03     -2.50872043E+03      1.74434730E+03
     -1.36059955E+03     -8.08650806E+02      4.68422121E+01
     -2.70510621E+02     -7.12611568E+02      9.37181107E+01
      4.45240649E+02      1.74617604E+03      1.77569658E+03
     -1.45195124E+03      1.69166278E+03      5.73876820E+02
      4.96169677E+02      2.09727957E+03     -4.42586834E+02
     -1.55099527E+02      5.41350777E+02      3.28098418E+01
     -1.73852417E+03     -6.68423401E+02      4.04728055E+02
     -5.21959152E+02      2.02630531E+03     -2.76190603E+03
      1.82679846E+02      6.15409002E+02      7.32789450E+02
      2.11845354E+02      3.35051137E+03      3.76722123E+03
     -2.42656100E+03     -1.58907583E+02     -3.18634846E+03
     -1.80798404E+02     -2.92210589E+02     -6.69072601E+01
     -8.90216010E+02     -1.53400110E+03     -9.03022871E+02
      7.14742580E+02     -1.96330353E+03     -1.01079526E+03
     -1.79381337E+02     -2.12438641E+02     -5.01233862E+02
      4.08252860E+02      2.49724093E+02     -8.17930729E+02
      1.95415473E+03     -8.91732493E+02      1.07023197E+03
     -4.98905772E+02     -3.54013330E+02      1.03675871E+03
     -2.74606134E+02     -8.35671760E+02      1.33205312E+03
     -1.41669656E+03      6.72201987E+02      7.53898511E+02
      8.96829370E+02      4.85188393E+02     -1.50911922E+01
      6.98401061E+02     -9.75937920E+02     -1.92450162E+03
      1.58691649E+03      1.18593686E+03     -1.10509972E+03
      6.75092546E+02      1.25928266E+02      5.28831734E+02
     -1.46910921E+03      1.87412185E+03      1.95992980E+03
      1.00824838E+03      1.13087618E+03     -1.45117796E+03
     -2.52726211E+02      2.30632763E+02     -3.28007210E+02
      1.46933876E+03     -2.30762962E+03     -3.91865854E+03
      1.79796064E+03     -1.37018537E+03      4.48121150E+02
     -1.90254461E+02     -7.28509658E+02      3.26732058E+02
      1.22324140E+03     -1.10386753E+03     -1.64308981E+03
      1.89224717E+01     -1.98594222E+03     -3.15222733E+03
      2.43146494E+02      2.28714470E+02      2.00052063E+03
      8.86814649E+02     -7.67512877E+02      7.42646914E+02
     -8.19831308E+02      7.08814458E+02     -5.04306586E+02
      1.15304565E+03     -9.24152135E+01     -9.90353381E+02
     -4.65275752E+02      1.36956191E+03      9.10037695E+02
     -8.78108229E+02      1.41794374E+02      4.48274431E+02
      5.01890496E+03     -8.88517286E+01      3.33636544E+03
     -2.48002427E+02     -1.95094263E+02     -8.93634524E+02
     -2.22736029E+02     -2.06053237E+01      8.91418068E+02
     -6.11263624E+02      2.95552242E+02     -1.96652774E+03
     -1.74072781E+03      1.09558532E+03      1.06254494E+02
      2.79588877E+02     -2.68849086E+02     -2.91213712E+02
      4.97559064E+02      2.59416597E+03      9.04672317E+01
      4.48792761E+02      7.00594448E+02     -1.21005158E+03
      8.11482005E+02      4.46254651E+02      7.19496335E+01
      6.61599843E+01      2.56887810E+02      4.36277096E+01
     -7.10016481E+01      7.14093148E+02     -1.57835575E+02
     -4.32986905E+02      1.59761610E+02     -3.46508846E+02
      1.76417383E+03      5.83221397E+01      2.51304758E+02
     -2.52958301E+03     -5.04559967E+02     -2.34541162E+03
      6.00091471E+01     -6.64122505E+02      9.84756846E+02
      6.45666828E+02      8.64349790E+02      2.09252732E+03
     -1.75996244E+03     -1.71376497E+03      2.17665323E+03
     -8.30481396E+02      5.82976843E+02      5.80131559E+02
     -2.63701118E+03     -2.02861850E+03     -7.26569813E+02
      2.08387791E+02     -1.06478684E+03      1.30376298E+03
      2.84940964E+02     -3.77198192E+02      2.93648862E+02
      6.21009816E+02     -1.07264040E+03     -2.88847965E+03
      7.97130236E+02     -2.46868677E+03      1.43716934E+03
      4.80586271E+02     -3.25603059E+02     -1.05355479E+02
      7.36798038E+02     -2.61156555E+03      1.37182679E+03
      2.14226849E+03     -8.37331210E+02      2.21056721E+01
      5.28934877E+02     -8.67087840E+02      1.52586339E+03
      4.68318781E+02      3.58970634E+02     -1.88845182E+02
     -6.69101502E+02     -3.59140635E+03      2.00147074E+02
      2.13281685E+03     -4.92190206E+02      1.91398044E+03
     -2.28703683E+03      6.00355052E+02      1.89672310E+03
  }
}

Hamiltonian = DFTB {
  SCC = Yes
  SCCTolerance = 1e-6
  MaxSCCIterations = 200
  ForceEvaluation = Dynamics
  MaxAngularMomentum = {
    C = "p"
    H = "s"
  }
  Charge = 0.0
  SpinPolarisation = {}
  Eigensolver = Standard {}
  Filling = Fermi {
    Temperature [Kelvin] = 300.0
  }
  SlaterKosterFiles = Type2FileNames {
    Prefix = "../../pbc-0-3/"
    Separator = "-"
    Suffix = ".skf"
    LowerCaseTypeName = No
  }
  KPointsAndWeights = {
    0.0000000000000 0.0000000000000 0.0000000000000 1.00000000000000
  }
  Dispersion = LennardJones { 
    Parameters = UFFParameters {}
  }
}

ParserOptions = {
  ParserVersion = 3
}
