Geometry = GenFormat {
<<< "system.gen"
}

Driver = VelocityVerlet{
  Steps = 50000
  TimeStep [fs] = 0.2
  MDRestartFrequency = 5
  Thermostat = None {
    #InitialTemperature [Kelvin] = 300.0
  }
  Xlbomd{ 
    IntegrationSteps = 6 
    MinSccIterations = 2
    MaxSccIterations = 200
    SccTolerance = 1e-6 
  }
  Velocities [m/s] {
      6.13760425E+02     -5.59004979E+02      4.88859997E+01
      2.93104045E+02      2.03826158E+03     -1.36069261E+03
      2.47540581E+03     -1.43081766E+03      3.83821465E+02
      2.07194119E+02      1.43450045E+01      3.91408592E+02
     -1.01613229E+02     -1.82911401E+03      9.98659092E+02
      6.31388593E+02     -3.21425235E+03     -1.80084456E+03
     -1.85057896E+02     -6.48628629E+01      4.99368226E+02
     -1.50378573E+02      3.97417758E+02     -3.35193429E+02
     -2.83311729E+03      2.10910948E+02     -7.36562262E+02
      5.78442296E+02      4.01656994E+02     -3.55923052E+02
     -1.62332525E+03     -2.62461741E+02      1.47609081E+03
      5.56516876E+02     -3.60328793E+03     -8.85717633E+02
      4.55968410E+02      2.79486512E+01     -4.21333325E+02
      1.26839791E+03     -1.63693227E+03     -8.04259195E+02
     -5.09529351E+02      3.57569716E+03      1.09928494E+03
      1.36937021E+02     -4.06843935E+02      2.21445930E+02
     -4.54345692E+02      1.25249560E+03     -1.55287749E+03
      8.08407460E+02     -2.15927600E+03      1.73683285E+03
      3.78149685E+02     -7.53070520E+01     -9.73588042E+01
     -1.39662420E+03      5.57695001E+00      4.17160179E+02
      1.84935184E+03     -3.40809104E+03     -9.10810242E+02
     -2.15840227E+02     -1.51855640E+02     -5.52802223E+02
     -1.28678643E+03     -1.56505548E+03      1.26804000E+03
      2.22565396E+03     -1.96754459E+02      1.47559771E+03
     -1.25661404E+04      5.29989056E+03      1.69220731E+04
     -1.30218264E+03     -8.61203292E+02     -5.24532172E+02
     -3.28466479E+02      1.48850681E+03      2.83679538E+03
     -4.47686446E+02      1.61419840E+03     -1.82040715E+03
     -5.16163580E+02      1.49219242E+01     -2.59325720E+02
      1.98337577E+02     -3.04420577E+01      5.44469878E+02
      8.20732615E+02      1.51543830E+03      3.29029083E+03
     -7.07701970E+02      5.16176419E+01      2.71134840E+02
      2.59642193E+02      1.83204592E+02      2.43410676E+02
      4.74081542E+03      6.25007069E+02     -5.08114315E+02
      4.72487890E+01     -3.68343279E+02      1.86219708E+03
      3.57698110E+02     -1.88252582E+02     -1.19874267E+02
      7.71652914E+02      8.48337668E+02      1.07674375E+03
     -1.18317743E+03      5.76729732E+02     -1.07470126E+03
      1.26435730E+02     -3.16711517E+02      2.21588736E+02
     -7.77990345E+02     -1.40584848E+03     -8.78402375E+02
      1.22780001E+03      3.30836622E+02     -3.54444870E+02
     -4.73165295E+02     -9.17286838E+02     -8.79742139E+02
      1.88367072E+01     -2.02502071E+03      5.94453145E+02
     -9.21924548E+02      2.61902665E+03      1.07093368E+03
     -5.09796104E+02      2.08048259E+02      8.09551242E+02
      2.29914183E+03      2.23770212E+03     -1.46732944E+01
     -1.47133552E+02      7.38015664E+02     -1.72040889E+03
      3.10349708E+00      1.86019484E+02     -3.45719101E+02
      8.50488670E+02      1.60488473E+03      1.54990357E+03
      1.13675345E+03      9.86970114E+02     -8.97992193E+02
      2.63316842E+02     -3.42202669E+02     -1.12967598E+03
     -1.19424696E+03     -2.00738508E+03     -4.54223282E+02
     -1.82970860E+03      1.52966985E+02      6.43729062E+02
      1.59576609E+02      8.34927621E+02     -8.89923833E+01
      3.20076784E+02     -2.28326629E+03     -1.91904120E+03
      2.66517628E+03      1.02470756E+03      7.35390298E+02
     -5.76347168E+02      6.53094184E+02     -1.40414111E+02
     -2.93070670E+03     -1.35552000E+03      1.13863277E+03
      9.25621505E+02     -3.45637582E+03      2.00873204E+02
     -3.35917544E+03      1.84795305E+03     -1.46056164E+03
      1.07647021E+03     -4.24862387E+02     -6.30942191E+02
     -4.91179618E+02      1.20644729E+03     -6.53244743E+02
      2.33657628E+03     -9.15293671E+02      5.90421995E+02
     -1.85126757E+03     -7.39536086E+02      2.01315078E+03
     -2.28471846E+01      4.23652929E+02     -5.41334944E+02
     -4.34393395E+03     -1.55174309E+02      3.40831083E+02
      3.10502085E+03     -5.18240762E+02     -3.83389670E+01
      3.26283876E+02     -5.56387474E+02     -7.98945550E+02
      5.96642041E+02      1.06850679E+03      3.70684671E+02
     -4.25491277E+03     -1.27828153E+03      2.65228498E+02
     -8.19394124E+02      6.42482159E+02      8.86083720E+01
      1.85642436E+03      2.13824866E+02      2.44425318E+02
     -1.01454446E+03     -1.34742794E+03     -5.63951512E+02
      1.21218252E+03     -2.70027868E+02      4.93180387E+02
      1.18598407E+03      1.21758488E+03     -9.10079337E+02
     -3.82458092E+02      9.12074708E+02      2.00802745E+03
      3.27452707E+02     -5.17654437E+02     -1.76102683E+02
     -2.13839180E+02     -4.08681903E+02     -4.55251539E+02
      1.55860698E+03     -3.88381942E+02     -8.38175609E+02
      8.33547083E+01      1.51298966E+02     -3.84173670E+02
      1.25738923E+03      7.80816445E+02      3.34392688E+01
      2.14037310E+03      4.48759427E+00      8.51763998E+01
      3.25029151E+02     -2.83560823E+02      2.46144653E+02
     -6.22444711E+02      5.14736468E+02      2.21483196E+03
     -1.91650052E+03     -1.44441210E+03      2.69151733E+03
      4.15800906E+02     -2.74211667E+02      7.02610700E+01
     -2.18935694E+03      7.17104934E+02     -4.00467556E+02
     -3.68493203E+02     -8.92130632E+02      1.95258142E+02
      9.82223104E+01      4.88879583E+02      3.96944017E+01
     -2.83485708E+03      2.81426781E+01      2.05341496E+02
      2.78057241E+03      1.48709449E+03      2.73115583E+03
     -3.24462819E+02      1.30661818E+03     -1.65384862E+03
     -1.26527131E+02     -3.90130931E+02     -3.74518068E+02
     -1.45763053E+03     -8.67360797E+02     -4.97361969E+02
      2.36929135E+03     -8.14881674E+01      1.94723708E+03
      2.59678056E+02     -8.46484502E+02     -2.40284200E+03
      4.99201678E+02     -3.90346583E+02     -2.67873865E+02
      2.06033453E+03      1.07634102E+03     -1.40033232E+03
     -1.33653511E+03      1.93093419E+03     -7.90310554E+02
      1.63096435E+02     -6.24378006E+02     -1.13089730E+03
      8.76074050E+02     -2.99336091E+03      1.49176190E+03
     -1.85399210E+03      2.21154734E+03     -2.13088475E+03
     -9.00039467E+01     -1.31964583E+02      5.68510168E+02
     -1.76969940E+03      1.16223882E+03     -5.11509127E+02
      5.61888418E+02      8.98714787E+02      8.92927236E+02
     -1.38977647E+02     -6.81759878E+01     -4.14895128E+01
      1.19049865E+03     -9.11384916E+02     -1.70183893E+03
      1.83618696E+03     -8.34580105E+02      1.16025195E+03
     -4.26713765E+02      6.92397263E+02     -5.52127102E+02
      1.26008812E+03     -4.10927947E+02      4.52702375E+02
     -3.65861334E+02     -9.64633467E+02      2.77039335E+03
     -5.01917308E+02      7.47798092E+01     -7.51972565E+02
     -3.49312363E+03     -1.33983687E+03     -2.70425375E+03
      8.89840828E+02     -1.86222641E+03     -2.51376739E+03
     -5.26153498E+02      6.45007394E+01      9.94211917E+02
     -1.09286958E+03      3.11673764E+02     -1.06546566E+03
     -1.02138660E+02     -1.31612681E+03     -9.17983750E+02
      2.30935833E+01      1.42977623E+02     -7.00870464E+02
      4.27822764E+02     -1.32672090E+01      7.35089599E+02
     -5.81967739E+02      8.08298966E+02      1.04259530E+03
      2.02159844E+02      1.79975876E+02     -6.32355574E+01
     -1.30756257E+02     -7.12641378E+02     -2.81777286E+03
     -1.75203068E+03      1.85917417E+03     -3.06919856E+03
     -1.36182773E+03     -1.97162280E+03      1.38459673E+03
     -2.21015814E+01     -2.51053109E+02      3.90851727E+02
      6.93958695E+02      1.17471462E+03      1.42605208E+03
      9.08266911E+02     -2.60701514E+03     -7.90324023E+02
      1.05111248E+03     -1.07519461E+03     -5.68452118E+02
     -1.46412342E+02      8.43190079E+02     -1.73443796E+02
     -8.23383207E+02      2.06557377E+03     -1.89624122E+03
      8.81302683E+02     -1.49432472E+03      1.91095306E+03
      8.20899689E+02     -2.38203633E+02      6.06664025E+02
      2.48675272E+03      9.67901711E+01      3.67679166E+02
     -2.61691493E+03      1.40510420E+03     -2.16716403E+03
      7.28587753E+02     -3.78950256E+02     -1.97531865E+02
     -5.61470397E+02     -1.68398365E+02      1.58100354E+03
      1.36351898E+03      2.29409918E+03      7.84048148E+02
      9.27990674E+01     -3.22532305E+02      9.67380502E+01
      9.54483155E+02     -2.06521922E+02     -2.90262797E+02
      4.14304798E+02      2.08679842E+03     -5.73022120E+02
      2.36323997E+02     -1.46185481E+01      1.55708694E+02
      6.39640937E+02      1.80220936E+02     -2.51040465E+03
     -1.18114347E+03     -6.75943671E+02      1.11829380E+03
      8.33787264E+02      2.11032220E+02     -4.73606158E+02
      8.54183262E+02     -5.91495732E+03     -1.03689856E+03
      2.45501516E+02      1.03249537E+03      1.52477627E+02
     -4.93045225E+02     -9.91222356E+02     -8.12853129E+02
     -5.81854220E+02      1.16639478E+03     -1.19419948E+03
      4.24386897E+01      6.13371129E+02     -3.48125293E+03
     -1.23414597E+02     -3.17747771E+02     -1.31492610E+03
      4.36677446E+02     -7.00567168E+02     -2.71265441E+03
     -1.53073135E+03      2.84325860E+03      4.32950733E+02
      3.72902059E+02     -4.22452497E+02      3.14327115E+02
      1.04381772E+03      1.24782437E+03      1.94042006E+03
      1.40475823E+03      1.80356752E+03     -4.43107891E+02
      1.00874851E+03     -2.43661437E+03      1.10792867E+03
     -4.78048482E+02     -7.47805074E+01     -5.46732920E+02
      2.47032481E+03     -7.42777560E+02      4.45927558E+02
     -1.83546689E+03      1.02135225E+03      8.70295739E+02
      1.31415094E+03     -8.88839175E+02      2.12077975E+03
     -3.81151884E+02      4.58353564E+02      4.85124513E+02
     -1.18767366E+03      3.41234357E+02      2.40602863E+03
      1.11711634E+03      2.29638120E+03      9.35985586E+02
      1.11609566E+03      8.37686157E+01      1.50317038E+02
     -1.79412234E+03     -4.63257308E+02      3.53595043E+02
      2.60861803E+02     -2.72084655E+03      1.52923548E+03
     -1.31888381E+02      1.73373507E+02     -4.73845916E+01
      5.76358939E+02     -1.70457608E+03      1.83866391E+03
     -2.74381793E+03     -1.13898463E+03      4.64494004E+02
     -4.08114418E+02     -6.62717964E+02     -1.89372480E+02
     -7.55753866E+02     -3.80498960E+02     -7.97584688E+02
      2.96705920E+03     -3.70064690E+01      1.24157929E+03
     -1.15829138E+02      2.78649116E+02      1.61511396E+02
     -1.93106425E+03     -4.01097077E+02     -2.03310852E+03
     -2.46758311E+03     -3.02555808E+03      3.83521894E+03
     -6.49375240E+02      2.07246107E+02     -1.91354895E+02
      1.98084559E+03      1.24235768E+03     -3.39773445E+02
      1.13469465E+03      2.08384722E+02     -7.22962070E+01
      1.93965569E+02     -1.41244275E+03     -2.15871479E+02
      1.43512372E+03     -1.27582318E+03      9.01150985E+02
     -1.72811629E+02      1.45905854E+02      2.76698634E+03
      4.64411497E+02     -7.58203441E+02     -5.83077642E+02
      1.95620047E+03      2.82238863E+03     -1.16245626E+03
     -3.36987664E+02      1.93214130E+03      4.16205168E+03
      5.69990364E+02      3.73082187E+02     -1.19196077E+03
     -1.40064022E+03      1.24563862E+03      9.14377890E+02
      1.25487836E+03      3.10850473E+01      4.19612433E+02
      1.34019958E+03     -2.99646505E+02     -8.08991235E+02
     -4.04514163E+02     -5.02817895E+01     -4.04176168E+02
      4.01443293E+02      2.50293929E+02     -2.67637017E+03
     -5.82063609E+02     -2.98015257E+03     -1.66356499E+03
      1.22816892E+03      6.76351482E+02      4.05994405E+03
     -1.40412808E+02     -3.57742728E+02      3.84135747E+01
      1.03383827E+02     -2.15620267E+03      2.79683567E+01
      1.70955663E+03      2.66177068E+03     -9.67912953E+02
     -1.47976576E+02      2.29969575E+01     -8.59952063E+02
     -2.59728586E+03     -1.06162206E+03      2.71452131E+03
      3.27989533E+03      1.52727645E+03      8.52430193E+02
      9.78679985E+02     -3.87623421E+02     -3.76981058E+02
     -6.03517674E+02     -4.40286928E+02      4.70049893E+02
      8.24845826E+01     -1.57170587E+02      1.52407458E+03
      1.62124218E+02      4.05358927E+02     -4.52725805E+02
     -9.82260322E+02      7.77377753E+02     -2.77190223E+03
      1.33541830E+03      2.62013013E+03     -5.27594897E+02
      1.34859873E+02      8.63685222E+02      6.97435498E+02
     -6.30004212E+02     -8.83041878E+02      9.76704692E+02
     -9.92921131E+02     -1.69665076E+02      9.37534221E+02
      1.13710476E+03      3.23621693E+02      3.22111100E+02
      3.25178789E+03      1.34319188E+03      1.81775808E+03
     -3.74192871E+02     -1.49463046E+03     -4.85342012E+02
      3.73307406E+02     -2.25096690E+01      6.70932011E+01
      1.78174571E+03     -3.71625161E+03     -4.13544532E+03
      6.77225280E+02      5.92975467E+01     -4.66442938E+02
      5.40158610E+02      2.02567312E+02     -2.95904979E+02
      1.73167039E+03      2.06133062E+03      1.82636753E+03
     -1.55582376E+03      2.59477491E+03     -3.33097548E+02
      1.24534668E+02      1.75346561E+02     -4.54153487E+02
      2.55483809E+03      2.65229508E+02      7.95034771E+02
     -2.70064011E+02     -1.26072912E+02      6.45187788E+02
      3.98737207E+03     -2.00036366E+02     -2.10158161E+02
     -6.73349575E+02      1.46765593E+02     -6.77102011E+02
      2.60370511E+03      2.92191553E+03     -8.58732287E+02
      1.62610586E+03     -5.04713816E+02      1.25607945E+03
      4.30315528E+02      9.94488690E+02      1.20422618E+03
     -1.89721540E+02      4.11499913E+02      2.54651097E+02
     -9.31671864E+02     -1.44446508E+03     -5.89316578E+02
     -1.24624720E+03     -1.91330487E+03     -9.16309013E+02
      4.26873249E+02     -1.01098591E+03     -3.08568776E+02
     -1.90370707E+03      7.67401088E+02      1.19327932E+02
      9.55354873E+02      1.66336287E+03      1.03952138E+03
      1.50480957E+02     -9.85780119E+01      2.90492606E+02
      2.18982693E+02      1.35947616E+03      5.77079892E+01
     -1.73816189E+02      1.22026209E+03      9.18308712E+02
      1.29070553E+02      1.09004027E+02     -2.59902163E+02
     -1.46974623E+03      1.25927431E+03     -5.65990521E+02
      3.02804048E+03      2.25939443E+03      1.45587476E+03
     -5.64021956E+02     -7.65977183E+02      2.62966500E+02
     -1.22833165E+03      1.98797795E+03     -1.42531763E+03
     -1.02548570E+03     -1.04537541E+03      9.39096998E+02
     -1.28581298E+02      3.90558411E+02     -5.42161072E+02
      2.00261506E+02      1.74105324E+03      1.14970725E+03
     -1.86403343E+03      2.99251135E+03     -9.78291963E+02
      4.31307418E+01      4.64083525E+02     -1.13397811E+02
      1.74159310E+03      7.14268239E+02      5.53220695E+02
      2.28894979E+03     -1.27715182E+03     -2.61290314E+02
     -1.34491245E+02      5.90515326E+02      5.53620875E+02
     -2.15718291E+02      1.39628406E+03      1.89968452E+03
      1.33434664E+03     -1.15212641E+03      1.21396470E+03
      2.57471026E+02     -9.50481458E+01      5.42655305E+02
      4.78694789E+03     -1.08165309E+03     -2.27836062E+03
     -7.40047096E+02     -7.13360647E+01     -1.49863249E+03
     -5.52765285E+02      3.38522235E+03      2.68652058E+02
     -4.30377024E+02      5.91401739E+01     -3.93697753E+02
      1.21963769E+03     -2.09077232E+03      1.62330264E+03
     -1.56779530E+03     -2.58308130E+03      4.98736290E+02
     -3.06169056E+03     -5.41739951E+02     -2.54461557E+02
     -5.38799783E+02     -2.43767031E+02      4.41650238E+02
     -1.34747436E+03      1.30740439E+03     -1.40268989E+03
      9.48358805E+02      1.70221904E+03      9.86658979E+02
      2.81571785E+02      6.51467862E+02     -2.28535942E+02
     -1.19661463E+03     -1.92476179E+03     -1.23524317E+03
     -2.90760972E+02     -2.30860725E+03     -1.78484647E+03
      4.16567094E+02     -2.10839079E+02     -1.14821665E+03
     -1.66508117E+03     -3.57829032E+02     -2.68456770E+03
     -4.57731680E+01      4.12229690E+01      1.98546693E+03
     -4.92114487E+01     -1.85169056E+02      8.27665002E+01
      7.64476721E+02     -2.78422166E+02      1.46899966E+03
     -1.45528300E+03     -1.60862210E+03     -1.43465947E+03
      2.25386816E+02     -4.80287084E+02     -4.17277673E+01
     -8.55254707E+01     -1.64098704E+03     -6.71224942E+02
      2.07248570E+03     -1.00738164E+03     -2.24198010E+03
      6.75489987E+01      2.87488810E+02     -3.93105925E+02
      4.74443414E+01      1.97335883E+03     -4.70587230E+02
     -1.65506355E+03      3.02618840E+03      1.84943827E+03
     -1.77895860E+02      1.10915084E+02     -4.80113801E+02
     -2.01588824E+03      4.97175545E+02     -3.27541999E+02
     -1.55854779E+03      1.58195969E+03     -3.68188727E+02
     -1.68614559E+02     -3.07611080E+02     -7.52558389E+02
      1.15694877E+03     -1.33765885E+03      1.75218425E+02
      1.76653277E+03     -2.38837720E+03     -3.56909956E+03
     -3.66669241E+02     -2.24944014E+02     -7.10445823E+02
     -9.80202367E+02      1.07954573E+03     -1.71324986E+02
      3.62948996E+03      7.80778228E+02     -5.89683241E+02
      4.26209465E+02      1.12704052E+03     -1.45485097E+02
      1.67524243E+02      3.10906529E+02     -6.42620399E+02
      3.83323482E+02     -2.36041802E+03      2.83122678E+03
     -4.89462025E+02      1.36740067E+03     -1.40411901E+03
      2.00004995E+02     -3.61805190E+02     -7.10264777E+02
      5.88920605E+02     -3.09301210E+02     -8.94256255E+02
      5.63715572E+02      1.59122053E+03      2.32378771E+02
      2.02496128E+03     -1.01324980E+03     -5.96723870E+02
     -6.59012690E+02      1.52405312E+02      4.03116529E+02
     -5.94702062E+02      8.66042621E+01     -2.87413953E+02
     -1.00688321E+02     -2.09743595E+03     -2.48605382E+03
      6.57003136E+01     -1.64520225E+02     -5.97916807E+02
      1.74968013E+03     -1.62808122E+03     -2.13376849E+03
      5.41799057E+02      2.16459527E+03     -1.34493179E+03
      7.77170105E+02     -1.24762734E+02     -4.47402144E+02
     -1.43746323E+03      1.66400069E+03      3.53063486E+03
      3.30204898E-01     -1.14602772E+03      6.33708077E+01
      1.15052898E+02     -3.99240191E+02      4.43929002E+02
     -3.51450904E+03      4.28984439E+02      1.22188656E+03
     -6.43152939E+02      1.99846945E+02     -9.53620156E+02
      3.07232279E+02      1.68218253E+02     -1.23330272E+02
      2.26538523E+02      7.61264141E+02      1.81022983E+03
     -1.86300619E+03     -1.42293576E+03      2.32948068E+03
      3.98201870E+02     -6.84460795E+02      1.52974276E+02
     -8.76336033E+02      1.98870340E+03     -6.94268092E+02
     -3.32171071E+03     -5.73588073E+02      3.53454782E+02
      5.79915234E+02     -8.59774329E+01     -1.27218559E+02
      8.72232999E+02     -1.06411623E+03     -1.18433782E+03
      6.20210411E+02     -7.98814478E+00     -2.09932314E+03
     -8.69427115E+02      1.40946228E+02      7.02119845E+02
      3.66117276E+03     -2.91886961E+03     -1.73180593E+03
      3.69873436E+03      4.99923605E+02      3.61127672E+03
      1.68376428E+03      4.56916708E+02     -1.09652972E+02
      5.51405034E+02      1.88509776E+02     -5.87240782E+02
      2.41255967E+02     -5.17645716E+02     -1.18638220E+03
     -1.25257779E+03     -2.13250538E+02     -6.16002872E+02
     -4.19188649E+02     -7.34094264E+02      7.38864720E+02
      1.38250642E+03     -1.10692530E+02     -2.16170053E+02
     -4.20814829E+02     -1.88124052E+03     -3.45859556E+02
      9.27866728E+02     -5.22283368E+02      1.61413665E+03
      6.59294225E+02     -8.13389504E+02     -4.37046555E+02
     -1.23777414E+03     -1.86146110E+03      1.36610324E+03
     -9.66411361E+02     -1.04199571E+02      5.42665811E+02
      4.97826789E+02     -1.85420322E+02      1.73129427E+02
      2.72090823E+03     -8.18361394E+02     -3.48968145E+03
     -1.86235066E+02     -6.38718402E+02      4.92152554E+02
      1.99948704E+02     -1.02283094E+01      8.27800017E+02
      6.18240385E+02      2.03375650E+03      1.28498730E+03
      1.64957282E+03     -9.11193403E+02     -7.18168099E+02
     -4.56833020E+02      2.68274500E+01     -6.13893386E+02
      2.57964217E+03     -1.49648825E+02     -9.75709104E+02
     -7.57546849E+02      1.02965107E+03      1.63083031E+03
      1.71910856E+02      5.86312578E+02      3.01194496E+02
     -7.54355879E+02     -1.17276199E+03     -9.10483397E+02
     -2.03170123E+03     -5.71279478E+02      6.85999171E+02
     -3.01628191E+02     -2.01307300E+02     -3.48994215E+02
     -2.31294506E+03      1.99880207E+03     -3.59000167E+03
      3.30837755E+03      1.16524919E+03     -8.10260137E+01
     -1.13671549E+03     -6.89944465E+02     -1.27879976E+02
     -1.53887961E+02      2.35873109E+03      1.42606576E+03
     -3.33664211E+01     -4.82456186E+02     -2.44177490E+03
      4.37544165E+02      1.03228251E+03     -2.12254504E+02
      1.57978684E+03      1.01632708E+03      1.76721576E+03
      5.91498503E+02      1.89619400E+03     -1.48073107E+03
      2.57677633E+03     -2.06856930E+03      1.06669845E+03
     -5.58728994E+02      3.27113441E+02     -4.82050008E+02
      2.42482505E+03     -1.57133217E+02     -8.90273936E+02
     -7.72716395E+02     -4.90905127E+02      5.27739887E+02
     -1.39541014E+03     -2.85232581E+03     -9.70787692E+01
  }
}

Hamiltonian = DFTB {
  SCC = Yes
  SCCTolerance = 1e-6
  MaxSCCIterations = 200
  ForceEvaluation = Dynamics
  MaxAngularMomentum = {
    C = "p"
    H = "s"
  }
  Charge = 0.0
  SpinPolarisation = {}
  Eigensolver = Standard {}
  Filling = Fermi {
    Temperature [Kelvin] = 300.0
  }
  SlaterKosterFiles = Type2FileNames {
    Prefix = "../../pbc-0-3/"
    Separator = "-"
    Suffix = ".skf"
    LowerCaseTypeName = No
  }
  KPointsAndWeights = {
    0.0000000000000 0.0000000000000 0.0000000000000 1.00000000000000
  }
  Dispersion = LennardJones { 
    Parameters = UFFParameters {}
  }
}

ParserOptions = {
  ParserVersion = 3
}
