Geometry = GenFormat {
<<< "system.gen"
}

Driver = VelocityVerlet{
  Steps = 100000
  TimeStep [fs] = 0.2
  MDRestartFrequency = 5
  Thermostat = None {
    #InitialTemperature [Kelvin] = 300.0
  }
  Xlbomd{ 
    IntegrationSteps = 6 
    MinSccIterations = 2
    MaxSccIterations = 200
    SccTolerance = 1e-6 
  }
  Velocities [m/s] {
     -4.77358120E+01     -2.59716376E+02     -5.79864723E+01
     -2.08259019E+02     -1.03635210E+03     -1.31982923E+03
      7.38342479E+02      1.77246515E+03      1.21446881E+03
     -9.10772938E+02     -4.97883282E+02     -9.01203527E+02
     -5.08438476E+02      6.28890379E+02     -6.71935022E+02
     -3.05434279E+02      1.43070349E+03     -2.05454927E+03
      1.24071569E+02      2.45649487E+02      1.45166571E+02
     -5.40695848E+02     -8.87269870E+01      4.91183652E+01
      3.01514010E+03     -1.52248274E+03      1.40465287E+02
     -4.71061598E+02      6.84425352E+01      1.92365978E+02
      3.13400047E+03     -7.02085116E+02      2.08442619E+03
     -1.67062312E+03     -1.39617060E+02      2.43896494E+03
      6.48019711E+01      6.18650982E+02      2.47652606E+02
      4.09588057E+02      1.42761305E+03     -5.47551652E+02
      1.49721541E+03      1.71562744E+03      1.78405539E+02
     -4.14005988E+02      1.30824739E+01      2.09135367E+02
      9.15119658E+02     -1.42533385E+03     -5.47234832E+02
      9.14848908E+02     -1.89988568E+03      4.17842654E+02
     -5.59246595E+02      7.33758291E+02     -4.67952140E+02
      2.84371314E+03     -6.99601409E+02     -8.64745571E+02
      6.15880921E+02      1.61384297E+03      5.22810284E+02
     -1.76087839E+02     -6.01052890E+02     -2.35515936E+02
     -4.33629946E+03      3.17243446E+03     -1.52884773E+03
     -1.48576714E+03     -1.84027704E+03     -1.00734963E+03
      1.87258361E+02     -5.24248148E+02      4.80884793E+02
      1.10122202E+03      3.13664660E+02      1.42931673E+03
     -1.26090273E+03      7.28833429E+02      9.66818166E+02
     -1.78734123E+03     -1.10516563E+03     -3.50032927E+02
     -1.24923230E+03     -3.00450878E+02     -4.09931984E+01
      1.17091429E+03      1.76608739E+02     -3.32163247E+03
     -1.07500968E+02      1.25555560E+03      1.31488946E+03
     -2.47061398E+03     -1.65564373E+03      1.16788461E+03
      6.50280823E+01     -1.62205720E+01     -4.30908848E+01
      9.19219508E+02     -1.18170595E+03      8.68487446E+02
      3.63116496E+03     -1.43714888E+03      1.87788720E+02
     -1.45648242E+02     -9.69495364E+02     -1.96393829E+02
      1.21720736E+03     -3.10266633E+02     -2.42724656E+03
      7.74756395E+02     -1.65270544E+03     -5.73401548E+02
      4.62588735E+02     -9.11516533E+01      9.58249399E+02
     -2.96439508E+03      2.59192450E+03      1.65969682E+03
      1.26815912E+03     -7.25812810E+01      8.38610033E+02
      2.60314586E+02      5.66761662E+02      1.01109629E+02
      8.55740964E+02     -1.27864206E+03      1.87540915E+03
     -1.73532737E+03      8.26572850E+02      1.67817625E+03
      8.69320785E+01     -1.33060558E+02     -2.87094200E+02
     -8.85345050E+02      3.66376813E+02     -1.34240597E+03
     -1.98329554E+03     -1.88371469E+03      4.20866868E+02
     -5.93438654E+02     -1.77504977E+02      5.31073053E+02
     -5.56373166E+02     -3.58966683E+03      1.02378263E+03
     -3.09669590E+03     -1.69025482E+03     -1.28786252E+03
     -7.46104031E+02     -2.80660196E+02     -2.18303851E+02
      1.06614274E+03     -9.96816361E+02      2.18761261E+02
     -1.30519988E+03      1.12192019E+03      1.39205850E+03
     -7.55875328E+01      1.35588445E+02     -1.15395835E+03
      6.35861601E+02     -2.79396171E+03      4.31581336E+02
     -6.27817836E+02      6.35386579E+01      9.60497601E+02
     -8.04263870E+02     -5.12190447E+02      1.05802347E+02
     -6.71935187E+02     -1.81169023E+03     -3.04983916E+02
      2.00748887E+02     -2.44069305E+03     -3.85132121E+03
     -6.11583678E+02      1.43263988E+03      1.17456092E+03
     -3.59351796E+02      3.66308205E+00      2.63160568E+02
      3.53918512E+03     -2.51413778E+03     -1.01677187E+03
      3.39732267E+02      4.13087705E+02     -5.05602388E+02
      7.09544628E+02      4.57782015E+02      1.78176051E+03
      1.66685994E+02      4.25480148E+02      4.32759952E+02
     -1.47831944E+03      1.50226254E+03     -7.91342679E+02
      6.98557368E+02     -1.14470055E+03      1.17061737E+03
      2.01278226E+02     -1.92693192E+01      8.40966965E+01
      1.18094694E+03     -1.44264755E+03      3.72977817E+02
     -2.24508574E+03     -2.19044977E+03     -3.19379552E+02
     -7.70485957E+02      9.23588607E+01     -3.05972045E+02
      3.11146713E+03     -6.97367322E+02      2.40644792E+03
     -1.06663930E+03     -2.01709801E+03      2.06631927E+03
      8.58737312E+01      4.29078182E+02     -3.05755952E+02
      3.75851638E+02     -9.37594478E+02      3.08095581E+02
     -7.78883809E+02      1.41930854E+01      1.80833445E+03
      1.59371299E+02     -1.24270890E+02     -5.00107859E+02
      1.22132349E+03     -1.34149172E+03     -2.61223865E+03
      4.04198835E+02      2.01674233E+03     -2.30788940E+02
     -4.56696739E+02      5.04762727E+01     -5.66573916E+02
     -1.81267177E+03     -4.48262318E+03      6.91887074E+02
     -1.59080671E+03      2.64905332E+02     -1.23368231E+03
     -2.41523527E+02     -4.57062361E+02     -7.36080374E+02
     -6.01178717E+02      1.46901463E+03     -8.08748593E+02
      2.30154060E+01     -1.22744879E+03      1.22514803E+02
      8.68116613E+01      1.87756535E+02     -2.04007902E+02
     -3.59971541E+02      5.31024680E+02     -4.01090677E+02
      2.94881635E+02     -9.53491014E+02      6.95954550E+02
      3.18462530E+02     -3.82674075E+02      4.57799501E+02
     -9.94203228E+02     -1.28034262E+03      2.30406152E+03
     -2.00077394E+03     -1.06763410E+03     -9.64538590E+02
     -1.04369800E+03      7.74586187E+02      4.11455093E+02
     -7.06230114E+02     -6.14263089E+02      4.27611239E+02
     -2.92865339E+02      5.64381480E+02      8.29030587E+02
     -1.83840601E+02      9.10128995E+02     -5.58116722E+02
     -4.82221349E+02      1.68171997E+03     -2.85839932E+03
     -8.99482103E+02     -2.79496059E+02      1.12160677E+02
      5.87963768E+02      2.56290959E+03     -7.56949019E+02
      5.79790285E+02     -2.76620792E+03     -9.84404957E+02
      1.38770287E+02      3.36932544E+02     -4.71883936E+01
     -4.82086002E+03      1.39441758E+03     -4.73020113E+02
     -9.74459041E+02     -2.84880784E+03     -7.26183618E+01
     -6.91548999E+01      1.28379593E+02     -3.05279234E+02
      3.06214072E+02     -7.73861345E+02     -4.11569700E+02
     -1.56908115E+03      2.84005730E+03      1.25455373E+03
      5.17030354E+02     -1.14364688E+02      2.70450206E+02
     -1.01493393E+03      1.48108747E+03     -3.72487135E+03
      1.64953920E+03      3.39480377E+02     -2.61403259E+02
      2.88441357E+02      2.41346592E+02      2.06092003E+02
      7.32218135E+02     -2.69906173E+03      1.62594783E+03
     -1.11864859E+03      1.12973377E+03      1.34292717E+03
      6.99273290E+02     -4.48825369E+02      2.99458854E+02
      2.07716507E+03     -1.32942176E+03     -2.07394400E+03
     -1.90814937E+03     -1.68354423E+02     -1.03291429E+03
     -4.42566679E+02     -3.78646749E+02     -4.87421129E+00
     -1.13833096E+03     -1.67129286E+03     -1.30691022E+03
      9.57236718E+02     -9.74703087E+02     -1.05810093E+02
     -1.27328898E+03     -1.55387887E+02     -2.41046332E+02
      7.72841756E+02     -2.58005097E+03      2.45055091E+02
      4.18274728E+02     -1.34359568E+03     -1.39456811E+03
     -3.88725547E+02     -6.25786620E+02      1.00154635E+03
     -7.09512702E+02     -5.81017798E+02      1.37560106E+03
     -1.55243774E+03     -6.07173476E+02      3.67747142E+02
      4.00676175E+02      1.15648221E+03      1.24516478E+03
     -8.42210750E+02     -8.62293451E+02      2.57167722E+02
     -1.39005023E+03     -1.92094357E+03      1.33994781E+03
     -7.54125983E+02      7.43724162E+02      1.22075143E+03
     -2.12493571E+02      1.23728406E+03      1.13061596E+03
      3.00824238E+02     -4.68942277E+02     -5.01942894E+02
     -1.92885197E+03     -1.16768421E+03      2.21099285E+03
     -1.01423761E+03      1.20726019E+03     -5.85214636E+03
     -5.94517511E+02     -1.00387041E+03      2.08526892E+02
      7.20692947E+02     -2.39392778E+03     -1.20176994E+03
      5.70795815E+02      1.13009723E+03      2.36291836E+03
     -3.96551483E+02     -5.88917403E+02     -4.76081190E+02
     -5.98424959E+02     -1.79749066E+03      1.82881614E+03
     -1.67182243E+03     -4.87098884E+03      1.37398117E+03
     -7.28627674E+01     -3.09536906E+02     -1.09019676E+03
     -5.60739257E+02      2.69766100E+03     -1.43188925E+03
     -1.93495761E+03      1.70196706E+02     -2.37176057E+03
      1.34872428E+02      8.23961429E+02      3.32664179E+02
     -1.92386396E+02     -6.43662142E+02     -1.42168614E+02
     -3.08440128E+03      1.50502201E+03      1.13356267E+03
      2.77583870E+02     -5.85716722E+02      4.50495090E+02
     -2.53889589E+03      9.36337222E+01      2.26699018E+03
      3.57220782E+03      1.30760273E+03      9.29725174E+02
     -6.05502198E+01     -3.46474671E+02     -3.33538884E+02
     -1.17284684E+03      1.82008096E+03      1.27227143E+03
     -8.88210017E+02      9.34994352E+02     -2.70970078E+02
     -6.85699106E+01      3.64562383E+01      5.61156947E+02
      6.05800810E+02      2.27588782E+03     -1.84966431E+03
      2.97033904E+02      8.30412327E+02     -1.82151499E+03
     -2.61576474E+02      2.33625250E+02      6.85689284E+02
     -7.16073658E+02     -8.90926374E+01      1.40984975E+03
      2.51845837E+03      7.77653365E+02      2.79020639E+03
     -1.33250241E+03     -1.82480102E+02      2.52455032E+03
     -7.80911202E+02     -6.14869136E+02     -4.62834157E+02
      3.85284066E+03      1.70972946E+03     -6.78956656E+02
     -4.62712377E+01      6.11436163E+02      8.88842469E+02
     -1.25678971E+03     -1.61717831E+03     -1.71376200E+03
      3.57183591E+02     -1.68944443E+02      4.38294046E+02
      1.29790604E+03     -3.81133721E+03     -2.93830183E+03
     -6.13272573E+02     -1.13764778E+03     -2.85345994E+03
      1.79967898E+02     -1.18939460E+03     -3.17039417E+02
      1.14398831E+03      3.52107584E+02     -1.34402357E+03
     -2.38825447E+03     -2.18559152E+03     -8.92523851E+02
     -1.54910098E+02     -5.68747226E+02     -9.92391361E+02
      2.28914595E+03     -2.77622466E+03     -1.79374023E+03
      1.28246165E+03      1.61636292E+03      2.06870367E+02
     -7.38892616E+01      5.21090564E+02      1.68304276E+02
     -4.92333640E+02     -1.70178332E+03     -3.90330225E+02
      2.93530629E+02      2.58034255E+03      1.97087574E+03
     -2.67165478E+02      3.29856304E+02      1.39641606E+02
      4.72474226E+02      4.84933317E+02      1.15002018E+03
     -3.57913145E+03     -9.94681009E+02      5.43731610E+02
     -5.68620315E+02      4.84162229E+02     -6.98834775E+02
      3.03319865E+03     -7.22042067E+01     -8.75749256E+02
     -6.77872034E+01     -4.45650737E+02      1.17953641E+03
     -1.61157118E+02     -4.78525442E+02      1.86390188E+02
      1.85875792E+03      2.47842838E+03      2.11154341E+03
     -7.10610029E+02     -5.67271852E+03     -6.28744875E+02
      4.22107648E+02      2.47780909E+02      2.84868088E+02
     -1.46922892E+03      2.47504505E+03     -3.59384436E+02
      4.47157641E+02     -2.48410387E+03      2.39395569E+02
     -1.10128460E+03     -3.50908987E+02      3.72509981E+02
     -9.52535402E+02     -5.91714098E+02     -3.53996543E+02
     -8.21421395E+02     -1.29254675E+03     -1.75825313E+03
      1.12754347E+03      1.94023974E+03     -1.52134319E+03
     -6.19321385E+01     -9.90726086E+02      3.35055974E+02
     -1.15157455E+03      1.47126065E+03      6.78227008E+02
     -5.77286490E+02     -1.26694296E+03     -1.50339777E+03
      1.18054843E+03     -1.04597874E+03      1.22047352E+03
      8.73517533E+01     -4.63754595E+02      9.33121303E+01
     -3.18701290E+03      4.13236986E+02      1.79769285E+03
     -2.41209797E+00     -3.04585342E+03     -7.54486425E+02
     -4.01863852E+02     -2.98354485E+02      5.72377219E+02
     -2.34545152E+02      3.26310631E+03     -2.02807929E+03
      1.05020174E+03      2.87464889E+03      1.10176058E+03
      4.09674335E+02     -9.53332662E+01      2.70324396E+01
      1.36742170E+02     -1.12266232E+03     -2.95346752E+03
      1.81073204E+03     -2.32086130E+03     -8.33090927E+02
     -1.68861755E+01      1.78917957E+02     -4.27053344E+01
      2.47892396E+02     -6.73826478E+02     -7.00384298E+02
      1.36112633E+03     -1.90488701E+03     -2.52897348E+03
      8.93857321E+00     -1.07263552E+03     -7.87042769E+01
     -1.04975359E+03      3.10111020E+03     -4.02906223E+02
     -6.56857461E+02     -2.60098444E+02     -9.36736491E+02
     -6.16585780E+01     -4.72200644E+02     -5.51453766E+01
     -2.89648480E+03      4.93113585E+02      6.14872266E+02
      2.05323951E+02      7.88784313E+02     -8.81069443E+02
     -5.57693091E+02     -3.58643785E+01      5.87524063E+02
      1.98061023E+03     -1.22919654E+03     -2.50542566E+02
     -1.77958596E+03      1.25303000E+03      5.77840189E+02
      3.12968006E+02     -3.87648533E+02      3.99465857E+02
      1.08954767E+03      1.85396723E+03     -1.93292261E+03
     -1.03680294E+03      1.43711038E+03      8.93012407E+02
     -6.23593605E+01     -6.32984039E+02      6.20426959E+02
     -1.03990217E+03      2.34137277E+03      1.27107997E+03
     -2.59032477E+03     -7.71005606E+01     -1.56899305E+03
     -1.35980748E+03     -1.65865759E+02     -1.01003518E+03
      2.52201826E+02     -7.81458342E+01     -1.53034615E+02
     -2.38665883E+01      5.24101070E+02      6.64695934E+02
      5.35491376E+02     -3.30962302E+02      4.20454629E+02
      1.25548864E+03     -5.93807391E+02     -1.02881268E+03
      1.01548088E+03     -7.63485565E+02      7.29996431E+02
     -1.42718871E+03     -1.88162667E+02      1.16226983E+03
     -2.02878736E+03      2.08972246E+03      2.96572291E+03
      2.39119858E+02     -1.39008910E+02     -4.50157788E+02
      1.08700464E+03      5.71172499E+02     -2.15536311E+02
      1.37003404E+03     -1.58459789E+02      4.24809668E+02
     -3.68806097E+02     -1.02348478E+02      6.40416632E+01
      3.50142512E+02     -1.31034018E+03      4.36140353E+02
      9.92476087E+01      2.29352800E+02      1.36559502E+03
      6.04975435E+02      1.02758197E+02     -2.19888027E+02
     -1.71167161E+03      2.61240049E+03      5.42540052E+02
     -1.81665072E+03     -4.11175782E+03      1.26518924E+03
     -3.50848581E+02     -7.40220605E+02      1.53033355E+02
      1.44944805E+03      1.50422807E+03     -6.29126379E+02
      8.64637059E+02      1.41716829E+03      1.02277937E+03
     -2.47040403E+02     -9.04369901E+02     -2.84431023E+02
     -4.07784296E+03     -5.76001058E+03     -1.12489903E+03
     -1.99533207E+03     -2.55554648E+03      1.51967310E+03
      2.51334437E+02     -3.00371550E+02     -5.63429392E+02
      2.69742969E+02     -7.71438420E+02     -1.15123725E+03
     -1.68106162E+03     -9.76744128E+02      7.22600644E+01
     -6.37319674E+01     -1.82292419E+02     -9.60743935E+01
      2.67862788E+02     -3.89436183E+02     -1.32205476E+03
     -1.47005131E+03     -5.37424486E+02      5.93765400E+01
      7.53885638E+02     -3.17530345E+02     -8.73465540E+00
     -2.23449203E+03      1.31591710E+01     -1.51938432E+03
      2.67730421E+02      5.94175419E+02      4.86357916E+02
     -1.84826689E+02      2.21125702E+02      1.03316164E+03
      5.29802082E+02      3.29477130E+02      7.81865388E+01
      5.39434075E+02     -6.59628633E+02     -1.55070481E+03
      4.77073941E+02     -1.48695915E+02      4.57442659E+02
     -4.82480359E+02      1.53193992E+03     -4.60632046E+02
      1.56727094E+04      2.31870511E+04     -3.04635617E+03
     -1.78097349E+02     -1.55611834E+03      2.69706209E+03
     -2.39898240E+02     -1.69677753E+03     -1.66369229E+03
      3.16156638E+01     -6.80235087E+02      2.30655927E+01
      1.41783230E+03      3.73081194E+03     -1.77581445E+03
     -7.85612147E+02      1.07117077E+02     -3.60199901E+00
     -4.88342673E+02      3.96306844E+02     -7.18263239E+01
      1.26512291E+03      1.81073235E+03      1.68028347E+03
     -1.14678869E+03     -2.19145635E+03     -1.16998605E+03
     -2.54606881E+02      1.08702283E+03     -3.05550589E+02
      1.75062774E+03     -1.81030114E+03      1.59313954E+03
     -1.65018229E+03      8.76379365E+02      1.74365641E+03
     -2.49090220E+02      6.18366682E+01      5.35184938E+01
      1.72463723E+03     -8.69703151E+02     -9.65104978E+02
     -6.62717427E+01     -3.25385089E+02      1.70789481E+03
     -7.27145316E+01     -5.94840589E+02     -7.47150892E+02
      7.25980012E+02      1.66917484E+02     -2.93207002E+03
     -2.47566572E+03     -3.04433336E+02     -1.00215344E+03
      4.10474483E+02     -4.00312232E+01     -7.30812503E+01
     -1.08760974E+03      1.14719412E+02      1.25194629E+03
     -1.45692244E+03     -2.09321395E+02      3.14582021E+02
      1.52475286E+02     -6.47393446E+02     -1.04372630E+02
      1.54633866E+03     -2.59285263E+03      1.03168257E+03
     -2.00761278E+03      5.82029483E+02      4.28612121E+02
     -2.06966072E+02     -2.11511507E+02     -4.78504946E+01
      2.97680896E+03     -6.61804153E+02      1.57172317E+03
     -2.26279226E+02     -4.43873862E+02     -9.81319071E+00
      1.40611714E+03      2.80323389E+02     -3.03499691E+02
      3.73423387E+02     -4.23393990E+02      1.76362561E+02
     -8.26050424E+02     -1.49426194E+03      7.75595784E+02
     -1.63372540E+02      4.67145027E+03      5.87325664E+02
      9.48852571E+02     -2.67581606E+03     -5.98252124E+02
     -5.59945706E+02      1.73061264E+02      8.16859399E+02
      4.44878413E+02      5.27783698E+02      2.19140801E+03
      9.35867835E+02     -9.50381719E+02      1.82425904E+03
     -1.11903133E+03     -8.87587461E+02     -2.28053409E+02
     -2.88534298E+03     -1.71194444E+03      8.50616767E+02
     -1.04174572E+03      6.73181488E+02      9.98460394E+01
      2.53700385E+02      2.93019944E+02     -7.42219260E+02
     -2.03861575E+03     -1.89065284E+03     -1.65500697E+03
      8.30923563E+02     -6.91563469E+02      2.74740242E+03
     -2.44908059E+02     -3.50038925E+02      6.11348205E+02
      3.55173710E+02      3.03798415E+03      1.06231864E+03
     -2.24028603E+03      1.92110147E+03     -6.90386048E+02
      2.99358462E+02      7.55252365E+00      5.53331617E+02
      1.21282947E+03      9.09669623E+02      6.71963759E+02
     -8.32211281E+02      3.72676786E+02      2.15335142E+03
      4.24385829E+02     -6.60586372E+02      9.70524595E+01
     -2.51404253E+03      3.20870060E+02     -2.86100539E+03
      2.16367150E+02      4.79744638E+02     -1.24767804E+03
     -8.04828654E+02     -4.03376788E+02     -1.72904641E+02
      1.64306331E+02     -3.76704079E+03     -2.17943172E+03
      3.53633793E+02     -7.22827562E+02      1.93233641E+03
      1.02622358E+02     -5.53807395E+02      2.86548063E+02
     -2.31548340E+01     -1.36475912E+03      9.38321783E+02
     -7.46423557E+02      1.23513444E+03      1.30223396E+03
      8.78780453E+01      1.76798096E+02      4.83778573E+02
      7.68654571E+02      1.30204866E+03      3.67087100E+02
      2.66961503E+03      1.70448541E+03     -2.85086330E+02
      3.92867558E+02     -1.83122847E+03      1.93711385E+03
     -1.28974994E+01     -4.09426323E+02     -2.81311219E+02
     -3.19653040E+02     -4.42580108E+02     -2.16493217E+02
      3.67152698E+02     -3.11420586E+03      5.88856785E+02
     -8.79227209E+02      5.34871982E+02     -1.98181642E+03
      2.86918451E+02     -1.82838766E+02      7.49903150E+01
      2.24737825E+03      4.09067941E+03     -2.36656957E+03
     -1.40879916E+03      2.22391182E+03      2.13270073E+03
      2.67825085E+02      3.17233519E+02      7.49656714E+02
      9.50765285E+02      8.93253738E+02     -8.09239029E+02
      2.82001232E+02      2.36755446E+03     -9.60556326E+01
     -3.91960169E+01      2.08789240E+01     -5.50899202E+02
     -9.38130873E+02      9.88949662E+02      7.63413881E+02
     -4.88321572E+02      6.41904750E+02      1.47938176E+03
     -5.76468405E+02     -6.24160380E+02     -1.15552782E+02
      1.64118459E+03      4.82707180E+02     -7.02601963E+02
      3.71279288E+03      6.57352822E+02      2.03766374E+03
     -3.78808214E+02      4.22337990E+02      3.59904040E+02
      2.50755811E+02      1.32316742E+03     -5.09290594E+02
     -7.27083754E+01     -5.73593051E+02     -5.39234820E+00
     -3.60479592E+02     -1.17369058E+02      7.03870802E+02
      2.78922690E+02      4.01055438E+02      1.48891852E+03
     -2.18791241E+03      3.64072161E+02     -1.17770170E+03
     -1.43089578E+02      2.05757324E+02     -1.12612803E+02
      7.55582273E+02      2.88908036E+03     -4.71855700E+03
     -3.06738914E+03     -1.90889521E+03      1.05265779E+03
     -2.60171288E+02     -7.38424204E+02     -5.06427402E+02
      7.42734586E+02      8.24118522E+01      1.64416941E+03
      5.41846251E+02      1.32764363E+03     -3.17246905E+02
     -3.01024105E+02     -6.55933592E+02      5.75292609E+02
     -1.11803761E+03     -5.16351028E+01      1.92955452E+03
     -1.85212670E+03     -1.63638707E+03     -8.76861381E+02
      1.45828476E+03     -2.04191226E+02     -6.97640434E+02
     -9.76208502E+01      1.30469217E+02     -7.35083405E+01
      2.33007894E+03     -8.69659203E+02      2.00979618E+03
      1.66111136E+03      2.39140251E+03      7.22237918E+02
      1.07601798E+03      2.27596807E+03      2.26678899E+03
  }
}

Hamiltonian = DFTB {
  SCC = Yes
  SCCTolerance = 1e-6
  MaxSCCIterations = 200
  ForceEvaluation = Dynamics
  MaxAngularMomentum = {
    C = "p"
    H = "s"
  }
  Charge = 0.0
  SpinPolarisation = {}
  Eigensolver = Standard {}
  Filling = Fermi {
    Temperature [Kelvin] = 300.0
  }
  SlaterKosterFiles = Type2FileNames {
    Prefix = "../../pbc-0-3/"
    Separator = "-"
    Suffix = ".skf"
    LowerCaseTypeName = No
  }
  KPointsAndWeights = {
    0.0000000000000 0.0000000000000 0.0000000000000 1.00000000000000
  }
  Dispersion = LennardJones { 
    Parameters = UFFParameters {}
  }
}

ParserOptions = {
  ParserVersion = 3
}
