Geometry = GenFormat {
<<< "system.gen"
}

Driver = VelocityVerlet{
  Steps = 100000
  TimeStep [fs] = 0.2
  MDRestartFrequency = 5
  Thermostat = None {
    #InitialTemperature [Kelvin] = 300.0
  }
  Xlbomd{ 
    IntegrationSteps = 6 
    MinSccIterations = 2
    MaxSccIterations = 200
    SccTolerance = 1e-6 
  }
  Velocities [m/s] {
     -6.68754584E+02     -2.36223790E+02      1.37506943E+02
     -1.86909241E+03     -2.02478042E+03      1.96616428E+03
     -8.19807078E+02      1.04780269E+03     -1.51950939E+03
     -5.54855564E+02      1.98007457E+02      6.84280877E+01
     -3.84312758E+02      9.01654501E+02     -1.95639118E+03
      2.44856138E+03     -3.12668014E+03     -2.82984358E+02
     -3.31560118E+02      8.01993830E+02     -4.13054611E+02
      2.92112947E+03      6.26034272E+02     -1.59050437E+03
     -5.91889999E+02      3.14529115E+02      4.24182857E+02
     -5.86662735E+02     -9.47202956E+02     -1.62912067E+01
      3.29437803E+02     -7.06061894E+02      3.57442941E+03
     -1.70220696E+02     -5.07367573E+02     -1.67690775E+03
      2.58097486E+02      9.14031715E+01      1.29259092E+02
     -5.22759530E+02     -1.08987926E+03     -1.96868728E+02
      1.12247006E+03      1.24758330E+03      3.55788073E+02
      1.02254842E+03     -2.95612313E+01     -2.89316308E+02
      1.79566922E+03      2.71562901E+02      1.66283087E+03
     -1.42885111E+03      9.72657292E+02      3.28639722E+03
     -4.14342568E+02     -3.85197253E+02      2.78759222E+02
      2.83745830E+03      3.49592880E+02      1.31826770E+03
      1.77416154E+03      1.53598499E+03     -5.64137940E+02
      1.68107993E+01     -9.88171362E+01      4.03051563E+02
      1.70925616E+02      2.78781560E+02     -1.16208677E+03
     -4.98519689E+02      2.01745195E+03     -6.73605158E+01
      8.89732610E+01     -5.72948411E+02      3.16525687E+01
     -4.05745712E+03      6.05513449E+02      1.80392533E+03
      7.68844386E+02     -1.01595869E+03     -2.79047862E+03
      1.24148521E+02     -8.01920291E+02      3.48681396E+02
      6.09006333E+02     -5.42680791E+02      3.26122723E+02
      3.33177689E+03     -1.17227897E+03      1.54826794E+03
      1.52423968E+03      2.46822286E+02      7.58406299E+02
     -1.97114345E+02      4.26339641E+03      1.39598468E+03
     -4.48981679E+02      6.97441231E+02      1.38047966E+02
      2.20719805E+03      2.74737579E+03     -2.49147692E+03
     -4.58191445E+02     -4.52601714E+02     -2.33182404E+03
      6.83825687E+02      1.35684125E+02     -8.06715653E+02
      2.30115829E+03      4.79394455E+02      3.76652389E+02
      1.74042472E+03     -1.27909835E+03      2.35771420E+02
     -3.61593514E+02      7.26259010E+02     -3.22696171E+02
      4.38510232E+02      3.05098502E+02     -3.44290192E+03
      2.16177150E+03     -1.30036621E+03      2.63376745E+03
      2.59333554E+02      6.72439463E+02      1.29360940E+02
      7.62760262E+00     -3.18257974E+02      1.73585419E+02
      1.79153929E+02      2.06737485E+03     -3.26208433E+02
      1.90195167E+02     -5.16727082E+02      9.66051798E+01
     -7.09380842E+02     -1.88962184E+02     -2.55654641E+02
      1.13074466E+03     -1.53002432E+03      1.62712811E+03
     -1.22787787E+02     -4.62624309E+02      7.59665613E+02
     -2.97777481E+03     -1.01327232E+02     -1.90345504E+03
      4.78896668E+03      1.23243580E+03     -1.80168071E+03
      1.09815067E+02      2.42547767E+02      3.20559132E+02
      4.50413952E+02      1.21673668E+03      9.01660109E+02
      8.89588380E+02      1.98792370E+03      1.66988544E+03
      8.83260108E+02     -3.51014414E+02      5.36888068E+02
     -1.01989727E+03      9.53139398E+02      1.05764848E+03
      1.35684678E+02     -8.30564353E+02      1.18034415E+03
     -4.59796932E+02      6.91354263E+02      1.69670936E+02
      1.47005748E+03     -7.34915610E+01      1.15920372E+03
     -2.30543170E+02     -3.29205212E+02     -9.14570493E+02
      1.86346030E+02     -1.83193356E+03     -9.72253936E+02
      6.94462114E+01      8.53132115E+01     -3.54806867E+02
      9.01431770E+02     -2.90035206E+02      4.25963940E+03
      4.32635476E+02      1.69596336E+02     -2.91544833E+03
     -2.50614851E+03      2.16071215E+03      1.66782109E+03
     -2.10893170E+02     -2.69065904E+02     -6.38218247E+02
      3.13918952E+03      2.85902169E+02      1.12874830E+02
      4.59301738E+02      4.20645806E+01     -1.25351465E+03
      1.38302408E+02      2.54190469E+02     -5.30052132E+02
     -9.64266322E+02      2.82272600E+03     -2.74674227E+02
     -2.65468298E+02      9.24002297E+02     -2.01795669E+03
      1.55418012E+02      1.26498706E+01      3.04525167E+02
     -2.96937832E+03      1.45780596E+03     -3.43279908E+02
     -9.64589995E+01      6.54434406E+02      2.19745243E+03
      7.61239587E+02      1.41425222E+03     -4.67665735E+02
     -9.06530183E+02     -7.28851796E+01      1.14121082E+02
      3.33933416E+01      1.39857913E+03     -1.11911765E+03
     -4.21163738E+01      1.51715865E+02     -1.79312245E+02
     -1.97010944E+03     -1.01923992E+03     -2.08637090E+03
     -2.63710311E+03      7.82017471E+02     -8.21070212E+02
     -1.49117749E+02      7.01086231E+01      2.41958339E+02
      1.67014746E+03     -1.35892836E+03      8.38640192E+02
      2.21613442E+03     -1.05202840E+03      1.11738819E+03
      4.85432221E+02      5.68364498E+00     -5.18853257E+02
      1.00744252E+03     -5.04542353E+02      1.90752933E+03
      2.27889193E+03     -2.40056421E+00     -1.97296456E+03
     -4.61519661E+01      4.98049862E+02      1.57916881E+02
      3.55567247E+02      1.41997857E+03     -1.02116499E+03
      1.11349748E+03     -4.99330477E+02      2.19216746E+03
     -2.09566481E+02      2.57459173E+02      2.20402217E+02
      2.61263542E+03     -1.35210543E+02     -6.97794382E+01
      1.05825070E+03     -6.49785109E+02     -2.94665518E+03
      3.05089591E+02      1.46169200E+03      1.91750735E+03
      7.37423037E+02      4.97600383E+02     -1.83869290E+02
      1.60039641E+03     -5.38578381E+02      2.37066466E+03
      1.95829789E+03      1.21123059E+03      1.26184157E+03
     -7.91020630E+02     -1.08163474E+03      2.91101429E+03
      2.00316922E+02      2.30536834E+02     -1.13522555E+03
     -1.74723925E+03      2.35886698E+02     -2.56094731E+03
      5.95300066E+02      7.42791519E+02      2.74907265E+03
     -4.65903560E+02      3.75665353E+02     -9.34578769E+01
      4.70155266E+02      4.14466932E+02     -1.78855280E+03
      4.64417901E+02      1.08540458E+03     -7.55932818E+02
     -1.77505425E+02     -1.69200457E+02     -6.57801678E+02
     -1.72013264E+03      8.67084774E+02      9.34227777E+02
      3.36937876E+03     -2.48566526E+03     -1.72081699E+03
      2.88992616E+02     -2.98547130E+02      1.45036436E+02
     -2.63341196E+02      1.44676338E+03      1.53989202E+03
      4.08059384E+02     -7.30969335E+02     -1.08526598E+03
      7.26504336E+02      2.93046276E+02      2.21187627E+02
     -2.00001069E+03     -1.32663493E+03      1.50175458E+03
      1.82637338E+02     -4.02048178E+03      4.11716288E+03
      3.50316283E+02      3.30063115E+02      2.22746600E+02
      2.44467496E+03      2.31486753E+03     -1.04278117E+03
     -3.96205093E+02     -7.79023296E+02      2.62777099E+03
      6.31944519E+02      5.42149958E+02     -2.75579550E+02
     -1.53332580E+03      7.60678953E+02      1.18929076E+03
      1.11515588E+03      5.69665952E+02      2.47453376E+03
     -1.49453949E+04     -5.36637832E+03      8.13639883E+03
     -1.13540627E+03     -3.63894055E+02      1.49560670E+03
      5.56731841E+02     -1.93935405E+02      1.54781064E+03
     -6.24525566E+02     -8.79414505E+01      2.56569921E+02
     -8.44119779E+02      1.25856054E+03     -3.23348643E+02
      2.09465533E+03      4.98487181E+01     -3.86176137E+03
     -7.22792627E+02      2.27743861E+03     -6.04655075E+02
      5.70285207E+02      3.61668494E+02     -6.33462639E+02
      1.27819322E+03     -8.36886774E+02      1.44671619E+03
     -1.30340766E+03     -1.31015545E+03     -8.22647540E+02
     -1.01597637E+03      2.34077616E+03      1.11844745E+03
      1.90320825E+02     -3.86968224E+02      1.85981334E+01
      2.31336989E+03      6.70053800E+02      1.83967172E+03
     -8.71780265E+02     -5.79802363E+02      5.48665088E+02
      1.42847873E+02     -2.46531598E+02      9.45086490E+01
     -3.18760512E+03      1.22124121E+03     -1.53865306E+03
     -3.37528956E+03     -1.06950523E+03     -5.69546786E+02
      4.45762018E+02      5.03413042E+01     -3.18700026E+02
     -1.56175970E+03     -1.06317917E+03     -3.88625799E+02
      9.40001444E+02     -6.86118577E+02     -3.23456066E+03
      1.02387795E+02      1.55373539E+02     -1.24703941E+02
     -1.48633727E+03     -5.92688518E+02     -1.24179311E+03
     -7.59503465E+02      3.18388020E+02     -3.33168545E+02
     -3.43442948E+02      5.34750080E+02      5.83815200E+02
      2.43715558E+03      3.08618881E+03      5.31330082E+02
      1.56960928E+03      5.87557425E+02     -1.63402834E+02
      1.15942471E+03     -6.02734157E+02      5.75816366E+02
     -8.42982769E+02      2.38872062E+03     -3.38104515E+00
     -6.09356475E+02      4.99943569E+02     -2.14385751E+01
      8.20392287E+02      9.62007075E+01      7.02555940E+02
     -4.04116447E+03     -1.27864927E+03     -4.61277494E+02
      1.03273890E+03      2.12172458E+03      9.61432777E+02
     -5.92825214E+02     -3.00213016E+02     -5.53758130E+02
     -1.42994859E+03     -2.94104266E+03     -6.33449290E+02
      1.96558086E+02     -1.96672870E+03     -2.38853910E+03
      2.62714080E+02      7.58940264E+01     -3.99192423E+02
      2.25939257E+01      5.12558467E+02     -5.79750076E+02
     -1.10865238E+03      8.32902054E+02     -1.49851107E+03
     -1.15128389E+03     -2.20737103E+03     -1.44805019E+03
     -2.89275543E+02      3.90046757E+02     -3.18753255E+02
     -8.25494111E+02     -1.53132319E+03      9.67526599E+01
     -4.88238766E+02      5.20818507E+02     -9.71827357E+02
      1.50728308E+02      2.04325610E+03     -8.93405466E+02
      5.78394479E+02      9.69871259E+01      1.76101604E+02
      1.41248529E+03      6.22452820E+02     -8.62024174E+01
      1.14354892E+03      1.24614315E+03     -1.45161792E+03
      3.43039962E+02      3.02360100E+02     -6.51845891E+02
     -3.95611979E+02     -2.11601453E+03     -1.78693582E+03
     -7.16100001E+02     -1.95305221E+03     -6.72204405E+02
     -7.02860788E+01      6.97435378E+02     -2.28218128E+02
     -3.67229538E+02     -3.34842304E+01     -2.87877414E+02
      1.89080120E+03     -1.00341470E+03     -6.22815516E+02
     -5.27033826E+02     -4.05273167E+02     -2.94702694E+02
      1.29314281E+03      1.99115970E+03     -2.50803626E+03
      2.89768165E+03     -1.47358203E+03     -8.66098338E+02
     -2.74503977E+02     -6.15976783E+02     -5.11075990E+02
      2.21199893E+03     -7.15329300E+02     -2.57543034E+02
     -1.78184331E+03      1.27893007E+02      1.51929064E+03
      5.35890806E+00      9.43961232E+01     -5.05539316E+02
      1.57574880E+02     -2.61736038E+03      1.34730858E+03
      1.09869089E+03     -1.35451313E+02     -1.54965814E+03
      4.90641918E+02     -1.04013837E+02      1.81582843E+02
     -6.72277510E+02      1.28767676E+03      7.27138213E+02
      1.22159656E+03     -2.41377646E+03      1.22235837E+03
      1.31326550E+03     -3.39555972E+02     -7.36023915E+02
      2.56507873E+03      3.05349210E+03      7.68565021E+02
      1.14754232E+03     -4.60242087E+01     -3.10379009E+03
     -3.04193303E+01     -2.17120771E+02     -3.50348840E+02
      1.01156641E+02      8.26249749E+02      2.08918939E+03
      4.14323512E+02     -1.02731886E+03      7.73217956E+02
     -2.30602652E+02     -2.50287850E+03      1.17726104E+03
      6.36371445E+02      1.51061819E+02     -3.04658800E+02
      1.22646375E+03      4.97789151E+03      2.06770069E+03
      5.96105745E+02     -7.93497466E+02      3.07885003E+02
     -2.10795773E+03     -2.31673746E+03     -1.26939429E+03
      9.17868895E+02     -1.27397660E+02     -4.61268129E+02
     -4.92205270E+02      1.27449519E+03     -2.26528130E+03
      1.18121178E+02      1.46310083E+03      4.82996408E+02
      2.49421037E+02     -2.73101013E+02     -1.66460084E+02
      5.44287070E+02     -2.87019381E+03     -2.24977656E+03
      1.87763110E+03     -9.02589475E+01      1.09582586E+03
     -2.74796068E+01     -1.84243632E+02      5.52345587E+02
      3.10522888E+02     -1.89710347E+03     -1.00887671E+03
      2.68546367E+03      9.36496893E+02      2.47378306E+03
      1.30981971E+02      2.94790157E+02     -3.62542114E+01
      7.39928508E+02     -9.22862912E+02     -2.68788057E+02
     -8.56025881E+02      1.79616912E+03      2.30419546E+03
     -1.16550504E+02     -6.31829860E+02      2.37143755E+02
      5.62466307E+01     -1.79464822E+02     -3.90949524E+02
      9.14786227E+02     -1.91889338E+02     -1.26928834E+03
     -2.77368019E+02     -8.44840029E+02     -1.76150085E+01
      2.85382913E+03     -4.12638263E+02      7.87450563E+01
      1.38508262E+03      5.20382970E+02     -7.44044149E+02
      2.44883356E+02      8.77166168E+02      1.96250532E+01
      3.62922314E+02     -8.37468833E+02      8.25918847E+02
      7.80263471E+02     -1.20669911E+03      3.06364410E+03
      7.89910501E+02      2.68504890E+00      2.53634186E+02
      3.57416456E+02      2.27399094E+00     -2.05407858E+03
      1.65840189E+03      3.76248578E+02      3.27248982E+03
     -4.07228830E+02      5.12091873E+02     -3.93128338E+02
      7.30989833E+02      3.04545673E+03     -5.03426831E+01
     -4.73890248E+02      1.74673706E+02      9.82276573E+02
     -1.90699454E+02     -2.24705987E+03      1.90690014E+02
      7.36684743E+01     -2.99339472E+02      5.72314188E+02
      1.20161219E+03     -2.04226369E+03      4.08504313E+03
     -9.49369197E+02      4.42931582E+02      1.81564837E+03
      1.77223816E+03      2.21918914E+03     -3.52330568E+02
      1.99708580E+02      1.64723773E+02      1.27663784E+02
      9.96047124E+02     -1.11344138E+03     -1.04347951E+03
      1.72561608E+03     -1.42782447E+03     -4.81642393E+02
     -5.38778811E+02      6.92153243E+02     -1.54339665E+02
      2.74783812E+03      3.68792808E+03      9.17842550E+02
      1.54381157E+03     -1.22058193E+03     -2.33891195E+03
     -3.69854487E+02      3.53175784E+02      9.07952834E+01
     -2.01077703E+03     -2.22647624E+02      1.13394071E+03
      1.30412803E+02      2.08415588E+03     -5.54442853E+02
     -2.11529231E+02     -4.67112909E+01      2.69643890E+02
      1.41342808E+03      1.92381591E+03     -4.33925335E+01
      3.27758516E+01      5.20408703E+02     -1.87839527E+03
      2.91895049E+02      1.02776422E+02      9.49037419E+02
      1.64273859E+03     -5.01229721E+02     -6.56777535E+02
      1.61168841E+03      1.88933765E+03     -2.49287079E+03
     -7.06302039E+01     -2.34329055E+02     -1.11491108E+03
     -1.13173144E+03     -1.03431815E+03     -2.89745378E+02
      7.98409029E+02      2.72823888E+03     -7.83425978E+02
      1.03989193E+03     -6.46536812E+02     -3.26656421E+02
     -2.05234214E+03     -6.43267635E+02      2.13103680E+03
      1.54972937E+03     -4.65261125E+02      2.96969736E+02
     -2.12350707E+02      1.06920143E+02      6.50291163E+02
     -9.17179224E+02      1.65965254E+03     -9.18175040E+02
      1.69771330E+03     -7.75858604E+02      1.15309676E+03
      4.16685957E+02     -2.05342554E+02     -1.06769833E+03
      6.27589872E+02     -1.37021491E+03     -1.22042893E+03
      1.25526197E+03      2.44267637E+02     -2.16951380E+02
      1.26566903E+03     -1.20801154E+03      9.89907474E+02
      1.38135680E+02     -8.03645821E+01      8.56771780E+02
      3.48869899E+03     -2.20219684E+03     -2.10285697E+03
     -1.77454982E+03      2.07654818E+03      1.49841108E+03
      1.50143971E+03     -2.07936874E+03      1.61983432E+03
      2.74168450E+02     -1.17719112E+02      2.23237225E+02
      7.87476498E+02      2.88758007E+02     -2.76168034E+03
     -1.25264409E+02      4.90821184E+02      4.95306378E+02
     -3.75069507E+02     -3.09819737E+02      2.00329284E+02
      3.42417345E+03     -3.71476976E+02     -3.61040924E+03
     -9.80337675E+02     -4.92351410E+02      2.96713548E+03
      1.60802173E+02      2.48424914E+02      3.31991691E+02
     -1.25926873E+03      2.40099599E+02     -2.59023265E+03
     -1.43539394E+03      2.54556436E+03      9.56845802E+01
      1.77408944E+02      7.89902700E+02     -1.16287189E+02
      1.36368463E+03      8.88642351E+02     -4.86103546E+02
      2.35024177E+03     -6.50954075E+02     -1.65856938E+02
     -7.26655424E+02     -2.64491896E+01      1.80382792E+02
     -1.18884563E+03     -4.97176565E+02      1.29624560E+03
      3.67298674E+02     -9.91741143E+02     -1.85818393E+03
     -3.84587491E+02      2.29194664E+01     -5.02826141E+02
     -9.77493048E+01      2.31257211E+03     -1.16051238E+03
     -6.29982674E+02     -1.42653106E+03     -2.27558760E+02
      7.34375065E+02      2.35113325E+02     -1.77129025E+02
      1.97924389E+03      1.28841023E+02      8.92571371E+02
      8.46641649E+02     -1.83472667E+03     -1.16334250E+03
      3.29357016E+02      5.57990892E+01     -1.41977859E+02
      1.20286954E+02     -2.57796355E+03      1.28520750E+03
     -1.79670648E+02      2.74325103E+02      1.12002713E+03
      6.28746469E+02     -4.51462857E+02     -7.68263691E+02
      1.21496439E+03     -4.54048542E+02     -1.62939093E+03
      1.29968458E+03      2.93668428E+02     -2.35386914E+01
      7.97125237E+02     -3.13846992E+02      8.10050779E+02
     -1.06171245E+03      4.56347028E+02     -3.11840494E+02
      5.55743938E+02     -9.97778225E+02     -2.38243387E+03
     -3.13952413E+03     -3.04577006E+03     -1.42150156E+03
     -4.37691560E+03      1.46029453E+03      2.32475982E+03
      3.44944269E+02     -1.33162014E+02     -1.39129049E+03
     -1.95413888E+03      1.02500620E+03     -1.10914231E+03
      2.23933469E+02     -2.76923861E+03     -4.64356075E+02
     -3.90353009E+02      3.45737596E+02     -4.32757834E+02
      1.68701396E+02      2.90813740E+02     -1.49265095E+03
      1.39743191E+03     -3.81060593E+02     -1.81634794E+03
      9.85569066E+00      3.53723849E+02     -4.57992694E+02
      2.39515373E+03     -2.82684805E+03     -1.63991611E+03
     -1.04851490E+03      3.55453275E+02      5.87112415E+02
     -1.63143286E+02      3.01138175E+02     -1.48508226E+02
      2.20474423E+03     -1.63876728E+03      6.75706239E+02
      1.21034026E+03      2.03839504E+02      6.29358477E+02
      1.00625190E+02     -2.25980451E+02      2.90320993E+02
      1.00373521E+02     -8.93782120E+02      2.06971383E+03
     -2.27613784E+03      1.86499801E+03     -1.25763775E+03
      4.24256695E+01      1.25746330E+02     -7.58302496E+02
     -1.49940450E+02      2.41020907E+03      1.12680267E+03
     -4.28481527E+03     -3.51419359E+03      1.50561079E+03
      5.33718880E+02      2.50767079E+02      2.65456359E+02
     -1.51173455E+03     -2.66470846E+03     -2.59640165E+03
      1.66473898E+03      2.31043822E+03     -1.97057282E+03
      5.50642370E+01     -2.16171434E+02     -6.33659575E+00
      8.87294779E+02      2.66220258E+03     -3.61232283E+02
      9.64007039E+02     -1.34364124E+03     -2.14129265E+02
      3.23970952E+02     -7.29775705E+01     -1.40304397E+02
      8.72088924E+02     -1.09257823E+03     -3.34718202E+02
      2.69340107E+03      5.18977882E+02      2.38032715E+03
      1.10038736E+03     -1.81109483E+02      7.97561530E+02
     -7.65848451E+02     -3.53843395E+02      5.29511251E+02
     -1.63010760E+03      2.40346819E+03      1.76392540E+03
     -4.76659926E+02     -6.59879905E+02      8.66137951E+02
      1.58936959E+03     -2.53143085E+03      1.82396990E+03
     -4.58877564E+02     -1.61729061E+02      4.32357742E+02
     -3.09485623E+02     -1.51285877E+03      5.41011380E+02
      1.39345780E+03      1.24224035E+03      3.43216898E+02
     -4.42966766E+02     -4.88206317E+01      4.23519073E+02
      1.85690102E+03     -1.69777206E+03      5.25440291E+02
      7.35024000E+02      1.66598089E+03     -2.74514276E+02
      3.46368820E+02     -3.11980277E+02      3.64976093E+02
      8.66396501E+02      4.43051486E+01     -3.01893524E+03
      2.96047487E+02      5.39799046E+02      8.03855395E+02
     -3.36048323E+01      4.77640697E+02     -2.36002260E+01
      1.13330030E+03      3.50921103E+02     -5.14236519E+02
     -5.26098390E+02     -9.14538626E+01     -1.16124885E+03
     -1.97197331E+02     -1.11991924E+02      1.94035959E+02
      1.05537326E+03      1.55892958E+03     -6.90282994E+02
      1.29339771E+03      3.74195433E+02      7.11002139E+01
     -9.06387047E+02     -3.62752832E+02     -5.48432779E+02
     -6.94198671E+02     -8.25735604E+02     -2.02714163E+03
     -3.05544928E+03     -1.41793782E+03     -1.67903145E+03
      5.15355803E+02      3.46396191E+02     -2.02082350E+02
     -1.79499009E+02     -2.03564809E+03     -8.35190068E+02
      1.69177145E+03     -1.25932433E+03     -6.57028016E+01
      2.54909148E+02     -4.57743277E+02      3.78229745E+02
      2.73047751E+03      1.63841307E+03      1.03221715E+03
     -2.43674056E+03      1.87141801E+03      1.19830380E+03
      2.00041111E+02      7.15929277E+02      2.31431130E+02
     -1.10819004E+03     -4.59341756E+02     -2.02533940E+03
      1.91364212E+02     -6.42021457E+02     -3.16414937E+02
      1.06082567E+03     -1.28958991E+03     -1.88711210E+03
     -6.83962341E+02      1.51904439E+02     -1.01920294E+03
      6.29386463E+02     -6.71432524E+02     -1.32657756E+03
      2.34137287E+03      1.75665510E+03      4.59708545E+02
      1.66757942E+03      3.45317277E+01      2.54001902E+03
  }
}

Hamiltonian = DFTB {
  SCC = Yes
  SCCTolerance = 1e-6
  MaxSCCIterations = 200
  ForceEvaluation = Dynamics
  MaxAngularMomentum = {
    C = "p"
    H = "s"
  }
  Charge = 0.0
  SpinPolarisation = {}
  Eigensolver = Standard {}
  Filling = Fermi {
    Temperature [Kelvin] = 300.0
  }
  SlaterKosterFiles = Type2FileNames {
    Prefix = "../../pbc-0-3/"
    Separator = "-"
    Suffix = ".skf"
    LowerCaseTypeName = No
  }
  KPointsAndWeights = {
    0.0000000000000 0.0000000000000 0.0000000000000 1.00000000000000
  }
  Dispersion = LennardJones { 
    Parameters = UFFParameters {}
  }
}

ParserOptions = {
  ParserVersion = 3
}
