Geometry = GenFormat {
<<< "system.gen"
}

Driver = VelocityVerlet{
  Steps = 100000
  TimeStep [fs] = 0.2
  MDRestartFrequency = 5
  Thermostat = None {
    #InitialTemperature [Kelvin] = 300.0
  }
  Xlbomd{ 
    IntegrationSteps = 6 
    MinSccIterations = 2
    MaxSccIterations = 200
    SccTolerance = 1e-6 
  }
  Velocities [m/s] {
     -6.76519788E+02     -1.14847841E+02      5.30339119E+02
      1.13290823E+03     -2.85465697E+03      6.11576270E+02
      6.86864784E+02      7.55329425E+02      1.53633843E+03
      5.97724080E+02      5.66526055E+02     -5.30451733E+02
     -1.77349556E+02      4.75685543E+02      3.58752328E+02
      5.90053407E+02      3.05687565E+03     -1.36818527E+03
     -7.82052846E+02     -4.56731734E+02      3.83053941E+02
      2.21888104E+03      8.73347990E+02      1.67320439E+03
      2.66703836E+03     -1.71967030E+03     -1.59187253E+02
     -7.17677947E+02     -5.25572393E+02     -5.52271903E+02
     -1.06486016E+03     -1.45359318E+03      7.65970089E+02
     -6.63986280E+02     -1.09321295E+03      3.66179361E+02
      1.17619796E+02      5.98526314E+02      8.68102501E+01
     -1.79291585E+02     -2.35601478E+02     -5.06384364E+02
      2.57293617E+03     -7.87920043E+02      1.58416082E+03
     -6.28248982E+02     -3.45826115E+02     -6.64300343E+01
      6.15186580E+02      6.52166004E+02     -1.94464867E+03
     -1.79339914E+03     -1.93187675E+03      3.68536617E+03
      1.17230008E+02     -5.48396700E+02     -8.29264851E+01
      1.29601983E+03     -1.65590499E+03     -1.10944752E+03
     -1.27163736E+03      1.43653665E+03     -2.60661548E+03
      1.05958457E+03      7.99166173E+01     -2.34510290E+02
      3.44861393E+03     -9.24829612E+02     -7.22568805E+02
     -8.67756548E+02      4.14285392E+03     -7.79031664E+02
     -9.36011344E+02      7.16479419E+02     -2.19980831E+02
      2.26390433E+02     -2.10144591E+03      1.34386498E+03
      2.70996146E+03     -6.86391843E+01     -2.30072496E+03
     -4.44650445E+02      3.77636153E+03      1.01373259E+03
      5.73872599E+02     -3.97520735E+02      1.09042865E+02
     -2.08407587E+03     -2.56302582E+03      1.03124397E+03
      5.64912113E+02     -2.80726679E+03      1.17934739E+03
     -9.65474908E+02      6.95352137E+02      1.00241059E+03
     -2.81835070E+01      7.38419239E+02     -9.16297990E+02
     -1.69264555E+03     -2.36360274E+03     -7.46558340E+02
      2.95022597E+03     -2.16820846E+03      7.24711405E+02
     -5.66411191E+02     -2.90056433E+02      3.83146605E+02
     -1.09563940E+03      1.11659699E+03      1.00276709E+03
      1.39174856E+03     -7.39305607E+02      5.34755695E+02
     -1.55855645E+02      7.42579410E+01      8.20461640E+02
      7.43288836E+02      2.55530560E+03      1.24507006E+03
      9.33430519E+02      1.94710241E+02     -4.77370443E+02
      4.76029267E+01      3.79463123E+02      7.67665626E+01
     -1.75173049E+03      1.52562138E+03     -1.19340101E+03
      1.61793928E+03      1.33264002E+03     -1.13281672E+03
     -6.15579400E+02      2.48181199E+02     -1.54072640E+02
     -1.10840804E+03     -2.04614566E+03      1.19671591E+03
      1.62090122E+03      1.70671280E+02     -7.81702339E+02
      2.94638651E+02      6.52041630E+02      9.31817841E+02
     -1.06841636E+03      2.67669224E+02      1.70769375E+03
     -1.74370673E+03     -6.42736836E+02      1.49450819E+03
      5.32826428E+02     -1.71446502E+02      4.85503241E+02
      1.54400480E+03     -9.12021270E+02     -4.78420233E+02
      1.51737624E+03      2.49684266E+03     -2.87319537E+03
      8.12089782E+01      8.86697440E+00     -1.02001955E+03
      1.40875896E+03      9.70858254E+02      1.27220813E+03
     -9.69316415E+02      1.51917628E+03      1.01144774E+03
      9.47012454E+02      2.87940117E+02     -2.35719120E+02
      2.06743352E+03      8.46584607E+02      1.74032807E+03
     -1.51485847E+03      3.82656791E+03      1.15386648E+03
      1.97348478E+03     -1.86686701E+02     -1.61210588E+03
     -1.27566344E+02     -8.30871705E+02     -2.26209042E+02
     -1.04736938E+03      2.65260944E+03     -1.80489140E+03
     -3.61780951E+02     -6.93559205E+02     -3.33051037E+02
      2.23829460E+03     -8.48609884E+02     -2.46229814E+03
      7.10703206E+02      1.58707589E+02     -4.43151041E+02
      1.96785669E+03     -9.22202480E+02     -1.61401982E+03
      2.53278593E+02     -9.46350935E+02      7.62825015E+02
      5.58417048E+02     -5.88399679E+02      9.65094384E+01
     -2.52437095E+03      5.07189769E+02      1.49854775E+03
     -2.87498276E+03      8.34238907E+02      1.17152715E+03
     -2.32588216E+02     -1.25483190E+01      5.36384785E+01
      2.84546325E+02     -5.33681087E+03     -5.72283114E+01
      1.74515260E+03      1.30147792E+03     -1.29326202E+02
      8.11611855E+02     -7.47256872E+02     -2.96528446E+02
      5.29592817E+02     -1.70034826E+03     -1.67950535E+03
      1.29937887E+03      5.58331157E+02     -3.61291609E+03
      9.85190728E+02      6.29323267E+01      8.56609340E+01
      3.59860700E+02     -4.68746190E+02     -1.92001290E+02
      8.33756562E+02      3.77977454E+02     -6.80592463E+02
     -1.06627099E+02     -5.21493556E+01      3.94462137E+02
      1.89558828E+03     -2.19422452E+03      6.24930332E+02
      1.26229092E+03     -9.10790384E+02     -5.96108143E+02
     -4.83997384E+01     -1.09930620E+02     -1.06904395E+02
      1.44566647E+03     -4.22548294E+02     -2.57966587E+02
      1.70646475E+03     -2.53250746E+02     -9.12374547E+02
      7.31401772E+02     -2.79367665E+02      1.43105537E+02
      2.30396983E+03     -1.13718400E+03     -4.02825758E+02
      1.57077495E+02      6.76353233E+02     -3.33694249E+02
     -6.40049575E+01     -2.72361223E+02     -3.94087565E+02
      1.99929021E+03     -8.75731742E+02      8.67725140E+02
      2.89264373E+03     -2.71328281E+03      3.31099895E+02
      1.64088215E+03     -2.29552676E+02     -1.36943140E+03
     -5.26414877E+01      3.92102588E+02     -5.14860649E+02
     -9.05389550E+02      2.16408085E+03     -1.81952970E+03
     -7.19478265E+02      1.59596966E+03     -6.26207727E+02
      7.21896865E+02      1.56271521E+03      2.29472147E+03
     -1.42601118E+02      5.79397137E+02     -6.56840446E+02
      3.97096473E+02      2.05590985E+03     -6.34956099E+02
     -1.48640698E+03     -3.66927260E+01      6.97208873E+02
      5.72605147E+02      5.90184990E+02     -3.00567828E+02
      6.62939609E+02     -1.21211589E+03     -1.82449880E+03
     -6.39571281E+02     -4.55271390E+02     -5.30289631E+03
      5.09690389E+02      1.77835408E+02     -5.39212444E+02
     -1.82304888E+03     -4.25496084E+02     -3.20663895E+02
     -1.60458207E+03     -1.79074643E+03      2.85804324E+03
      3.57371555E+02      3.44890267E+02     -3.97216632E+02
     -6.78816952E+02      9.60595663E+02     -3.19024470E+02
      1.21452986E+03      1.22477884E+02      1.23920987E+03
      7.15222143E+02      5.44568313E+02     -1.06596196E+02
      2.00815663E+03      9.94250075E+02      1.01838636E+03
     -1.67916302E+02      1.42638279E+03     -4.39795900E+02
      6.34178927E+02      2.88647694E+02      2.53056127E+01
     -1.36655397E+03     -1.83296653E+03      1.93982141E+03
     -6.52982187E+02     -4.15350385E+02      7.13594461E+02
      8.22532364E+02      3.24925536E+02      5.13283259E+02
     -6.40895020E+02      9.18279701E+02      2.59693945E+03
      1.73791759E+03      2.01281780E+03      1.67479784E+02
     -1.20261610E+02     -2.47829983E+02     -1.34682777E+02
      6.90304212E+02     -1.63012344E+03     -1.66656795E+02
      4.13672241E+03      2.42890629E+03     -2.78106717E+02
      6.36594569E+02     -1.02476109E+02      2.95844527E+01
      1.32783591E+03     -2.10334522E+03     -2.15333006E+03
      1.57714422E+03     -2.38086358E+02     -6.01944808E+02
      3.53418573E+01     -1.88976079E+02      2.57189992E+02
     -2.25219972E+02     -6.31225266E+02      1.21646919E+02
     -3.03636028E+03     -5.65004677E+02     -7.33577775E+02
     -8.73850376E+02     -9.91974762E+02      2.01620639E+03
     -1.09038344E+03     -5.36028525E+02      4.76984664E+02
      7.99305862E+02     -2.49779458E+02      4.38121278E+02
     -1.70512380E+03     -6.57410803E+01     -2.07495759E+03
     -7.16752854E+01     -1.79721482E+03      2.98796233E+01
      1.95267851E+02     -5.74282047E+02     -3.02198763E+02
     -5.05114491E+02      4.41175761E+02      3.90516351E+03
      9.07557439E+02      8.93250142E+02     -5.50880313E+02
      3.42649686E+02      4.45105021E+02      4.04257513E+02
      1.41966799E+03      4.36235041E+02      6.78917800E+02
      2.22123253E+03     -2.14232251E+03     -3.11588664E+02
      3.79255736E+02     -2.74578561E+02      2.59732105E+02
      1.06311154E+03      3.47406332E+03      1.70225637E+03
     -1.87626740E+03     -2.40916700E+02     -1.42670366E+03
      3.72115661E+02      3.53654977E+02     -4.07961379E+02
      1.94934777E+03      8.17807996E+02     -5.68898498E+01
      5.55140555E+01      2.54001261E+03      1.64418754E+02
     -3.24602905E+02     -2.99130945E+02      4.91848106E+02
      2.28392466E+03      2.17387499E+03      1.03396199E+03
      2.85945105E+03     -5.28980281E+00      7.59912813E+02
     -7.19451299E+02      2.31767127E+02      3.66312610E+02
     -2.50431337E+01      1.25826418E+03      1.60042320E+03
      7.77951707E+02      4.71215729E+02      3.67995988E+02
      2.11460267E+02      5.61596828E+02      3.99573418E+02
      1.73495864E+03      2.92278758E+03      2.50244312E+03
     -2.07857192E+03      3.06422893E+01     -1.10552321E+03
      7.44640031E+02     -4.42269080E+02     -4.02085224E+01
      1.63519143E+03      7.15046391E+02     -2.45901010E+02
      3.74772282E+02     -9.22509340E+02     -2.23573611E+03
     -1.65493610E+03     -2.45827299E+02      6.42499594E+00
      2.80967700E+02      5.36414952E+02      6.45329909E+01
      2.45414713E+02      6.71749839E+01      5.12053056E+02
      6.19226791E+02      9.63919790E+02     -3.65882459E+03
      4.29122043E+02     -1.56663647E+02      1.37023724E+03
      9.16280570E+02      2.35369412E+02      1.82494484E+02
     -5.83787809E+02     -3.78080874E+03     -1.21249556E+03
     -3.72393310E+02     -4.33291759E+02     -3.34738739E+02
      2.44881644E+02      4.86551965E+02     -4.48213323E+02
     -1.02733027E+03      3.69033506E+03     -9.43585342E+02
      2.08478798E+01      2.20813331E+02      8.89751757E+02
     -2.18355143E+02      2.63621316E+02     -2.19724072E+02
     -3.62684503E+02     -1.65399527E+03      7.78140103E+02
     -1.17079945E+03      2.58621896E+02     -3.41082502E+03
     -1.77997975E+02      3.65257319E+02      4.53465743E+02
     -4.10857166E+02     -2.38184871E+02      1.64656264E+03
      1.32286902E+02      1.25782605E+03      5.52892134E+02
     -4.41266912E+02      4.51833114E+02     -6.80292721E+02
      1.45600100E+02      1.01301629E+03      1.81065420E+03
     -1.42300185E+03      6.13519282E+02      1.18549083E+03
      1.55333546E+02     -1.24959684E+02      1.49106890E+03
     -1.31538353E+03      1.55431912E+03      3.66767667E+02
     -1.74158455E+03      1.37733984E+03     -2.79714647E+02
      3.17061952E+02     -6.92344008E+02     -6.67702530E+02
      1.64399351E+02     -1.23888430E+02      5.12553551E+01
     -2.08817438E+03      3.06117947E+03      5.66219844E+02
      4.28169070E+02     -4.63716920E+02     -5.21618634E+02
     -4.38205274E+02      1.27734815E+03     -1.30807309E+03
      3.29639892E+02     -4.35909549E+01     -8.26725367E+02
      4.27593143E+02      2.25817177E+02     -7.27347450E+01
      2.41209125E+02      2.02066420E+03      8.46431504E+02
     -5.04838847E+01      6.99394644E+02      2.33592896E+03
     -2.19904434E+03      2.52514527E+03     -5.40905755E+02
      3.89356400E+02     -4.34987380E+02     -3.77876871E+02
      1.18824689E+03     -6.71495749E+02      1.30643576E+03
      2.29950500E+03      2.04889433E+03      3.74478955E+03
     -3.38838107E+02     -7.45283155E+02      7.18434743E+01
     -4.05761582E+02      2.59156594E+02     -1.27890762E+01
      6.62646297E+02     -1.21724473E+03      5.96812261E+02
      3.34082312E+02      6.05127296E+02      6.86396541E+01
     -2.28636354E+01      4.43897613E+01     -8.42628027E+02
      1.16521290E+03      2.41884765E+02      1.22674790E+03
     -1.28434802E+03      3.90300159E+03     -1.41674614E+03
     -1.11251488E+02      1.62413208E+02     -3.59010403E+02
      1.07119860E+03     -1.32007541E+02      1.22927690E+03
      1.29572819E+03      1.32824804E+02     -2.46788307E+02
      7.67508418E+02      4.58302831E+02     -3.89866509E+02
     -7.30563116E+02     -5.54994951E+02     -6.51871458E+01
      1.46798273E+03      3.23014055E+03      6.08302340E+02
      9.64190298E+02      2.14090210E+02      6.69169377E+00
      6.26974364E+02     -1.63050841E+03      2.65032312E+03
     -1.47214956E+03      5.90937102E+02     -3.91834411E+03
     -1.68379954E+02     -2.87503644E+02     -6.92698413E+02
     -7.14968512E+02     -1.46647697E+03      2.46812666E+03
      2.17269037E+02     -5.45877751E+02      2.38726520E+03
      8.10854351E+02      3.64283955E+02      1.07657916E+02
     -1.33831323E+03      2.82244406E+02     -2.09798590E+03
      3.54747639E+02      4.63200890E+03     -1.70250801E+03
      1.27079667E+03      3.72912782E+02      3.14949995E+02
      1.68803745E+02     -4.37301009E+03      1.17355084E+03
     -2.74197403E+03      1.72774343E+03     -6.51064343E+02
     -3.30053696E+04     -3.17855476E+03      2.80947559E+03
     -1.53830996E+03      8.05839444E+02     -3.60045547E+02
      3.30206873E+02      5.60702660E+01      2.27833480E+03
     -2.10767088E+03      5.48845725E+02     -2.14682740E+03
      3.16469672E+02      2.59017315E-01     -8.85531629E+02
      6.08420106E+02     -6.69699165E+02      6.61555098E+02
     -7.62952219E+02     -1.56271150E+00     -1.25813594E+02
      2.68488218E+03     -9.31284786E+02     -2.73716724E+03
      4.77746763E+02     -3.01500338E+01     -1.61122651E+02
     -1.60480974E+03     -7.65003298E+02      3.21281446E+03
     -1.14404143E+03      2.79898567E+03     -1.27948405E+03
     -3.71576088E+02      1.49727620E+02      5.66425356E+01
      8.00592570E+02      8.49612319E+02      1.44394742E+03
      1.34106742E+03      1.40190884E+03      5.70633147E+02
      5.38720578E+02     -6.58747985E+02      1.29877875E+02
      2.08675559E+02     -2.62735031E+03      1.76254925E+03
     -1.42229047E+02      8.22842639E+02     -8.99899503E+01
      1.77462907E+02     -4.83790508E+02      4.34437674E+02
     -5.39502752E+01      1.36022021E+03      1.99617624E+03
     -6.51852012E+02     -9.54776865E+02     -3.78500537E+02
      3.66272319E+02     -2.96963020E+02      8.73220925E+02
      2.55796894E+00      1.43727341E+03     -7.81242807E+02
      1.84316651E+03     -2.08906237E+02     -8.70705809E+02
     -1.39891344E+02      3.39205851E+02      5.70148774E+02
     -1.83809564E+02     -7.51476082E+02      6.25910173E+02
      4.76078605E+02      1.62088144E+03     -3.93118030E+02
      5.15941866E+02     -8.94564027E+01     -3.11112745E+02
      1.17521083E+03      7.21828772E+02      2.21274513E+03
      3.03762158E+02     -2.27823009E+02     -2.72151705E+03
      6.62549549E+02     -9.50821150E+00      6.57795479E+02
     -2.95714640E+02     -1.82700047E+02      1.12398979E+03
      4.29603383E+03     -8.53032528E+02      7.20411923E+02
      9.38163007E+02     -5.98030809E+02      3.41289239E+02
      1.08093121E+03      3.50648346E+02      1.80723955E+03
      1.74473963E+03      5.56386920E+02      1.35111245E+03
      4.13219699E+02     -1.43952424E+03     -1.74253555E+03
      1.23471104E+02     -6.74475240E+00      4.52061767E+02
      4.21483946E+02      9.11659304E+02     -4.08966531E+02
     -1.30387884E+03      4.61369413E+02     -3.83953786E+02
      4.84286094E+02      6.47478929E+02      3.56010261E+02
      1.13649838E+03      4.98023726E+01      3.73769741E+02
     -2.15593909E+03     -3.66410829E+02      2.32993472E+03
      1.49836839E+02      2.32060100E+03     -1.13879646E+03
     -3.01505187E+02     -3.51428735E+02      1.24855522E+02
     -9.61031589E+02      6.32365015E+02      2.84128888E+03
     -8.95156384E+02      1.14880126E+03     -1.59146482E+03
     -1.26485580E+02     -2.12304108E+02     -7.16006150E+01
     -5.42842399E+02     -7.86167582E+02      7.98926788E+02
      5.82150139E+01     -9.01517411E+01     -4.12446481E+02
      3.89852007E+02     -1.53361057E+02     -2.78235846E+02
      4.60991877E+02     -2.81815436E+03     -1.26759008E+03
      1.11226877E+03      4.91338960E+02     -1.85465902E+03
      3.81016865E+02     -4.24457021E+02     -7.68164772E+01
     -9.42590271E+01     -1.72465043E+00     -1.06392554E+03
      7.95781437E+02      1.99101396E+02      1.60589212E+03
      2.67859659E+02     -1.19736820E+02     -8.66947083E+02
      1.56718493E+03      5.22981833E+02     -3.52055316E+02
      2.23432387E+03      2.61367514E+03      2.04405101E+03
     -2.41212683E+01      1.91952536E+02      8.64284917E+01
      1.44480541E+03      2.63450449E+03      2.69666958E+03
      1.52775598E+03     -1.48280942E+03      1.11832774E+03
     -3.53772907E+01     -8.11179106E+02     -4.56129616E+01
     -1.55339790E+03      6.82946499E+02      1.20415429E+02
      2.07470235E+03     -2.03242289E+03     -1.36409673E+03
      1.45607150E+02     -8.60728821E+02     -2.15533305E+01
      3.68398548E+02      1.16201481E+03     -1.28557694E+03
      2.86887115E+03      2.45831297E+03      9.01464153E+02
      4.11953072E+02      2.23160614E+03     -6.74326020E+02
      5.42211548E+02      2.63408330E+02     -6.81852953E+01
     -3.75507371E+02     -9.80279631E+02      1.57329245E+03
     -7.79583543E+02     -5.10129022E+02      1.60723695E+02
     -8.75412497E+02     -2.23551186E+03     -2.17863695E+03
      3.50729209E+02     -2.06150196E+02      3.12251471E+02
      1.09292899E+03     -3.79834031E+03     -2.03673773E+02
     -1.37891946E+03      8.27656484E+02     -9.28180578E+01
     -1.67816683E+02     -2.50247272E+02      1.72133440E+02
      9.35984888E+02     -5.77293099E+02      2.84754967E+02
     -4.07590859E+02      1.16556503E+03     -1.32045610E+03
      8.96941706E+02      1.17295590E+02      1.90131428E+02
      1.31721806E+03     -1.64328774E+03     -1.86126664E+02
      1.42984124E+03      4.85790341E+02     -4.53047379E+02
      1.51902423E+02     -1.83691643E+01     -3.38936273E+02
      3.45710234E+03      1.18140904E+03     -8.51420889E+02
      1.61385096E+02     -1.58353833E+03      7.63138618E+02
     -4.48318338E+02     -3.28145395E+02     -6.59159158E+02
      1.69161586E+03      2.27305302E+03     -6.55076089E+02
      1.03545804E+03     -4.83818948E+01     -8.84379497E+02
      9.07363737E+02     -5.78143037E+02     -8.79300129E+02
     -1.53563599E+02     -6.63486666E+02      1.59381278E+03
     -8.33483063E+02      1.63094065E+03     -6.67443968E+02
      5.50817472E+02      7.25034124E+02      4.68929192E+02
      1.77215659E+03     -1.90465851E+03     -7.33006263E+02
     -3.19424032E+02     -1.03431102E+03      2.27619161E+03
      5.83535542E+02     -6.85519176E+01      6.39990553E+02
      4.66933505E+03     -1.28995884E+03      6.05779597E+01
      2.41124113E+03      8.30127357E+02     -1.63945006E+02
      9.65907901E+02      3.56065665E+02     -3.35019871E+01
      2.04624459E+03      5.30369833E+02      1.90512667E+02
      1.03448201E+03      1.22396855E+03      8.54776140E+02
      1.11707834E+02      8.67654998E+02      7.06792121E+02
      2.61830802E+02      7.12069870E+02     -6.06999128E-01
      3.52178033E+03      1.71129046E+03      1.43893765E+03
      7.48370979E+02     -1.08712762E+03      8.12661302E+02
      1.38112992E+03      8.71726479E+02      2.24768073E+02
      1.83945566E+02      2.22789133E+02     -2.15849296E+02
      1.11014728E+03      2.49865327E+02     -1.99937394E+03
     -8.55182050E+02     -1.37721434E+02     -1.34418134E+03
      3.01607344E+02      4.81381552E+02     -6.51401328E+02
     -3.93786302E+02      1.66969184E+03      2.25523832E+03
     -1.32897071E+03      1.49202994E+03     -4.92641687E+02
      1.99105692E+02     -1.89964554E+01     -5.32768688E+02
      1.21224937E+03     -3.05747835E+03     -1.17698523E+03
      1.07222255E+03     -6.03640460E+02     -3.79268161E+02
      1.01700933E+02      2.09785266E+02      4.02129455E+02
     -1.29977134E+03      1.08436825E+03     -1.19931659E+03
      1.62257529E+03      8.62471941E+02     -7.02145519E+02
      8.69216752E+02      5.12134634E+02      9.25710277E+02
      4.25608644E+03     -1.51387404E+03      1.32586269E+03
     -1.37130533E+02     -7.03862528E+02      1.29525426E+03
      2.21179633E+02     -5.38175866E+01      1.32539571E+02
     -1.18798996E+03      2.12332008E+03     -9.58374840E+02
      2.08140725E+03     -2.24994807E+03     -1.28541972E+03
     -2.61388099E+02      8.61953016E+02     -3.58920804E+02
     -8.11865525E+02     -2.07841516E+03      7.29025056E+02
     -6.20381292E+02     -9.76886875E+02      1.70277599E+03
     -3.92934391E+02     -2.10184178E+02     -1.04879328E+03
      2.60834045E+03     -1.40012332E+03     -2.87898669E+03
      1.82832029E+03     -6.39529006E+02     -1.66546303E+03
     -1.89250675E+01     -1.57143052E+02      1.38164024E+02
      2.43959762E+03      1.72334974E+02     -5.29995046E+02
      3.67825978E+02      7.80662140E+02     -1.97106197E+03
      3.18265253E+02     -1.47872121E+03     -1.33160412E+03
      4.10841772E+02     -4.07952784E+02     -2.43992576E+00
      7.42353324E+02     -1.19022313E+02      6.72065573E+02
      2.92172378E+03     -1.37401821E+03      1.62666322E+03
      1.69728929E+03     -3.93667798E+03     -8.15498312E+02
  }
}

Hamiltonian = DFTB {
  SCC = Yes
  SCCTolerance = 1e-6
  MaxSCCIterations = 200
  ForceEvaluation = Dynamics
  MaxAngularMomentum = {
    C = "p"
    H = "s"
  }
  Charge = 0.0
  SpinPolarisation = {}
  Eigensolver = Standard {}
  Filling = Fermi {
    Temperature [Kelvin] = 300.0
  }
  SlaterKosterFiles = Type2FileNames {
    Prefix = "../../pbc-0-3/"
    Separator = "-"
    Suffix = ".skf"
    LowerCaseTypeName = No
  }
  KPointsAndWeights = {
    0.0000000000000 0.0000000000000 0.0000000000000 1.00000000000000
  }
  Dispersion = LennardJones { 
    Parameters = UFFParameters {}
  }
}

ParserOptions = {
  ParserVersion = 3
}
