Geometry = GenFormat {
<<< "system.gen"
}

Driver = VelocityVerlet{
  Steps = 100000
  TimeStep [fs] = 0.2
  MDRestartFrequency = 5
  Thermostat = None {
    #InitialTemperature [Kelvin] = 300.0
  }
  Xlbomd{ 
    IntegrationSteps = 6 
    MinSccIterations = 2
    MaxSccIterations = 200
    SccTolerance = 1e-6 
  }
  Velocities [m/s] {
      1.69418362E+02     -6.26469709E+02     -4.50537226E+02
     -1.16091838E+03      2.37446239E+03     -7.88161733E+02
     -8.25348811E+02     -1.38540891E+03     -4.89073884E+01
      1.00324828E+02      3.09670456E+02     -4.37479753E+02
     -2.28839118E+03     -1.92822842E+03      2.08857751E+03
      2.68596276E+02      2.97327818E+03      3.90332027E+02
     -6.55331387E+00      3.97333859E+02     -5.89366782E+02
     -2.76479941E+03      2.25817366E+03      7.87738011E+02
     -7.58853937E+02      4.71007414E+02     -7.15773582E+01
     -9.73603080E+02      1.95111017E+02     -1.61770653E+02
      3.98729390E+02      1.77332043E+03      2.91196701E+02
      2.02408163E+03      1.60254330E+03      1.73344806E+03
      6.23569274E+02      1.21243227E+02     -8.89661830E+01
     -2.97484203E+03     -1.80168621E+03     -1.77178539E+02
     -9.79704201E+02     -2.71146587E+02     -6.79213227E+02
     -4.78619661E+01      4.00256629E+02      4.05952249E+02
      7.80384066E+02     -1.36440836E+03     -1.53538983E+03
     -1.21913259E+03     -1.13027514E+03      6.39370841E+01
      3.34007157E+02      9.04744582E+00     -1.06566578E+02
     -4.49683365E+02      5.73515019E+01     -5.18931554E+02
     -3.27177307E+02     -9.92085583E+02     -1.73585970E+03
     -5.10104368E+02      3.61289853E+02      5.72596961E+02
      1.39683280E+02      3.50099841E+03      4.42932398E+01
      6.89328650E+02      1.67559157E+03     -1.08832848E+03
     -1.53946764E+02     -6.19514678E+02     -6.09472217E+00
     -7.27939229E+02     -3.90191649E+03     -8.46170316E+02
     -3.32064807E+02     -2.71362633E+02      7.96630909E+02
     -5.26171708E+02     -9.92742701E+02      1.63660182E+03
      5.83100825E+02      8.03991986E+01     -5.54138227E+02
      1.40712679E+03     -6.63409039E+02     -1.07910444E+03
     -1.83864007E+03     -2.53332903E+03      1.33881221E+03
      1.43860332E+01     -1.02161762E+03      4.71511204E+02
     -3.36131364E+02     -2.49872816E+02      1.98644472E+02
      2.23476466E+03     -5.84061325E+02      9.75864111E+02
     -2.00400955E+02      1.20136439E+03     -1.56858105E+02
      4.14874926E+02     -1.07259604E+02      4.81818929E+02
     -1.21570799E+03     -1.93060654E+02     -8.63871666E+01
      2.00125690E+02      8.50523601E+02      8.89326937E+02
     -5.83067734E+02     -4.12493038E+02      3.64168117E+01
     -5.13344133E+02      3.36727274E+03     -2.42088602E+03
     -8.53901231E+02      2.27610391E+03     -5.83855296E+02
      6.79922890E+02      8.92479529E+01     -2.81727223E+01
      1.47223945E+03      2.09188932E+03     -1.35040112E+02
      8.08494402E+02     -2.97977590E+03      9.17748672E+02
      4.36350914E+02      2.30905449E+02      7.53928353E+02
      3.74511027E+03      2.53954194E+03     -3.48515387E+01
     -8.39260740E+01     -1.85469167E+02      2.26840532E+03
     -7.20629514E+02     -1.12056708E+02      8.17143659E+02
      2.02394854E+03     -1.08912352E+03     -6.01605786E+03
      1.05975426E+02     -3.66360793E+01     -1.42393817E+03
     -3.65066694E+02      8.78393569E+02     -2.58079154E+02
     -6.06335757E+02     -2.33897954E+03      3.20951433E+03
     -1.52317359E+03     -3.61030845E+03     -4.94379852E+02
      1.08591829E+02     -8.75085872E+01     -2.53840553E+02
      2.15261229E+03      2.18995272E+03      1.18959151E+03
      1.52832726E+03     -4.31978887E+02      2.49404275E+03
     -8.73462722E+01     -2.36514737E+02     -3.14394957E+01
     -3.63678710E+02     -2.12993174E+02      2.24541360E+03
     -5.18194334E+02      1.65858208E+02      5.54337010E+02
      4.05032605E+03      2.41022830E+03      3.32678783E+03
     -1.46894410E+03     -7.21381497E+02      5.36888551E+02
     -5.41913736E+02      7.23397139E+01     -1.41631444E+03
     -3.06067208E+01     -5.39162463E+01     -1.83851756E+03
     -6.86953206E+02     -1.36085516E+03     -4.26175426E+02
     -9.18783920E+02     -3.79835870E+02     -1.71920420E+02
      1.08982603E+03     -2.74777213E+03      2.28831676E+02
     -3.45184910E+02     -2.03438688E+02      7.10894600E+02
     -9.37306547E+00      3.14435587E+02      2.32284328E+02
     -2.24040790E+03     -1.44231552E+03     -6.79051772E+02
     -6.07137143E+02      2.95358923E+02      1.70659447E+02
      1.99942176E+02     -5.96519135E+01     -3.27006609E+02
      1.59365842E+03     -1.86099291E+03      3.85300019E+02
      2.83862160E+02     -3.74565614E+03      1.21019351E+03
     -4.46307895E+02      3.90799304E+02      1.85827759E+02
      1.73646065E+03     -2.31452807E+03      9.11431761E+02
      7.11376486E+02     -9.19284320E+01     -8.29558376E+02
     -6.08225798E+02     -2.14125616E+02     -3.26899015E+02
      2.09134988E+03     -1.52107052E+03     -1.57578022E+03
     -2.53606505E+03      1.42522523E+03     -6.25478546E+02
      8.93242909E+02      3.26925448E+02      4.06596531E+02
      5.92631212E+03     -1.81309773E+03      3.46196434E+03
     -5.95532151E+02     -1.12445975E+03     -1.60072829E+03
     -2.85844856E+02      1.94274088E+02     -3.82497681E+02
     -1.05034131E+03      3.40644664E+02     -2.17033598E+03
     -3.56909288E+03      1.36263414E+03      3.42315208E+03
      1.75904529E+02     -1.65897854E+02      8.08415354E+02
      3.04178841E+02     -1.17921213E+01     -1.32967201E+03
     -2.22438658E+03      4.49230167E+02      9.62197637E+02
     -7.99126068E+02      2.80246480E+02      5.29930823E+02
      7.46296073E+02      1.15789559E+03     -2.63315645E+03
      1.28443222E+03      4.98944078E+02     -1.21824929E+03
      5.30993149E+02     -3.96194346E+02      2.31121834E+03
      9.22328399E+02     -1.03061173E+02      1.85025322E+02
      1.16032145E+03     -1.19537899E+03     -2.31839365E+03
      8.92562761E+02     -1.73890191E+03      3.13515978E+02
     -9.60995289E+02     -1.57582164E+03      1.97036092E+03
     -6.33576590E+02     -7.53957366E+02      2.18958637E+02
      1.98962690E+03     -2.09778773E+03      2.64874464E+03
     -1.68141515E+03     -1.97861015E+03      1.37256329E+03
     -1.03811021E+02      1.14135208E+02     -7.22844993E+01
      7.69284604E+02     -1.30275312E+03     -1.29246542E+03
      1.10986601E+03      1.23400935E+03      1.75800460E+03
     -6.78352130E+02      3.53862235E+02      2.40599241E+02
      1.61870106E+03      6.37947534E+02      4.69149277E+02
      1.67658000E+03     -1.86573681E+03     -2.44683806E+03
     -7.49697283E+02      9.30170486E+02     -3.71007883E+02
      3.12174018E+03     -9.75078667E+02     -7.83183623E+02
     -1.96483008E+03      1.35204525E+02      6.67289746E+02
      4.51958501E+02      3.76791830E+02      1.37641926E+02
      1.73886090E+03     -4.55746818E+02      2.09711493E+02
     -1.97167647E+03      5.85005751E+02      2.95150914E+03
     -9.02066752E+01     -1.01781589E+02     -1.29199757E+02
     -2.27648823E+03      7.28988717E+02     -1.91866940E+03
     -1.62197025E+02      1.70960194E+03      8.37055588E+02
      1.41200970E+04     -3.94207641E+02     -1.08030632E+04
     -9.46989914E+02     -3.53169780E+03      1.77661668E+03
      3.35775426E+02     -1.33624568E+03     -2.03104604E+03
     -7.20181672E+01      3.55886165E+02      1.06873620E+03
     -5.98472077E+02      1.31551288E+03      5.25295015E+02
     -1.52701911E+03      5.07023845E+02      5.66857220E+02
      5.39289556E+02      9.83220752E+01      2.30161427E+02
     -6.10005228E+02      7.23273586E+02     -2.50268151E+03
     -5.02053300E+02     -1.82665666E+02     -2.62091072E+03
      3.21079699E+03      3.12320547E+01      1.53983870E+03
     -4.11541341E+02     -7.47826030E+01     -3.29163181E+00
     -2.91343215E+02      1.41202502E+03      2.55529876E+03
      2.48929608E+03     -1.98435585E+03      3.45353513E+02
     -1.23253519E+03     -5.63937948E+02      5.17086638E+01
      1.79806617E+02      8.65939148E+02      9.98881052E+01
     -5.69774713E+02     -2.31603819E+02      2.16985633E+03
      2.33404867E+02     -2.87605718E+03     -1.46311625E+02
     -3.45111448E+02      3.22868544E+02      5.23429039E+02
      1.58219534E+03     -1.75624169E+03      9.07577825E+02
      2.06427110E+03     -3.77699822E+03     -8.00899279E+02
     -9.26763637E+02     -5.76113045E+02     -3.03617112E+02
     -1.76573914E+03     -1.91880008E+03      2.20850484E+02
     -3.34999741E+02     -3.55476220E+02      3.50958834E+03
     -4.77008052E+02     -9.94716510E+01     -2.28371911E+02
      3.71985350E+02      4.80332783E+02      4.62176793E+03
     -1.96520289E+02     -4.31993277E+02     -1.26012078E+03
      4.33145623E+02      2.66737140E+02      4.04078166E+02
      1.53112746E+02      1.49826013E+03      4.10550541E+03
      2.81043470E+03      1.98436997E+03     -1.77760159E+03
     -3.71124393E+02      1.80420671E+02      4.82764982E+02
     -1.99971740E+03     -1.56615093E+03      1.60251679E+03
     -5.45134967E+02     -4.17749855E+03      1.26955498E+03
     -5.19033720E+02     -6.21380711E+01     -6.98916556E+01
      1.28083191E+03     -2.55607756E+02     -1.21625145E+03
      7.99770212E+02     -5.53959438E+02      2.94329084E+02
     -3.81230782E+02      3.35820825E+02     -2.09234886E+02
      8.83975533E+01      1.35330973E+03      2.21226009E+02
      2.31463478E+03     -2.73600043E+03      2.49052096E+02
     -1.75939614E+02     -6.20922530E+01      5.71845089E+02
      2.53090144E+03      1.26641711E+03     -3.19620497E+02
     -1.22498254E+03     -1.61314783E+03      3.25623960E+03
      1.54926136E+03     -1.16437180E+03      1.27020909E+03
     -5.22004014E+02      6.24779120E+02      2.92919632E+02
      3.27835066E+02     -5.33847706E+02     -2.73350339E+02
      2.66540454E+02     -2.58843138E+03     -2.74900343E+03
     -5.10900472E+01     -9.86806188E+02      6.69924230E+01
     -4.34849042E+02      2.25122015E+02     -7.15674277E+02
     -2.79256648E+03      2.92902424E+03     -8.44445568E+02
     -1.41232851E+03     -1.50109429E+03     -3.33584061E+02
      6.26585017E+02      7.38512672E+02     -8.02247612E+01
      3.24999757E+03      1.46558280E+03     -2.97716794E+02
      8.21281797E+02     -1.29148064E+03     -4.53429042E+02
     -6.31825993E+02     -5.40358605E+02      1.06795425E+03
      1.05345970E+03      1.88177907E+02      3.70117149E+02
      2.63857426E+03     -2.34098263E+03     -2.44948075E+03
      3.42707140E+02     -1.78557890E+02     -6.19295729E+02
     -1.16932773E+03     -8.71036996E+01     -1.82964803E+02
     -2.97944037E+03      9.07285829E+02     -1.55276093E+03
      4.59872800E+02      7.18019784E+02      3.95148415E+01
     -2.20627547E+03      1.11643726E+03      2.38921529E+03
     -1.75850297E+03      1.70182762E+03      2.41797387E+03
     -2.39384027E+02      2.30119439E+02     -9.05206125E+02
      1.12316084E+03     -1.40423899E+03      5.45351398E+02
     -2.10017383E+02     -2.46356681E+03     -7.31159106E+02
      4.06234051E+02      1.02486245E+02     -4.69890229E+02
     -4.20458099E+02     -1.32361806E+03     -1.86564651E+03
      3.14387797E+03      1.06696810E+03      2.83481366E+03
      1.25961753E+02      3.18982826E+02     -2.55065508E+02
      1.13194044E+02      1.51494574E+03     -7.23251023E+02
     -5.17347768E+02      4.07903710E+02     -2.05427579E+03
     -3.97700803E+02     -2.13308814E+02      6.81938047E+01
     -8.78445234E+02      2.12584818E+02      1.52093075E+03
     -1.71830329E+02     -1.74549097E+03      2.05819594E+03
      1.12386515E+02     -3.04501099E+02     -2.32115160E+03
     -4.26809467E+02     -6.07639296E+02      4.20394176E+02
      1.94931423E+03      2.10911476E+03     -9.11023776E+02
     -2.04957291E+03     -9.15074973E+02     -1.67632357E+02
      1.00553671E+03     -2.53121108E+03     -7.35065341E+02
     -1.12114668E+02      1.75923837E+02     -9.11980926E+01
     -1.85363122E+02      1.15514166E+03      1.61753554E+03
     -1.88251002E+03     -7.21550997E+02      5.41716713E+02
     -7.06628390E+02     -2.70942455E+02      5.22858646E+00
     -1.77946372E+03      5.31217669E+02     -1.71504620E+03
      6.20886960E+02     -2.97201578E+03      1.04916965E+03
     -3.82150207E+02      5.01733936E+01     -1.73491571E+02
     -3.74817170E+02      1.90900590E+03     -3.50793604E+03
     -1.58261940E+03      1.75326551E+03      6.46236475E+02
      6.85628816E+01     -3.93390472E+01     -1.05861568E+02
      3.37527324E+02      6.79042773E+02      3.06302833E+03
     -9.01086231E+02      2.98309367E+03     -2.75509574E+03
     -2.16417577E+02     -6.10021341E+02      3.83077154E+02
      2.25607175E+03     -2.48197443E+01      5.16614895E+02
      7.58712363E+02     -6.16265603E+02      5.12848422E+02
     -1.01099761E+00      8.85386472E+02      6.36796602E+02
     -1.50847392E+03     -1.12528851E+03      2.10759943E+02
      3.91960925E+02      1.03118808E+03      3.06337919E+03
      7.09768248E+00     -1.80851338E+02      2.02023176E+02
     -9.17907975E+02      1.37990691E+03     -1.57265247E+03
     -1.74863214E+02      6.45721830E+02      1.25363504E+03
     -1.87787576E+02     -2.34751016E+02     -1.23622738E+01
     -2.34394066E+03     -5.14095724E+02     -1.47716846E+03
     -9.11172016E+02      2.34753401E+03     -2.11479572E+03
     -2.77967898E+02     -9.94460366E+01     -2.67980098E+02
      2.07407520E+02     -1.11476962E+03      1.34549446E+02
     -1.14019213E+03      1.48633410E+01     -1.53773792E+02
     -1.27751765E+03     -1.04269148E+03      2.22280102E+03
      2.56989304E+02     -1.68684740E+01      4.45896232E+02
      1.77014524E+03     -1.90379147E+03     -1.78719655E+03
      1.45844964E+03     -5.23554243E+01     -3.53716375E+03
      4.30972292E+02     -2.59542301E+02      4.06287680E+02
      2.68040539E+02     -2.08904739E+02     -1.70731380E+02
     -5.63291219E+02     -2.74986113E+03      1.68356930E+03
      2.16690230E+03      9.49149414E+02     -3.27205793E+01
     -3.90733641E+01      3.87412911E+02      1.36781489E+02
      6.61802530E+02      4.74143168E+02      1.10326561E+02
     -3.18904931E+03     -1.45437754E+03     -8.48863873E+02
     -5.80233789E+01     -3.70533748E+02      1.40184529E+02
      4.70592067E+02      3.77503497E+01     -1.66676477E+03
      2.50113410E+03      2.84387282E+02      1.03234438E+03
     -3.14113355E+01      4.80894252E+02      9.80762795E+02
      4.03920703E+02     -8.61219863E+02     -1.32492597E+03
     -1.01617569E+03     -3.25126528E+02     -9.57699614E+02
     -5.77888952E+02      7.19791274E+01      4.17767616E+01
     -6.88761638E+02      1.72387948E+03      7.81930546E+02
     -8.45970749E+02     -1.28681920E+03      1.20422015E+03
      5.59386779E+01      3.78069318E+02     -1.20421995E+02
      1.36524477E+03     -1.43610969E+03      8.68817052E+02
      2.30171305E+03     -1.37711066E+03     -1.07159584E+03
     -1.09985690E+03      7.63239945E+02     -4.06772681E+02
      4.27797571E+02     -9.81838985E+02     -6.93379619E+02
     -1.57359241E+03     -8.34340544E+02     -1.17778406E+02
      2.32829618E+02      6.38842931E+02      2.56847467E+02
      2.38294779E+03     -1.75960566E+03     -3.14847398E+03
      1.16271888E+03      7.84545616E+02      1.14780014E+02
     -4.00650812E+02     -2.24023145E+02      4.73520047E+02
     -1.35556551E+02     -1.05315939E+02     -9.65635503E+02
     -1.92858385E+02     -6.19842619E+02      4.45562263E+03
     -1.24023290E+03     -3.90237192E+02      6.53182759E+02
     -1.72844256E+02      6.52979580E+01      3.49331753E+02
     -7.18130744E+02      1.78642231E+02      7.24577132E+01
     -4.53152382E+02     -1.98965549E+03     -1.24003292E+03
     -4.11240318E+02     -4.34008542E+02      2.02600739E+02
      3.42239585E+02      2.13697271E+02     -4.29777285E+01
      1.28441202E+03      2.02611314E+03      3.51535207E+03
      9.14860607E+01      5.69197794E+02     -2.51678913E+03
      4.74736414E+02     -7.03183834E+02     -5.61990004E+02
      7.28146396E+02     -2.03707348E+03      1.28954853E+03
      1.13051847E+03      6.90098757E+02     -1.60197014E+03
     -4.98136337E+02     -9.33825044E+02      6.57693939E+02
     -1.48010545E+03     -1.51558396E+03      1.05665637E+03
      1.25654224E+03      1.18035279E+02      3.71181668E+02
      1.85154604E+02      3.58141336E+00      7.39746801E+02
     -2.10645119E+03     -2.67271851E+03     -5.78912275E+02
      2.36855428E+03     -1.68868900E+02      1.27812274E+03
     -4.32322179E+02      2.43028370E+02      2.35364730E+02
     -7.46810634E+02     -8.13260101E+02     -3.75960811E+02
     -1.99893079E+03     -2.25097611E+03      2.88878771E+02
     -1.71502545E+02      2.12490957E+02      1.24082122E+02
      1.42961427E+03     -3.10021040E+02     -1.19575712E+03
      3.04230627E+02      5.71788487E+02     -3.51077210E+02
     -1.98892016E+02     -1.85651963E+02      1.33948059E+02
     -6.02352985E+02      1.66324832E+03      2.46805061E+03
     -2.99711224E+01     -2.46371859E+02      1.65280670E+03
      4.36772767E+02      3.09558807E+02     -1.82896445E+02
     -1.84720451E+03     -3.54446973E+03      2.06737919E+03
      3.79842316E+03      1.66576592E+03     -2.74646690E+03
      7.22591781E+01      5.89014463E+02     -2.95997437E+02
      1.07472881E+03      1.66927192E+03      1.42397780E+03
      8.66951499E+02      1.32472827E+02     -1.84993142E+03
      1.64755108E+03     -3.65760074E+02     -1.28145660E+03
      3.75669006E+02      3.36142370E+02     -3.12221869E+02
     -2.35779025E+03      1.27436586E+03      3.20609328E+03
     -5.49786085E+02     -1.50493870E+03      3.79403949E+02
      1.67159416E+03     -4.39358057E+03     -8.02084827E+02
     -8.55395052E+01      9.85043343E+02     -5.78154819E+01
     -7.00523993E+02     -4.09585203E+02     -3.90835574E+02
      4.26625531E+01      4.83054798E+01      8.61990656E+02
     -1.90829963E+02      4.14978182E+02     -1.77916448E+01
     -1.29349294E+03     -1.11201452E+02     -2.13085196E+03
     -6.64914810E+02      4.85429978E+03      3.91934759E+03
     -2.69582084E+02     -3.28405256E+02     -6.30518430E+02
      1.77246061E+03      5.15050345E+02     -7.33522941E+02
      1.98728417E+03     -1.52119718E+03      3.58093742E+03
     -6.13652322E+02      2.01575259E+02      2.55938893E+02
      4.30483485E+03      2.99771812E+03      2.35248978E+02
     -6.38768515E+02      1.31327134E+03     -3.51489210E+02
     -6.99785535E+02     -4.57957097E+01     -8.85417583E+02
      6.40965197E+02      1.12858028E+03      1.45464707E+03
     -1.76835211E+03      2.02026209E+03      1.16853901E+02
     -7.08591683E+02     -2.65551225E+02     -4.62067071E+02
      9.55781859E+02     -2.78560020E+03     -3.34874156E+02
     -4.94560796E+02     -8.32408705E+02     -7.25512161E+02
     -8.75042190E+01     -5.00806998E+02     -1.77657128E+01
     -1.04492123E+03     -2.66858627E+02     -8.65420684E+02
      2.16645639E+03     -3.84399248E+02     -1.99307255E+03
     -3.03827362E+02     -4.63626984E+02      4.39985910E+02
      1.22347954E+03      1.83067268E+03     -1.19265042E+02
      2.34381434E+03     -1.13682283E+03      6.66687257E+02
     -3.28294257E+02     -4.00769339E+02     -2.13706543E+01
      9.61381356E+02     -8.27321016E+02      1.00789275E+03
      1.58887025E+03      8.65364717E+02      2.85308122E+03
     -7.33676858E+02     -1.58407230E+03     -5.57510167E+02
     -9.81458674E+02      4.25243858E+02      3.68723713E+02
      1.03638259E+03     -1.79820520E+03      2.06302709E+03
     -1.61590265E+01     -1.52042262E+03     -8.18988608E+01
     -8.54405540E+02     -2.69485610E+03     -2.45487324E+03
     -3.23313683E+02     -3.12168422E+02     -1.82358863E+02
     -7.27413720E+02      8.16934211E+02     -9.15806095E+02
      1.23623758E+03     -1.06422604E+03     -5.83427976E+02
      2.17050705E+02      3.06563664E+02     -2.89724902E+02
     -2.62960997E+02      1.45280161E+03     -1.37126834E+03
     -1.45807884E+03     -3.05775349E+03      2.02283273E+03
     -4.13717491E+02     -1.92040910E+02      2.66582062E+02
     -1.73507975E+03      8.13433807E+02      3.80009841E+03
      5.30517834E+02     -8.55746153E+02      1.95264849E+03
     -1.06563991E+02     -1.60831376E+02      4.03065320E+02
     -1.29441414E+03      2.23905321E+03     -5.93871182E+02
     -3.83327213E+02     -1.54401469E+03     -1.99346709E+02
     -6.43942993E+02      4.56341956E+02     -6.16153903E+01
     -1.81459675E+03      6.46872232E+01      1.52548344E+03
      1.65430961E+03     -6.19044198E+01     -7.99527163E+02
      4.50168221E+02      1.87075267E+02      4.43330887E+02
      9.79645760E+02     -8.45360384E+02     -7.75758547E+02
      9.98496434E+02     -2.02625599E+03     -2.35669131E+02
     -1.95528730E+02     -6.75743980E+01      4.39419128E+01
      1.56131829E+02      1.64599475E+03     -4.09975429E+01
     -1.56605805E+03      7.12120688E+02      4.11839413E+01
     -5.92658667E+01     -3.60740462E+02     -2.36586654E+02
      1.32644492E+02     -1.08676803E+02      1.95012357E+03
     -1.79267246E+03     -8.71474193E+02      3.50995140E+02
     -1.33884816E+02     -2.76610599E+02      6.05725735E+02
      1.90322540E+03     -1.09846597E+03     -8.85262175E+02
     -4.74513406E+02     -2.36026594E+02     -1.84649065E+03
     -3.19667676E+03      1.93371792E+03      1.48722890E+03
     -2.69591412E+02      3.74782254E+02      1.01513319E+03
      2.99786247E+02     -3.41566132E+03      2.33708842E+03
      1.55851882E+03      1.68386431E+02      4.72477595E+02
      1.09512577E+03     -3.15243148E+02      1.55492645E+03
  }
}

Hamiltonian = DFTB {
  SCC = Yes
  SCCTolerance = 1e-6
  MaxSCCIterations = 200
  ForceEvaluation = Dynamics
  MaxAngularMomentum = {
    C = "p"
    H = "s"
  }
  Charge = 0.0
  SpinPolarisation = {}
  Eigensolver = Standard {}
  Filling = Fermi {
    Temperature [Kelvin] = 300.0
  }
  SlaterKosterFiles = Type2FileNames {
    Prefix = "../../pbc-0-3/"
    Separator = "-"
    Suffix = ".skf"
    LowerCaseTypeName = No
  }
  KPointsAndWeights = {
    0.0000000000000 0.0000000000000 0.0000000000000 1.00000000000000
  }
  Dispersion = LennardJones { 
    Parameters = UFFParameters {}
  }
}

ParserOptions = {
  ParserVersion = 3
}
