Geometry = GenFormat {
<<< "system.gen"
}

Driver = VelocityVerlet{
  Steps = 50000
  TimeStep [fs] = 0.2
  MDRestartFrequency = 5
  Thermostat = None {
    #InitialTemperature [Kelvin] = 300.0
  }
  Xlbomd{ 
    IntegrationSteps = 6 
    MinSccIterations = 2
    MaxSccIterations = 200
    SccTolerance = 1e-6 
  }
  Velocities [m/s] {
     -5.62499392E+02      4.82107097E+02      1.48299615E+02
     -2.04549191E+03     -1.26151222E+03      8.81313532E+02
     -7.72062141E+00      1.17894690E+02      2.56124015E+03
      5.78775108E+02     -8.20617966E+02      2.15036063E+02
     -2.53075723E+03      1.13891865E+03     -5.12307794E+02
      1.69795313E+03      1.32195943E+02     -1.02557285E+03
      5.64429421E+02     -5.17748368E+02      2.84628385E+02
     -1.40069899E+03      8.17747219E+02     -1.40013183E+03
     -1.74620651E+03     -2.16114516E+03      1.59030961E+03
      2.94514714E+02     -3.26562383E+02      1.75225667E+02
      8.63205151E+02     -1.28947712E+03     -7.21593695E+02
      2.25764196E+03     -1.39909695E+03     -1.03921538E+03
      6.19091797E+02      2.56915565E+02     -4.95582192E+02
     -2.43431271E+02     -1.61007273E+03     -5.40367033E+02
      1.11577072E+03      9.64412284E+02      1.64231883E+02
      1.18666847E+03     -9.69143330E+02     -2.71047702E+02
      1.24663355E+03     -6.97949604E+02      4.91413622E+02
      1.92444881E+03     -4.28834266E+02      7.48752709E+02
     -7.01699386E+02      7.62968091E+00      6.87492158E+02
      1.61830398E+03     -1.54162469E+03      1.04605081E+03
      3.47788064E+02     -2.63227617E+02      2.95245160E+03
      3.33747312E+02      4.11301699E+02     -2.18557180E+02
     -1.33666716E+03      5.08677443E+02     -1.01859525E+03
      1.60847778E+03      3.49278770E+01      4.52242196E+03
     -1.69765412E+02     -7.71722000E+02     -5.39033007E+02
      1.46823922E+02     -3.07910395E+02      1.28823475E+03
      5.68785950E+02     -2.77305901E+02     -1.78198836E+03
      7.14016133E+02      2.45497079E+02      9.66548052E+02
     -6.52901897E+01      2.13669276E+02     -2.75406034E+02
     -8.82454459E+02     -5.00279219E+01     -9.87257479E+02
      1.25247416E+03     -4.05536420E+02     -1.25214610E+03
     -5.60318957E+02     -8.52415853E+02     -3.63556422E+02
      5.62643554E+01     -4.55500639E+02      8.04597846E+02
     -3.24066306E+02     -2.34231537E+03     -1.30817041E+03
      2.07945803E+03      2.04690624E+03     -1.37917504E+03
     -2.47220027E+02      3.27854429E+02     -5.64070337E+02
     -2.20246945E+03     -9.91064465E+02      1.13941657E+03
     -2.23103328E+03     -1.38379045E+03     -1.57643077E+03
     -9.50617343E+01     -7.31453864E+02     -1.38474238E+02
     -8.01344836E+02      5.40173174E+02      8.34755424E+02
      1.09480164E+02     -3.09333761E+03      1.70777017E+03
     -3.23931906E+02     -5.60993983E+02     -6.85959643E+00
     -6.21137710E+02     -1.91265104E+03      1.07285903E+03
      1.20399496E+03      3.58840499E+02      1.86008640E+03
     -8.89587348E+02     -5.76512528E+01      4.99480663E+02
     -8.67379774E+02      3.41183116E+03     -2.87826430E+03
      9.86627227E+02      3.00776384E+03      7.79803520E+02
     -9.29725689E+02      5.17761835E+02      6.56253840E+02
     -2.19468554E+03      1.82304024E+03     -2.06059749E+03
     -1.08540755E+03     -1.75029468E+03     -1.21198916E+01
      4.70981690E+02     -1.96358448E+01     -8.17784676E+01
      8.59417789E+02      1.46087156E+03      5.57769468E+01
      5.80955400E+02      2.73573707E+02      9.95188280E+02
     -5.14156280E+02     -2.69007279E+01      1.50737106E+02
     -2.37140098E+03     -2.00223655E+02      1.67460633E+03
     -2.17247966E+02     -1.57045914E+03      5.92211980E+00
      3.10852719E+02     -1.76712967E+02      2.79542835E+02
      4.03886564E+02      2.95773846E+03     -3.65030482E+02
      1.92638011E+03     -9.45568022E+02     -6.07215172E+02
     -1.04293628E+03      2.73944208E+02     -1.73910771E+03
      2.93390780E+02      8.02161227E+02     -6.11748182E+02
     -1.20993595E+02     -3.94376681E+02     -1.53238351E+03
     -8.89675453E+02      1.61133568E+03      5.69884174E+02
     -1.70565633E+03      1.21742942E+03      3.38811148E+03
     -1.08069056E+03     -9.56578295E+01      2.19972246E+02
     -1.12810081E+03      7.73253369E+02     -8.21759179E+02
      7.63771509E+02     -6.32969332E+02     -1.37065136E+03
     -1.78017519E+02     -6.89118008E+02      6.40071627E+01
      2.98719866E+03      4.87297295E+02     -1.99501290E+03
     -3.82776141E+03      7.36132066E+01     -9.84063788E+02
     -2.09450809E+02     -4.26302477E+02      3.29610027E+02
     -1.05244590E+03     -1.33883004E+03      1.27356319E+02
      2.00885087E+03     -2.66579279E+03      2.66471236E+03
     -3.14679827E+02      2.98522432E+02      8.59294439E+02
     -4.10117106E+02      1.77856514E+02     -9.43648771E+02
      1.66514667E+03     -9.38065750E+02      9.60698144E+02
     -4.00794674E+02     -3.09737064E+02     -3.34371484E+02
     -9.62991572E+01     -8.67462958E+02      8.35322284E+02
     -7.51510678E+02     -5.09222342E+02     -1.44943978E+03
     -5.02147543E+02     -5.73501811E+02      9.85998792E+01
      1.63149917E+03     -2.74188083E+03     -2.28548439E+03
      2.14999089E+03     -1.12679251E+03      1.25780028E+03
     -2.90738774E+01     -2.80800901E+02      1.26126073E+02
      2.49538574E+03     -1.83185159E+03      1.62266910E+03
      8.09773001E+02     -1.74249594E+02      1.80401753E+03
     -5.35832707E+02      3.92165694E+02     -6.14901362E+01
     -2.15317031E+03     -4.45227398E+01     -3.37267255E+02
     -1.01624404E+03     -3.87984134E+02     -1.20911839E+02
     -7.94530526E+02      1.34987814E+02     -1.48416153E+02
      2.21568785E+02     -1.38071814E+03     -3.73687813E+02
      6.96989851E+02      2.27963102E+03      1.88526148E+03
      5.11935293E+02      8.54873248E+02      1.11109599E+03
     -7.68376495E+02     -1.10056611E+03      2.40430187E+02
      1.62529840E+01      6.13799481E+01     -1.15670497E+03
     -4.50308507E+02      3.44735850E+03     -8.95490772E+02
      1.08414936E+02     -2.27688554E+02     -8.67422829E+02
     -5.08815380E+01     -3.26763805E+02      1.02756975E+02
      1.76318067E+03     -1.28339632E+03      2.21004281E+03
     -1.21552887E+03      7.54433290E+02      7.97823456E+02
     -2.42839929E+02     -1.10670825E+02      7.04968236E+02
     -2.30925950E+03      5.13036194E+02      9.32490502E+02
      3.58741781E+03      1.57447170E+03      1.32610924E+02
     -4.06312390E+02      6.70267174E+02      4.59317645E+02
     -1.14571387E+03      6.16283325E+02      1.32262886E+03
      1.78557816E+03     -8.62144488E+02     -1.34453641E+03
      1.75189278E+02     -4.40466997E+02      1.15785769E+03
      4.40633545E+02     -1.61177929E+03      7.41259400E+01
      2.63415767E+03      3.48764017E+02     -2.23612878E+03
     -2.54272156E+02      3.38595258E+02     -7.03401815E+02
      1.08922352E+03     -2.64568145E+03      4.09110708E+02
     -1.39257879E+03     -5.93737449E+01      1.49912523E+02
      3.73770219E+02     -1.91919581E+02      3.27548079E+02
     -2.45418124E+03     -6.65016180E+01     -5.47488060E+02
     -1.95096781E+03     -4.75899127E+02     -2.99995954E+03
     -3.05007850E+01      6.23408404E+02     -3.63128483E+02
      1.74912593E+02     -3.61122783E+02     -8.27029691E+02
     -2.99008804E+03      2.27685875E+02     -3.73640317E+02
      3.42398434E+02      4.74768572E+02     -4.67124635E+02
     -1.29732376E+03      2.71040465E+02      2.08207242E+02
     -1.07953448E+03     -1.49434001E+02     -5.72000652E+02
     -5.68434727E+02     -5.79121547E+02      8.36894856E+01
     -4.11524105E+02     -1.88325882E+03      3.77777300E+02
      7.42326676E+02     -4.94145542E+02      3.89758190E+02
      1.61912071E+03      8.91414949E+02      1.27810835E+02
      2.95841758E+02      4.46171841E+02     -4.29655789E+02
     -4.64096308E+02     -1.09677966E+03      1.12500097E+03
      1.51117631E+02     -7.85169234E+02      3.58541058E+03
     -1.85027622E+03      3.99939502E+02     -3.17422114E+03
      3.53213248E+02     -5.08387298E+02      2.24852037E+02
     -2.38477123E+03      1.16662512E+03     -1.92893663E+03
      1.81705567E+03     -7.52162197E+02     -1.31522734E+03
      7.58895334E+02     -5.19499300E+02     -3.13483005E+02
     -5.19886139E+02     -9.27191961E+02      8.58916017E+02
     -2.12889160E+02     -2.54432599E+03     -1.32673908E+03
      1.51653256E+02     -4.49645248E+02      5.87203994E+02
      1.10380768E+03      2.14562460E+02     -1.07163247E+02
      6.99663473E+02      2.38139776E+02     -9.68973698E+02
     -9.17639777E+01     -3.50777517E+02     -8.79213218E+02
     -1.39712925E+03      1.33603101E+03     -2.51962762E+02
     -3.82589805E+02     -1.22649518E+02     -1.25680009E+03
     -2.64380619E+01     -9.49254657E+01      6.65450292E+02
     -3.20696009E+02     -1.10922597E+03     -2.95345638E+02
      1.14956251E+02      1.73873132E+03      4.34743343E+02
      4.21687452E+02      1.33562184E+02      4.16464815E+02
      1.56047922E+03     -5.28580914E+02      1.97754358E+03
     -1.58602595E+02      2.19244146E+03     -1.46092891E+03
      1.65853208E+01     -5.25198171E+02      1.17701797E+02
     -1.50089824E+01      1.54241799E+03      5.10236141E+03
     -6.43603367E+02      1.49097646E+03      7.59818122E+02
      2.16411332E+02      5.47993280E+02      4.99983277E+02
     -1.27626351E+03      2.18870123E+03      4.37450654E+02
     -1.31530671E+03      3.21576355E+03     -2.75731903E+03
     -4.67557624E+02      9.85760733E+00      8.65563460E+02
     -7.42278592E+02      5.23351945E+03     -1.91977795E+03
     -1.06119278E+03     -2.43981353E+02      2.31890771E+03
      3.09044038E+02     -4.19658896E+02      3.50392451E+02
     -6.48203816E+02     -1.72300590E+02     -1.95622943E+02
     -2.48214545E+02      4.77638413E+02     -7.64323919E+02
     -3.67032849E+02     -8.80461479E+02     -2.18130667E+03
      2.36520557E+03     -1.88220691E+03     -1.65629267E+03
     -3.70835557E+02      7.37785864E+02     -2.93154676E+02
      4.42556098E+02      2.33639412E+03     -2.93822973E+03
      4.29073873E+02     -1.34862571E+03      1.04572522E+03
      7.40775522E+01     -2.60336666E+02      1.03860807E+02
     -3.07069995E+03     -1.50747958E+03     -1.13185381E+03
     -5.00429857E+02      8.09831466E+02     -2.48105751E+02
     -4.95504757E+02      6.47830573E+00      2.71974146E+02
     -1.14792534E+03     -6.01512937E+02     -1.22694489E+03
     -2.55624157E+03     -2.84235966E+02      2.21945687E+02
     -1.39947004E+02      1.73968566E+02     -4.98331126E+02
     -1.15254790E+03     -1.67115378E+03     -3.81270019E+03
      1.48425303E+03     -2.57675486E+02      1.93251687E+03
      1.62801377E+02      1.36813623E+02     -1.90644555E+02
     -1.98169378E+03     -2.86307228E+02     -3.14708853E+03
     -3.85461844E+03      1.07697584E+03      2.92933886E+03
      5.92275873E+02     -1.28463683E+02     -7.17522985E+01
     -2.34887706E+03     -2.05802536E+03     -7.58678869E+01
     -5.41130886E+02      1.79315047E+03     -1.09521810E+02
     -6.02596063E+02      5.09873886E+02      4.47445542E+02
      3.02725765E+03      1.87247832E+03      1.13395289E+02
      3.12117473E+02      1.05306786E+03      2.95141928E+02
     -2.38546881E+02     -9.84314530E+00      6.34814466E+02
      4.20032396E+02      1.48120160E+03      9.34461410E+02
      5.34258073E+02      3.01511802E+02      1.37668266E+03
     -2.95436222E+02      4.73974742E+02      3.25944534E+02
     -1.29596027E+03      5.92478156E+02     -1.37594832E+01
      2.41007143E+02      1.23913757E+03     -3.36706114E+03
      2.26295238E+03      1.51754400E+02     -2.86773962E+03
     -6.24191723E+02     -7.80853841E+01     -3.19395801E+02
     -1.23874482E+02      1.00558961E+03     -1.22061626E+03
      3.14301020E+02     -2.98348479E+02      4.25538981E+03
      1.18512635E+03     -1.70765057E+03     -2.42908777E+02
     -4.86762023E+02     -1.29324518E+02     -4.79561018E+02
     -3.25235828E+02      8.00405704E+00     -1.26564835E+03
     -1.94152331E+03      8.08971846E+02      9.12040681E+02
     -4.01392376E+02     -6.41395931E+02      1.94457460E+02
      7.62682080E+02     -1.12572934E+03     -4.05722788E+02
     -1.62208451E+03     -2.59215985E+03      1.00095607E+03
     -5.33056768E+02     -3.15005284E+02      5.81224454E+02
     -1.89842734E+03     -1.81634300E+02     -2.29425575E+03
     -8.84904463E+02     -1.15950504E+03     -1.43375439E+02
      1.14636860E+01      7.18166074E+02      9.88678459E+01
     -1.08322033E+03      2.23281375E+02     -3.58269157E+02
     -1.89645589E+03     -4.60545667E+02      3.17259346E+03
     -9.52820040E+01     -1.33661023E+02     -4.32418869E+02
     -1.27416809E+03      9.15576212E+01      2.66678984E+03
      1.37627972E+03     -8.38508063E+01      2.15721256E+02
      2.50679966E+02     -1.02875377E+02      5.18634679E+02
     -1.33516180E+03      1.12345668E+03     -3.49606219E+02
      3.59167662E+03     -8.72618532E+02     -4.46021226E+02
      6.99448837E+01     -3.50843569E+02     -2.91508798E+02
      9.38498300E+02      7.07200858E+02     -9.63988144E+02
     -1.28786058E+03      1.18300882E+03      3.50492879E+03
     -2.66812561E+02      2.16561545E+02     -2.20644422E+02
     -1.64674582E+03     -9.45661438E+02     -1.04419995E+01
     -1.67930221E+03      6.80185854E+02     -1.27241614E+03
     -2.84549422E+02     -6.62914348E+01     -5.24088779E+02
      3.36282053E+02     -1.24568038E+03     -2.01167858E+03
      1.00543098E+03     -1.12888344E+01     -1.66925344E+02
     -2.04165318E+02      2.60264141E+03      1.73938585E+03
     -6.48796502E+02     -4.12255569E+02      1.32177603E+02
     -5.43835742E+02     -1.56142363E+03      1.49043907E+02
     -9.05181752E+02      1.38813735E+03     -1.12483446E+03
     -1.90532798E+03      7.05801073E+02      6.42653219E+02
     -2.69229394E+02     -2.81659132E+02      1.42911746E+02
      2.69460785E+03      2.54270115E+03     -1.33296488E+03
     -7.06637355E+02      3.64881149E+02      9.30975373E+02
     -1.75944419E+02     -2.39959281E+02     -1.03900327E+02
     -9.32299945E+02      3.78347485E+02      1.34945064E+03
     -1.46357260E+03      9.61539963E+02     -1.10287065E+03
     -4.89145573E+01      2.76894051E+02     -1.28896843E+02
      1.90161761E+03     -2.28075367E+03      1.44256793E+03
     -1.38190928E+03     -1.48693485E+03      5.34523000E+02
      2.31336432E+02      9.19682775E-02     -1.33180990E+02
     -1.48561082E+03      9.23642031E+02     -2.98303771E+03
     -2.12086415E+03     -2.35719947E+03     -1.18082944E+03
     -3.08525335E+02     -8.60904839E+02      1.83894477E+02
      2.44501835E+03      2.41674124E+02     -8.90279412E+02
     -1.29863277E+02     -2.22465428E+03     -3.25213747E+03
     -1.58018443E+01     -6.11247577E+02     -1.24028142E+01
      1.00752602E+02      3.06585081E+02      1.80863858E+03
     -1.85735538E+03      1.42468791E+03     -3.97233466E+03
     -3.22341050E+02     -2.36089193E+01     -1.26266493E+02
     -2.63228195E+03      4.46895213E+01      9.10552440E+02
     -1.36881804E+03      2.66764322E+03     -7.14203301E+02
      6.78402944E+01      3.30206393E+02      7.18769935E+01
      7.24736094E+02      6.72956161E+02      1.57646973E+03
     -2.08368345E+03      1.16010119E+03     -3.63697017E+02
     -2.96667820E+02     -5.94988916E+02     -1.01551739E+03
     -1.33172233E+03     -5.34221438E+01      1.52143863E+03
      2.12994311E+03      2.77140784E+02      2.59250477E+02
     -1.97114700E+03     -1.36558303E+03      1.93705612E+03
     -7.36412342E+02     -5.89242000E+02     -3.48961990E+02
     -4.65457715E+02      2.89682142E+02      2.18013112E+02
     -9.83115298E+02     -2.14505879E+03      7.04033823E+02
     -2.67958347E+03     -3.61658249E+03      1.15252958E+02
     -2.30995198E+02     -2.69061636E+02      4.87933586E+02
     -1.08704859E+02      3.68219917E+02     -4.70228473E+02
     -1.49620805E+03      2.74860298E+03      2.16687415E+03
     -1.00591613E+02     -4.17367252E+02     -4.08003085E+02
     -4.13269433E+02      2.80442778E+02      9.98731224E+02
      1.16683438E+03     -7.19087689E+02     -7.25613048E+02
      1.10312992E+02      2.08609244E+02     -4.48244901E+02
     -1.64037800E+02      1.94866649E+03      1.52697291E+02
     -3.39124912E+02     -1.10630405E+03     -1.78428152E+03
     -2.44804496E+02      2.81731829E+02     -3.64719713E+02
      2.42410395E+03     -1.80568484E+02     -3.15645793E+01
     -1.57414603E+03      1.69287039E+03     -1.30367658E+02
      6.71822345E+01     -8.73218912E+01     -6.59739906E+02
     -1.88127139E+03     -1.75581617E+03     -5.61128513E+02
      1.05154178E+03      8.97451747E+02     -4.98042889E+02
      9.42982468E+02      7.45817221E+01      6.70952120E+02
     -1.94258484E+03     -3.13038504E+02      7.26558192E+02
     -4.33584274E+03     -1.02685104E+03      2.21177660E+02
     -5.65171958E+02     -2.34394615E+02     -5.42342778E+02
     -1.33545200E+03     -7.27878859E+02      1.37068938E+03
     -6.77494647E+02      5.54305866E+02     -5.97428498E+02
     -1.20845999E+03      2.46980939E+02     -6.36508111E+02
     -4.16752395E+02      2.21230498E+02     -1.20918570E+03
     -2.91236890E+03      3.06538227E+03      1.07170573E+03
      1.34655642E+03      1.53833323E+02      6.44057622E+02
      1.24699989E+03      1.45845243E+03      2.66664656E+02
     -5.86669991E+02     -3.99543095E+03     -2.29097430E+03
      1.57651460E+02     -2.38550274E+03      1.34291349E+03
     -1.66869860E+02      8.41392528E+01     -6.04538845E+02
      3.92122919E+03      1.57494522E+03      2.61243317E+02
     -1.25850620E+02      9.31112969E+02     -1.44447609E+03
     -1.75159444E+03      6.77846464E+02      7.58411466E+02
     -5.97128948E+02      2.32338248E+01      5.12162177E+01
     -9.23685035E+02      7.16868529E+01      3.48112220E+02
     -1.20858295E+03      9.31748529E+02      9.60462757E+02
      1.89717784E+02      8.95486069E+01     -4.16831621E+02
     -1.42970776E+03      3.93263986E+02     -5.80755322E+01
     -5.80937986E+02     -4.12048607E+02      7.25604386E+02
      2.07302953E+04      6.31833892E+03     -2.11541840E+03
      3.44284036E+01     -2.76446203E+03     -1.37610417E+03
     -2.03937766E+03      1.92984911E+03     -4.76647413E+02
      5.38944602E+01     -6.03071639E+02      3.19828440E+01
     -2.39727400E+03     -1.25969195E+03     -2.20744150E+02
      8.53201070E+02      1.26622532E+03     -1.49327646E+03
     -3.94973775E+02      2.09554502E+02      4.51577300E+02
      6.63584478E+02      2.27776083E+02     -9.20105195E+02
     -3.10814920E+03     -1.32305385E+03     -1.70945984E+03
      1.40781938E+02     -3.27318893E+02      1.71012197E+02
     -1.44646971E+03      5.01127539E+02     -2.55974510E+03
     -1.04391965E+03      1.30807543E+03      2.30850001E+03
      7.50437808E+02      5.74060642E+02     -4.26757694E+02
      1.44530577E+03      4.28821545E+02      7.16254978E+02
      4.05578341E+02     -1.06537664E+03      2.28063594E+03
     -4.26065081E+02      3.42380288E+02      3.68547750E+02
      1.28638528E+02      1.94882591E+03     -8.36727502E+02
     -7.97166439E+02      1.14353001E+03      1.72609432E+03
     -4.31572543E+02      8.34823227E+02     -3.00128852E+02
     -2.98243963E+02     -1.09719957E+03      4.74739728E+02
     -5.82955983E+02      3.48812217E+03     -1.73431637E+03
      1.82387553E+02     -9.80572985E+02      1.12440480E+03
     -2.65716836E+01      3.23670579E+02      2.80640071E+02
     -5.11162119E+00      2.72743987E+03     -2.75933768E+03
     -1.93897300E+03      3.07622079E+03     -2.21786972E+03
     -3.47981624E+02      1.48722707E+03     -2.19773285E+03
     -8.28700737E+02      8.64561359E+01      1.30713490E+02
     -9.54191618E+02     -1.49344299E+03      3.81180168E+02
      2.75842667E+02     -2.09705858E+03     -2.34789338E+03
     -1.02947719E+03     -1.81277614E+02      4.49253042E+02
     -8.66847983E+01      1.40053579E+03      3.26382661E+03
     -1.90806263E+03      7.02329564E+02      2.65816428E+02
     -2.76584228E+02     -4.90081043E+02     -6.41540248E+02
     -6.67341326E+02      2.73924915E+03     -1.59438034E+03
      2.41319819E+03     -7.32423197E+02     -1.10239048E+03
     -2.37602877E+02      3.81313632E+02      8.05103566E+01
      6.31277675E+02     -1.02964733E+03     -1.66294356E+03
     -7.52679933E+02     -7.32343854E+02     -9.55431167E+02
     -7.56353615E+02      1.29856851E+02      5.46455937E+02
     -1.84569927E+03      1.95094575E+03      2.60126703E+03
     -1.05531588E+03     -2.74177701E+03     -4.84678146E+02
      3.81677884E+02      1.09847102E+03     -3.98985662E+02
     -1.43946503E+03      1.16354740E+03      2.42621994E+03
      1.04964577E+02     -6.30677578E+02      1.37297502E+03
      3.22480716E+02     -3.81167992E+02      1.67628770E+02
      1.06190563E+00     -6.81653052E+02     -1.97081641E+03
     -2.50613438E+03     -2.94677230E+03      6.22519652E+02
     -8.74551091E+02      3.38420276E+02     -3.24572956E+01
      8.05009420E+02     -3.73206533E+02      4.47911558E+02
     -3.13212844E+03     -2.60567312E+03      1.39488294E+03
      1.29770549E+02     -1.35813669E+01      7.38540000E+02
     -2.20285242E+03      5.71489114E+02      2.06066692E+03
      2.51548966E+02      8.34552839E+02     -2.55997019E+02
     -1.65347971E+03     -1.14731890E+03     -2.06935393E+03
     -1.23138012E+02     -4.93204223E+02     -5.54902122E+01
      1.02268930E+03     -7.30994843E+02      2.27334858E+03
      2.13775047E+03     -1.11234731E+03      2.29187041E+03
      1.95945260E+03     -3.48129719E+02      1.87719446E+01
  }
}

Hamiltonian = DFTB {
  SCC = Yes
  SCCTolerance = 1e-6
  MaxSCCIterations = 200
  ForceEvaluation = Dynamics
  MaxAngularMomentum = {
    C = "p"
    H = "s"
  }
  Charge = 0.0
  SpinPolarisation = {}
  Eigensolver = Standard {}
  Filling = Fermi {
    Temperature [Kelvin] = 300.0
  }
  SlaterKosterFiles = Type2FileNames {
    Prefix = "../../pbc-0-3/"
    Separator = "-"
    Suffix = ".skf"
    LowerCaseTypeName = No
  }
  KPointsAndWeights = {
    0.0000000000000 0.0000000000000 0.0000000000000 1.00000000000000
  }
  Dispersion = LennardJones { 
    Parameters = UFFParameters {}
  }
}

ParserOptions = {
  ParserVersion = 3
}
