Geometry = GenFormat {
<<< "system.gen"
}

Driver = VelocityVerlet{
  Steps = 50000
  TimeStep [fs] = 0.2
  MDRestartFrequency = 25
  Thermostat = None {
    #InitialTemperature [Kelvin] = 300.0
  }
  Xlbomd{ 
    IntegrationSteps = 6 
    MinSccIterations = 2
    MaxSccIterations = 200
    SccTolerance = 1e-6 
  }
  Velocities [m/s] {
      5.27233609E+02      8.31541840E+02      1.62469652E+02
     -4.00495369E+02     -2.23420881E+03     -8.01372185E+02
      3.73862659E+03     -7.69402662E+02      9.16182285E+02
     -7.12359361E+01      1.74421008E+02      4.55555615E+02
     -5.92317374E+02      1.16959547E+03      1.92269950E+03
      3.85676728E+00     -2.18138425E+03      2.59066388E+03
      9.02560645E+01     -2.81773467E+02     -1.26286121E+02
     -4.34035762E+02      8.34482474E+02     -5.99934777E+02
      2.65125000E+02      9.57292242E+02      1.76621385E+03
      2.87599464E+02     -7.93749947E+02     -1.07497296E+02
     -2.22517901E+03      2.24482828E+02      1.75961668E+03
      9.29580012E+01     -4.14070005E+02     -3.56675191E+03
      1.84698476E+02      1.75982250E+02      7.79149720E+00
     -6.76393330E+02     -2.47449001E+02     -7.88706323E+02
      1.90265582E+03      2.96069193E+03     -1.42255943E+03
      7.31934719E+02     -3.31558631E+02      9.30433900E+02
     -2.43676255E+03     -2.43432843E+03     -1.71591558E+03
     -9.71777979E+02     -5.06217319E+02     -1.45373076E+03
      1.35504963E+02     -3.18162002E+02      7.03341840E+01
      4.54235505E+02     -1.30694767E+03      1.56905932E+03
      8.61731832E+02     -2.47164590E+03     -1.14385861E+02
      1.11702071E+02     -2.08717330E+02      7.24801844E+02
      6.26378701E+02     -2.55918736E+03     -7.84017630E+02
     -3.52986913E+03      5.76555516E+02     -1.42230814E+03
      7.93298495E+02     -2.28755168E+02      7.48598192E+02
      6.32444814E+02     -4.52679351E+02      8.28650731E+02
      3.40569035E+02     -1.38685820E+03      2.20560691E+02
      3.97130342E+02      5.15312774E+02      4.36633195E+02
      8.87178140E+02     -9.32809186E+01      8.46899059E+01
     -1.01645489E+03      2.33903829E+03     -8.23336279E+02
     -2.62405544E+03      2.56848575E+03     -2.39354859E+03
     -9.39733277E+01      4.75476889E+02     -9.60032162E+02
     -1.00299622E+02      3.50786064E+02      8.94760793E+01
      1.75712543E+03     -3.20909444E+03     -9.38476199E+02
      4.46625580E+02      2.75744247E+02     -3.41984256E+02
     -5.51006583E+02     -1.63302421E+02     -3.48627377E+01
     -3.53947026E+02      2.02051341E+03     -6.98002156E+02
      5.17211159E+02      5.31949075E+02     -1.72464375E+02
      6.98814543E+02     -4.00935673E+02      4.07906015E+02
      4.49455718E+02     -1.06627730E+03      1.77536833E+02
      2.71246142E+03     -9.00604183E+02     -1.36909006E+03
     -1.27446429E+02     -1.67251863E+02     -9.71643604E+01
     -4.93607610E+02     -1.78874102E+03      7.13341081E+02
      1.28785553E+03     -1.54085289E+03     -2.31728083E+02
      3.03878754E+02     -3.86633990E+02     -5.03255135E+02
     -3.45400467E+03     -2.33880370E+03     -1.58557343E+03
      1.63891245E+03     -1.21238954E+03     -1.26867166E+03
      1.78662301E+02      1.49634750E+02      4.22314805E+02
      1.23222946E+03     -9.19246023E+02     -6.07047874E+02
      9.05995436E+02      3.08370734E+03     -2.66998386E+02
      6.04945048E+02      3.35460606E+01     -1.46924523E+01
     -1.03357151E+03      1.94166969E+03     -1.26813487E+03
      1.03878302E+03     -2.10508761E+03      1.24358270E+03
      3.39525801E+02      2.00385172E+02      2.72068375E+02
      1.89874907E+03      2.84215958E+03     -2.99333483E+02
     -1.92401187E+03     -6.67993773E+02      1.07383827E+03
     -9.46854651E+02      1.99911006E+02     -9.35989287E+02
     -1.37782669E+03     -8.92545370E+02     -1.54541476E+03
     -2.09530274E+03     -2.16347902E+03      1.28371836E+03
      2.41319700E+02     -6.41777426E+02     -1.52168194E+03
      1.06873404E+01      2.16091564E+02     -2.10103764E+02
      2.30541404E+01      8.22045422E+01     -2.33668454E+03
      4.25562401E+02      1.49901111E+02     -4.41923569E+02
      7.17996208E+02      5.30870381E+02      1.94701711E+03
      1.91310531E+02      7.27423795E+01     -3.75399727E+01
      2.75138052E+03     -5.77941769E+02     -5.05450366E+02
      1.89664056E+03      5.61823267E+02      1.46400743E+02
      4.22838228E+02     -4.02794069E+02     -2.55284650E+01
     -1.43154878E+03      1.66859828E+02      1.71509025E+02
     -2.42282998E+03      1.17522249E+03     -1.74361288E+03
     -3.48342378E+02     -2.97234888E+02      1.54246798E+02
     -1.18796695E+03      1.07234977E+03      2.67335556E+03
      1.34841915E+03     -1.34971492E+03     -1.89276146E+02
     -1.80330617E+02     -3.46147385E+02     -4.87116775E+02
     -1.40580841E+03      1.48121289E+03     -5.61735479E+02
     -6.70723559E+02      1.63893464E+03     -8.22730311E+02
     -4.49328991E+02     -4.29539921E+02      4.27112615E+02
      1.98940544E+03     -1.40224027E+03      8.23365060E+02
      1.20291500E+03      3.21901492E+02     -3.74398421E+02
      2.73458201E+02      3.69147593E+02     -8.10221163E+02
     -1.28536178E+03      1.06541096E+03     -1.15251550E+03
     -6.29262635E+01     -4.73205246E+03     -2.57111102E+03
      7.41084285E+01     -5.20178544E+02     -3.70687069E+02
     -8.44376293E+02     -2.76031473E+03     -1.40374607E+03
      3.85685941E+03     -1.07949787E+03     -1.26735165E+03
      8.77791635E+02     -6.44130812E+02      1.47056220E+02
     -7.80568212E+02     -1.11890205E+03      2.01828117E+03
      1.64370243E+03      1.27758540E+03     -9.70986764E+02
      1.09069141E+02      7.93972705E+02     -5.95760105E+02
     -2.52591866E+03      9.98688645E+02      5.18381957E+01
     -5.97862035E+02      7.00457795E+02     -6.88270454E+02
     -3.07683304E+03      1.25350492E+03      2.14684394E+03
      8.70148412E+02     -3.43626917E+02      4.68210487E+02
     -6.53544851E+02      2.26425776E+03      8.99056930E+02
      6.96382144E+02      6.08992972E+02      3.45041210E+03
     -9.76338253E+02      1.92481515E+03      1.82208672E+03
     -7.79058180E+01     -6.08329553E+02      1.02549826E+01
     -4.40821650E+01      8.03695659E+02      1.90662762E+03
     -1.18564166E+03      1.02060438E+03     -9.04637742E+01
     -5.74170471E+02     -1.18195338E+02      5.96645371E+02
      4.38886766E+02     -1.52290674E+03      1.18197896E+03
      2.99072041E+02      2.20014765E+03      8.79976276E+02
      8.53416061E+02     -3.78478350E+02     -8.03157534E+02
     -8.04314434E+02     -2.35183622E+03      1.44157338E+03
     -7.88204482E+02      3.99187737E+02     -1.07541093E+03
      8.16439164E+02      1.76875652E+02     -2.45625090E-02
      1.46672749E+02      1.17334433E+03      1.33757665E+02
     -1.84063328E+03     -1.91841679E+03      2.79933679E+03
      6.70727188E+02      3.43308412E+02     -2.19050390E+02
     -9.95355418E+02     -3.89486442E+02     -1.11553056E+02
     -1.22550695E+03     -1.59196366E+03      2.91601169E+01
      1.21279633E+02      3.15504010E+01     -3.80702019E+02
     -7.79624544E+02     -4.57665273E+02      5.61263292E+02
     -3.43454402E+03     -8.69861790E+02     -4.95598482E+02
      3.76459946E+02     -5.84567007E+02      2.11999849E+02
     -1.12005270E+02      2.45951935E+03     -1.87354363E+03
      5.52920369E+02      1.65965244E+03     -7.88892815E+02
     -9.87414044E+00     -1.54437256E+01      1.26397431E+03
     -3.30938776E+03     -2.91965802E+03      6.25000820E+02
     -1.11735422E+03      3.25988885E+03      8.30012903E+02
      1.91801553E+02     -2.84240735E+02      5.63806420E+00
     -2.21794350E+03     -1.37511986E+03      1.67100921E+03
     -9.54786853E+01     -3.92014024E+03     -2.43397541E+03
      1.65031982E+03      2.36477965E+03     -2.71696503E+03
     -1.87658591E+02     -2.98444080E+02     -1.23621951E+02
     -3.14626155E+02      2.13143193E+02      4.60456065E+02
     -2.02419756E+02     -8.21739330E+02      2.36000102E+03
     -7.84907223E+02     -7.57490862E+02      1.37632910E+03
      1.81659871E+02     -5.26545608E+02      5.45904474E+02
      3.60879901E+03     -1.33820713E+03     -1.49524282E+03
     -2.37664208E+03     -3.11164391E+03      1.94565984E+03
     -2.81322893E+02      6.04060280E+02     -1.42318141E+02
     -2.75891033E+03     -8.05178746E+02      2.20581560E+02
      6.13999675E+02     -7.42224730E+02     -1.37342799E+03
      6.79874045E+02      2.41512986E+02     -2.90692835E+02
      6.45827336E+02     -8.97228753E+02      2.10604022E+03
     -2.38842285E+03      2.59051580E+03     -2.37468072E+03
     -5.20133930E+02     -3.40483705E+02     -1.00851375E+02
     -5.79029879E+02      3.71654836E+03     -2.88038020E+02
      2.04918058E+03      3.40095489E+03      9.45385002E+02
     -2.58820511E+00     -6.68393151E+02      5.20621514E+02
      2.10327087E+02     -1.12157610E+02     -3.28250954E+03
     -1.10176049E+03      1.11102040E+03     -6.93115993E+02
     -1.28799174E+02     -9.31196092E+02      7.60725454E+02
     -8.22653973E+02     -1.41838789E+02     -1.14475209E+03
     -5.80658109E+02     -3.14782991E+03     -1.26814857E+03
     -3.23925676E+02     -4.89443199E+02      2.30054736E+02
     -1.83086862E+03     -6.58991021E+02     -2.99995266E+03
      2.32619949E+03     -6.94874220E+02      9.27071911E+02
     -8.97881049E+01      3.69233138E+02     -1.66673693E+02
      7.62042550E+02     -1.42449826E+03     -2.20370275E+03
     -1.34214740E+03     -8.74837785E+02     -2.24383311E+02
      1.68431687E+02      1.40123332E+02      1.86026676E+02
     -1.40206705E+03      5.31951816E+02      5.47481569E+02
      1.15349031E+03     -1.63112820E+02      3.77348212E+03
     -5.89545666E+02      9.68857411E+02      9.33523315E+02
     -1.69131284E+02     -2.43951297E+02      8.86552008E+01
      3.48165071E+02      6.00934935E+02     -7.38836088E+02
     -6.93055358E+02     -3.70526036E+02      1.66312826E+02
      2.63320892E+03      8.93541028E+02     -1.30461944E+03
      1.26304988E+02     -4.73965905E+02     -6.90050275E+01
      3.40576053E+03      9.10575119E+02      1.66291840E+03
      6.98972271E+02      1.23249500E+02      1.00367999E+03
      5.24363287E+02     -8.22319395E+02     -2.50960369E+02
      1.97973510E+03     -5.84216806E+02     -5.36972667E+01
     -1.53322366E+03      1.78462708E+03     -4.29986412E+02
     -1.06255266E+02     -8.37613769E+02      6.82436453E+02
     -1.39249359E+02     -1.52896113E+03      1.10539362E+03
     -1.35064815E+03      7.67565807E+02      2.01986614E+02
     -5.22869491E+01     -7.60756161E+02      2.31538538E+02
     -2.73742707E+02     -1.11275531E+02      8.54646223E+02
     -2.30438793E+03     -5.82084559E+02      5.66865726E+02
      8.52827070E+02     -3.78188025E+02     -9.67021272E+02
      1.22880781E+03     -1.92137039E+03      6.69634414E+02
     -1.40618660E+02     -3.60633385E+02      2.71021107E+03
     -1.93739966E+02     -3.38456374E+02      3.78987824E+02
     -2.35621151E+03      1.21117279E+03      2.85694634E+02
     -1.07311308E+03      1.20509565E+03      9.34545300E+02
     -6.19838726E+02      8.01506436E+02      4.21214908E+02
     -8.13586062E+01     -1.74499476E+03     -8.02316554E+02
      2.44212473E+03     -2.49723934E+03     -1.28550479E+02
     -1.07515003E+02      2.79541814E+02     -5.85887375E+01
     -3.85472314E+02      1.30157582E+02      3.34498327E+03
      1.16604925E+03     -4.37780077E+02      4.17786215E+02
      5.05973989E+02      9.61436465E+01      1.37522310E+01
     -1.11482082E+03     -1.23099576E+03      1.25009499E+03
      1.85005476E+03      2.47613255E+03      7.55430464E+02
      9.11168925E+02      1.63232074E+03      5.88027838E+02
      8.13048455E+02     -4.69035534E+01     -2.33467983E+02
     -6.38792996E+02     -3.17270333E+02     -2.09979885E+03
     -1.38351432E+03     -4.47942966E+02     -1.93260257E+03
     -8.41948841E+02      2.52655672E+03      4.29583007E+02
      3.93548946E+02     -8.63126534E+02     -5.96754126E+02
      1.15502287E+02     -2.06460676E+03      3.03921488E+01
      4.69743707E+02      2.35976196E+03      2.80626901E+02
     -5.67274127E+02      1.35652135E+02      7.03377452E+02
      2.55901472E+03     -8.29716224E+02     -1.30165661E+03
      1.60720087E+03     -3.60027365E+03      1.46566653E+02
      8.10935613E+01      4.03847253E+02      6.77239511E+02
     -1.38651013E+03      1.67933285E+03     -2.29681377E+03
      2.04047000E+03      4.02342578E+02      3.12248552E+02
     -9.06100976E+02     -1.77732438E+02     -9.01052308E+01
     -1.32983974E-01     -2.62356415E+03     -7.52601309E+02
      4.81207477E+02     -3.07436299E+03      5.94179576E+02
     -4.41074492E+02      1.28869387E+02     -2.09642284E+02
     -8.87152453E+02     -8.44731954E+02      1.37669485E+03
     -4.17930317E+02     -3.04057756E+03     -1.12108584E+02
      3.02165215E+02     -4.88681543E+02      8.67177559E+02
      5.93216125E+02      1.45744328E+02     -1.22151288E+03
     -1.07244274E+03      1.42146194E+03     -3.63829504E+02
     -4.15725717E+02     -5.17775489E+02      2.21783270E+02
      2.40307783E+03      4.92859466E+02      3.13602120E+03
      8.07991510E+02      1.58785565E+03      3.86866082E+02
     -2.78145227E+02      1.08950554E+02      5.39449905E+02
      5.80705106E+02      1.70200016E+03      1.72557445E+03
     -1.46585013E+03      2.31919262E+02     -9.61456393E+02
     -1.81947429E+02      6.78221087E+01     -4.68198882E+02
     -5.71538307E+02      3.75758118E+02     -9.62353537E+02
     -1.74897593E+03     -5.31166109E+01      1.06978030E+03
     -2.26977915E+03     -9.38350834E+02     -7.67825543E+02
     -8.64835921E+02     -1.82497336E+02      4.33903967E+02
      1.09548318E+03     -1.94152026E+03     -3.12231083E+03
     -1.38288655E+03     -1.64255716E+03     -9.43475601E+02
     -5.09204258E+02      2.73323655E+02      2.02613968E+03
      5.86937145E+01      6.06728278E+02     -1.70742213E+02
     -1.38571918E+03      1.53410035E+03     -1.53370528E+03
     -2.35248083E+02     -5.15323629E+02      1.49467596E+03
      6.87843213E+02      3.62467688E+02     -7.96304479E+01
      1.17578548E+02      6.19873105E+01     -1.54404288E+02
      2.49329063E+02     -1.21481262E+03     -1.64835891E+03
     -4.72919108E+02      1.08287272E+02      1.56463250E+02
      7.45520431E+01     -1.39549967E+03     -6.51677747E+02
      2.02889166E+03      2.88922412E+03      3.17017080E+03
      2.11820707E+02     -5.28444199E+02      5.74589769E+02
      1.82968725E+03     -4.67164963E+01      1.64852602E+03
      2.88989050E+02      1.22081963E+03     -3.90539510E+02
     -8.27065405E+02     -1.00007997E+03      1.25815499E+01
     -1.25734179E+03     -1.04007952E+03      1.35671815E+00
      9.16958219E+02     -1.96759407E+03      2.38087432E+03
      3.72605230E+00      3.65486375E+02      3.07419262E+02
     -7.65153553E+02     -9.86019899E+02      1.21506315E+03
      1.34062486E+03      6.35238576E+02     -2.38768295E+03
     -7.95181688E+03      1.48055707E+04     -1.38904830E+04
     -6.51270141E+02      2.12578525E+03      1.11228978E+03
      9.55018647E+02     -1.35841672E+03     -3.58876644E+02
      6.95201040E+02      5.66351581E+02      7.38626618E+01
     -5.49233040E+02     -3.53997107E+02     -1.49660214E+02
      1.94829844E+02     -6.49864917E+02      2.92510667E+03
     -2.69439640E+02      7.79012009E+01      6.18183781E+01
      2.25357607E+03      4.30032414E+02      9.43626689E+02
      2.80101175E+02      8.11108240E+02      1.13659681E+03
     -1.59123858E+03      1.04108634E+03      2.39881213E+02
     -8.60457784E+01      4.18159549E+01      4.16152386E+02
     -2.13672474E+03      1.92688432E+03     -4.28702801E+03
      3.26947097E+02     -1.75993832E+03     -2.19154567E+02
     -5.74051831E+02      7.63130104E+02      8.65871304E+02
     -2.57363839E+02     -2.69166810E+02      4.92771180E+02
     -1.65497300E+02     -2.74140459E+02      3.15006091E+03
     -4.48095819E+02     -1.85027125E+03     -8.63622072E+02
     -4.68130129E+01     -3.68840472E+02      4.52762782E+02
     -2.44453147E+02      4.84244509E+02     -8.20362040E+02
      2.05027514E+03     -1.30118572E+03     -5.01216120E+03
      1.63782620E+02      4.67853824E+02      6.77709948E+02
     -1.20372642E+03      2.58930442E+03      1.36462955E+03
      9.28095001E+02     -2.59752513E+03      2.17255942E+03
      9.70861958E+02     -3.19434683E+01     -4.31158556E+02
      1.16109017E+03     -1.67975476E+03      1.41717593E+03
     -7.03839250E+02     -2.97261827E+03      7.47274477E+02
      2.06987690E+02      7.17620894E+01      2.34001158E+02
      1.69587372E+03      3.23038303E+02      1.26248791E+03
      2.14414326E+02     -2.74963074E+03      2.80283372E+03
      3.94942214E+02      1.82875617E+02      2.04331504E+02
     -3.37070247E+03      1.18229921E+03     -6.87235046E+02
      2.78787488E+02     -2.50840134E+02     -3.86876549E+02
     -2.56948786E+01      4.84346851E+02      4.33848816E+02
      2.01031137E+03     -1.80772436E+02      1.32472607E+03
     -1.87942520E+03     -8.44126666E+02      3.70782799E+01
     -2.12364164E+02     -6.24453626E+02     -1.17824647E+02
     -2.31132240E+03      6.23526884E+02     -7.48702553E+01
      2.08327800E+03      2.26045179E+03     -1.99491100E+03
     -4.65634144E+02      4.41688960E+02      1.30912544E+02
     -5.05961330E+02     -6.35218364E+02      2.14752796E+03
     -1.93016811E+03      1.60940114E+03     -2.01595656E+03
      9.85534196E+02      2.14677442E+03     -4.17876249E+02
      3.25266251E+02     -7.39365793E+02     -8.64676248E+02
     -3.93664781E+03      1.17679020E+03     -3.39883431E+02
      1.17955520E+03      3.36439501E+02      9.49303529E+02
     -2.68133958E+03     -1.16403531E+03     -2.09138740E+03
     -3.10449849E+02      1.01306645E+03      5.47529587E+02
      2.56990916E+03      7.28800562E+01      6.22758624E+01
     -2.38658329E+03     -4.32949024E+02      1.79887551E+03
      2.74426792E+02     -5.54806202E+02     -2.17533666E+02
      4.34327831E+02     -8.59947426E+02     -1.15162138E+02
     -2.57723892E+02     -1.18377562E+03      7.36688813E+02
      4.84272587E+02      3.26074526E+02      4.12117547E+02
     -3.95419024E+02      2.38924806E+03     -4.93746238E+02
      2.55634784E+02     -3.56199538E+02      1.52925393E+03
      3.56101792E+02     -1.22774747E+02      4.26222159E+02
     -2.80979621E+03     -1.22877343E+03      2.36863545E+03
     -1.74612378E+03     -4.94841826E+02     -5.66338793E+02
      2.72684175E+02     -8.57331777E+02      1.12936650E+02
      6.57083741E+02     -1.20338191E+03      4.79407160E+03
      2.56349711E+03      2.73352690E+02     -1.08372607E+03
      2.16202114E+01     -1.36979029E+02      1.25845973E+02
      6.95525145E+02      2.00623069E+03     -2.68814703E+03
      1.72665255E+03     -1.08367779E+03     -1.78749765E+02
      7.51920335E+02     -2.25955525E+02     -9.90482307E+00
     -1.57493533E+03      6.19988011E+02      1.96405731E+03
      1.77992217E+03     -3.09085684E+03      1.14353766E+03
     -6.30480871E+02      8.32968461E+02      6.16055148E+02
      3.28248667E+03     -2.99288074E+02      3.20516037E+03
     -1.93690020E+03     -8.00409449E+02     -1.11920032E+03
      4.81662383E+02      7.88945411E+01     -4.67450429E+02
     -1.13895545E+03      1.05399612E+03     -2.22956700E+03
     -2.18388288E+03     -8.89431788E+02      1.36325139E+03
     -8.90743790E+02     -2.01893165E+02     -1.23208322E+03
     -5.46811817E+02     -6.32902299E+02      4.31496788E+02
     -8.76487789E+02      2.17219639E+03      3.94725083E+03
      8.64881119E+02     -1.37154668E+03      5.25174355E+02
     -7.85478129E+02      1.43524517E+03      2.08919951E+03
      1.49319739E+02      9.99718450E+01      2.98685016E+02
      1.60856976E+03      3.61670122E+03      1.51871846E+03
      4.21765242E+02     -7.25548600E+02     -7.54575388E+02
      1.21644261E+03      7.54379302E+01     -1.44798840E+02
      2.12936609E+02     -2.95123252E+03      1.66979335E+03
     -3.53291456E+03      2.72663957E+02      4.27500934E+03
      9.53671143E+01     -1.97583123E+02      1.62673818E+02
      7.79134788E+02     -1.02608782E+03     -1.38284597E+02
      1.20404476E+03      3.22967802E+02      3.35345978E+03
      5.49893067E+02     -4.98650780E+02     -4.49763071E+02
     -2.11551745E+03     -8.66661912E+02      1.25371096E+03
     -1.13081173E+03     -3.73156383E+03     -1.50846283E+03
     -4.72094373E+02     -4.26148171E+02      1.09996769E+02
     -1.83490212E+03      8.54679260E+02      9.73420059E+02
      2.49814707E+03     -1.43630581E+03     -1.44537151E+03
     -4.19107040E+02      1.01278917E+02      5.39596172E+02
     -8.65867126E+02     -6.50730013E+02     -5.09995379E+02
      6.12196024E+02     -3.08552640E+03     -5.35669211E+02
     -1.28232834E+02     -8.40017779E+01      3.31437399E+02
      3.16545747E+02     -9.91033565E+02     -2.32809820E+03
      1.16127625E+02     -6.36354712E+02     -1.82355257E+03
     -5.54982855E+02     -1.83047761E+02      3.41581511E+02
     -6.64900076E+01     -2.75098339E+03      5.30556211E+02
      2.61206486E+03     -8.15873167E+02     -4.84239734E+03
      2.63941068E+02      1.08857891E+02      3.06319106E+02
      1.23565247E+03      6.42671870E+02     -7.77291776E+02
      1.60832684E+03      6.55845516E+02      3.02844576E+02
      1.61809704E+03     -1.01807300E+03     -1.76952265E+03
      2.71057289E+02      1.30210450E+02      6.42180076E+02
      2.40725370E+03      6.38623079E+02      5.08942773E+02
     -1.40612065E+03     -3.00050951E+03     -2.87245931E+03
      1.27772549E+03      3.31088074E+02      2.70304923E+03
  }
}

Hamiltonian = DFTB {
  SCC = Yes
  SCCTolerance = 1e-6
  MaxSCCIterations = 200
  ForceEvaluation = Dynamics
  MaxAngularMomentum = {
    C = "p"
    H = "s"
  }
  Charge = 0.0
  SpinPolarisation = {}
  Eigensolver = Standard {}
  Filling = Fermi {
    Temperature [Kelvin] = 300.0
  }
  SlaterKosterFiles = Type2FileNames {
    Prefix = "../../pbc-0-3/"
    Separator = "-"
    Suffix = ".skf"
    LowerCaseTypeName = No
  }
  KPointsAndWeights = {
    0.0000000000000 0.0000000000000 0.0000000000000 1.00000000000000
  }
  Dispersion = LennardJones { 
    Parameters = UFFParameters {}
  }
}

ParserOptions = {
  ParserVersion = 3
}
