Geometry = GenFormat {
<<< "system.gen"
}

Driver = VelocityVerlet{
  Steps = 50000
  TimeStep [fs] = 0.2
  MDRestartFrequency = 25
  Thermostat = None {
    #InitialTemperature [Kelvin] = 300.0
  }
  Xlbomd{ 
    IntegrationSteps = 6 
    MinSccIterations = 2
    MaxSccIterations = 200
    SccTolerance = 1e-6 
  }
  Velocities [m/s] {
     -9.69249496E+01      3.61132368E+02     -3.94809891E+02
      2.58142893E+02     -8.44732245E+02      7.60900449E+02
      3.92656534E+02     -2.26901295E+03     -6.37560230E+02
      4.24330290E+02     -5.34219612E+01     -6.50732233E+02
     -8.07772981E+02      3.31428644E+03     -2.29833329E+03
     -3.65568608E+02     -1.84585900E+03     -1.33876359E+03
     -5.89108205E+02     -7.26907490E+02     -7.51268092E+02
     -1.11472765E+02      2.37713876E+03     -1.11025296E+03
     -4.01509978E+03      9.37087685E+02     -2.23561373E+02
      3.69539057E+02      4.01069015E+02      5.52334521E+02
      7.34759952E+02      2.32109286E+03      1.81024765E+03
     -4.46254264E+02     -3.26753812E+03      6.91531000E+02
     -5.24062602E+01      2.82045297E+02     -4.62945617E+02
     -7.01228260E+01      9.79431386E+02      2.45599328E+03
      2.85744469E+01     -2.38202592E+02     -1.06465497E+03
      6.10228801E+02     -2.44623024E+02      5.02078895E+02
      6.32120624E+02     -5.55453012E+02     -1.17492762E+03
      2.12360332E+03      1.49752229E+03     -4.91337615E+02
      2.00988383E+02      2.99142916E+01      2.09348538E+02
      1.07529252E+03      7.45272064E+00     -3.06917185E+02
     -8.47006496E+01      1.57192459E+03      8.20816934E+02
      4.06326849E+02      2.12732512E+02     -3.11614614E+02
     -1.60360443E+03      7.80472134E+02      6.97707962E+01
      1.21763111E+03      1.88084999E+03      1.22670985E+03
     -3.39679948E+02      2.07256087E+02      3.53341710E+02
     -3.07198869E+02     -1.35820899E+03     -2.02637296E+03
     -3.70082741E+02      1.07787415E+03      2.62286894E+03
      1.56529811E+03      2.86363648E+03      8.50253583E+02
      1.02735969E+03     -2.11792340E+02      4.75095545E+02
     -8.78836588E+02      1.09513749E+03      4.94308947E+03
     -2.39586142E+02     -4.47136991E+02     -3.19645984E+02
      1.20095158E+03      8.51163390E+01     -1.95467499E+03
      3.31266914E+02     -5.63966026E+02     -2.28165056E+02
      1.02058272E+02     -5.36397008E+02     -8.93338597E+02
     -9.36214840E+02      1.04243879E+03     -2.86405047E+03
      6.46604599E+02      3.23999813E+02     -4.14019628E+02
     -1.75680108E+02     -1.69122787E+03     -1.77382014E+03
      2.27453752E+03      1.82102538E+02      7.06069977E+02
     -2.86381095E+02     -2.21015890E+02     -4.73139740E+02
     -1.53641097E+02     -1.40996104E+03     -2.04636182E+02
      1.04845003E+03      4.69505501E+02     -2.67580853E+03
     -6.01472291E+02     -4.31744442E+02      1.82053087E+02
      1.85012437E+03      5.68231884E+02      5.26186704E+02
     -2.81957860E+03      1.33858240E+03      2.39711203E+03
      1.02183086E+03      3.79606093E+02      8.04181421E+02
     -1.13480075E+03      4.92535439E+02     -2.05189635E+03
     -9.52495827E+01     -2.15496019E+02      8.47623965E+02
     -4.86620217E+02     -2.21809830E+02     -2.29866742E+02
      2.56202839E+03      1.83105974E+03      1.74759422E+03
     -1.73269465E+03      5.09644845E+02     -8.10044825E+02
      6.54180018E+01      1.44726696E+02      4.95852009E+02
     -6.48497244E+02      9.56266712E+02     -1.36883968E+03
      5.20561457E+02      1.10439573E+03     -2.51798585E+03
      4.83765742E+02     -3.46051294E+02      1.43209286E+02
      1.09407590E+03      5.13124837E+02     -1.42918391E+02
      2.18978494E+03     -5.15612161E+02     -1.49123827E+03
     -1.14115144E+02     -6.74834142E+01     -2.65527142E+02
      1.25475116E+02     -1.87475307E+02      6.66282879E+01
     -6.19517360E+02     -6.56269023E+02     -1.09505495E+03
      1.03481367E+03      2.01147730E+02      2.49105465E+02
     -7.28618361E+02      4.97983165E+02      3.08707187E+01
      1.81348481E+02     -1.54102476E+02      1.97540864E+03
     -1.57222067E+02     -2.83235797E+03      1.26860605E+03
      1.29819225E+02     -1.57913846E+03      5.99056663E+02
      1.57689735E+01     -2.91610048E+02     -4.56745959E+02
     -2.01874312E+02     -8.42706464E+02     -1.85489093E+03
     -1.98364305E+03     -1.10688251E+03     -1.95119047E+03
     -2.77144358E+02     -5.92301541E+02      3.12776629E+02
      4.36480036E+02      2.36533074E+03     -7.26816784E+02
     -1.97895422E+03     -1.78589371E+03      1.76473400E+03
      9.36728067E+02      4.61024173E+02      5.63089692E+01
     -7.68367312E+02      1.75346285E+03     -2.00983899E+02
      3.27320683E+03      2.90322610E+02     -7.78906425E+02
      2.18756619E+02      6.25365847E+02     -4.57825099E+02
      2.62112152E+03      2.50243202E+02      1.23242938E+03
      2.49068850E+03     -1.02556024E+02     -6.71073801E+02
      1.35408992E+02     -4.67004082E+02     -2.86091698E+02
      2.75786237E+03      1.94590609E+03      2.76954755E+02
      2.26402044E+03     -8.41646855E+02     -3.45059813E+03
     -2.61793237E+02      3.48307832E+02      1.20233102E+02
     -2.21432092E+02     -2.32857526E+03      4.68109605E+02
     -4.33416861E+02      8.28047984E+02     -1.20315569E+03
      6.59856549E+01     -4.85867448E+02      1.54176588E+02
      1.31051641E+02      1.43122709E+02     -1.45572768E+03
      9.48081062E+02     -1.26393597E+03     -1.30411251E+03
      1.11670527E+02      3.35827634E+02      2.28128413E+02
     -2.87760891E+02      9.29200660E+02      2.45006933E+03
      1.80576349E+03      4.60879450E+03      3.77400179E+02
      1.13951188E+03     -1.65817859E+02     -3.44757661E+00
      1.54547613E+03     -2.89904267E+02     -5.51972735E+02
     -1.64925896E+03     -8.60848796E+02     -1.49862691E+03
      1.35629817E+03      7.88297008E+02     -1.20103894E+02
      3.39428979E+02     -3.10588202E+02      4.33415368E+02
      3.96792341E+02      1.89972838E+03      1.28126297E+03
     -2.59166430E+03     -3.05569587E+02      2.66197241E+03
      3.51669578E+02      2.53249715E+03     -1.73890376E+02
      1.04472572E+03      2.13617309E+00     -7.25764012E+02
      1.48830487E+03     -1.97181168E+03     -1.02855317E+03
     -2.76485017E+02      1.56234252E+03     -4.75482996E+02
      4.25374161E+02     -2.55939314E+02     -5.40585980E+02
      1.00846553E+03     -2.80086401E+02      6.60737509E+02
      1.21384660E+03      2.50302216E+02     -2.54646889E+03
     -5.87468774E+02     -1.48787481E+02     -4.75040165E+02
     -6.94168777E+02     -6.73777541E+02      2.20494680E+02
      2.33883647E+03      1.08850591E+03      2.12683672E+03
      6.79788401E+02     -4.61001407E+00      3.74313803E+02
      2.47036507E+03      1.76134380E+03      2.25347922E+02
     -3.20192921E+02     -1.38484883E+03     -1.79057385E+03
     -5.12931094E+02     -4.56893788E+02      4.55795326E+01
     -3.13000432E+02     -2.37337363E+02      9.18336114E+02
      1.59016085E+03     -1.10035644E+03      3.53735894E+02
      9.23868268E+02      6.49765034E+00     -1.43984973E+03
      1.22015979E+02     -2.74775649E+03      2.01614248E+03
     -2.40074166E+02      9.75425152E+01     -7.21427767E+02
      3.08809955E+02      4.85469801E+02      8.46288596E+02
      8.08477443E+02      1.09764457E+03     -1.34645969E+03
      1.90379691E+03     -7.56203276E+02      8.22920546E+01
      7.32566363E+02     -4.48260368E+02      7.26487211E+02
     -2.31326392E+03     -5.29523996E+02      5.85321390E+01
      3.13590480E+03     -6.21265649E+02     -6.97170870E+01
     -2.87487021E+02     -8.38615946E+02      3.58807287E+00
      2.48809676E+02     -2.91815557E+03      1.54852161E+03
      1.69701997E+02      1.27873241E+03      1.01422950E+03
     -3.18789777E+03     -2.67227373E+03      1.29374177E+03
     -1.84635777E+02     -8.55400215E+02      4.32054676E+02
      6.97232179E+02     -3.36267700E+01      1.67145979E+03
      6.84724957E+02     -1.12845413E+03      1.86443417E+03
     -1.72941313E+03     -1.25294610E+03     -2.30444007E+03
      1.61808153E+02      2.10330554E+02      1.98595500E+02
     -1.39574101E+03     -3.97496660E+01     -7.75786334E+02
      2.46154930E+03     -2.61020865E+03      6.61629310E+02
     -3.22477848E+02     -2.84112965E+02     -8.42449797E+02
      1.15363689E+03     -1.52225349E+03      3.59670639E+02
     -2.28606474E+02     -1.13416633E+03     -1.22784346E+03
      2.92286469E+02      8.30634332E+01      6.88769924E+02
      1.00997827E+03      2.62041639E+03     -4.75454700E+02
      2.23099446E+03     -1.65074132E+03      2.86789441E+03
     -2.18534637E+02      5.47691514E+02      1.19515438E+02
      6.82010419E+02     -6.04642508E+02      4.79732230E+02
     -6.94750780E+01     -1.31690274E+03      1.75501854E+01
      3.13413689E+02      3.18273372E+02      6.71105117E+02
     -3.10730372E+02     -9.93914853E+01     -2.50137261E+03
     -4.91824397E+02     -2.81242177E+03      4.70004033E+02
      8.59752401E+02     -3.73083539E+02     -9.08359558E+02
      3.62368653E+02      3.15137821E+03     -6.82965513E+02
     -5.81909446E+02     -1.66963666E+03      2.79352872E+03
      2.23786049E+02     -1.35964720E+02     -5.82200276E+02
      3.15959324E+03     -5.18006623E+02      6.40803267E+02
      1.42430382E+03      2.84702490E+03      1.18149240E+03
     -1.45626304E+02     -3.31711615E+02      5.96006428E+02
     -3.94008750E+02     -2.62921578E+02     -1.27379781E+03
     -6.80198453E+02      1.45012370E+03      5.44951536E+02
      2.23798380E+02      2.58773745E+02     -3.01147711E+02
     -6.92234101E+02      1.53818114E+02      1.15851187E+03
     -8.58305708E+02     -1.60361769E+03      1.30262156E+03
      5.13775705E+02      2.42024300E+03      2.11894966E+03
      1.01470117E+03      4.88251425E+02      7.07650657E+02
      6.80858474E+02     -1.00264805E+02     -2.73878615E+03
     -3.84874701E+01     -1.34995580E+03      4.24413697E+02
     -4.29485341E+02      2.77041358E+03      2.26488618E+03
     -2.59214881E+02      9.08067365E+01      7.52093627E+02
      1.94533879E+03      2.76561698E+02      8.88798271E+02
      8.89144493E+01      3.07569504E+03      2.52671371E+02
      1.28503701E+02      2.22847879E+02      9.50651558E+01
     -8.98430499E+02     -8.74812543E+02      2.77212459E+03
     -1.29532883E+03     -4.96550712E+02      3.38267473E+03
      7.73715495E+02     -2.97781215E+02      8.59366010E+01
     -1.34862729E+03     -1.86140478E+03      4.41744787E+03
      1.38738146E+02     -1.46578954E+03      9.51805528E+01
     -2.09947085E+02     -8.70434820E+01      3.03813840E+02
      5.80668552E+02      2.97665887E+02     -2.61900433E+03
      9.88114776E+02     -1.03480537E+03     -8.14460038E+02
      3.05127338E+02      2.89699207E+02     -1.01322111E+03
     -6.55569242E+02      3.08207172E+03      1.31580805E+03
     -1.59816501E+03      2.33076493E+03      5.61952650E+02
      3.67037487E+02      2.51301934E+02      5.74485920E+02
     -2.95428819E+03     -5.14396264E+02     -1.06979906E+03
     -1.46831226E+03      1.88459829E+02      4.27893414E+02
      1.57250780E+02     -9.33355305E+02     -2.84903257E+01
      4.14510084E+02     -4.88055125E+02     -1.46641252E+03
      1.90903567E+03      1.16144526E+03      2.68728692E+03
     -2.46391503E+02      8.86925436E+01      3.24791907E+02
      2.82565268E+03      1.94164944E+03      1.65402400E+03
      3.24914267E+03     -1.65859804E+03     -3.90412209E+02
      1.35714394E+03     -4.15197957E+02     -4.60575007E+02
      5.91767991E+02      1.41046618E+01      7.44219347E+02
      7.41669218E+02     -8.90313989E+02      4.87878688E+02
      9.11088758E+02     -2.14733917E+03      1.87531586E+03
      2.34401601E+02      3.13393134E+02      8.14229886E+01
     -2.47513785E+03     -2.72162324E+03     -2.54045705E+02
     -2.52725156E+03      8.28549095E+02     -1.87359783E+03
      1.40286185E+01      1.38708333E+03     -6.84362596E+02
     -1.15388594E+02     -9.20711067E+02     -3.75384518E+02
      1.05254828E+03      2.61627815E+03      4.68928817E+02
      7.93879365E+02     -5.56085410E+02     -9.24816345E+02
     -9.48592019E+02     -4.55049561E+02      2.15921798E+02
      2.48535697E+03      9.47360625E+02      2.06630770E+03
     -1.59313757E+03     -6.28925555E+02     -4.89174466E+02
      6.25830541E+02      2.70403323E+02      9.45521443E+01
      1.49489152E+03     -1.57984186E+03     -2.08094136E+03
      2.71552064E+03     -1.38090678E+03      1.13347275E+03
      4.36286812E+02     -5.80854845E+02      6.92629779E+02
     -9.37333158E+02     -1.03780883E+03      1.68524525E+03
     -8.51291907E+02      3.94211530E+02      1.71736964E+03
     -1.83582954E+02      7.17055434E+02      1.86164810E+00
     -1.96654331E+03     -1.41780400E+03      6.40018509E+02
      2.49525475E+03      4.01175904E+03     -6.57183452E+02
      3.84856169E+02     -3.48561893E+01      6.47868131E+02
     -1.95146055E+03     -1.35620779E+03     -1.02575408E+03
     -1.66125156E+02      1.73987036E+03     -1.65499869E+02
     -1.17723409E+02      8.06556752E+02     -6.89676727E+02
     -2.24472698E+03     -1.47162262E+02     -9.16662142E+02
      3.34109705E+03      1.66789826E+03      7.16643432E+02
      4.76655033E+01     -9.36854813E+02     -9.30573699E+01
     -1.00074853E+03      1.66238933E+03      5.07242534E+02
     -1.78446093E+03      6.15292489E+02      1.99051364E+02
      8.20707886E+02      4.74518691E+02      2.48506203E+02
     -1.05824529E+03      3.08741141E+02      1.78689984E+03
      1.08937595E+03     -1.68440873E+02      5.05929199E+02
     -8.70697331E+02     -1.94375101E+03     -8.91115749E+02
     -9.96994532E+01     -1.00814856E+03      4.76604095E+02
     -7.07028603E+02     -8.50725225E+02      2.21791162E+02
      5.21578070E+02      3.08024197E+02      1.92203102E+03
      1.39762061E+03      4.76425477E+03     -1.46785673E+03
     -4.42017123E+02      3.95134892E+01     -6.34218327E+02
     -8.78587799E+01     -1.54087968E+03     -3.12997532E+02
     -1.08124596E+02      1.80496717E+03      1.79115262E+03
      4.65581678E+02      1.31874929E+02     -2.09759902E+02
      1.75807525E+03      8.22381859E+02     -7.61034470E+02
      6.83297393E+02     -1.35222037E+03     -4.75958559E+02
      7.20775194E+02     -5.55576933E+02     -2.47152756E+02
     -1.83491557E+03      2.22436459E+03      1.92987106E+03
     -2.32616024E+02      2.19930858E+03     -2.38053454E+03
     -3.36155456E+01     -1.99691355E+02     -5.70840621E+02
     -6.01295930E+01     -4.24125622E+02      6.57959712E+01
     -3.62635110E+03     -2.55230487E+03     -3.59087094E+02
     -7.04279482E+01      1.54285957E+02     -3.77095663E+02
     -3.69632267E+03      2.30782794E+03     -9.46259348E+01
      4.33575397E+02      9.20983177E+02     -9.01563876E+02
      2.78401070E+02     -8.19497968E+02     -3.67755216E+02
     -2.87835366E+03     -1.79376448E+03      5.57864415E+02
     -4.43753338E+02      4.59188908E+02     -1.40067975E+02
      2.43459279E+02      1.21985046E+02     -2.58300079E+02
      1.03293008E+03      2.84517035E+02     -1.50080553E+03
      2.33961837E+03     -9.92709155E+02      1.37461329E+03
     -3.70861015E+02     -6.21016261E+02     -6.01341821E+02
      1.42210779E+03     -8.90205338E+02     -1.68860490E+03
     -1.65743780E+03      4.87532901E+02      7.52162160E+02
      3.30493890E+02     -2.99571755E+02      1.07987400E+02
      1.22664031E+03     -7.37871263E+02      3.55879552E+03
      1.34678599E+03      1.24506171E+03     -1.07296192E+03
      9.23392826E+01     -6.15812567E+02     -1.80362130E+03
      7.14250491E+02     -1.93065098E+02     -2.57183626E+02
     -6.29241703E+02     -7.13642255E+02     -4.43411634E+02
      1.74646868E+03      8.09532669E+01      8.93837182E+02
      1.01856520E+03      4.17691964E+03      8.25549749E+02
      5.29063813E+01      3.52922532E+02      8.92813329E+02
      9.05783537E+02      8.16382517E+01     -4.55668490E+02
     -2.25385866E+03      1.10177023E+03     -2.75881207E+03
     -1.41876312E+02      9.68374194E+02      7.57568310E+02
      8.21668879E+02     -1.55559634E+03      1.43220043E+02
      6.45937128E+01     -9.31537683E+02      1.86349710E+03
     -7.56328103E+00     -5.41847696E+02      4.72880468E+02
     -1.21676586E+03      1.46438962E+03     -3.74269879E+02
     -2.01161719E+03      1.72381918E+03     -2.67083118E+02
      5.35632804E+02     -2.96921170E+02      2.37991341E+02
     -7.10941544E+02     -1.57042640E+03      2.72761624E+03
      9.22147311E+01     -2.66089653E+02      2.74505757E+02
     -3.37906458E+02     -1.65801304E+01      2.85066783E+01
      7.56218563E+02     -7.78939956E+02      2.29422894E+02
      3.26289815E+03      2.63254429E+03     -8.58553716E+02
     -3.96340678E+02     -7.96649308E+02     -3.55525421E+01
     -2.20702995E+02     -2.70938516E+03     -2.57670364E+02
     -1.56746858E+03      3.15593079E+03      2.63556392E+02
      4.44115038E+02      2.75899461E+02     -2.26657115E+02
      2.80589685E+02      6.29772099E+02     -3.46253461E+03
      1.37313942E+03      2.72570413E+00      9.72204862E+02
      1.47540311E+02     -1.92052801E+02     -1.76994768E+02
      8.67813951E+02      1.73022275E+03     -1.26761674E+03
     -1.11085107E+02      1.94753893E+02      9.83391240E+02
      8.22312581E+02      9.77550477E+02      5.64189457E+02
      7.12058083E+02     -5.19629948E+02      3.23623898E+03
     -1.62551648E+02      4.96424589E+02     -2.65730095E+03
     -4.24854176E+02     -5.31374980E+02      3.23539148E+02
      6.24025961E+02      2.66018769E+02      3.81902987E+02
     -1.53120272E+02      2.13508083E+02     -1.73193808E+03
      1.25802951E+03      5.08412965E+02      4.10003520E+02
      1.35518642E+03      4.78246350E+02     -1.59153583E+03
     -5.72840937E+02     -6.26640244E+02      1.33532706E+02
     -2.79937148E+03      2.40066349E+03      9.20914025E+00
      5.56156904E+01      4.18963910E+02     -1.12314066E+02
      4.04694119E+02     -8.98481736E+02     -2.86945738E+02
     -8.07029564E+02     -7.32862869E+02      7.62444283E+01
      1.00896570E+03     -1.34985810E+03      7.84459776E+02
      1.84176654E+02     -1.00414069E+02      2.59211630E+02
      1.46934002E+02      4.35749915E+02     -8.53734662E+02
      1.01164636E+03      1.50894592E+03      1.37266640E+03
      1.84832049E+02     -3.35776013E+02     -3.38080168E+02
      1.48940650E+03      2.42957248E+02     -3.18069492E+02
     -2.48203043E+03      4.37768295E+02     -1.92929234E+03
      2.39961048E+02      7.35542612E+02     -3.50794723E+02
     -1.15742322E+02      3.35860200E+02     -1.89406752E+03
     -8.67603097E+02      2.66655364E+03      3.42698930E+03
     -8.10621651E+02     -1.26914888E+02      1.62356336E+02
      3.36823777E+01      1.10015079E+03     -3.98543675E+03
     -2.32954573E+03     -2.57301807E+03     -5.53735497E+02
     -3.62209270E+02     -9.57184838E+01     -6.89058911E+02
      1.18852241E+03     -1.64316068E+03      6.97811296E+02
     -1.56720330E+02     -2.36398894E+02      1.17340730E+02
      8.10072408E+02      2.62745262E+02      4.18848222E+02
      5.32580593E+02     -1.07880328E+03      2.20823919E+03
     -8.37266884E+02      1.08200565E+03      4.69072307E+02
      1.20634655E+03     -1.29819383E+03      3.01948770E+02
      6.78358142E+02      1.73958056E+02      5.19655266E+02
      5.18566807E+01     -5.02090978E+02     -1.93324239E+03
     -6.66303234E+02      1.91750279E+03     -4.17487854E+03
     -3.07053792E+02     -1.00212305E+03      3.75208343E+02
     -1.72758016E+03      1.54319276E+03      1.74396745E+03
      4.21837620E+02     -2.82420993E+03      1.98220796E+02
     -1.60449501E+03      1.27255626E+03      1.07706620E+03
      2.60808135E+02      3.52375062E+02     -1.08115626E+02
      2.32340736E+03     -2.34948939E+02      1.06245838E+03
     -2.50479527E+02      6.19621889E+02     -3.19522843E+03
      8.87577043E+01     -5.00035080E+02      8.56838751E+01
     -1.66331843E+02     -1.35124808E+03     -9.67595663E+02
     -1.69494639E+03     -6.20182524E+02      6.12056806E+01
     -8.16699590E+01      6.43611054E+02     -1.97139192E+02
      2.21898769E+03     -3.75692627E+02     -7.39075759E+02
     -3.42730703E+03     -3.07564277E+03      4.97914819E+02
      9.26455206E+02      1.75431555E+02     -1.15993374E+02
      1.65760689E+02      2.46108612E+03     -4.45613456E+02
     -1.42987769E+03      8.28996731E+01      6.36159784E+02
      2.47943747E+02      6.99530855E+02      1.53625614E+02
      1.41717884E+03     -2.44520067E+02      1.60640143E+03
     -3.03197146E+02     -8.98996222E+02      5.90909551E+02
      4.76538865E+02      6.36099667E+02     -9.34651641E+00
      1.59991289E+03      5.32457614E+02     -6.00513640E+02
      1.65472911E+03      1.31654261E+03      1.49340858E+02
     -2.06498109E+04      6.20079796E+03     -2.33813560E+03
      2.77422790E+03     -1.63464915E+03      3.80983237E+03
      8.25327934E+02     -1.02181319E+03      1.91991525E+03
     -3.72492667E+02     -1.14602680E+03      1.64122460E+02
      1.00476191E+03     -6.08488328E+00      1.56367241E+03
      1.82708127E+03      9.31845830E+01      8.94583337E+02
     -4.78260187E+02      4.87332515E+02      2.03649353E+02
     -8.18853063E+02      8.42041005E+02     -2.77068403E+03
      7.76383304E+02      3.81087101E+02      3.40699210E+03
     -8.95717823E+02     -5.51877419E+02     -6.45693435E+02
     -9.48702118E+02     -1.64182101E+02      3.13642676E+02
      1.96378489E+02     -5.11568584E+02     -2.46381371E+03
     -6.66186597E+02     -2.67627485E+03     -1.54863537E+03
      1.31362193E+03      1.97629556E+03     -3.14435098E+02
  }
}

Hamiltonian = DFTB {
  SCC = Yes
  SCCTolerance = 1e-6
  MaxSCCIterations = 200
  ForceEvaluation = Dynamics
  MaxAngularMomentum = {
    C = "p"
    H = "s"
  }
  Charge = 0.0
  SpinPolarisation = {}
  Eigensolver = Standard {}
  Filling = Fermi {
    Temperature [Kelvin] = 300.0
  }
  SlaterKosterFiles = Type2FileNames {
    Prefix = "../../pbc-0-3/"
    Separator = "-"
    Suffix = ".skf"
    LowerCaseTypeName = No
  }
  KPointsAndWeights = {
    0.0000000000000 0.0000000000000 0.0000000000000 1.00000000000000
  }
  Dispersion = LennardJones { 
    Parameters = UFFParameters {}
  }
}

ParserOptions = {
  ParserVersion = 3
}
