Geometry = GenFormat {
<<< "system.gen"
}

Driver = VelocityVerlet{
  Steps = 50000
  TimeStep [fs] = 0.2
  MDRestartFrequency = 5
  Thermostat = None {
    #InitialTemperature [Kelvin] = 300.0
  }
  Xlbomd{ 
    IntegrationSteps = 6 
    MinSccIterations = 2
    MaxSccIterations = 200
    SccTolerance = 1e-6 
  }
  Velocities [m/s] {
     -9.61180562E+02     -2.12032458E+02      2.47703186E+02
      7.55321692E+02      4.39747154E+02     -2.44101440E+02
     -6.10948787E+02      5.52437750E+02      2.19406621E+02
      4.76147651E+02     -2.87797780E+02      8.99500674E+01
      1.05459954E+01     -1.32259935E+03     -2.66381806E+03
      4.53053555E+02     -1.50850011E+03      1.11837954E+03
     -5.21485890E+02     -4.09805193E+02     -8.23773420E+02
      2.22738124E+03     -1.76784772E+03      9.78638290E+02
      1.66104776E+03     -9.98486644E+02     -9.27383249E+01
      6.86634812E+02     -4.60488719E+02     -2.02836396E+02
     -1.38767532E+02      1.18218606E+03      1.44227111E+03
     -4.08909620E+02      2.08740497E+02     -9.81803719E+02
     -3.46032208E+01      2.02080305E+02      3.72289743E+02
      2.68341578E+03      3.27911193E+02      1.04663706E+02
     -4.87634694E+02      2.96946771E+03     -8.40828865E+02
      3.39368509E+02      7.68148037E+01     -3.60428654E+01
      1.98009753E+03     -7.31626133E+02      1.80557201E+03
     -1.76231523E+03      1.20253234E+02     -1.91327053E+03
      4.70153288E+02     -2.15981497E+01      6.08494512E+02
     -5.50385993E+02     -3.30925146E+03      8.06381195E+02
      2.31994661E+03      1.47201310E+03      2.15509190E+03
      8.26351078E+01     -2.01164270E+01      2.08753366E+02
      1.90767824E+03     -1.19123189E+03     -2.20901955E+03
      1.67152330E+02     -2.70736153E+03      2.26290445E+03
      7.30903368E+02      4.77970152E+02     -1.08838766E+02
      1.38606962E+03      9.02517370E+02      1.62180836E+03
      1.02952007E+03      7.46464092E+02      2.31747875E+03
     -1.97550649E+02     -6.50697870E+02      2.49079194E+02
      4.30880563E+02     -2.94052869E+02      3.55761123E+02
     -1.18792655E+03     -3.20692821E+03     -1.49448774E+03
      2.02056463E+03     -6.06388474E+02     -3.72789186E+02
     -1.37484709E+03     -9.80684731E+02      1.98761591E+03
      1.16559210E+02     -4.46563737E+02     -4.59045163E+02
      1.81096443E+03      2.65915850E+03      5.25084514E+02
     -3.03964707E+02      1.68515273E+03      9.27842187E+01
     -7.51152386E+01      5.99647419E+02     -2.75332875E+02
      2.67580365E+03     -4.35503057E+02     -2.11313003E+03
      1.48690898E+03     -2.39382386E+03      4.51653246E+01
      1.58687664E+02     -8.33304350E+01     -8.26530216E+01
     -2.07287244E+02      9.95529104E+02     -9.74883633E+02
      4.74104343E+01      6.68730939E+02     -2.10529664E+03
      6.52562776E+01     -1.53863979E+02      1.81302478E+02
      8.57474526E+02     -2.46221867E+03      7.95362832E+02
     -7.11419805E+02      5.22404726E+02      1.22394523E+03
     -1.09444305E+02     -8.29380492E+02     -1.05144548E+02
      1.98103859E+03     -9.55542629E+02     -3.99280351E+03
      1.44402808E+03      1.03404788E+03     -2.00734438E+02
      7.61760458E+02     -2.63621429E+02     -2.28620867E+02
      1.50897305E+03      2.61586342E+03     -7.04576015E+02
      1.51912273E+03     -3.50272584E+03     -7.76316253E+02
      6.03694277E+02     -2.73969746E+02     -4.01685693E+01
     -1.13777547E+03     -1.87488505E+03     -2.83556750E+01
      5.57101463E+02      1.59916277E+03      1.86488055E+03
      5.24502909E+02      4.29145435E+02     -1.01177110E+03
     -1.29815172E+03      1.88773074E+03     -1.45750855E+02
      8.90380549E+02     -2.27581415E+02      3.48665868E+02
     -2.51115220E+02     -2.05569587E+02      5.86830410E+01
      1.08576393E+03      1.83668696E+03     -9.72116420E+02
      1.47961828E+03      8.09101941E+02      8.46855926E+02
     -8.53435978E+02      3.60666041E+02      2.81732655E+03
     -1.79971100E+02     -1.93452724E+01      1.57569660E+02
     -9.82581263E+02     -7.94403349E+01     -1.37738942E+03
      1.80406543E+03      1.59416516E+03     -5.21798375E+02
      2.58422010E+02      2.39816913E+02      1.61860588E+03
     -1.66776398E+02     -5.93990962E+02     -6.02766963E+02
      3.41701764E+02      1.48372122E+03      5.69004927E+02
      3.64369719E+02      1.08211932E+03      1.17379559E+03
      6.61325267E+02      1.79519410E+02      8.02919870E+02
      4.06825288E+02     -5.78391584E+02      1.33401978E+03
      2.32858753E+03     -1.38772863E+03      4.24484290E+02
     -4.22385267E+02     -1.51632274E+01     -6.72974844E+02
     -2.27146368E+03     -3.56584156E+02     -2.71609384E+02
      3.23251761E+02      3.91546416E+02     -5.50631773E+02
      7.04465008E+02      5.62108473E+02     -9.19578416E+01
      8.75970350E+02     -8.46595451E+02      1.37710777E+03
     -7.31695337E+02      1.92775078E+03     -1.40825456E+03
      5.49691681E+02      6.18083404E+02      4.85570442E+01
      4.94323629E+02     -2.63318610E+02     -1.60986751E+03
     -2.68322373E+03     -3.15058883E+02     -2.49604279E+03
      8.35742443E+02      4.42674585E+02      2.86618925E+02
     -6.39893079E+02     -8.05463427E+02      1.43951504E+03
      2.27731688E+03     -3.27093835E+01     -5.23592166E+02
      3.44476240E+02      2.72692061E+02     -1.96714505E+01
      1.59742130E+02      2.09853460E+03      1.20448611E+02
     -2.56266613E+03      9.35737064E+02     -3.09399334E+03
      1.10588686E+03     -4.54067090E+02      3.52555620E+02
      2.81384133E+02      1.27857840E+03      2.27551008E+03
      4.45828714E+00      3.37662477E+03      2.06337363E+03
      9.94301343E+01      5.08742825E+01     -4.54730394E+02
      2.26156692E+03     -1.01255098E+03      8.16524393E+02
      1.82770547E+02     -1.34722789E+03     -6.89674193E+02
      6.07409139E+02      2.61208002E+02      8.68555911E+02
      1.78245455E+02     -3.79742353E+02      5.03529305E+01
     -1.33955982E+03      1.30063283E+03      2.64480912E+03
     -2.55549662E+03     -2.00883418E+03     -9.42166117E+02
     -6.09891029E+02     -4.31304872E+02     -2.26847580E+03
      2.50951222E+02      5.12363588E+02     -2.61789891E+02
     -1.05532592E+03      4.84762902E+02      7.41912595E+02
      5.97241820E+02      2.06130721E+03      1.14104408E+03
      2.24429984E+02      3.03183498E+02      2.78369257E+02
     -2.37330454E+03      1.39739498E+02      5.32973305E+02
      2.75858716E+03     -1.04069483E+02     -6.07071545E+01
      5.69005009E+02      2.16327763E+02      7.57867786E+02
      9.36046201E+02      1.58920038E+03     -2.04162325E+03
      2.28791537E+03      4.03608962E+02     -3.89038399E+02
      1.59043065E+02      1.69375043E+02     -3.62781884E+02
      1.60163769E+03     -1.00139472E+03     -5.64683282E+03
      2.47010276E+03      1.22559217E+03      8.12244518E+02
      1.87848982E+02     -8.63009541E+00     -2.61392864E+02
      7.07917542E+02      6.50936682E+02     -1.60955394E+03
      2.75252036E+03     -2.46411486E+01     -4.34695112E+02
     -2.14595809E+04      1.07915363E+03      3.67629256E+03
      1.35275033E+03      7.64951440E+01     -1.03676865E+03
      7.20046164E+02      1.84190226E+03     -5.78126975E+01
     -3.98946655E+01      5.13017087E+02     -2.94712747E+02
      7.19718279E+02     -4.36715454E+01     -1.63937293E+03
      1.31249831E+02     -1.64712398E+02     -1.35411934E+03
      2.63867255E+02     -1.00151783E+03     -1.47682896E+02
      6.12439293E+02      3.48771623E+02     -3.74238897E+02
     -2.93756924E+01     -1.49306222E+03     -1.18589532E+03
     -5.81418947E+02     -1.06545396E+02      1.05708005E+03
      2.60899658E+03     -5.99503547E+02      1.88320970E+03
     -3.18103309E+02      2.26449073E+03      1.13811317E+03
     -5.34960955E+02      6.65984316E+01     -7.04987296E+02
      2.78437406E+02      1.09771640E+02     -1.10207684E+03
      4.24758597E+03      2.37756964E+02      5.39140160E+02
      2.95565647E+03      2.60331046E+02      1.53204028E+03
     -5.32961778E+02     -3.99507733E+01     -3.56447386E+03
      1.99052916E+02      3.77553013E+00      2.34547354E+02
      5.61222344E+02     -8.58689557E+02     -5.66235514E+02
     -1.81968193E+03      1.30406163E+03      1.41072909E+02
     -3.85166471E+02      2.09559398E+02      7.05916231E+01
     -1.04428980E+03     -3.66554000E+01     -9.81078983E+02
     -2.71236977E+02     -1.75678603E+03     -2.18148546E+03
      1.93177219E+02      5.92897262E+02      2.80210001E+02
     -2.44604895E+03      6.36376097E+02     -1.75760010E+03
      1.65815885E+03      2.96817782E+03      6.59799784E+02
     -1.92441653E+02      3.44291906E+02     -1.73383917E+02
      2.26896588E+03      7.44247660E+02     -1.20738826E+03
      8.76430833E+02      1.84029873E+03     -9.96491898E+02
      9.38359345E+02     -2.92373336E+00     -9.94960457E+02
      1.56112747E+02     -1.02474833E+03     -1.11480345E+02
      2.03355313E+03     -1.68210028E+03     -3.66939609E+02
      2.56439509E+02     -4.59464477E+01      1.23846955E+02
     -4.44968190E+02     -1.90973647E+03      1.69825613E+03
      1.62790327E+03     -1.49705266E+03      3.10191016E+03
      4.65400312E+02      1.39269188E+01      8.26548254E+02
     -3.14143998E+02     -3.12310143E+03      1.09216347E+03
      9.57179732E+02      5.17637298E+02     -6.11087980E+03
      7.61020119E+02      6.54210521E+01     -4.09911182E+02
      4.58450590E+02      1.48959436E+03      9.45125028E+02
      2.22431866E+03     -3.25915031E+03      4.90567329E+01
     -1.09903777E+02      1.23776056E+02     -1.82569235E+02
     -7.60372324E+01      3.94253561E+02     -1.70713151E+03
     -2.41740671E+03     -8.65531083E+02      2.78653498E+03
      2.91064514E+03     -1.97150966E+03     -3.17689510E+02
     -1.18811760E+02     -1.48307303E+03     -1.68239234E+02
     -2.84933481E+03      2.75519501E+03      1.23272690E+03
     -1.28263864E+03     -2.29029115E+02      1.28870729E+02
      1.30915440E+03     -1.95065118E+03     -7.68661581E+02
      2.01696137E+02     -4.46190249E+01      5.55452480E+02
      1.08460381E+02     -4.03497591E+02     -1.46380210E+03
      2.10323821E+03      3.36701376E+02     -3.01482005E+03
      7.40398782E+01      6.03801534E+02      1.03005941E+03
      2.75541948E+03      2.55589427E+03      1.21450895E+03
     -1.34373166E+02     -1.24850416E+03      8.89733919E+02
      4.43249315E+02     -2.46233479E+02     -2.97268434E+02
      1.04142393E+03      3.69748235E+03     -1.56258997E+03
      8.08629816E+02      6.80789441E+02     -3.26773553E+03
      4.13060362E+02      2.92781023E+02     -4.28453542E+02
     -8.42456826E+02      1.03982388E+03      1.32539519E+02
      2.70641011E+02      5.59459656E+02     -4.56041329E+02
     -1.29500246E+02      1.95963246E+02      5.48148412E+02
      1.07063915E+03     -1.44683100E+03     -3.31077556E+03
     -1.99069228E+03     -1.24814787E+02     -2.34189718E+03
     -1.25923515E+02      6.46294753E+02     -3.85974030E+02
      3.15885294E+02     -1.92313294E+03     -1.14755844E+03
     -2.90914611E+02     -1.44291614E+03      1.39504639E+02
      3.96305857E+02      5.35948007E+02      1.25451322E+02
     -2.78478691E+03      1.80278837E+03      1.43754591E+03
     -6.23068127E+02     -6.20263739E+02     -1.46134854E+03
      1.19661885E+02     -7.77556070E+02     -3.95519034E+02
      1.19344396E+03     -3.42522545E+03      2.41939153E+03
     -7.08964508E+02     -2.85982937E+03      3.76094646E+02
     -7.05050424E+02      5.64827911E+01      2.38207687E+02
      1.32092550E+03     -7.05558991E+02      1.78973457E+03
     -1.27676030E+03      2.23290430E+02     -2.00181372E+03
     -1.42978709E+03      4.95234572E+02     -7.32328720E+02
      3.53221873E+02      3.23456398E+02     -1.86987087E+02
     -3.22928158E+02     -4.07535608E+03      1.70172886E+03
      3.09746182E+01     -5.23902660E+02     -2.61115857E+03
      1.87457893E+03      1.72912698E+03      4.09849546E+02
      1.85013864E+02     -1.30535155E+02     -3.25117273E+02
     -1.49854330E+03      7.40044239E+02     -1.43865441E+03
     -1.41370922E+03      1.13801666E+03      2.36162829E+03
      1.04866742E+03     -5.81418247E+02      5.51199430E+02
      9.64748204E+02     -7.74705055E+02      2.06193147E+03
      1.59552699E+03      4.85888127E+02     -1.79541929E+03
      3.09348135E+02     -6.89574463E+02      6.51720268E+02
      1.16746982E+03     -2.45705926E+03     -1.27205736E+03
     -5.86966294E+02     -3.15904513E+02      6.10166954E+02
      2.49331772E+02      3.41878183E+01     -9.17576069E+02
      2.90911144E+02     -2.36848924E+03      2.37946059E+03
      7.18906331E+02      5.97736113E+02     -3.82959665E+02
     -1.25027825E+02     -2.50352361E+02      5.00045866E+02
     -3.11974925E+03      1.18184108E+01     -8.68121841E+02
      2.53075819E+03      1.38698535E+03     -6.44716510E+02
     -3.20186722E+02      1.68277863E+02     -5.88056753E+02
     -4.52859199E+02     -2.73388411E+01     -8.93486734E+02
     -6.55910001E+02      9.72823558E+02      1.42602404E+03
      3.96536148E+02     -1.98422912E+02     -2.85395069E+02
      1.30947312E+03      9.00278143E+02      2.16834089E+03
     -2.40219714E+02      2.83158498E+02     -2.40379067E+03
      8.81580415E+01      5.16050509E+02      9.00395063E+01
     -1.49513801E+03     -7.53624837E+01     -7.73596525E+02
      1.78833209E+03     -3.58437645E+02     -2.02684674E+03
     -2.24323194E+02     -7.82055174E+01     -1.32012234E+02
     -3.59714720E+03      2.66392438E+02     -7.48798106E+02
      1.19943719E+03     -7.54842054E+01      7.30452115E+01
      8.19416511E+02      1.41043587E+03     -8.04988018E+02
      1.73045276E+01      9.80181904E+01     -9.45904950E+02
     -5.57559061E+02     -2.12938078E+03      2.29766795E+03
     -2.12811754E+03      2.07401863E+03     -7.11877969E+02
     -7.32162180E+02      1.13365752E+03     -2.11735355E+03
      8.49756912E+02     -7.44059022E+02      5.07602446E+02
      1.84467740E+03      1.33335541E+03      1.57745969E+02
     -3.04676177E+02     -2.15945313E+03     -3.02177756E+02
     -2.38354696E+02     -3.81349107E+02      2.44184493E+02
     -3.46627617E+02     -2.20146322E+03      1.61502189E+03
     -5.82587521E+02      1.10720736E+03      1.19293259E+01
      3.35941929E+02     -2.68644785E+02      8.07829037E+01
      1.57215229E+03     -2.57651635E+03      2.16177145E+03
      3.21242655E+03      5.74377545E+01     -6.63757917E+02
      3.99650894E+02     -7.65171296E+02      3.54159503E+02
      5.63974912E+02      5.93892037E+02     -3.04751991E+03
     -4.32054179E+02      1.65342984E+03      1.58137796E+03
     -2.08814002E+02     -1.06784309E+03      5.98043605E+02
     -5.55730580E+02     -6.01444803E+02     -8.42976293E+02
      1.98473608E+03      1.85983992E+03      1.17299561E+03
      9.60030701E+02     -1.00721597E+02      2.90656222E+02
     -2.64744730E+03     -7.08740415E+02      4.31558155E+01
      1.68119728E+03      1.05856825E+03     -2.25547375E+03
     -4.48662839E+02     -4.30503597E+02      2.64145521E+02
      1.18577957E+03      9.70801934E+02     -7.44719521E+02
     -4.73955275E+02      3.25017430E+02     -1.09598724E+03
     -5.35244673E+02      9.39156848E+01      9.20943560E+01
     -1.10761578E+02     -5.97370977E+02      1.51045590E+02
      2.12222737E+03      3.56783531E+03      1.80015711E+03
      9.15027876E+01      3.72253575E+02     -8.85363764E+00
      9.16461876E+02      4.32799952E+02     -1.40371828E+03
      4.75815025E+01      2.21192746E+03     -1.08528289E+02
      1.72373616E+03      1.05215787E+03     -2.51384419E+03
      1.90016397E+02     -3.18864565E+02      1.18644847E+02
      1.50143832E+03      9.78844993E+02      1.74268286E+03
      9.14614628E+02      7.52971330E+02     -1.48626758E+03
     -1.31582433E+03      1.52168647E+03      6.89938998E+02
      3.38654423E+02     -1.27243189E+02      2.34458561E+02
      1.56326260E+03     -2.69052211E+02     -2.84241325E+02
      9.61754251E+02     -1.26328389E+03     -9.26247132E+00
      4.51287217E+02      3.95713740E+02     -3.06549627E+02
     -1.77256683E+03     -1.29887851E+03     -1.53136631E+03
      4.22954648E+03     -3.71596318E+02     -2.49397846E+03
      1.81822744E+02      5.22480764E+02     -7.80190018E+02
      3.27335383E+02     -1.66050642E+03      9.61263285E+02
     -2.39541654E+03      6.85892803E+02     -2.67413705E+02
     -5.36191782E+02     -2.29965960E+02      2.75913186E+02
     -8.63383820E+01     -1.40361605E+03     -4.64049961E+02
     -1.53457041E+03     -1.14188067E+03      4.90639651E+02
     -3.51219030E+02      6.12081961E+02     -7.09516085E+01
     -6.49892691E+02     -4.66163922E+02     -1.55710738E+03
     -1.31611820E+03      4.20599705E+02      1.88629959E+02
      9.57068767E+02     -3.58324933E+02     -6.81123650E+02
     -7.74852958E+02      2.64656117E+03      6.49886628E+02
      8.53654059E+02     -2.03844943E+03      2.25858221E+03
     -3.44902814E+02     -3.53539273E+00     -2.31240279E+02
     -1.74120574E+03     -1.22520167E+03     -1.48416120E+03
     -3.30253470E+02      3.82337795E+02      3.47101273E+02
     -1.20924463E+02     -3.20977022E+01      3.68137553E+02
     -4.08239620E+01      1.99453651E+03      2.83292780E+02
      2.23569015E+03      3.28247808E+03     -4.28307664E+02
      2.43150215E+02      6.49170557E+01      1.98805022E+02
     -1.35984475E+03      2.99271911E+03     -1.86263816E+03
     -1.71768347E+03      5.25024387E+02     -1.94196230E+03
     -5.46453010E+02      2.61150644E+03      8.46809500E+02
     -3.14509503E+02      3.72398017E+02     -1.59899343E+02
     -9.45083227E+02     -1.44856573E+03      3.44432387E+02
      2.76115193E+03     -6.48118487E+02     -3.10952782E+02
     -6.28274109E+02     -1.37656848E+03     -5.60276773E+01
     -1.62541337E+02      4.64424826E+02      3.50993396E+02
     -1.14048540E+02      1.63047459E+03     -1.54874403E+03
     -2.44652620E+03     -3.47977838E+03      3.30041170E+02
      2.14258851E+02      2.90985956E+02     -4.56635383E+02
     -7.62518840E+01      1.62263861E+03     -8.53533595E+02
      1.35758935E+03     -2.34156936E+03      5.93691775E+01
     -8.13628425E+02     -8.34091767E-01     -6.17418804E+01
     -9.72900017E+02     -2.55259028E+02      1.11770109E+03
      6.61775030E+01     -2.07301265E+03     -1.55241236E+03
     -4.90728024E+02      3.54434446E+02      7.96731965E+00
      1.57998479E+03      1.84087824E+03     -1.32007062E+03
     -2.88586368E+02      8.11737849E+02     -2.37090181E+03
      7.66266774E+02      1.05309007E+02      1.99734676E+02
     -4.33889688E+02      5.63621018E+02      3.76493440E+03
      1.30778971E+03      8.35964985E+02     -1.51940091E+03
      5.76906467E+02      4.76274718E+02      4.35034844E+02
      4.74648569E+02     -2.60836936E+03     -1.19211036E+03
      3.65703635E+03     -3.55712340E+02     -8.98499601E+02
     -4.20506750E+02      2.15448148E+02     -3.07703271E+01
     -2.68545431E+02      1.38092782E+03      1.48417448E+03
      1.21198197E+03      4.24712718E+03      3.66703009E+02
      5.87205470E+02      9.98562388E+01      1.71843761E+02
     -1.34365458E+02      9.60458154E+01      4.02473236E+01
      5.86478047E+02     -1.65739113E+03     -3.43591688E+03
      1.27144241E+02     -1.18366684E+02     -4.27619712E+02
     -2.26143187E+02      3.22678553E+02      1.88718013E+03
      7.33505714E+02     -1.65031141E+03     -2.56700396E+03
      1.01079915E+03      2.37197320E+02     -2.30809490E+03
     -1.95213741E+02     -2.53125002E+02      7.25610520E+00
      2.89635084E+03      2.19186802E+03      2.04682894E+03
     -1.22185055E+03     -7.32141373E+02      5.28689612E+02
      7.49654823E+02      1.16133326E+03      3.41819535E+02
      4.57962286E+02      1.51987635E+02     -1.10995649E+02
     -9.17335779E+02     -1.81674445E+02     -2.08612588E+03
     -1.31364876E+03     -5.65617316E+02     -1.89262889E+03
     -2.52989162E+02      8.65331441E+01     -6.71872587E+02
      2.60006390E+03     -1.78718751E+03      7.38554923E+02
      1.81201162E+03      1.30486784E+03      1.78676384E+02
     -5.28172788E+02     -7.35921289E+01      6.27813633E+01
      2.52459166E+03      6.46043024E+02      1.92354602E+03
      1.37817531E+03     -1.21606967E+03     -8.09296650E+02
     -2.86710361E+02     -2.03298472E+02      1.84167321E+02
     -9.47934264E+02      3.60370957E+03      1.75231715E+03
     -6.18122882E+02      2.79227976E+03      5.30999451E+02
      1.18527204E+01      9.49653433E+01      9.61730849E+01
     -7.36253113E+02      7.19876353E+02      9.31969115E+02
     -8.69496762E+02      6.32092341E+02      9.72321387E+02
      1.89049656E+02     -1.34006414E+02      3.54936487E+02
      8.43111942E+02      3.50548938E+02      3.62851267E+02
      1.07599380E+03     -7.35599030E+02      1.79388144E+03
     -9.06604572E+01      2.88385114E+02      6.78970994E+02
      6.18013927E+02     -5.28272970E+02     -3.20054362E+02
     -9.67714609E+02     -1.52108710E+03      6.89115705E+02
      1.13603289E+03     -2.96193292E+02      5.24479320E+02
     -8.33866300E+02     -3.00602549E+03      2.57923258E+03
      1.60687261E+03     -5.55221744E+02     -1.29157000E+03
     -6.95977517E+02     -5.53567902E+01     -7.88152965E+00
      1.16819677E+03      1.05950561E+03     -3.00538219E+03
     -2.59227652E+02     -5.60939943E+01      7.89905637E+02
     -2.36311964E+02      2.45232467E+03      1.51069252E+03
      8.54678875E+01     -9.46686723E+02     -1.23436598E+01
      6.41778401E+02     -4.33050637E+02     -1.23758844E+02
     -1.16509801E+03      6.65976076E+02     -6.54716937E+02
      5.03179051E+02     -8.38711763E+02     -1.04009920E+03
  }
}

Hamiltonian = DFTB {
  SCC = Yes
  SCCTolerance = 1e-6
  MaxSCCIterations = 200
  ForceEvaluation = Dynamics
  MaxAngularMomentum = {
    C = "p"
    H = "s"
  }
  Charge = 0.0
  SpinPolarisation = {}
  Eigensolver = Standard {}
  Filling = Fermi {
    Temperature [Kelvin] = 300.0
  }
  SlaterKosterFiles = Type2FileNames {
    Prefix = "../../pbc-0-3/"
    Separator = "-"
    Suffix = ".skf"
    LowerCaseTypeName = No
  }
  KPointsAndWeights = {
    0.0000000000000 0.0000000000000 0.0000000000000 1.00000000000000
  }
  Dispersion = LennardJones { 
    Parameters = UFFParameters {}
  }
}

ParserOptions = {
  ParserVersion = 3
}
