Geometry = GenFormat {
<<< "system.gen"
}

Driver = VelocityVerlet{
  Steps = 50000
  TimeStep [fs] = 0.2
  MDRestartFrequency = 25
  Thermostat = None {
    #InitialTemperature [Kelvin] = 300.0
  }
  Xlbomd{ 
    IntegrationSteps = 6 
    MinSccIterations = 2
    MaxSccIterations = 200
    SccTolerance = 1e-6 
  }
  Velocities [m/s] {
     -7.53134123E+02      3.21444334E+02     -2.43279903E+02
      1.19936157E+03     -1.10508960E+03      3.15387864E+03
      1.77759619E+03     -1.92379285E+03     -2.47201072E+03
     -4.08249789E+02     -5.31319155E+02     -3.67366069E+02
     -1.22602059E+03     -4.48155322E+02     -1.80685611E+03
      7.53002587E+01      6.88076719E+02     -3.34729642E+03
     -2.07893036E+02     -8.27656838E+02     -5.84514634E+01
      6.32826516E+01     -4.40859167E+02     -1.90480972E+03
     -1.66021503E+02      8.23321510E+01      1.27319875E+03
     -1.34957389E+02      4.26109540E+02     -3.99261699E+02
     -1.00403118E+03     -2.59304408E+02     -1.83943162E+03
     -1.42815231E+01      1.31414345E+03      2.40542094E+03
      3.38441305E+02      2.62036343E+02      5.05324255E+02
      1.64543566E+03      4.54783898E+02     -2.19735891E+03
      6.24536990E+02     -3.26986355E+02     -3.71527608E+03
      4.68988848E+02      9.04199261E+02     -2.12607517E+02
     -2.89660955E+03      5.43428935E+02     -1.31472413E+03
      2.43848737E+03     -2.02342296E+03     -3.50909862E+01
     -1.08266401E+02     -7.27140798E+01      1.06540970E+02
      1.74065015E+03      2.34190648E+03      1.60535222E+03
     -3.86854340E+02      2.31666170E+02      9.28321973E+02
     -1.92521908E+02      2.85276164E+01      9.72858529E+01
      5.40707344E+02     -5.74668459E+02     -8.35291157E+02
     -3.07691158E+03      1.09117022E+03      1.48773641E+03
      1.69972311E+02      7.02998672E+02      1.83830100E+02
     -6.47457419E+02     -5.61967905E+02     -1.76682113E+03
     -3.55113735E+03     -1.38938520E+03      6.32246147E+02
      5.04864146E+02      1.13637622E+03      2.37385228E+03
     -8.13007465E+01     -3.71869788E+02     -2.31265029E+02
     -1.35287376E+03     -8.74746356E+02     -3.64067421E+01
      2.89797680E+03     -2.22389280E+01     -1.80657975E+03
     -5.02295257E+02      1.91334574E+03      1.38133006E+02
      4.33106280E+02      2.42293000E+02     -4.26527776E+01
      2.93385501E+03      2.05164399E+03     -1.92488639E+02
     -3.19885907E+02     -1.22715159E+03     -2.61597103E+03
      3.82984770E+02      5.31485494E+02     -2.30205403E+02
     -4.10107914E+02     -8.69250986E+02     -2.61126296E+03
      1.24846546E+03      5.64829311E+02      9.43326659E+02
      5.70286176E+02      1.52659208E+01      7.75955332E+02
      1.16942187E+02     -1.09316421E+03      4.80466800E+03
      5.61331381E+02     -8.46693236E+02      6.90247356E+02
      9.62302182E+02      7.27059783E+02      2.43669079E+01
     -1.77483863E+03      1.90610572E+03      1.19138340E+03
     -4.78498900E+02      1.51183265E+03      9.37692260E+02
      2.21893566E+02      8.66539234E+02     -4.62121131E+02
      2.85599331E+03      2.07256663E+03      1.55171509E+03
     -9.45714426E+02      1.00703739E+03     -8.95273991E+02
     -3.47099532E+02      1.25523147E+02      1.03857041E+01
      1.95209184E+03      4.09023300E+01     -2.86778200E+02
      5.61134653E+02     -6.74102322E+02      1.22345062E+02
     -1.03817838E+02     -9.02301981E+01      2.39889002E+02
     -8.33354886E+02      1.26241458E+03     -7.32613806E+02
     -8.38517756E+02      2.51263885E+03      6.78289577E+02
      1.48334173E+02     -4.49472920E+02     -1.67112624E+02
     -1.60377941E+03      2.89959516E+03      3.53639434E+03
      1.37024017E+03     -1.07040221E+03     -2.02886121E+03
      7.56310832E+02      4.75139522E+02      1.30070504E+02
      1.51292645E+03     -2.09100585E+02      1.75845182E+03
      1.63025466E+02     -2.78419083E+03     -1.52489790E+03
      1.16516808E+03      7.26324853E+02     -3.59846027E+03
      2.96466887E+02     -1.30612365E+02     -5.46441988E+02
      1.78428872E+03      1.96706948E+03     -5.10437964E+01
      7.97215498E+02      2.54997623E+03      1.05923609E+03
     -5.27435231E+02     -2.29725816E+03      1.15697697E+03
      3.61708866E+02     -6.76149872E+02      4.70373934E+02
      3.93695271E+03      1.87340790E+03      1.38724239E+03
     -8.74801345E+01      8.15196969E+02      6.56900178E+02
      1.17663246E+02     -3.27263889E+02      9.47556127E+02
     -1.49005720E+03     -1.06003747E+03     -2.99669093E+03
      2.92060682E+03     -5.69834845E+01     -4.00617311E+02
      5.35113225E+02     -6.19524737E+02     -2.94943283E+02
     -9.96593593E+02      1.32393895E+03      2.08005267E+02
      9.50385890E+02     -7.15346151E+02     -6.28144015E+02
      1.79539807E+02      4.67461320E+02      4.36426595E+02
      1.09262498E+03      3.05374514E+03      2.08179319E+03
     -8.44204858E+02      2.81641400E+03     -1.24244118E+03
      9.20823819E+02     -6.36326843E+01      3.09329211E+02
     -5.97476624E+02      1.35037838E+03      2.32937500E+02
     -1.31860286E+03     -1.61058200E+02     -1.06947313E+03
     -4.28085105E+01     -2.18296175E+02     -1.12994079E+02
      2.96019880E+02      1.44731705E+03     -7.67181494E+02
      1.96909201E+03      1.00365379E+03      2.69761138E+03
     -4.97285102E+02      3.55525791E+02      3.78999205E+02
      8.10938403E+02      2.06126803E+03      2.82539030E+02
      1.15389028E+02      3.36396349E+02     -5.04449593E+02
     -4.22484705E+02     -4.80331171E+00      5.58342271E+00
      1.25785370E+03      3.17907021E+02      1.17325673E+03
     -4.01923165E+03     -1.29505549E+03      1.21734482E+03
      2.48636132E+02      4.10125019E+02      3.28890885E+02
      1.93160541E+03      1.71236499E+02      1.37383858E+02
     -1.77513097E+03     -9.97080128E+02      1.73867151E+03
      3.50815171E+03     -1.34995333E+03     -1.91279520E+03
     -2.45392479E+02      1.98577851E+02      5.85383643E+02
      2.35514878E+03      1.32516390E+03      7.84487174E+02
     -2.56030371E+03      3.04542876E+03      6.45522174E+02
      1.00031545E+03     -5.79843278E+02     -7.76087691E+02
     -7.10423163E+02      5.24931190E+02      1.94176232E+01
     -7.45786411E+02      1.67007130E+03      4.79033364E+01
      2.51897052E+03      2.12799549E+03      2.34528939E+03
      6.73655829E+01     -2.24969886E+02      6.02628271E+02
      8.91595340E+02     -2.99477655E+03     -8.71467797E+02
      2.71813946E+02     -9.04894449E+02      2.23689789E+03
      2.16650607E+02     -5.80607238E+02      3.98545134E+02
      1.79775054E+02     -1.24448986E+03     -8.43047185E+01
      3.01167311E+00      3.79206883E+03     -1.67217775E+03
     -6.35959548E+02     -4.77475792E+02      1.00373159E+03
     -1.18760544E+03     -1.70716444E+02     -5.30218898E+02
     -1.75267855E+03     -1.96124083E+03      8.31168939E+02
     -5.75195330E+01     -8.06348522E+02      5.97915673E+02
      3.21893301E+03      1.44354297E+02     -1.94796364E+03
     -6.67537778E+02     -3.25208963E+03      3.50028685E+02
      3.32004790E+00     -1.77319474E+02      2.27491788E+02
     -1.06119525E+03      1.70124463E+02      6.88593411E+02
      3.60566947E+03      3.60770910E+03      7.45880268E+02
     -2.98193604E+02      5.30641262E+02     -1.34988210E+02
     -2.64033222E+01      5.96178496E+02     -1.99603147E+03
     -1.33303767E+03      5.11277714E+02      1.32054804E+03
      4.79427439E+02      2.71799489E+02      3.57916778E+02
      1.09994858E+03     -3.28281547E+03      6.90148134E+02
      1.56112192E+02     -8.95063321E+02      1.27111512E+03
      1.14484132E+02      6.32864711E+02      3.71027604E+02
     -2.08000239E+03     -5.96390978E+02      2.07918609E+03
     -3.92739671E+01     -1.30875118E+03     -6.45802272E+02
      1.02131691E+03      2.66795675E+03      5.50826680E+02
     -1.19670092E+02     -1.74307414E+02      1.24663456E+02
     -1.13272240E+03      3.06329650E+02     -2.08264924E+03
      1.18272156E+03     -8.26335842E+02      8.29072717E+02
      1.61793473E+03     -7.44129868E+02      2.01555993E+03
     -4.37010531E+01     -2.07553819E+02      2.66285997E+01
      3.19204043E+03     -3.17783008E+01     -3.04143383E+02
     -1.24768262E+03      2.26106618E+03     -7.01186210E+02
     -5.35661834E+02     -8.35950931E+01      3.56476063E+02
      1.73064924E+03      5.17407018E+02      1.36760020E+03
      2.06916362E+03     -1.96930216E+03      1.90094988E+03
     -4.83028385E+02     -2.35717529E+02      6.14366587E+02
      6.17097972E+00      6.01056078E+01     -1.97435835E+03
     -2.47554163E+03      1.78277141E+03     -1.03006418E+03
      9.67279283E+02      1.50720127E+02     -5.65251137E+01
      1.44317057E+03      5.18226160E+02      1.82446209E+03
      1.57981763E+03     -5.65685122E+02      1.10449834E+03
      4.06992508E+02      1.39560782E+02      1.34111258E+02
      9.43788302E+02      1.88890325E+03      1.04467746E+03
      9.09252049E+02      3.52288553E+03     -1.95466465E+03
      6.30361387E+02      2.28477515E+02     -1.37245320E+02
     -3.57011488E+03     -3.10183261E+02     -6.72256287E+02
      1.65991918E+03      5.49955800E+02      1.24790309E+03
     -6.27972415E+02      1.77448649E+02     -7.28550005E+02
     -4.05435611E+02      5.64826764E+02     -1.61001255E+03
     -1.90924958E+03     -3.95659113E+02      1.19299840E+02
     -5.46054720E+02      9.08129142E+02     -2.80276794E+02
      2.78181298E+03      1.30252156E+03     -2.32859688E+03
      5.15967586E+02      3.31470880E+02     -2.06822579E+02
      1.02294572E+02      9.43679451E+01     -7.87540758E+01
     -8.05220407E+02      3.49332878E+03      2.89145849E+02
     -1.25933456E+03      1.25493146E+03     -6.91024447E+02
     -2.22499440E+03     -3.86757398E+02     -2.83725598E+03
     -2.33735504E+02      7.75803867E+02      9.95185581E+02
     -9.15761308E+02      1.20610839E+03      2.23324349E+01
      4.55548752E+02      5.77639941E+02     -1.15015228E+03
      3.40421891E+03     -1.11805045E+03      6.23276040E+02
      1.30026959E+02      2.94056435E+02      3.24251474E+01
      1.93418165E+03      8.00940807E+02      5.55543324E+02
      6.08621033E+02      3.12712011E+03      5.04279494E+02
     -5.17294943E+02      8.30830931E+02     -1.56868738E+02
     -2.55875326E+03     -2.06593962E+02      1.10219060E+02
      9.00055653E+01      9.90953018E+02      1.35287415E+03
      1.36102959E+01      4.63421641E+01     -2.27630937E+02
      1.95960288E+03     -2.36174878E+03      8.87322259E+02
      2.36076727E+03      4.68293096E+02     -1.19833605E+03
      5.18632067E+02     -3.76288024E+01     -5.28332056E+02
     -5.88873621E+02     -3.46953294E+02      1.26890122E+03
     -2.62517016E+02     -1.77385923E+03     -1.17578337E+03
     -5.29185445E+02      2.98054079E+02     -6.56270170E+02
      5.97618942E+02      1.68440369E+02     -1.40755526E+03
      4.70502583E+02      1.99945402E+03     -5.35505938E+02
     -3.02445930E+02      8.82382216E+02     -3.90598097E+02
     -1.85838962E+03      1.43285928E+03      1.15205243E+03
     -1.37192238E+03      2.73406127E+03      1.12060119E+03
      2.32836132E+02      3.25056057E+02      2.99277823E+02
      1.20001232E+03     -1.91557275E+03     -2.84816377E+03
      1.95929286E+03      3.66076493E+02     -2.80304383E+02
     -2.64127658E+02     -1.74649016E+02      4.25650702E+02
      1.26424937E+02      1.67752904E+03      5.32868948E+02
     -1.76283321E+03     -1.57695216E+03     -2.32658711E+02
      1.46835478E+02      6.61757632E+01     -4.63999295E+02
      2.09821965E+03     -2.95844155E+03      1.19177395E+03
      8.44022214E+02      5.17861747E+02     -8.90796472E+02
     -5.73783252E+02      1.86204660E+03      1.26320336E+03
      2.04556199E+02     -1.14348032E+02      1.57801220E+02
     -1.44625203E+03     -1.55855937E+03      1.44177679E+02
     -9.66222067E+02      7.39024176E+02      1.63788243E+03
     -2.29213785E+02      3.84910051E+03     -3.53615604E+02
     -4.31674795E+00     -8.69900692E+02     -8.26624962E+01
     -1.26133975E+03      1.35527265E+02      1.52387984E+03
     -9.94342613E+02      5.55590265E+02      5.61232109E+02
     -1.70302169E+02     -5.02430182E+01      1.62664873E+02
     -2.42448825E+02      2.08232698E+03      1.76338635E+03
     -6.19136781E+02     -1.37685233E+03     -2.12647450E+03
      3.45545703E+01     -3.36636617E+02     -6.79533297E+01
      5.24341335E+02     -8.27281176E+02     -3.10052019E+02
      1.52744250E+03     -1.31920774E+02     -2.19284135E+03
     -3.39533070E+02      3.61925748E+02      7.99696389E+01
     -2.28845058E+03      2.64797584E+02      1.89273462E+03
      1.79190795E+03      1.57780009E+03     -1.05609174E+03
     -5.38578412E+02     -3.61753112E+02      1.54062885E+02
      1.38664444E+03     -1.50101849E+03      2.07889255E+03
      2.71826110E+03      2.27264028E+03      1.37087324E+03
     -3.92889053E+02      3.49459094E+02      9.76031763E+02
     -1.26625257E+02      2.84497577E+03     -3.04400821E+03
     -4.89804952E+02     -2.03990723E+03     -1.68801448E+03
      1.47940406E+02      6.49650986E+02      1.90556426E+02
     -2.92127364E+03      5.88559022E+03      8.61558311E+02
     -3.33683697E+02     -1.43476785E+03      1.16329155E+02
     -2.18775014E+02      5.55892184E+02      2.46587388E+02
      1.46485544E+03     -1.58677958E+03     -2.17960921E+03
      2.41269054E+02     -3.35239648E+03      8.98092324E+01
      7.71433194E+00      2.93609948E+02      3.83358788E+02
      8.86958501E+02      2.14209896E+02     -1.74373221E+03
      1.00719543E+02      1.71435578E+02     -9.36733091E+02
     -1.62696520E+03     -1.26600319E+03      2.03969109E+02
      1.59279138E+02      7.35127076E+01      3.20312144E+02
      1.01619415E+03      1.44635241E+03      2.45958906E+03
      7.83711252E+02     -1.52678829E+03      3.36592560E+02
     -1.54124769E+03     -1.86065604E+03     -1.68585231E+03
     -6.27101166E+02      7.32305380E+02      2.32978226E+01
     -9.44836001E+01      8.73622140E+02     -2.06269943E+03
      2.54669957E+02     -6.34955418E+02     -1.94295970E+03
      2.73972711E+02      1.04771574E+02     -2.31942427E+02
      9.30414603E+02      4.19226770E+02     -1.46696740E+03
     -2.46315743E+03     -8.22445372E+02      3.17454834E+02
      3.24245716E+02      1.68663982E+01     -5.43383983E+02
     -2.73463954E+03      4.27941214E+02      4.92584749E+02
      1.85178209E+03      9.41627523E+02     -2.71085533E+03
     -4.93310227E+02     -1.66437711E+02     -3.42603976E+02
     -1.62418003E+03      1.69601745E+03     -7.35021928E+02
      1.01645896E+02      4.96885245E+02     -4.88314438E+02
      6.02794522E+02      6.96607129E+02     -6.60956122E+02
      2.06697183E+03      1.04764927E+03      5.35588540E+02
     -9.22716719E+02      1.92773370E+03     -2.44419418E+03
      3.97750751E+02     -3.98404471E+01     -6.83375461E+01
      1.16486093E+03      8.73573361E+02      3.21726243E+02
     -1.14137930E+03     -1.81427065E+03      2.85596585E+03
      1.47091951E+00      1.81204104E+02     -3.64922325E+01
     -6.65483951E+02     -8.44692933E+02      1.30088240E+03
     -6.15611970E+01     -1.68094330E+03     -1.02336100E+03
      4.14944524E+02      1.01127405E+03      1.15962805E+02
      1.14628709E+03      3.62523676E+03     -8.10872055E+02
      1.71035895E+03      6.93828280E+02      2.30128155E+02
     -6.92637722E+01     -1.06879916E+02      2.83553321E+02
      2.02582551E+03      1.06702791E+03      1.52136732E+03
      1.45252730E+03      1.41197448E+03     -2.30494211E+02
      4.11180380E+03      9.00344908E+01      3.76099190E+03
     -1.06075598E+04     -1.76083646E+04     -6.97731911E+03
     -7.71656612E+02     -4.85360152E+02      2.11468788E+03
      7.43987510E+02     -2.08765111E+02      3.45097952E+02
      2.58522798E+02      2.05778029E+03      1.65058402E+03
      1.31508564E+02      3.63444595E+02      6.55052769E+02
     -3.02389592E+03      7.30718530E+02     -2.21309470E+02
     -3.00382802E+02     -1.58093141E+03     -1.45463509E+03
      4.18659643E+02     -3.54507133E+02     -2.35126471E+02
     -9.68789711E+02      1.79579678E+03     -2.24890001E+03
     -2.35199183E+03      1.78449002E+03      2.65310328E+03
      7.38353792E+02     -1.45695195E+02      3.74442650E+01
      1.07829800E+03      1.25000514E+03      1.21137769E+02
      8.15634312E+02     -1.36650973E+03      6.08279197E+02
     -7.58815118E+02     -1.90329606E+02      2.57024194E+02
      3.94593122E+01      9.21483791E+01     -8.38212989E+02
      2.33689907E+02     -1.89795042E+03     -8.23556714E+02
     -3.19748170E+02      5.93899608E+02      3.30966654E+02
      4.95043584E+02     -1.65909748E+03      1.69068608E+03
      6.58590596E+02      2.62055423E+03     -5.88697922E+02
     -2.02269144E+02     -2.22653736E+02      3.36278655E+02
      9.88851617E+02      1.93555224E+03      2.17698189E+02
     -2.09329282E+01      2.96567150E+03      4.23997271E+02
     -1.73003459E+02      8.85226991E+01      1.84453516E+02
     -1.01918536E+03      6.24500725E+01      1.98116830E+03
     -4.71864867E+02      2.09852555E+03      1.67344351E+03
     -4.90860277E+02      7.71748699E+02      2.40268447E+02
      7.77575541E+02      8.85289621E+02     -1.36431219E+03
      7.85295171E+02      4.22985950E+02     -1.39039688E+03
      2.87036904E+02     -4.79090683E+02      7.50087867E+02
     -2.02025981E+01     -1.26913983E+03      2.53098725E+03
      1.91878198E+02      1.35271531E+03     -1.43069681E+03
     -6.62334367E+03      3.72288110E+03      7.33814909E+02
      6.60686158E+01     -2.14009371E+02      5.55052561E+02
      2.77431759E+03     -2.49855030E+03     -1.28065355E+03
     -2.86430529E+03      2.30696112E+01      6.49690498E+02
     -1.19144292E+03      2.96914890E+02     -4.02931515E+02
     -1.38831798E+02     -5.02234681E+02     -8.56893782E+02
      7.93288357E+02      1.51141991E+03      3.21416315E+02
     -1.24059272E+03      1.08947376E+03     -1.27576714E+03
      5.42943270E+01     -7.02842600E+02     -2.83259707E+02
     -1.42145191E+03     -2.42385953E+03      2.22391021E+03
      2.70051604E+03     -2.13880469E+02      1.85667158E+03
      1.85912793E+02      4.07557428E+02     -2.28011265E+02
     -3.35073409E+02      2.75509347E+03     -9.66698619E+02
      3.05350941E+03      1.57398538E+03     -1.93761192E+03
      8.94343984E+01     -7.20214325E+02     -2.93767889E+02
      2.18528145E+03      1.28336970E+03      1.90828726E+03
      1.92814290E+03      2.31734602E+03     -1.85482200E+03
     -2.74880373E+02      6.38298839E+02     -3.61751636E+02
      3.94075489E+03      1.51292326E+03      1.83216912E+02
      2.50852367E+02      6.73850774E+02      2.36228366E+02
     -7.52127161E+02      9.13788605E+02     -2.73912599E+02
      2.34413820E+03      2.35608845E+03     -7.20649983E+02
      4.87535317E+02      3.26721083E+03      2.89210122E+03
     -3.48134911E+02      4.23426389E+02      9.05632782E+02
      3.59758694E+02     -1.04876678E+03     -1.58763563E+03
      3.70869550E+02      5.20900161E+02     -2.35596108E+03
      7.26795173E+02      4.26047354E+02     -3.28259748E+02
      1.89609215E+01     -7.55949735E+02      1.06365003E+03
     -8.09543355E+02      1.12533812E+03      4.53772052E+02
      3.44463216E+02     -2.15714473E+02     -2.48703226E+02
      5.05529374E+02     -1.53875530E+03      1.37270753E+03
     -1.09996960E+03      2.55593833E+02      4.40089163E+02
      1.10958779E+03      2.13511328E+03      1.02648209E+03
      7.60772352E+02     -5.65778389E+01      4.16720605E+02
      2.29251960E+03     -2.10221612E+03     -4.67617995E+02
     -2.73740332E+03      1.86578560E+02     -2.29263546E+03
      4.85914597E+03     -1.19638905E+03      4.52006104E+02
      8.29546783E+02     -2.46627472E+02      3.15920356E+01
      4.50031968E+03     -5.71500358E+02     -9.14615313E+02
     -1.23687795E+03      1.79861520E+03     -2.77212737E+03
      5.34412996E+02     -4.87550270E+01     -1.36168547E+02
      1.73443580E+03     -9.89795845E+02     -2.55289089E+03
     -1.84825741E+03      1.97728167E+03      8.97257414E+02
      2.16287544E+02     -6.64088273E+02      3.38040959E+02
      4.64351555E+02     -1.23678814E+03     -5.32387362E+02
      1.32924407E+03     -1.20956585E+03      1.55137453E+03
      8.79672649E+02      3.63497587E+02      3.06774919E+02
     -1.19221870E+03     -2.38789512E+03     -1.63682416E+03
     -1.66098550E+03     -4.12528082E+00      5.17755160E+02
     -9.28011996E+01     -1.85869575E+02     -9.05670396E+02
      3.13484550E+03      1.07103468E+03      8.60364481E+01
     -1.08015799E+03      2.20302169E+03     -4.59313936E+02
      6.06043876E+01     -6.15779465E+02     -4.22664947E+01
      2.69672984E+03     -2.65523311E+03     -1.74129657E+03
     -4.39881475E+02     -1.45353846E+02     -5.31755773E+01
      7.05100725E+02     -3.92310416E+02      1.08158619E+02
     -1.61609916E+03      8.71021998E+02     -2.54591396E+02
     -1.04651080E+03      5.97005051E+02      2.06576865E+02
      2.66649629E+02      1.22838187E+03      4.86635108E+02
     -7.09649753E+02      2.45070799E+03     -6.17499737E+02
     -1.05695150E+03      6.69313182E+02      1.31379147E+03
      7.14106596E+02      6.60047568E+02     -6.50112516E+02
     -4.51451406E+02     -1.47703779E+02     -5.03666994E+02
     -3.23862825E+02     -9.69257907E+02      2.05273343E+03
     -4.51574558E+01     -3.15434118E+03     -2.00270137E+03
      4.67893212E+02      3.06941634E+02      4.13254590E+02
     -2.78592888E+02     -1.17645613E+03     -1.19329203E+03
      8.63427880E+02      9.51386917E+02     -5.19763130E+02
      1.63700762E+03      3.62769447E+02      2.23648403E+03
  }
}

Hamiltonian = DFTB {
  SCC = Yes
  SCCTolerance = 1e-6
  MaxSCCIterations = 200
  ForceEvaluation = Dynamics
  MaxAngularMomentum = {
    C = "p"
    H = "s"
  }
  Charge = 0.0
  SpinPolarisation = {}
  Eigensolver = Standard {}
  Filling = Fermi {
    Temperature [Kelvin] = 300.0
  }
  SlaterKosterFiles = Type2FileNames {
    Prefix = "../../pbc-0-3/"
    Separator = "-"
    Suffix = ".skf"
    LowerCaseTypeName = No
  }
  KPointsAndWeights = {
    0.0000000000000 0.0000000000000 0.0000000000000 1.00000000000000
  }
  Dispersion = LennardJones { 
    Parameters = UFFParameters {}
  }
}

ParserOptions = {
  ParserVersion = 3
}
