Geometry = GenFormat {
<<< "system.gen"
}

Driver = VelocityVerlet{
  Steps = 50000
  TimeStep [fs] = 0.2
  MDRestartFrequency = 5
  Thermostat = None {
    #InitialTemperature [Kelvin] = 300.0
  }
  Xlbomd{ 
    IntegrationSteps = 6 
    MinSccIterations = 2
    MaxSccIterations = 200
    SccTolerance = 1e-6 
  }
  Velocities [m/s] {
     -5.60217891E+02     -4.18169170E+02     -3.41337170E+02
     -9.64490311E+02      2.57154332E+02     -2.11662254E+03
     -4.33025781E+02      9.72488679E+01     -7.09950899E+02
     -3.02130202E+02      3.08486265E+02     -1.26230783E+03
      5.83332410E+02     -2.01536496E+03     -1.92320595E+03
      2.05272233E+03      2.29688197E+03      2.15126946E+03
     -8.66337779E+02      2.03209244E+02     -2.70615100E+02
      5.16239447E+02     -9.86255636E+02      2.48909484E+03
     -2.97953413E+03      9.57729264E+02      7.65259533E+02
      2.09933792E+02     -3.49214422E+02      5.46138564E+02
     -2.74186798E+03     -1.86133061E+03     -1.98547763E+03
      1.40271582E+03      9.09812030E+02      9.51568138E+01
      1.70703138E+02      8.47719272E+02      5.59842854E+02
     -1.99907253E+03     -3.76908979E+00      1.13181487E+03
     -4.71328384E+02     -3.39561500E+02     -4.32687452E+02
      7.10486844E+02     -4.55699211E+02      6.28459590E+02
     -1.59591218E+03     -2.20964265E+03     -2.09893236E+03
      3.07723816E+02      1.46273740E+03     -1.08239240E+03
      1.10065550E+02      2.32782958E+02      4.24159179E+02
     -1.21331028E+02      2.65405434E+03     -5.06675929E+02
     -5.38442046E+02     -8.89900578E+02     -1.17268678E+03
      6.17283310E+02     -2.82300928E+02      3.75379199E+02
      5.11332543E+01     -1.46192238E+03     -4.19706565E+02
      2.04096879E+03     -3.88787464E+02      2.42101750E+02
     -9.15325593E+02     -5.02530783E+01     -2.61803686E+02
      2.15308788E+02      2.87966110E+02     -1.29876751E+03
      1.31644577E+03     -7.25335348E+02      2.90514040E+02
     -2.74009944E+03     -3.36251648E+03      5.13002668E+02
      3.08600727E+02      2.11546018E+02     -5.96048364E+02
      1.22813005E+03      1.16487155E+03      6.06261709E+02
     -4.17080887E+02      3.03846875E+02      1.00057731E+03
     -6.05661207E+02      7.59406485E+02     -2.47267053E+02
     -1.77214033E+02      2.20301617E+02      4.88890126E+02
     -6.84509119E+02     -1.87385264E+03      1.47623601E+03
      1.81554592E+03      1.82308003E+03      1.68134247E+03
      1.04264989E+03     -4.24034353E+02      2.18138376E+02
     -1.34776368E+01      7.31127920E+02      3.30381947E+03
      8.34338672E+02     -2.63734056E+03      1.20750225E+01
      1.87524376E+02     -5.74193098E+01     -3.30334740E+01
      1.91420210E+02      1.48211624E+03      1.86745033E+02
     -1.35703543E+03      1.13433578E+03     -9.92615115E+02
      9.92633095E+02      3.57061793E+02      1.81090412E+00
     -4.89856191E+02     -3.44734818E+02     -1.34781585E+03
      1.27888223E+03      9.61776132E+02     -6.30091133E+02
      1.06259915E+02      2.40478323E+02     -5.72268136E+01
     -1.78718380E+03     -5.00473843E+01     -7.29186173E+02
     -6.05220837E+02      1.29161891E+03     -2.67687421E+03
      9.69580175E+01      8.18916453E+02      5.23601625E+02
     -7.96335017E+02      1.49777394E+03     -3.49182596E+03
     -1.79019207E+03     -3.48354515E+02      1.70815913E+03
      8.58651839E+02      4.43432050E+02      7.30621910E+02
      1.55186444E+03     -3.43518312E+03      4.78653557E+02
      8.59123079E+02     -2.30132796E+03     -2.40821320E+03
     -2.44282658E+02     -3.02400747E+02     -5.67272579E+02
     -4.90277505E+02     -3.68167928E+03      2.39875225E+03
     -2.44956983E+03      3.46721834E+01     -6.89902313E+02
      7.74753896E+02      1.26556108E+02     -7.80467607E+02
      3.47521600E+03      8.19466208E+02      5.82362634E+02
      8.81444937E+02     -4.30698665E+02     -7.71560722E+02
      1.10241823E+03      1.64034114E+03      3.77781387E+02
     -2.00940810E+02      2.14958142E+02     -3.87105776E+02
     -1.23291100E+03      1.19049757E+03     -1.71793647E+03
     -8.11418090E+02      1.36044566E+03     -1.30900116E+03
      2.03209160E+02      8.04796166E+01      9.14091629E+02
      1.09515338E+02     -2.92496291E+02     -1.54886065E+02
      1.02940236E+02      1.86807271E+03      7.81091724E+02
      1.37592457E+03     -2.24336116E+03     -3.85036405E+02
     -4.29532677E+01     -6.36863260E+01      4.92697900E+02
     -1.14587581E+03      4.66446270E+02      8.54915187E+02
     -7.40854900E+02     -4.97229661E+02     -1.72780155E+02
      8.97474923E+02      2.19266593E+02      2.55809102E+01
     -9.36166084E+02     -1.00931511E+03      5.03624703E+02
     -1.58018005E+03     -4.89544649E+02      9.43077608E+02
     -1.95385667E+04     -9.22107626E+03      2.32641345E+03
      8.07349774E+02     -1.77638504E+03      1.95922005E+03
      2.25766860E+03      5.53628066E+03     -2.58529359E+03
      9.33605519E+02     -1.57913590E+02      2.83939628E+02
     -3.84569126E+02      1.11187698E+03      1.98072885E+02
      1.49922380E+02     -3.71028736E+03     -1.27872103E+03
     -4.27545955E+02     -5.98115493E+02     -1.28399829E+00
      3.66289933E+03      4.94328194E+02      2.47980119E+03
      9.69539300E+02      2.83492580E+02     -1.38144599E+03
     -3.75835412E+02     -9.84788887E+02     -7.68312974E+02
     -1.14597995E+01      3.03615565E+01      8.50734752E+02
     -1.41084922E+03      1.91471083E+03      1.20390472E+03
     -7.26467887E+02      4.07130784E+02     -5.02427543E+02
      1.62518529E+03      3.93129850E+02      1.90160382E+03
      5.52678105E+00      7.64647404E+02      6.20753124E+02
      2.54691467E+02     -1.92003108E+02      3.09532898E+02
     -1.38934194E+03      1.28879699E+03     -1.77112576E+03
     -9.09764724E+02      2.46966707E+03      7.42382822E+02
     -9.27531901E+01     -2.81248627E+02     -1.08453966E+03
      2.38294915E+02     -6.00233630E+02      5.78998305E+02
      7.35112668E+02      5.09943147E+02     -5.32520444E+02
      1.74070367E+03     -1.38051928E+01     -1.17826493E+03
     -1.48908734E+03     -2.38447703E+03     -2.50849718E+03
      6.34453320E+01      5.78981926E+02     -2.40909666E+02
      3.57113922E+02     -5.74631568E+02     -1.07690804E+03
      9.25900357E+01     -2.08103704E+03     -2.03734033E+03
      4.36566126E+02      5.03036863E+02     -3.12550204E+02
      2.85565299E+02     -2.51270438E+03     -1.08353872E+03
      1.05354658E+03     -6.57093782E+02      1.39492850E+03
     -2.95345995E+02     -8.86454258E+01     -2.56622323E+02
     -3.75203581E+02     -4.47554690E+02     -3.37336569E+02
     -7.94676977E+02      2.51881556E+03     -1.23133447E+03
     -4.95532902E+02      4.25126269E+02      5.85086949E+01
      3.30775233E+03      9.40599074E+02     -3.17611265E+03
      1.83047622E+03      4.73293700E+02     -2.47449730E+02
      1.67581211E+02      3.29804684E+02      4.53943298E+02
     -3.06208858E+02     -3.30311311E+02      3.75774188E+02
     -1.35118471E+03     -1.94275662E+03     -1.44016047E+03
     -5.34427308E+01      1.21149538E+02     -2.62081915E+02
     -9.04775897E+02      1.53096439E+03     -1.81054669E+03
     -1.80004771E+02     -2.09497076E+03      2.96749456E+03
     -6.11964051E+01      7.76747266E+02     -4.78600706E+01
     -1.12590063E+03     -2.59129802E+02      1.90143609E+03
      1.65550535E+03      1.74678422E+03      9.66756806E+01
      1.12321656E+03      8.55793329E+02      5.93706515E+02
     -4.04821177E+02      1.70851743E+03     -1.79710055E+03
     -2.43884309E+02     -1.94320682E+02      1.90074809E+03
      2.16353068E+02      7.61933013E+02      1.10604639E+02
      5.10349602E+02     -1.44884943E+03      1.17906195E+03
     -1.24059352E+03     -2.22918755E+03      1.88533392E+03
     -1.52305975E+03      2.31256300E+02     -5.74791387E+02
      1.23277841E+03      5.16573593E+02     -1.55219142E+02
      7.31160655E+02      2.59243625E+03      7.35091747E+02
      3.03375776E+02     -2.25600518E+02      2.97351930E+03
      3.55630219E+02     -1.31515396E+03     -3.24696279E+03
      1.04877129E+03      4.21401550E+02      5.63685140E+02
      4.04051515E+02     -2.58598931E+03     -1.67612064E+03
     -1.23301125E+03     -1.53365011E+02     -1.47727804E+03
      1.27633768E+02     -7.68585805E+02      7.39614952E+02
     -2.35830246E+03      1.50953870E+03      3.12225364E+03
      7.88452034E+02     -1.17750517E+03     -1.50825617E+03
      6.32901039E+02      4.23404185E+02     -1.46571606E+01
     -1.15967488E+03      1.94672287E+03     -2.17904632E+02
      5.70820507E+02     -8.28169174E+02     -2.46766210E+02
      2.62623116E+02     -1.15611508E+02      3.50807401E+02
     -4.31604583E+02      9.58564718E+02     -9.10370287E+02
      2.63223112E+03     -3.54498195E+03      3.80041784E+02
     -1.14796164E+02      1.71962166E+02      6.27785256E+02
      3.91392899E+02      5.93286282E+02     -1.78274486E+03
      1.95578795E+03      3.88938771E+02      3.45640595E+02
      4.87642931E+02     -7.93375114E+01     -2.40892840E+02
     -1.13358905E+03     -6.70968338E+02      6.60240769E+02
      1.47957889E+03     -2.82686007E+03      1.36188490E+03
      3.40770812E+02     -1.51337076E+02      4.09822268E+02
      1.98571261E+03     -2.51538560E+02     -1.22694531E+03
      1.42398593E+03     -3.89064162E+03     -1.78852691E+03
      2.88161909E+02      1.50692229E+02     -4.61716277E+02
     -2.17519606E+03     -2.72764349E+02      7.57363096E+02
     -2.12608345E+03      7.24746343E+02      1.69224420E+03
      9.12165767E+02      1.05262018E+02     -6.38254471E+01
      2.21060502E+02     -2.97819631E+03     -5.55865992E+02
     -2.08808805E+02      1.38611745E+03     -3.81648799E+03
      1.34277939E+03      1.35425270E+03     -1.42125916E+02
     -1.95595662E+02      4.38151676E+02     -4.23607630E+02
     -2.21733141E+03      4.03054683E+02      1.34739663E+03
      1.15047743E+00     -5.60627089E+01      7.80610894E+02
      5.36459922E+02      2.08245880E+03     -4.20865469E+01
     -1.80000089E+02     -1.14951095E+02      4.51396204E+02
      2.29561506E+03     -6.26235252E+02      2.06936338E+03
     -1.61210206E+03     -9.83569240E+02      1.33732178E+03
     -9.41362921E+01      2.17953589E+02      2.10142659E+02
     -1.06817732E+03     -9.87088978E+02     -2.10953945E+03
     -1.28597335E+03     -9.67110928E+02      1.07234566E+03
      4.94917914E+02      3.65323719E+02      3.61171858E+02
      5.68708623E+02      2.57816983E+02     -2.34068893E+02
     -8.25111768E+02      1.58829945E+03     -1.79100352E+03
      2.32425881E+02      1.58828017E+02     -3.19002102E+02
      6.14470360E+02     -1.90994769E+03      2.53591246E+02
      2.49814194E+03     -9.87873570E+02      8.52250700E+02
     -2.62346233E+02     -3.16060709E+02     -9.36641487E+02
      9.90075475E+02     -1.57480053E+03     -1.94605507E+03
     -4.71699793E+02     -1.92046700E+03     -1.55053139E+03
     -2.12474385E+02      9.16737630E+01     -3.44161651E+02
      5.76103807E+02      4.45717826E+02      3.82202753E+02
      1.59950129E+03      8.51751767E+02      1.90858786E+03
     -4.32153707E+02      7.28558042E+01      2.64198167E+02
      9.50342177E+02     -3.29078422E+03      1.81181921E+03
     -1.93068226E+03     -8.54666746E+02     -1.24175269E+03
     -3.86832882E+02     -8.65654296E+01      3.15046029E+02
      1.14634038E+03      4.49237258E+02     -7.22345602E+02
      1.40000051E+03      1.39002923E+03     -1.55380822E+03
     -1.17508921E+03     -1.63288666E+02     -5.44778848E+02
      1.75764834E+02     -9.55941366E+01     -1.47237332E+03
     -5.37419573E+02      1.72436439E+03      3.85410250E+03
     -3.53502019E+03      2.36528007E+02     -4.67033604E+02
      1.91608203E+02     -1.03093907E+02     -7.55428311E+01
     -1.23827220E+02     -1.76441069E+03     -1.63504613E+03
     -2.81098081E+02     -1.59135615E+03     -6.94423461E+02
      9.65219572E+01     -5.39336018E+02     -1.07498995E+03
     -5.96349080E+02      1.58248165E+02      2.66968226E+02
      7.12795191E+02      9.67801062E+02      8.60158088E+02
      2.09700459E+03      2.31565873E+03      9.30115126E+02
      5.29160977E+02     -5.50702264E+02     -3.69683301E+02
     -1.35673750E+03      5.54623426E+02      1.52374495E+03
      2.26116017E+03      2.83618059E+03      2.23006867E+03
      5.93618967E+02      5.04706343E+02      5.65124424E+02
     -4.79200070E+02      4.61227657E+02      1.65787342E+03
     -2.28251482E+03     -1.94491430E+03     -1.35193271E+03
      7.01735977E+02      5.12019888E+02     -6.05077180E+02
      1.66767479E+03      1.33184153E+03      1.46383800E+03
     -6.02828938E+02      1.10887082E+03     -2.70841470E+02
      7.53542119E+02     -1.49512409E+02     -2.23303089E+02
      7.17851576E+01      2.88909891E+02      2.22690201E+03
     -4.68647911E+02      3.63240295E+02      8.80069824E+02
      4.27830159E+02      5.75775871E+02      5.99647917E+02
     -5.21953223E+02     -2.97120156E+03     -2.97544985E+03
      2.66521184E+03     -1.25580648E+01     -5.79057743E+02
      1.21147730E+02     -3.43046788E+02     -5.37563887E+02
      6.17921839E+02     -1.44379805E+03     -2.80760511E+03
     -2.18495230E+03      1.61018457E+03     -4.58720796E+02
     -5.57332897E+01     -9.79711483E+00      5.18237163E+02
     -4.43104135E+02      1.53970833E+03     -8.03708296E+02
      1.87554400E+03      2.78491560E+01      5.03133812E+02
      5.59970763E+02      5.52825950E+01      3.31949135E+02
     -5.75860576E+01      2.11127656E+03      5.66273112E+02
     -1.08868580E+03      1.52826276E+02      8.00301624E+02
      1.26188636E+02      2.43293271E+02     -5.13254789E+02
      7.40646376E+01      3.57102202E+00     -8.22591986E+01
      3.85296916E+03      1.10968309E+03     -1.83763807E+03
      7.88743482E+02     -1.38461484E+03      4.46643115E+02
      1.36653086E+03      8.81412827E+02      5.76265221E+01
      2.74182569E+02      4.50210186E+02     -8.38422386E+01
     -1.05468861E+03      1.27320432E+03     -2.65301589E+03
     -4.15526886E+02      1.04290303E+03      1.59780059E+03
      5.48141710E+02     -3.69100327E+02     -7.16923113E+02
      6.44938563E+02      5.98566098E+02      9.79646112E+02
     -1.47087040E+02      7.51847299E+02      9.94253776E+02
     -2.46891080E+01     -7.18659490E+02     -1.10725519E+02
     -5.77732368E+02     -3.30632967E+01     -5.02496702E+03
      2.94351073E+03     -1.04270261E+03     -5.54996083E+02
      3.81050585E+02      5.00869532E+02     -4.62853665E+02
      1.24498896E+03     -2.01873377E+03      2.36508094E+02
     -7.14278950E+02     -1.11646690E+03      1.76419650E+03
      4.83152102E+02      3.39391355E+02      4.31172489E+02
     -1.27658438E+02     -2.13705008E+02      3.01030217E+02
      2.24402809E+03      4.25291235E+03      4.17969938E+03
     -5.22181842E+02      6.87201299E+02      1.93079488E+02
     -1.53883973E+03      3.54192100E+02     -1.71099336E+03
     -1.72638788E+03      4.53960505E+02     -4.68349860E+02
      1.83240975E+02      5.26748052E+02     -3.15893488E+02
      1.38063392E+03     -1.43549604E+03      9.56023367E+02
     -2.79362967E+02      1.50761199E+03      9.42873423E+02
      3.23822614E+02      3.94684685E+02      4.32813245E+02
      1.21580528E+03      1.57229798E+03      2.05177449E+03
     -2.07932135E+03     -7.16839344E+02     -2.44962679E+03
      2.48584258E+02      3.69127076E+02     -2.05719074E+02
     -3.13773533E+03      4.16585512E+03      1.22885501E+03
      2.57829517E+03     -2.25002017E+02     -3.60486619E+03
      1.97452922E+03     -1.21334318E+03     -2.53066348E+03
      2.34075715E+02      4.67062220E+01     -1.27427667E+02
     -1.37764985E+03      6.49639696E+01      7.21304076E+01
     -9.85279310E+02     -1.03724805E+03      1.43774726E+03
      1.75186842E+03     -1.08170078E+03      3.30752961E+02
      7.46194010E+02      1.04862964E+02      2.76707329E+02
      1.65723595E+02      1.25028229E+03      1.35179777E+03
     -1.12247302E+02      2.95339769E+02      8.63373576E+02
      2.80341622E+02     -1.78846900E+02     -4.93636167E+02
      5.59530984E+02     -2.08532170E+03     -2.32679748E+03
     -7.02202790E+02      9.32785420E+02      2.02323072E+03
     -3.66072822E+02      1.62824389E+02      5.16718788E+02
      1.17522695E+02     -1.93151498E+03      1.27300018E+03
      1.00006139E+03     -2.34998858E+03      2.81649313E+03
      2.27523785E+02      2.62126165E+02     -2.42995534E+02
      4.78488416E+02     -2.24625209E+03      5.58330261E+02
     -2.07752609E+03     -6.71993666E+02     -7.60960756E+02
      5.27376490E+02     -4.29797137E+02     -5.83731746E+00
      1.61551639E+03     -1.95627000E+02     -4.47973723E+02
      9.49426395E+02      4.90989383E+02      5.76566608E+02
     -3.01535218E+02     -6.70967089E+01      5.69398373E+01
     -1.14002260E+03      1.57131995E+03     -1.61880129E+03
      4.32151303E+02      2.29910418E+03     -1.76294605E+03
     -1.41901004E+01     -8.29911764E+02      1.69764710E+02
      2.99747215E+02      9.73558449E+02     -4.76135774E+01
      1.45940812E+03      2.55385935E+03      2.65924613E+02
      3.60060415E+02     -5.40473591E+01      6.45502608E+02
     -4.22560282E+02     -2.48665921E+03     -1.14737409E+03
     -1.08158837E+03      1.13120461E+02      4.52937448E+02
     -1.30472767E+02     -1.27463734E+02     -9.93615184E+02
      1.46092168E+03     -8.81763737E+02      2.15905746E+00
     -1.09861934E+03      1.55785610E+03      1.10278144E+03
      1.99126383E+03      1.00290466E+03      1.50138457E+03
      9.83298985E+02      2.38908503E+02      1.31261831E+02
     -1.63387389E+03     -1.13570878E+03     -1.66995508E+03
      2.97180556E+03      7.91806268E+02      5.81141758E+02
      4.29191025E+02     -3.36112690E+02      6.04192779E+02
     -6.55295970E+02     -2.36040783E+02      1.02346138E+03
      2.21852201E+03      1.09230882E+03     -1.85267791E+03
      2.59866075E+03      1.59288370E+03      4.01254364E+02
      6.92929469E+00     -3.92662138E+02     -2.71312465E+02
      2.61163956E+03      6.53283470E+02      1.63545337E+03
     -4.11407792E+02      8.03748304E+02     -2.74445274E+02
      4.98712980E+02      1.05456403E+03     -7.12695665E+02
      8.28397644E+02      1.03108044E+03      9.43688163E+02
     -3.00654776E+02     -9.75196002E+02      8.98048240E+01
     -1.82041015E+02      2.65383580E+02      5.59918981E+02
      1.03201269E+03      1.02514161E+03      2.15639545E+02
      1.44651943E+03      8.85066109E+02     -4.35010858E+02
     -3.24352316E+02     -1.40086608E+03      1.20582682E+03
     -9.69380335E+02      4.90965461E+03      3.25967395E+03
      2.44679306E+03      2.29196244E+02     -2.83561757E+01
      1.68343922E+02      8.97618847E+02     -2.61456850E+02
     -1.28137944E+03     -1.46836989E+02     -2.12829895E+03
      1.53233759E+02      2.22166401E+03     -2.07946357E+03
      2.17115154E+02      7.45151071E+01     -7.63020428E+02
     -4.26679575E+02      4.73359590E+03     -2.53353999E+03
     -2.33222116E+03      1.37877712E+03     -1.86054549E+03
      5.72756314E+02     -3.70055890E+02     -5.44472708E+02
      1.06846141E+03      9.92098973E+02      3.89818341E+02
      3.43614408E+03      5.30739935E+01      3.83068757E+02
      3.42803421E+02      4.14209522E+02     -9.75867038E+02
      8.09507580E+02      1.97174004E+03     -2.84827855E+03
      3.68301394E+03      1.10316606E+03      3.45610492E+02
      1.26977273E+03     -1.60451758E+03     -3.68162809E+02
      1.84288186E+02     -4.02618923E+02     -9.79555842E+01
      3.04614456E+02     -7.59604768E+02      1.47723072E+02
     -4.16985943E+02      1.98717071E+03      8.87736469E+01
      2.07504065E+03     -1.12811019E+03      2.78516891E+03
      5.14218192E+02     -2.01961595E+01     -1.97951157E+02
     -9.10393400E+02      3.22440322E+03     -1.40211009E+02
      1.35637083E+03     -2.10587581E+03      1.08518983E+03
      1.41216228E+02      1.20195511E+02      2.62280357E+02
     -3.46581550E+03     -2.09585390E+03     -8.80615335E+02
      6.14010233E+02      4.60902073E+02     -4.34128106E+02
      4.80500772E+02      4.66978561E+02      8.78935775E+01
     -1.08778750E+03     -2.60673483E+03     -2.38394237E+03
     -5.93241374E+02     -1.12095890E+03     -6.53144467E+02
     -4.65338245E+02     -1.05288297E+01      1.85108168E+02
      6.63560700E+02     -1.50281505E+03      2.45836529E+02
     -1.76647189E+03      1.69183762E+03      4.87080784E+01
     -2.15117950E+02      4.56909931E+02     -4.41226287E+02
     -1.20289298E+02     -7.14026646E+02     -2.63897550E+03
      2.86677487E+02     -1.89866889E+03      2.93133103E+03
      3.94709618E+02      1.18217425E+02      1.94871785E+02
     -2.09316050E+03     -6.02319068E+02      2.72870270E+03
     -1.65768194E+03     -2.83953407E+02     -2.87697556E+03
     -2.42963970E+02      7.23403631E+02     -1.33936726E+01
     -1.29959180E+02     -2.35566095E+03     -1.65778937E+03
     -1.64417467E+03      8.45558552E+02     -3.00706919E+02
      1.84695559E+02      1.04307309E+01      2.24622793E+02
     -1.56681886E+03     -1.88172596E+03      2.40967005E+02
      1.06166004E+03      2.10521241E+03      8.86930654E+02
      3.12086158E+02     -3.90257091E+02      2.40689090E+02
     -4.43287018E+02      2.19138588E+03     -1.41198579E+03
     -6.95606204E+02     -9.23976176E+02     -3.34832990E+03
     -1.17583229E+03      1.35105209E+03     -4.47767546E+02
     -6.06459995E-01     -9.30877082E+01     -4.33493539E+02
      1.02924993E+03     -1.07821119E+03      2.82668520E+02
     -2.14441093E+02      2.15504764E+02     -8.88685543E+02
     -9.65379302E+02      1.41008445E+03      1.38975352E+03
  }
}

Hamiltonian = DFTB {
  SCC = Yes
  SCCTolerance = 1e-6
  MaxSCCIterations = 200
  ForceEvaluation = Dynamics
  MaxAngularMomentum = {
    C = "p"
    H = "s"
  }
  Charge = 0.0
  SpinPolarisation = {}
  Eigensolver = Standard {}
  Filling = Fermi {
    Temperature [Kelvin] = 300.0
  }
  SlaterKosterFiles = Type2FileNames {
    Prefix = "../../pbc-0-3/"
    Separator = "-"
    Suffix = ".skf"
    LowerCaseTypeName = No
  }
  KPointsAndWeights = {
    0.0000000000000 0.0000000000000 0.0000000000000 1.00000000000000
  }
  Dispersion = LennardJones { 
    Parameters = UFFParameters {}
  }
}

ParserOptions = {
  ParserVersion = 3
}
