Geometry = GenFormat {
352  S
C  H
1 1    0.3725463962E+02    0.2869251203E+02    0.3801634550E+02
2 2    0.3633111061E+02    0.2918163132E+02    0.3829226088E+02
3 2    0.3709901249E+02    0.2878727450E+02    0.3689293028E+02
4 1    0.3855166523E+02    0.4486227648E+02    0.3838361966E+02
5 2    0.3835542032E+02    0.4589849088E+02    0.3805072443E+02
6 2    0.2406472435E+02    0.4455692864E+02    0.3768039012E+02
7 1    0.3881168047E+02    0.4459442393E+02    0.3991982875E+02
8 2    0.2396399416E+02    0.4361337973E+02    0.4002328654E+02
9 2    0.3783636522E+02    0.4471007697E+02    0.4049114664E+02
10 1    0.2435295212E+02    0.4561199813E+02    0.4072146233E+02
11 2    0.2397103996E+02    0.4587839142E+02    0.4176424981E+02
12 2    0.2428000267E+02    0.4656083738E+02    0.4009426911E+02
13 1    0.4118793153E+02    0.4512443757E+02    0.4069906470E+02
14 2    0.4129702347E+02    0.4475113484E+02    0.3962326591E+02
15 2    0.4108009996E+02    0.4417115133E+02    0.4121035470E+02
16 1    0.2676680361E+02    0.4604014051E+02    0.4139624239E+02
17 2    0.2628892929E+02    0.4617110573E+02    0.4252482775E+02
18 2    0.2646721940E+02    0.4703686006E+02    0.4084496330E+02
19 1    0.4358341371E+02    0.4589713061E+02    0.4147598464E+02
20 2    0.4384768291E+02    0.4591603997E+02    0.4039309633E+02
21 2    0.4388035276E+02    0.4493680073E+02    0.4199345593E+02
22 1    0.4421925205E+02    0.4721085762E+02    0.4203924802E+02
23 2    0.2820308540E+02    0.4782458785E+02    0.4262362422E+02
24 2    0.2916969736E+02    0.4774589839E+02    0.4118525586E+02
25 1    0.3711777194E+02    0.2732266037E+02    0.3847874591E+02
26 2    0.3710908570E+02    0.2737956181E+02    0.3956522102E+02
27 2    0.3612061815E+02    0.2690690873E+02    0.3805251999E+02
28 2    0.3791300487E+02    0.2650625568E+02    0.3821836154E+02
29 1    0.4543507227E+02    0.4693527229E+02    0.4297707046E+02
30 2    0.4598714702E+02    0.4620776708E+02    0.4242620742E+02
31 2    0.4598007368E+02    0.4793194434E+02    0.4317092378E+02
32 2    0.4496591412E+02    0.4657769218E+02    0.4398995812E+02
33 1    0.3004671816E+02    0.2933266596E+02    0.3738129999E+02
34 2    0.2898211707E+02    0.2959369405E+02    0.3767204579E+02
35 2    0.3008555171E+02    0.2828371620E+02    0.3704337762E+02
36 1    0.3044899655E+02    0.3028868896E+02    0.3623121659E+02
37 2    0.3153788397E+02    0.3064244190E+02    0.3628472581E+02
38 2    0.2984051912E+02    0.3122428986E+02    0.3627858789E+02
39 1    0.3035012130E+02    0.2956344770E+02    0.3481512570E+02
40 2    0.2932585755E+02    0.2914844662E+02    0.3470400509E+02
41 2    0.3118836762E+02    0.2880285932E+02    0.3475328934E+02
42 1    0.3043179778E+02    0.3054610091E+02    0.3369991046E+02
43 2    0.4559443733E+02    0.3163433584E+02    0.3398188876E+02
44 2    0.2967312502E+02    0.3036097311E+02    0.3291368708E+02
45 1    0.3189527200E+02    0.3053238883E+02    0.3317202610E+02
46 2    0.3202373820E+02    0.2964833660E+02    0.3246878189E+02
47 2    0.4795035358E+02    0.3033865192E+02    0.3404973136E+02
48 1    0.4787533743E+02    0.3177511329E+02    0.3249384101E+02
49 2    0.4890081364E+02    0.3152202215E+02    0.3228717173E+02
50 2    0.4761784948E+02    0.3259246897E+02    0.3324399769E+02
51 1    0.3174204744E+02    0.3217312129E+02    0.3126128479E+02
52 2    0.3064201768E+02    0.3243928383E+02    0.3150577861E+02
53 2    0.3171285893E+02    0.3130521662E+02    0.3052480380E+02
54 1    0.4785280823E+02    0.3335057714E+02    0.4578594796E+02
55 2    0.4737948527E+02    0.3380079676E+02    0.4493729674E+02
56 2    0.4874469059E+02    0.3305843677E+02    0.4531204794E+02
57 1    0.3097335639E+02    0.2967898848E+02    0.3854048716E+02
58 2    0.3191737114E+02    0.2987373361E+02    0.3811972192E+02
59 2    0.3065828465E+02    0.3058480522E+02    0.3895428778E+02
60 2    0.3106618504E+02    0.2893713722E+02    0.3939077114E+02
61 1    0.3308340519E+02    0.3441677312E+02    0.4682143548E+02
62 2    0.3224928969E+02    0.3463704858E+02    0.4750633383E+02
63 2    0.3384098400E+02    0.3386368076E+02    0.4742578818E+02
64 2    0.3345289616E+02    0.3524659343E+02    0.4626264947E+02
65 1    0.3887572980E+02    0.3719797859E+02    0.3218419431E+02
66 2    0.3798743412E+02    0.3722574725E+02    0.3145483876E+02
67 2    0.3976832573E+02    0.3710430696E+02    0.3152242794E+02
68 1    0.3896997190E+02    0.3840675255E+02    0.3307083599E+02
69 2    0.3996618289E+02    0.3844556431E+02    0.3361113259E+02
70 2    0.3832871814E+02    0.3826438482E+02    0.3395142558E+02
71 1    0.3880301153E+02    0.3981781176E+02    0.3248240911E+02
72 2    0.3772248518E+02    0.3990032014E+02    0.3202796622E+02
73 2    0.3939285020E+02    0.3997502449E+02    0.3157707188E+02
74 1    0.3920730772E+02    0.2553809235E+02    0.3357152514E+02
75 2    0.4028750515E+02    0.2549238301E+02    0.3377953965E+02
76 2    0.3874459347E+02    0.2520873764E+02    0.3456145219E+02
77 1    0.3886758973E+02    0.2693477632E+02    0.3316506637E+02
78 2    0.3946921236E+02    0.4244149250E+02    0.3235591640E+02
79 2    0.3895262689E+02    0.4306425074E+02    0.3386768946E+02
80 1    0.3736513605E+02    0.2711174553E+02    0.3279731699E+02
81 2    0.3693860004E+02    0.2650411982E+02    0.3188224684E+02
82 2    0.3717327428E+02    0.2821159894E+02    0.3253518119E+02
83 1    0.3637848627E+02    0.2684519065E+02    0.3393929828E+02
84 2    0.3655211804E+02    0.2763482218E+02    0.3472892561E+02
85 2    0.3633690483E+02    0.2585962082E+02    0.3436083755E+02
86 1    0.3480406835E+02    0.2704513789E+02    0.3331214016E+02
87 2    0.3463059146E+02    0.2642107032E+02    0.3233469969E+02
88 2    0.3446430588E+02    0.2811663706E+02    0.3315346044E+02
89 1    0.3895582864E+02    0.3592352519E+02    0.3313770164E+02
90 2    0.3952908193E+02    0.3629250141E+02    0.3409446749E+02
91 2    0.3797570876E+02    0.3581019063E+02    0.3356944968E+02
92 2    0.3932803642E+02    0.3500168044E+02    0.3275313148E+02
93 1    0.3390578950E+02    0.2629671993E+02    0.3429277569E+02
94 2    0.3281453061E+02    0.2642729144E+02    0.3411116161E+02
95 2    0.3425001009E+02    0.2518597412E+02    0.3422593079E+02
96 2    0.3406517877E+02    0.2669819572E+02    0.3525513020E+02
97 1    0.3364626707E+02    0.3715234905E+02    0.4097614148E+02
98 2    0.3355097361E+02    0.3777244878E+02    0.4006343340E+02
99 2    0.3473687373E+02    0.3745226391E+02    0.4138948981E+02
100 1    0.3251554396E+02    0.3770622911E+02    0.4192000894E+02
101 2    0.3159126193E+02    0.3739839196E+02    0.4156404530E+02
102 2    0.3263118173E+02    0.3882858561E+02    0.4173131070E+02
103 1    0.3273450336E+02    0.3761714108E+02    0.4341069322E+02
104 2    0.3360851938E+02    0.3835306850E+02    0.4360780721E+02
105 2    0.3307029310E+02    0.3660357114E+02    0.4371386500E+02
106 1    0.3156193208E+02    0.3829567540E+02    0.2885834441E+02
107 2    0.3141867661E+02    0.3931287066E+02    0.2842139218E+02
108 2    0.3197099815E+02    0.3840000132E+02    0.2991247079E+02
109 1    0.3020102758E+02    0.3758268155E+02    0.2891269873E+02
110 2    0.2984862313E+02    0.3708529970E+02    0.2800197784E+02
111 2    0.2948577936E+02    0.3841852637E+02    0.2918022365E+02
112 1    0.3023573075E+02    0.3649571768E+02    0.3002632125E+02
113 2    0.3097928769E+02    0.3575266991E+02    0.2979029865E+02
114 2    0.2930401776E+02    0.3598182075E+02    0.3007407316E+02
115 1    0.3061960218E+02    0.3694252542E+02    0.3145304906E+02
116 2    0.3068556423E+02    0.3801990054E+02    0.3143127872E+02
117 2    0.3170185074E+02    0.3667075208E+02    0.3155692259E+02
118 1    0.2963222495E+02    0.3649135717E+02    0.3250040551E+02
119 2    0.2934199805E+02    0.3543278383E+02    0.3227606013E+02
120 2    0.2865672440E+02    0.3698225809E+02    0.3244932237E+02
121 1    0.3377230061E+02    0.3561212678E+02    0.4094607764E+02
122 2    0.3463533078E+02    0.3526712795E+02    0.4038707973E+02
123 2    0.3409127791E+02    0.3519052259E+02    0.4201339914E+02
124 2    0.3285426775E+02    0.3506825289E+02    0.4044796943E+02
125 1    0.3006863582E+02    0.3631335439E+02    0.3398911010E+02
126 2    0.3029841902E+02    0.3724009915E+02    0.3452063411E+02
127 2    0.2935549868E+02    0.3584420433E+02    0.3466072165E+02
128 2    0.3102208857E+02    0.3580227233E+02    0.3400597164E+02
129 1    0.3253727205E+02    0.3359717737E+02    0.3798683564E+02
130 2    0.3297739168E+02    0.3460709282E+02    0.3799859730E+02
131 2    0.3286030628E+02    0.3305696908E+02    0.3880784025E+02
132 1    0.3105566888E+02    0.3362839084E+02    0.3792017777E+02
133 2    0.3055016145E+02    0.3271791190E+02    0.3832076650E+02
134 2    0.3080619582E+02    0.3341492786E+02    0.3687982185E+02
135 1    0.3059650894E+02    0.3495215722E+02    0.3861289413E+02
136 2    0.3113317847E+02    0.3571499621E+02    0.3809994441E+02
137 2    0.3101089767E+02    0.3499995761E+02    0.3972020786E+02
138 1    0.2908678622E+02    0.3528934272E+02    0.3847675413E+02
139 2    0.2846551424E+02    0.3439290033E+02    0.3848926743E+02
140 2    0.2886223561E+02    0.3585235844E+02    0.3745752193E+02
141 1    0.2862880297E+02    0.3631474611E+02    0.3960247974E+02
142 2    0.2887777908E+02    0.3588357440E+02    0.4060860506E+02
143 2    0.2753396843E+02    0.3634399301E+02    0.3953141788E+02
144 1    0.2927805701E+02    0.3771028704E+02    0.3957607431E+02
145 2    0.2926248867E+02    0.3800517908E+02    0.3849597176E+02
146 2    0.3029979594E+02    0.3755962858E+02    0.3981881810E+02
147 1    0.2870897440E+02    0.3873052664E+02    0.4052374146E+02
148 2    0.2962287439E+02    0.3939160163E+02    0.4054075055E+02
149 2    0.2863312085E+02    0.3830377532E+02    0.4149132224E+02
150 1    0.2752325104E+02    0.3950818540E+02    0.4027860568E+02
151 2    0.2657140579E+02    0.3886757398E+02    0.4013768275E+02
152 2    0.2747623119E+02    0.4003074588E+02    0.3936233956E+02
153 1    0.3321786417E+02    0.3284228069E+02    0.3683074363E+02
154 2    0.3384402536E+02    0.1812595344E+02    0.3613462882E+02
155 2    0.3389449933E+02    0.3209564578E+02    0.3741137610E+02
156 2    0.3254580592E+02    0.3236698126E+02    0.3621271819E+02
157 1    0.2748931316E+02    0.4050032889E+02    0.4152762079E+02
158 2    0.2666280556E+02    0.4126156920E+02    0.4150035019E+02
159 2    0.2725002480E+02    0.3994977834E+02    0.4246771807E+02
160 2    0.2839723287E+02    0.4101545162E+02    0.4165322713E+02
161 1    0.3509653886E+02    0.3062674411E+02    0.2569783719E+02
162 2    0.3579252123E+02    0.3022458745E+02    0.2636701556E+02
163 2    0.3546494445E+02    0.3008008509E+02    0.2471028753E+02
164 1    0.3370996678E+02    0.3020622140E+02    0.2604902085E+02
165 2    0.3317351264E+02    0.2983946113E+02    0.2517150427E+02
166 2    0.3300533134E+02    0.3115414200E+02    0.2633653944E+02
167 1    0.3364208165E+02    0.2920317231E+02    0.2717889834E+02
168 2    0.3429342523E+02    0.2835140899E+02    0.2699618428E+02
169 2    0.3255322678E+02    0.2876226541E+02    0.2744610008E+02
170 1    0.3410158598E+02    0.2998441644E+02    0.2850126427E+02
171 2    0.3329959456E+02    0.3068336600E+02    0.2889420734E+02
172 2    0.3497285353E+02    0.3062287505E+02    0.2819694892E+02
173 1    0.3445753667E+02    0.4427046767E+02    0.2956619453E+02
174 2    0.3344983834E+02    0.4372838592E+02    0.2957963231E+02
175 2    0.3458561560E+02    0.2937143648E+02    0.3052043751E+02
176 1    0.3559012075E+02    0.4333199850E+02    0.2926799921E+02
177 2    0.3529026143E+02    0.4237829840E+02    0.2883992232E+02
178 2    0.3594797840E+02    0.4299783283E+02    0.3028948961E+02
179 1    0.3694140323E+02    0.4371172018E+02    0.2848957154E+02
180 2    0.3699206936E+02    0.4477575053E+02    0.2829811257E+02
181 2    0.3690495337E+02    0.4321231281E+02    0.2755830556E+02
182 1    0.3805524184E+02    0.4314716995E+02    0.2931747515E+02
183 2    0.3784104239E+02    0.4210734957E+02    0.2972503577E+02
184 2    0.3827714871E+02    0.4387440911E+02    0.3011948155E+02
185 1    0.3529577004E+02    0.3216088367E+02    0.2537231470E+02
186 2    0.3449110091E+02    0.3259282279E+02    0.2471642427E+02
187 2    0.3539439773E+02    0.3277408772E+02    0.2623500658E+02
188 2    0.3622844147E+02    0.3231020382E+02    0.4011991391E+02
189 1    0.3933684798E+02    0.4305037536E+02    0.2839338089E+02
190 2    0.3912182920E+02    0.4311659355E+02    0.2737569778E+02
191 2    0.4022740394E+02    0.4356089782E+02    0.2865487143E+02
192 2    0.3986120846E+02    0.4204302620E+02    0.2837010978E+02
193 1    0.3213469715E+02    0.2610949476E+02    0.4115167303E+02
194 2    0.3240187431E+02    0.2500712000E+02    0.4141825320E+02
195 2    0.3297745267E+02    0.4227274706E+02    0.4114753044E+02
196 1    0.3143944274E+02    0.2607982069E+02    0.3973224668E+02
197 2    0.3086717712E+02    0.2700127078E+02    0.3946815400E+02
198 2    0.3039794799E+02    0.4077552705E+02    0.3992456875E+02
199 1    0.3231479084E+02    0.2537521705E+02    0.3874732456E+02
200 2    0.3224119912E+02    0.2443762227E+02    0.3917601079E+02
201 2    0.3330441352E+02    0.2558993973E+02    0.3901795223E+02
202 1    0.3188549298E+02    0.2540222331E+02    0.3727235932E+02
203 2    0.3209135548E+02    0.2635370609E+02    0.3694830751E+02
204 2    0.3073179079E+02    0.2551062756E+02    0.3726128223E+02
205 1    0.3203985183E+02    0.2400261428E+02    0.3667077766E+02
206 2    0.3200793658E+02    0.2413278781E+02    0.3548131370E+02
207 2    0.3123322340E+02    0.2333611880E+02    0.3713540894E+02
208 1    0.3347389038E+02    0.2317385669E+02    0.3686940111E+02
209 2    0.3325254836E+02    0.2273469657E+02    0.3786611174E+02
210 2    0.3442692489E+02    0.2379424367E+02    0.3672525702E+02
211 1    0.3342597345E+02    0.3743956858E+02    0.3580510050E+02
212 2    0.3365346686E+02    0.3540951323E+02    0.3665872489E+02
213 2    0.3331469942E+02    0.3789021549E+02    0.3486214562E+02
214 1    0.3340263519E+02    0.3612366985E+02    0.3585447220E+02
215 2    0.3345992148E+02    0.3559918213E+02    0.3478750851E+02
216 2    0.4941077807E+02    0.3943553211E+02    0.3151154790E+02
217 1    0.3114835494E+02    0.2644233750E+02    0.4229746823E+02
218 2    0.3056139092E+02    0.2563965516E+02    0.2718619438E+02
219 2    0.3176651658E+02    0.2659081150E+02    0.2792047399E+02
220 2    0.3047962699E+02    0.2741587403E+02    0.4221494954E+02
221 1    0.5017123962E+02    0.3869645966E+02    0.3083243149E+02
222 2    0.4929687796E+02    0.3864327201E+02    0.2992200205E+02
223 2    0.5136719962E+02    0.3867224048E+02    0.3079457819E+02
224 2    0.4951034178E+02    0.3757183768E+02    0.3115493443E+02
225 1    0.2781104370E+02    0.4223959282E+02    0.3552992892E+02
226 2    0.2829433171E+02    0.4224095987E+02    0.3659621145E+02
227 2    0.2845983854E+02    0.4293618381E+02    0.3488549224E+02
228 1    0.2800635025E+02    0.2553681851E+02    0.3488562489E+02
229 2    0.2732753918E+02    0.2545320382E+02    0.3402065894E+02
230 2    0.2777704978E+02    0.2471079886E+02    0.3558748482E+02
231 1    0.2932598163E+02    0.4051910526E+02    0.3423444246E+02
232 2    0.2927739811E+02    0.3946042166E+02    0.3405168369E+02
233 2    0.3024441947E+02    0.4062656706E+02    0.3486149915E+02
234 1    0.2964894982E+02    0.4133156244E+02    0.3296472042E+02
235 2    0.3069696909E+02    0.4133270401E+02    0.3291451164E+02
236 2    0.2928979055E+02    0.4237750129E+02    0.3330757091E+02
237 1    0.2889718792E+02    0.4090893916E+02    0.3168132677E+02
238 2    0.2778713953E+02    0.4110940504E+02    0.3179248245E+02
239 2    0.2916015190E+02    0.2446474730E+02    0.3142423927E+02
240 1    0.2914989443E+02    0.4159982859E+02    0.3034736394E+02
241 2    0.2837455882E+02    0.2590860375E+02    0.2965071283E+02
242 2    0.3005898396E+02    0.2610030896E+02    0.2981590050E+02
243 1    0.2897434708E+02    0.4308808112E+02    0.3056024417E+02
244 2    0.2992191207E+02    0.4351256432E+02    0.3021290615E+02
245 2    0.2895304969E+02    0.4341735123E+02    0.3160972779E+02
246 1    0.2780219272E+02    0.4382149147E+02    0.2993362592E+02
247 2    0.2741167305E+02    0.4330721881E+02    0.2897806116E+02
248 2    0.2794958615E+02    0.4488877135E+02    0.2969098753E+02
249 1    0.2632372470E+02    0.2735136701E+02    0.3562003977E+02
250 2    0.2583410241E+02    0.2673095047E+02    0.3645780091E+02
251 2    0.2627094108E+02    0.2841741819E+02    0.3588382276E+02
252 2    0.2582562601E+02    0.2721994068E+02    0.3465569478E+02
253 1    0.2673016033E+02    0.4391961614E+02    0.3104943267E+02
254 2    0.2647127343E+02    0.4286072826E+02    0.3140969222E+02
255 2    0.2714722272E+02    0.4454802178E+02    0.3182813035E+02
256 2    0.2580822025E+02    0.4435401425E+02    0.4609749127E+02
257 1    0.4052082408E+02    0.3141939884E+02    0.3572088161E+02
258 2    0.3975834438E+02    0.3221736159E+02    0.3568872588E+02
259 2    0.3974032720E+02    0.3051470972E+02    0.3575577856E+02
260 1    0.4122648050E+02    0.3128555556E+02    0.3440099318E+02
261 2    0.4054553560E+02    0.3154365599E+02    0.3367548027E+02
262 2    0.4129735919E+02    0.3013357076E+02    0.3418554206E+02
263 1    0.4262076624E+02    0.3190163503E+02    0.3413790576E+02
264 2    0.4295212050E+02    0.3140559763E+02    0.3324489886E+02
265 2    0.4345436443E+02    0.3160141714E+02    0.3493197038E+02
266 1    0.4267605334E+02    0.3346899579E+02    0.3388551250E+02
267 2    0.4374709345E+02    0.3376370010E+02    0.3357789113E+02
268 2    0.4249266851E+02    0.3393548807E+02    0.3491453652E+02
269 1    0.4173416041E+02    0.3387164752E+02    0.3278168244E+02
270 2    0.4188682657E+02    0.3491286477E+02    0.3252017265E+02
271 2    0.4070468676E+02    0.3388869879E+02    0.3302394345E+02
272 1    0.4180832453E+02    0.3328075716E+02    0.3136429312E+02
273 2    0.4286891288E+02    0.3286237193E+02    0.3120466885E+02
274 2    0.4177758575E+02    0.3413127411E+02    0.3058257359E+02
275 1    0.4072904170E+02    0.3220327343E+02    0.3108341286E+02
276 2    0.3985957735E+02    0.3242839044E+02    0.3178498189E+02
277 2    0.4108068235E+02    0.3118530037E+02    0.3141736507E+02
278 1    0.4020753874E+02    0.3219666073E+02    0.2962037765E+02
279 2    0.4107740794E+02    0.3245195091E+02    0.2891853728E+02
280 2    0.3946121962E+02    0.3299879266E+02    0.2949342661E+02
281 1    0.4132284132E+02    0.3153040290E+02    0.3703906738E+02
282 2    0.4197570062E+02    0.3069359622E+02    0.3720608279E+02
283 2    0.4195282532E+02    0.3244540008E+02    0.3684790613E+02
284 2    0.4072657935E+02    0.3163973121E+02    0.3792558600E+02
285 1    0.3962043889E+02    0.3095890646E+02    0.2915894830E+02
286 2    0.3889309027E+02    0.3049281854E+02    0.2992996124E+02
287 2    0.3910485110E+02    0.3089819241E+02    0.2818781060E+02
288 2    0.4043517160E+02    0.3021213342E+02    0.2916244011E+02
289 1    0.3610058066E+02    0.3195282759E+02    0.4678435364E+02
290 2    0.3495826662E+02    0.3193859236E+02    0.4685054085E+02
291 2    0.3628678456E+02    0.3122214258E+02    0.4593617374E+02
292 1    0.3643952862E+02    0.3335248406E+02    0.4639076784E+02
293 2    0.3752807558E+02    0.3368505025E+02    0.4665206988E+02
294 2    0.3574563166E+02    0.3403857640E+02    0.4692308656E+02
295 1    0.3628319012E+02    0.3350532582E+02    0.4486538368E+02
296 2    0.3548912985E+02    0.3280611924E+02    0.4458521334E+02
297 2    0.3729383803E+02    0.3326120296E+02    0.2924016849E+02
298 1    0.3586815314E+02    0.3490379119E+02    0.2895778438E+02
299 2    0.3584741223E+02    0.3576323835E+02    0.4502830522E+02
300 2    0.3482732884E+02    0.3482194908E+02    0.2864812721E+02
301 1    0.3671362624E+02    0.3546176420E+02    0.2770223543E+02
302 2    0.3609200640E+02    0.3619275816E+02    0.2706899272E+02
303 2    0.3693852254E+02    0.3460355145E+02    0.4237015972E+02
304 1    0.3802654160E+02    0.3626677899E+02    0.2791130909E+02
305 2    0.3793211589E+02    0.3686897101E+02    0.2885843033E+02
306 2    0.3795676070E+02    0.3690114157E+02    0.2697625124E+02
307 1    0.3929542044E+02    0.3547194837E+02    0.2796162680E+02
308 2    0.3938257695E+02    0.3473693653E+02    0.2706660825E+02
309 2    0.3921190986E+02    0.3477722700E+02    0.2887317530E+02
310 1    0.4051994054E+02    0.3643399513E+02    0.2802072259E+02
311 2    0.4087147364E+02    0.3652770116E+02    0.2910502515E+02
312 2    0.4014687098E+02    0.3744764192E+02    0.2771541510E+02
313 1    0.3700849022E+02    0.3129305833E+02    0.4780861894E+02
314 2    0.3647748135E+02    0.3072517512E+02    0.4857195188E+02
315 2    0.3777418246E+02    0.3053726806E+02    0.4740947245E+02
316 2    0.3753755127E+02    0.3219183320E+02    0.4826292375E+02
317 1    0.4163093869E+02    0.3588599296E+02    0.2706054122E+02
318 2    0.4160837193E+02    0.3484550980E+02    0.2734126362E+02
319 2    0.4157791163E+02    0.3603066348E+02    0.2597612432E+02
320 2    0.4258185618E+02    0.3639991026E+02    0.2730296508E+02
321 1    0.4097940674E+02    0.3777236372E+02    0.2187404048E+02
322 2    0.4099742004E+02    0.3893708439E+02    0.2168787319E+02
323 2    0.4156130707E+02    0.3766409458E+02    0.2283241999E+02
324 1    0.3961366770E+02    0.3723524509E+02    0.3736777245E+02
325 2    0.3961592590E+02    0.3610897402E+02    0.3762560853E+02
326 2    0.3901923280E+02    0.3723918711E+02    0.3641776716E+02
327 1    0.3872893470E+02    0.3785512025E+02    0.3843852244E+02
328 2    0.3880874949E+02    0.3889108518E+02    0.3878535534E+02
329 2    0.3892289993E+02    0.3724973100E+02    0.3934955686E+02
330 1    0.3720690831E+02    0.3765639691E+02    0.3822001169E+02
331 2    0.3683669269E+02    0.3833775362E+02    0.3736219462E+02
332 2    0.3659226441E+02    0.3807029417E+02    0.3903184885E+02
333 1    0.3668822341E+02    0.3622653416E+02    0.3791264222E+02
334 2    0.3555259348E+02    0.3622646927E+02    0.3827840414E+02
335 2    0.3721736170E+02    0.3562772088E+02    0.3862099460E+02
336 1    0.3674030959E+02    0.3552337270E+02    0.3654722380E+02
337 2    0.3781829114E+02    0.3566439497E+02    0.3625631566E+02
338 2    0.3607796563E+02    0.3593218370E+02    0.3575884325E+02
339 1    0.3654520031E+02    0.3402771174E+02    0.3685215070E+02
340 2    0.3553237374E+02    0.3397325650E+02    0.3727006402E+02
341 2    0.3726303882E+02    0.3356639340E+02    0.3762929222E+02
342 1    0.3671286411E+02    0.3325175582E+02    0.3561230061E+02
343 2    0.3757611773E+02    0.3366666397E+02    0.3507699131E+02
344 2    0.3599154199E+02    0.3342035040E+02    0.3478837954E+02
345 1    0.4178035009E+02    0.3712054591E+02    0.2072867522E+02
346 2    0.4179184096E+02    0.3765686020E+02    0.1979607558E+02
347 2    0.4280089620E+02    0.3700959450E+02    0.2102904412E+02
348 2    0.4149963078E+02    0.3606853809E+02    0.2064513074E+02
349 1    0.3667200382E+02    0.3172108510E+02    0.3588046038E+02
350 2    0.3762420969E+02    0.3127631405E+02    0.3553022397E+02
351 2    0.3649942160E+02    0.3149809838E+02    0.3689239400E+02
352 2    0.3591638722E+02    0.3116751534E+02    0.3527092920E+02
0.0000000000E+00    0.0000000000E+00    0.0000000000E+00
0.1532620600E+02    0.0000000000E+00    0.0000000000E+00
0.0000000000E+00    0.1532620600E+02    0.0000000000E+00
0.0000000000E+00    0.0000000000E+00    0.1532620600E+02
}
Driver = VelocityVerlet {
  Steps = 50000
  TimeStep [fs] = 0.2
  MDRestartFrequency = 25
  Thermostat = None {}
  Xlbomd = {
    IntegrationSteps = 6
    MinSccIterations = 2
    MaxSccIterations = 200
    SccTolerance = 1e-6
    PreSteps = 0
  }
  Velocities [AA/Ps] = {
-5.92457421 -1.98653908 0.92006609
-0.50446348 -59.12109779 -20.30808844
-19.01820648 3.72624423 -21.59242609
-10.68312598 14.48255861 4.11787596
6.52662949 21.32918534 6.86549466
0.80138427 -17.77223136 -24.90282818
-7.79042138 5.58122532 -12.07255439
-16.32556776 -9.46033559 18.37592226
-4.08936456 11.96352968 -40.19774696
-2.48750975 2.44470357 -2.24711772
14.40780151 5.09225700 -3.91242169
20.47868635 0.55755046 -12.46798719
-4.19282382 5.47103595 10.24663437
27.83678583 11.87538265 25.26852196
-23.93687053 0.31140948 1.53177182
7.93488231 3.65101745 -7.09490675
-16.20091697 0.27372137 -8.34701661
59.73077372 -3.23688268 4.57716741
-4.53971546 -6.97708162 -0.28427410
18.56973765 -5.63686489 5.36340745
-32.39839208 2.62139238 -8.89158338
7.52302880 -4.68538175 8.18380436
-16.02643709 9.10060829 -17.43581533
-36.37882429 5.12337174 22.64419588
-2.28740991 3.30193579 5.44500815
-31.65527494 4.76273557 -45.07616254
-13.82627981 -10.46129493 -2.19156081
-20.48070777 28.61900860 -21.95207006
4.23657531 -6.02781976 5.55577591
1.68490506 4.11742019 26.57020502
-19.13715790 -1.32636649 -41.59096927
-38.64712824 4.17529476 5.44502581
-0.38310221 7.65162853 -5.57416184
15.48016009 16.04394010 -1.91429439
45.31045801 -20.35121324 -7.29944356
-0.78296890 3.36308020 -0.45544024
-21.75015460 32.37038194 43.46824857
-41.51120857 16.28920183 8.51885316
-4.70350713 2.93262379 -7.28004877
-3.25635089 43.03880827 -5.98029477
-7.78091799 3.21179240 -25.24561322
7.92872594 -0.62988967 -14.39149038
19.79217658 2.31178289 18.39953701
-24.42637300 -2.14631447 -33.78420934
6.20069986 -5.54774278 -7.22283552
-39.25165845 5.15421572 -4.87111751
-36.58548842 -19.30200625 -15.98058049
-0.30550260 -2.97248297 -0.15007964
-13.31391394 10.94041970 -1.54655707
-1.33288511 -7.16802362 5.84075929
-0.37886770 5.63565955 1.65443566
45.40753304 5.36660286 13.79075380
-28.71385572 -40.22697411 48.17178232
2.02286967 6.83439575 5.13267641
-12.29306184 19.49983172 39.39689246
-9.83527625 -32.55590938 -9.83291847
3.11960770 -12.36026969 0.68232992
48.24047148 -21.77624618 0.40887310
-0.58120609 16.01105054 37.96499257
-6.40470613 27.16035064 -3.08244990
-4.91073393 0.14360515 -1.03229797
-1.41762545 17.07812519 -6.79828452
-13.27664715 -33.27037135 26.16862196
42.11946643 -13.56801771 25.24356746
-4.72276354 -1.48434282 0.43939115
40.93877141 -5.75643606 9.15791990
-20.30479993 -7.76689582 2.71644022
1.14158024 2.96037374 -0.73354404
-6.45199450 -37.62203013 -10.26815559
27.18067165 11.41129747 56.74241269
-1.01841088 -4.97830506 2.28181609
17.80375006 -35.56947600 -18.65464818
5.76029235 -28.90257595 15.14970986
6.40707701 7.01129762 5.68608205
20.87001202 16.33006435 8.14908030
44.97051738 33.76332227 -16.39886985
-1.48891422 -4.40559625 0.27417390
-27.00120385 -8.49763836 2.70031392
23.29327376 -17.28001501 -51.82120571
-4.12258628 -4.87278696 9.12065960
34.29279498 7.17268853 5.28895859
-9.89965725 -8.63645266 3.44055343
-1.02506396 -1.32807138 12.47389754
-28.81714179 -4.09445175 13.89262575
17.72807199 18.91491640 7.45546672
4.38933679 5.01809810 -12.71606547
34.14813759 -12.70734279 -16.63797084
-0.28796530 -13.82065702 -37.63787623
0.48193946 -0.38849250 0.43098268
20.23967143 18.53927183 34.46461703
44.79988356 11.55118294 -29.30094712
18.89203051 -12.77104365 -3.50089217
1.09234600 -7.00651335 1.50441578
23.85105828 21.89723374 10.11657045
-2.66754028 -1.00280911 10.44570351
22.86238514 27.91024487 21.76787590
-0.02084366 1.29183623 -10.38054473
-11.97797689 2.98722074 12.54349019
6.19376710 -5.03246801 26.81956202
1.54931628 0.26855323 -0.05335832
-15.89070097 -17.97592505 -4.85415231
-32.53781169 26.26308120 3.83619644
-6.75688457 4.34747450 -1.18654939
-23.36431239 -17.78337285 -34.25315583
10.14502134 0.93070679 32.50151517
-1.30180333 -5.37286694 -0.33513193
-2.54237599 -4.39090610 -2.35789419
4.87076699 30.30949485 -14.57629545
-0.24797796 -7.08694629 0.43045782
-30.35564666 19.58686321 -10.63286861
-36.66339538 26.91121367 10.55066599
5.49331732 -4.69058965 -0.50221165
32.08549116 24.89903154 -21.03026599
2.38934764 14.22453277 -19.91984752
2.09171420 5.38606174 -4.51647837
-15.34123358 -28.87723050 8.64366228
-19.37974474 23.48911514 -5.66856339
7.81260862 -9.95195048 -8.50520121
-12.41445418 -8.42600380 1.79418717
-0.07291803 -23.69637123 -26.00981043
0.20917105 -1.49525221 -1.45667401
1.70635211 -24.19119322 23.01833809
3.84065830 14.74545239 18.54006834
26.20759431 -11.73979356 -13.52317766
-4.49414132 -3.33521847 9.55864840
4.14919704 -14.05721262 16.68318055
-15.83196004 -0.21036649 26.88119548
-13.59713463 -2.90859172 -10.60748400
3.89879052 -6.49956375 5.08872344
-4.82172137 1.81362964 32.28894246
23.73679096 8.48651626 -3.27778857
-1.89665119 -8.75457477 9.38150871
-6.61132885 6.87882428 1.33175289
14.08472277 8.55196798 14.11960549
16.65409797 1.24237946 5.07911256
21.38337755 12.48718258 -21.72262635
14.36001808 9.68439732 -6.20297079
3.64169037 4.52844854 -3.77355916
8.16143688 6.37945198 -30.66245368
-9.44452268 15.42967079 -24.65926604
1.21535557 4.88803645 2.35537050
15.31252465 4.08103990 -30.79259541
11.09776223 6.06555963 -1.65859105
-1.89860410 -10.56239102 0.74009799
-23.43707687 -5.78982246 20.67409164
25.67309697 -28.02670950 13.39055584
-4.57815380 -0.93012407 0.23093460
23.83841229 22.96244050 29.54316421
-32.82089565 5.10990233 -1.92709483
1.51356250 1.18869977 9.20111661
64.94514286 -27.01108126 7.85519556
-0.58497319 -38.00880572 -55.33935869
17.71638809 -4.91129621 4.02768725
8.30539761 -33.45185929 14.46967910
-17.25146744 -27.21822332 8.89787216
40.59487761 -12.71111303 31.02871156
-0.15420717 -8.45004751 -10.03317712
7.21694230 32.16200649 -20.43839710
14.61971064 -10.06536139 -6.08537301
-58.98809572 17.90120879 12.60135949
5.71805222 3.20782970 8.05759916
-25.40010023 -8.21365017 16.43370413
-10.22335333 -11.60696572 -26.00924301
-12.77288997 -2.68076856 5.96868457
-24.53929224 11.34456689 26.14140445
32.36770020 -24.96751501 -5.24923298
-3.91476389 6.26469184 6.49751652
-19.55346713 -3.80788317 -19.57194935
17.09470794 -10.09525281 25.76320575
-13.84964189 1.87836446 6.32360274
11.43269070 -22.16749941 -24.96158820
3.06620639 5.98652433 29.37335259
-4.14509891 2.06973134 -10.22454728
-25.81467537 -25.09160789 -12.54676273
-23.57244141 4.50306905 -4.91866712
-6.87090557 -3.60955801 10.29341319