Geometry = GenFormat {
<<< "system.gen"
}

Driver = VelocityVerlet{
  Steps = 50000
  TimeStep [fs] = 0.2
  MDRestartFrequency = 25
  Thermostat = None {
    #InitialTemperature [Kelvin] = 300.0
  }
  Xlbomd{
    IntegrationSteps = 6
    MinSccIterations = 2
    MaxSccIterations = 200
    SccTolerance = 1e-6
  }
  Velocities [AA/Ps] {
-5.92457421 -1.98653908 0.92006609
-0.50446348 -59.12109779 -20.30808844
-19.01820648 3.72624423 -21.59242609
-10.68312598 14.48255861 4.11787596
6.52662949 21.32918534 6.86549466
0.80138427 -17.77223136 -24.90282818
-7.79042138 5.58122532 -12.07255439
-16.32556776 -9.46033559 18.37592226
-4.08936456 11.96352968 -40.19774696
-2.48750975 2.44470357 -2.24711772
14.40780151 5.09225700 -3.91242169
20.47868635 0.55755046 -12.46798719
-4.19282382 5.47103595 10.24663437
27.83678583 11.87538265 25.26852196
-23.93687053 0.31140948 1.53177182
7.93488231 3.65101745 -7.09490675
-16.20091697 0.27372137 -8.34701661
59.73077372 -3.23688268 4.57716741
-4.53971546 -6.97708162 -0.28427410
18.56973765 -5.63686489 5.36340745
-32.39839208 2.62139238 -8.89158338
7.52302880 -4.68538175 8.18380436
-16.02643709 9.10060829 -17.43581533
-36.37882429 5.12337174 22.64419588
-2.28740991 3.30193579 5.44500815
-31.65527494 4.76273557 -45.07616254
-13.82627981 -10.46129493 -2.19156081
-20.48070777 28.61900860 -21.95207006
4.23657531 -6.02781976 5.55577591
1.68490506 4.11742019 26.57020502
-19.13715790 -1.32636649 -41.59096927
-38.64712824 4.17529476 5.44502581
-0.38310221 7.65162853 -5.57416184
15.48016009 16.04394010 -1.91429439
45.31045801 -20.35121324 -7.29944356
-0.78296890 3.36308020 -0.45544024
-21.75015460 32.37038194 43.46824857
-41.51120857 16.28920183 8.51885316
-4.70350713 2.93262379 -7.28004877
-3.25635089 43.03880827 -5.98029477
-7.78091799 3.21179240 -25.24561322
7.92872594 -0.62988967 -14.39149038
19.79217658 2.31178289 18.39953701
-24.42637300 -2.14631447 -33.78420934
6.20069986 -5.54774278 -7.22283552
-39.25165845 5.15421572 -4.87111751
-36.58548842 -19.30200625 -15.98058049
-0.30550260 -2.97248297 -0.15007964
-13.31391394 10.94041970 -1.54655707
-1.33288511 -7.16802362 5.84075929
-0.37886770 5.63565955 1.65443566
45.40753304 5.36660286 13.79075380
-28.71385572 -40.22697411 48.17178232
2.02286967 6.83439575 5.13267641
-12.29306184 19.49983172 39.39689246
-9.83527625 -32.55590938 -9.83291847
3.11960770 -12.36026969 0.68232992
48.24047148 -21.77624618 0.40887310
-0.58120609 16.01105054 37.96499257
-6.40470613 27.16035064 -3.08244990
-4.91073393 0.14360515 -1.03229797
-1.41762545 17.07812519 -6.79828452
-13.27664715 -33.27037135 26.16862196
42.11946643 -13.56801771 25.24356746
-4.72276354 -1.48434282 0.43939115
40.93877141 -5.75643606 9.15791990
-20.30479993 -7.76689582 2.71644022
1.14158024 2.96037374 -0.73354404
-6.45199450 -37.62203013 -10.26815559
27.18067165 11.41129747 56.74241269
-1.01841088 -4.97830506 2.28181609
17.80375006 -35.56947600 -18.65464818
5.76029235 -28.90257595 15.14970986
6.40707701 7.01129762 5.68608205
20.87001202 16.33006435 8.14908030
44.97051738 33.76332227 -16.39886985
-1.48891422 -4.40559625 0.27417390
-27.00120385 -8.49763836 2.70031392
23.29327376 -17.28001501 -51.82120571
-4.12258628 -4.87278696 9.12065960
34.29279498 7.17268853 5.28895859
-9.89965725 -8.63645266 3.44055343
-1.02506396 -1.32807138 12.47389754
-28.81714179 -4.09445175 13.89262575
17.72807199 18.91491640 7.45546672
4.38933679 5.01809810 -12.71606547
34.14813759 -12.70734279 -16.63797084
-0.28796530 -13.82065702 -37.63787623
0.48193946 -0.38849250 0.43098268
20.23967143 18.53927183 34.46461703
44.79988356 11.55118294 -29.30094712
18.89203051 -12.77104365 -3.50089217
1.09234600 -7.00651335 1.50441578
23.85105828 21.89723374 10.11657045
-2.66754028 -1.00280911 10.44570351
22.86238514 27.91024487 21.76787590
-0.02084366 1.29183623 -10.38054473
-11.97797689 2.98722074 12.54349019
6.19376710 -5.03246801 26.81956202
1.54931628 0.26855323 -0.05335832
-15.89070097 -17.97592505 -4.85415231
-32.53781169 26.26308120 3.83619644
-6.75688457 4.34747450 -1.18654939
-23.36431239 -17.78337285 -34.25315583
10.14502134 0.93070679 32.50151517
-1.30180333 -5.37286694 -0.33513193
-2.54237599 -4.39090610 -2.35789419
4.87076699 30.30949485 -14.57629545
-0.24797796 -7.08694629 0.43045782
-30.35564666 19.58686321 -10.63286861
-36.66339538 26.91121367 10.55066599
5.49331732 -4.69058965 -0.50221165
32.08549116 24.89903154 -21.03026599
2.38934764 14.22453277 -19.91984752
2.09171420 5.38606174 -4.51647837
-15.34123358 -28.87723050 8.64366228
-19.37974474 23.48911514 -5.66856339
7.81260862 -9.95195048 -8.50520121
-12.41445418 -8.42600380 1.79418717
-0.07291803 -23.69637123 -26.00981043
0.20917105 -1.49525221 -1.45667401
1.70635211 -24.19119322 23.01833809
3.84065830 14.74545239 18.54006834
26.20759431 -11.73979356 -13.52317766
-4.49414132 -3.33521847 9.55864840
4.14919704 -14.05721262 16.68318055
-15.83196004 -0.21036649 26.88119548
-13.59713463 -2.90859172 -10.60748400
3.89879052 -6.49956375 5.08872344
-4.82172137 1.81362964 32.28894246
23.73679096 8.48651626 -3.27778857
-1.89665119 -8.75457477 9.38150871
-6.61132885 6.87882428 1.33175289
14.08472277 8.55196798 14.11960549
16.65409797 1.24237946 5.07911256
21.38337755 12.48718258 -21.72262635
14.36001808 9.68439732 -6.20297079
3.64169037 4.52844854 -3.77355916
8.16143688 6.37945198 -30.66245368
-9.44452268 15.42967079 -24.65926604
1.21535557 4.88803645 2.35537050
15.31252465 4.08103990 -30.79259541
11.09776223 6.06555963 -1.65859105
-1.89860410 -10.56239102 0.74009799
-23.43707687 -5.78982246 20.67409164
25.67309697 -28.02670950 13.39055584
-4.57815380 -0.93012407 0.23093460
23.83841229 22.96244050 29.54316421
-32.82089565 5.10990233 -1.92709483
1.51356250 1.18869977 9.20111661
64.94514286 -27.01108126 7.85519556
-0.58497319 -38.00880572 -55.33935869
17.71638809 -4.91129621 4.02768725
8.30539761 -33.45185929 14.46967910
-17.25146744 -27.21822332 8.89787216
40.59487761 -12.71111303 31.02871156
-0.15420717 -8.45004751 -10.03317712
7.21694230 32.16200649 -20.43839710
14.61971064 -10.06536139 -6.08537301
-58.98809572 17.90120879 12.60135949
5.71805222 3.20782970 8.05759916
-25.40010023 -8.21365017 16.43370413
-10.22335333 -11.60696572 -26.00924301
-12.77288997 -2.68076856 5.96868457
-24.53929224 11.34456689 26.14140445
32.36770020 -24.96751501 -5.24923298
-3.91476389 6.26469184 6.49751652
-19.55346713 -3.80788317 -19.57194935
17.09470794 -10.09525281 25.76320575
-13.84964189 1.87836446 6.32360274
11.43269070 -22.16749941 -24.96158820
3.06620639 5.98652433 29.37335259
-4.14509891 2.06973134 -10.22454728
-25.81467537 -25.09160789 -12.54676273
-23.57244141 4.50306905 -4.91866712
-6.87090557 -3.60955801 10.29341319
24.89042262 24.90914540 1.04569149
-17.50933344 19.44355527 -13.03105272
-4.98014513 7.28920527 8.64836579
-13.13037089 23.46019456 50.77670662
-9.86452304 28.32718589 3.92799728
-10.24707028 -0.55366121 2.59058121
9.47899215 -12.15522447 17.68158518
-8.21382654 24.69502823 30.33870915
7.04885111 0.62987166 -4.43304500
-31.30520967 35.53772575 21.20532332
14.78807385 5.13187683 5.63291836
-23.06783334 36.57694918 25.85225290
8.58060753 -7.56367445 4.49084927
27.61239139 28.22607575 13.53580565
-2.49120388 4.25470771 24.37419158
0.18142077 0.68797488 -31.10303559
10.32521700 4.73095931 -9.55050248
-63.46974383 -5.04419531 25.43763701
-41.22984312 -36.01077758 -35.64875467
-6.50217993 5.70613418 3.45091283
-9.65227090 51.34692793 13.00642770
-6.59246963 12.78579450 31.95989442
0.28887614 -9.39197022 -20.68980223
10.65502335 1.37077852 -18.11123422
-22.44392575 22.30401247 9.28856828
-0.10795194 -17.29443285 14.78776741
-2.17386633 -19.06275824 2.74989617
-9.54214855 58.63012045 6.61246752
1.29511797 3.00160379 -3.22053607
7.55215479 -6.41317154 4.61753430
-8.80889195 31.88643218 -38.09121746
8.85571168 -17.16639654 -4.21870713
26.90077299 78.74844718 -17.93207655
-19.68220184 38.89749252 -20.51489369
-3.67494359 6.99589748 0.76441629
9.09678896 -34.14573969 -41.57109860
11.59037234 -5.66516561 22.76840741
-15.14648928 -6.07767339 20.64652949
81.09822314 20.63348312 -10.19992653
17.56850358 35.82015210 5.21183805
18.78767007 8.75863347 12.39900558
52.82817942 13.75799046 -19.34561232
-25.97146965 -9.42528854 8.59503288
6.80721463 -34.53414907 12.61421655
-2.31163256 6.70097876 -1.66803421
-91.92743045 64.42748105 -85.70593473
67.49872973 -73.05514488 5.88687456
9.43626921 -57.91110139 0.96252198
0.26660966 4.26237993 1.90653307
2.31773258 -12.74339616 -26.19719261
-7.06529023 16.89093181 -9.54517338
5.15972805 0.14764901 -3.56658815
-7.22739738 -24.35673717 52.20218583
-4.79026928 -29.13826066 26.58092643
-7.94104224 -2.30644320 4.18889732
-5.52636164 -14.38991934 -10.21841244
-24.69634072 15.85780245 -0.40873631
-7.16985531 -7.69207568 -2.57598315
-14.66569437 -1.78718868 -40.36885019
-37.23224646 34.13932794 11.13596410
2.26922977 -0.66848244 -0.87924091
-16.83303140 -20.25682263 48.29805796
-27.38167783 -20.17406219 -5.02619018
-1.17265566 6.34132457 3.67126972
-23.57775240 15.00363410 19.63180278
6.12886096 6.13141840 -8.13565298
-6.53072736 5.49965057 0.17575780
-21.98947980 6.76166997 15.70095253
2.03921739 0.73427237 -36.68671546
-3.37052373 -11.14350572 -7.09868660
-23.12103986 -0.29307530 8.03285113
-11.73555539 -4.50552009 23.34305124
1.91208012 -0.21042134 -3.01289776
-33.38415950 7.69723152 -3.29816502
3.42730363 -14.47440533 -32.77941612
-21.12145241 9.07957028 -17.91315238
-6.45753360 -2.80683074 -7.90176476
-0.79111027 -2.79903469 -29.01020756
-4.88378784 16.92650816 -1.45264264
10.43544605 13.05810533 -25.11420629
11.33038447 -3.13117900 -7.98279517
12.14890631 8.33778843 3.38987364
0.81249621 -5.10204508 5.90693434
8.60882432 4.87625434 -4.29501714
-25.01187311 -15.64374726 6.23627820
12.35428019 -5.55694705 20.35060497
13.91748935 -6.12285247 6.09262409
6.00684940 5.27392163 8.16829800
33.83198131 -15.56138569 -12.07914571
4.88461671 -0.19693725 -4.08401008
12.03622391 -0.27552562 -14.25459583
1.25755260 -36.47255964 -7.93314557
-0.88069971 -2.19521045 -4.58855265
-0.92929770 -32.24195231 -20.36021817
31.75929707 -10.65091221 -47.02403967
1.74288120 -3.62891029 -0.43627013
22.69164328 23.33124059 4.88044237
-26.33107071 25.75197358 -36.69186969
-1.47122663 -4.79615474 7.18189968
9.22759947 -4.85280270 1.42259671
-19.10130242 16.00937762 19.54014985
4.21679623 -0.36552603 -3.56638907
-0.58979683 2.66223696 -18.21827642
-15.00750923 -21.65883735 0.58898346
-2.64430020 8.21169143 -1.58756349
-14.13765319 44.14928838 -15.37575048
-16.17066480 -24.51797471 23.01399585
-15.68905212 -0.27361831 -25.02885574
-0.96029820 14.14466701 4.55702304
-3.67299791 16.19485571 9.02048966
-17.59180258 10.70449210 -20.09621532
-22.84378306 -0.53225848 -28.51093192
0.17243574 -1.63821604 7.36866926
24.75435047 -12.99391056 17.53399580
-18.61539410 -30.22727366 11.25112465
3.78760845 2.01904555 0.87524496
12.47215335 2.80315855 22.30252271
-0.18940520 -1.58227522 8.87618863
-11.02270165 0.07140641 1.69289235
-3.68331749 -17.16450900 -20.74794569
-7.22717960 -25.25376570 -49.79754863
-0.93552270 1.12280322 -2.69889719
-21.98921029 0.96178604 -11.80176602
6.48850264 3.11854860 -19.04353097
-3.72747248 5.92590944 -8.26878500
7.80782198 -25.21688687 -8.12868460
21.40560028 2.98761860 -12.42587092
-14.34394171 -0.42495697 -10.20274199
2.79888189 -16.67565473 1.76641468
20.97405585 12.48766939 -34.08428513
-1.99497078 4.34511781 -4.51303674
-5.40026453 21.43140065 -6.26561273
1.39247865 28.63737835 19.24697852
4.11175329 -3.45083132 2.56894868
8.60392212 -7.32441898 32.60432736
13.68702880 10.99003311 26.43976452
8.06004787 -6.96449081 13.01641676
-8.08454154 -40.47567081 1.63247720
3.45256906 -6.85731206 44.66223741
-1.51905451 -4.31636147 9.23164213
1.39992480 7.61964048 -4.68670190
22.70206471 -4.70197513 21.04740315
-7.79180968 -12.20715351 -19.44675656
-6.13199944 27.14155927 19.42135349
3.76906089 1.05922781 0.92546853
0.22236806 30.52561665 -9.09567813
4.45865305 -14.57589351 -21.36608462
7.14577896 -2.67387065 0.02358154
-3.13244014 39.54824025 -5.63702533
-0.53119936 15.14787530 -8.02150051
-1.11423022 1.81610228 3.80932697
-9.70198519 23.99228411 -9.46881262
-12.09574317 -42.34926940 -5.25649840
-6.97681117 0.46595368 -8.84702744
-3.42481592 -7.37849888 0.51791942
19.36636096 7.72166741 -18.01347053
-4.93061606 3.07624039 -5.49284416
-16.08411587 16.21626359 -6.77132262
8.70002240 -22.95780234 -9.60437813
7.80811582 1.51526780 0.04826156
-1.91070180 23.63666787 21.19775104
35.32921057 -26.30501900 -6.90745574
4.16199763 1.27754139 -5.68186019
-9.95751116 -9.39359679 37.12815917
-13.67785407 -6.96098935 36.63214104
0.51497200 4.78905131 -10.23218517
-2.07325343 -4.13442169 -35.10117645
-18.60533046 -30.06155270 29.86752355
1.92307594 5.28059997 -4.09700321
-34.41557926 10.08267360 12.29703091
11.55748906 47.17496693 26.11416095
3.36697295 31.87682167 -8.85086511
-1.70470820 0.08817261 6.45805019
-11.67061362 -18.25342172 -9.25745559
-12.31111455 0.08154751 6.71938379
41.53100127 23.15673786 -10.67260048
  }
}

Hamiltonian = DFTB {
  SCC = Yes
  SCCTolerance = 1e-6
  MaxSCCIterations = 200
  readinitialcharges = yes
  ForceEvaluation = Dynamics
  MaxAngularMomentum = {
    C = "p"
    H = "s"
  }
  Charge = 0.0
  SpinPolarisation = {}
  Eigensolver = Standard {}
  Filling = Fermi {
    Temperature [Kelvin] = 300.0
  }
  SlaterKosterFiles = Type2FileNames {
    Prefix = "/usr/workspace/troup1/second_set/real_data/decane_run_first_50/pbc-0-3/"
    Separator = "-"
    Suffix = ".skf"
    LowerCaseTypeName = No
  }
  KPointsAndWeights = {
    0.0000000000000 0.0000000000000 0.0000000000000 1.00000000000000
  }
  Dispersion = LennardJones {
    Parameters = UFFParameters {}
  }
}

ParserOptions = {
  ParserVersion = 3
}
