Geometry = GenFormat {
<<< "system.gen"
}

Driver = VelocityVerlet{
  Steps = 50000
  TimeStep [fs] = 0.2
  MDRestartFrequency = 5
  Thermostat = None {
    #InitialTemperature [Kelvin] = 300.0
  }
  Xlbomd{ 
    IntegrationSteps = 6 
    MinSccIterations = 2
    MaxSccIterations = 200
    SccTolerance = 1e-6 
  }
  Velocities [m/s] {
      6.51535002E+02     -2.75109872E+02     -4.56265620E+02
     -2.19434228E+03      1.31941141E+03      2.44145292E+02
      1.11140389E+03     -1.70420033E+03      7.60491109E+02
     -1.00828545E+03     -2.08697901E+02      3.70426070E+02
      3.47696447E+03     -8.33712548E+02      2.48359732E+03
      1.46297521E+03      1.19825189E+03     -3.58663747E+03
      4.60557220E+00     -1.20890591E+02     -1.29719614E+02
     -1.97237574E+03     -1.60572629E+02      4.95082705E+02
      1.89725974E+03     -3.18106174E+02     -1.14225406E+03
     -6.78982099E+01      6.87802394E+02     -1.36218358E+01
      1.87770781E+03     -9.94254751E+02      1.75760677E+03
      2.30591289E+03      2.58254555E+03     -2.65755145E+03
     -1.14515258E+02     -7.41176760E+02      5.32337960E+00
      2.12011171E+03     -5.50870366E+02      2.78327972E+03
      8.55707745E+02     -1.33953939E+03      6.66077045E+02
      2.80833906E+02      5.04377254E+02     -6.52354206E+02
     -2.18416654E+03      2.02184339E+03      3.53753877E+03
     -1.86214566E+03      7.73274463E+02      4.29396084E+02
      2.11996065E+00     -1.27371295E+02     -1.03560768E+02
     -4.18000545E+02      2.18026866E+03     -1.91093372E+03
     -9.79305843E+02     -1.20537980E+03     -4.96480969E+03
     -9.92024984E+01     -7.97981449E+02      3.88490897E+02
      1.24225956E+02     -1.05095564E+02     -8.27007511E+02
      3.75828128E+03     -2.12420308E+03      4.15449312E+02
     -1.69547341E+02     -5.98346164E+02     -2.21454471E+02
      2.54662862E+02     -4.56293801E+02      2.10279475E+03
      2.05532467E+03     -7.16825405E+02     -8.77929857E+02
     -9.12658308E+01     -2.47436468E+02      9.17727233E+02
     -1.07421351E+03     -5.20631977E+02     -2.94878542E+02
      4.32198728E+02     -8.82839295E+02     -1.07469603E+03
     -1.40970175E+03      9.12507382E+02     -2.70437188E+03
     -2.69000351E+03     -2.30951508E+03      7.32637874E+02
      3.48216540E+02     -4.66117648E+02     -7.56343257E+02
     -1.13636203E+03      4.58515756E+02      8.08724660E+02
     -4.01900338E+03     -2.63145608E+03     -2.13831541E+03
     -4.99563508E+02     -8.72790387E+01      1.18018855E+02
     -1.16210297E+03      9.51427265E+01      8.42746810E+02
      1.00240476E+03     -7.19908816E+02      1.00894348E+03
      5.25694490E+02      2.07465711E+01     -3.88436048E+02
      2.11361901E+03      3.27824123E+02     -1.22800357E+02
     -1.00812970E+03      2.09869530E+02      1.73244267E+03
     -2.31140570E+02     -5.68915806E+02     -6.32355207E+02
     -1.04532707E+03     -3.27268201E+02      1.46088796E+03
      8.12628134E+01     -4.09445725E+02     -1.59752840E+02
     -4.36987072E+02      6.96568043E+01     -5.43006417E+02
      2.62280826E+02     -1.09658387E+03      1.25480949E+03
      1.03518500E+03      1.04801695E+02     -1.64113861E+03
      3.22941049E+02      8.18806507E+01      4.17750747E+02
     -1.14294170E+03     -1.34911260E+03     -1.09059309E+03
      5.50341369E+02     -3.07805431E+02      1.44011904E+03
     -2.48249987E+01     -3.32673550E+02      2.18448102E+02
     -2.48030468E+03      1.98350365E+02      8.45286750E+02
      4.21090958E+02     -2.99586189E+03      2.68399592E+03
     -7.34714471E+00     -2.01638172E+02      7.14689238E+02
      1.00632146E+03     -3.50315542E+02     -2.04920759E+03
     -6.40188872E+02     -1.49991057E+03      3.93052409E+02
      1.51382108E+02      2.22117119E+02     -5.62253255E+01
      2.52771684E+03      1.07579942E+03      2.80824144E+02
      2.14298831E+03      6.60169344E+01     -5.73811907E+02
      6.99043997E+02     -1.51492098E+03     -1.36608715E+02
      5.92538312E+02      4.42576952E+02     -4.38180708E+02
     -3.54868877E+03     -1.29568929E+03      5.03980500E+02
      1.31270798E+03      1.19165439E+03      3.76789214E+02
      9.19629554E+02     -1.80985182E+03      2.63048423E+03
      3.22596143E+02     -1.30446943E+02      1.30244253E+02
      2.48886591E+02      2.38057141E+03      3.09476843E+02
      1.43492588E+03      9.39403014E+01      6.08673478E+02
      5.08673905E+02     -9.24265686E+02      4.59110243E+02
     -1.95052993E+03      5.18278972E+02     -5.42074423E+02
     -1.23184164E+03     -4.73414040E+02      2.20317501E+02
      5.82716466E+02      5.98399339E+02     -4.29860527E+02
      6.51475767E+02      1.23080087E+03      9.41599201E+02
      2.53921378E+03      5.26365565E+02      1.08042684E+03
     -1.13087936E+02     -9.66166056E+02     -1.89293216E+02
      2.68166959E+03     -1.15798530E+03      2.10732675E+02
      3.23602374E+03     -2.19347269E+02      2.59149819E+03
      1.56097101E+01     -5.07303585E+02      4.46025179E+01
     -2.43906950E+03      3.13728424E+01      2.12687345E+03
     -4.08745368E+02      6.91474963E+02      1.53310498E+03
      1.32705701E+02     -2.48357282E+02      1.70048237E+02
      2.09472942E+03      1.61001257E+03     -4.63853386E+02
      1.04586906E+03     -3.10074364E+03      2.62611164E+03
     -2.11282608E+02     -2.94202982E+02      3.95732139E+02
     -1.02079609E+03     -1.87143787E+02     -2.31222790E+03
      1.34601970E+03      1.44139320E+03     -3.62283180E+02
      4.41361758E+02      1.85154012E+02      2.79039682E+02
     -6.96583900E+02      1.72845059E+03     -4.11760691E+02
      2.03520959E+03     -1.53217401E+03      5.33835451E+01
      7.31105326E+02     -6.36144235E+02     -3.78839562E+02
      4.88182484E+02      1.40010783E+03      8.98211475E+01
      1.33409945E+03     -3.43290356E+02     -2.00389724E+02
     -4.86089132E+02     -1.62309218E+03      3.14111020E+03
      1.33884478E+02     -4.53825577E+01      7.71239851E+01
      2.02310809E+03      1.02680101E+03      1.20912963E+03
     -5.09328468E+02     -1.33795864E+03      3.10037054E+02
      1.20705625E+03      2.71143649E+03     -3.79168088E+03
     -1.21194602E+01     -3.37391143E+01      1.58790812E+02
     -9.59197492E+02     -1.12225710E+03      7.75331735E+02
      2.85303563E+03     -6.81763295E+02     -1.49120921E+03
      2.77706460E+02     -7.28489619E+01     -4.31503736E+01
     -1.51154593E+03     -2.67598875E+03      1.47370755E+03
     -6.64952283E+02     -1.16441400E+03      3.83400925E+03
      6.96331216E+02      5.69860563E+02     -2.83556673E+02
     -2.96227968E+03     -1.88007094E+03      8.81196614E+02
     -2.00480426E+03      3.09705441E+03     -3.66440066E+03
      2.49686023E+02      2.13560444E+04      4.30555727E+03
      2.79582202E+02     -2.05368730E+03     -8.48737619E+02
     -1.98164914E+03      1.30549588E+03     -1.29848683E+03
     -9.70091721E+02     -5.93603298E+02     -7.61763488E+02
      1.08167407E+03      9.80655100E+02     -4.07860007E+02
      1.10206552E+03      1.01208338E+03     -1.51233958E+03
     -7.36654822E+02     -4.13885478E+01     -1.83310573E+02
      1.47622038E+02      1.17622841E+03     -7.82406530E+02
     -1.53148485E+03      7.73750628E+02      3.37581331E+03
     -3.88242644E+02      2.04438449E+02     -5.27724248E+01
      2.91959285E+03     -1.33653186E+03     -7.79154135E+02
      1.10644299E+02     -7.24133942E+02      1.42654083E+03
     -8.30797800E+01     -2.41120607E+01     -3.23549823E+02
      2.31971586E+03     -2.64190498E+03      5.01389777E+01
      1.54708723E+03     -5.49224742E+01      1.02139199E+03
      3.93238933E+02     -7.59433021E+01      8.40055484E+01
     -5.17422237E+02      1.24078318E+01     -1.66129356E+02
      1.97391658E+03      8.95740675E+01     -2.29187277E+03
     -1.35561903E+03     -4.18856778E+02      8.00034564E+02
      9.04699792E+01     -5.25918754E+02      9.48494808E+01
      9.67115972E+02     -1.57372463E+03      2.84490821E+03
     -4.64501426E+02      4.00094442E+02     -1.32396674E+03
      5.67711130E+02     -2.61809811E+03      3.44575407E+02
     -3.57647224E+02     -7.09073021E+02      7.37453714E+02
      1.87149161E+02      6.18962186E+02     -3.90369778E+03
      6.90191353E+02     -5.45860252E+02      8.81065115E+02
     -4.75270817E+02     -3.97030088E+02      7.18707024E+02
      2.14960448E+03     -3.18557865E+02     -5.31677416E+02
      1.50777410E+02     -2.03228633E+02      1.55983346E+03
      1.08437847E+03     -1.05263190E+03     -3.28555366E+02
      1.99029496E+02      2.50200572E+03     -8.10595150E+02
      5.94261381E+02     -5.13386837E+02      4.79135190E+02
     -1.14974222E+02      1.06651997E+02      1.35435222E+02
      8.96964898E+02      1.88912161E+02      2.04552820E+03
     -1.66613905E+01     -4.61445669E+02     -8.15168560E+02
      1.30076629E+02     -1.12065071E+02      3.69180546E+02
     -3.61057389E+02      1.46723233E+03      2.10241188E+03
      1.05559923E+01     -1.12572242E+03      1.76044634E+03
     -3.60881258E+02     -9.25062354E+02      2.52075430E+02
     -3.76984632E+02     -2.24739238E+02     -1.46058394E+03
      4.73771406E+02      4.76919751E+02      3.40310064E+02
      3.03193554E+02      5.62469735E+02      2.99335542E+02
      6.90356080E+02     -2.28306761E+03     -8.66077209E+02
     -3.34203390E+02     -3.60055306E+03      3.82185734E+02
     -9.11103821E+02     -1.52877527E+02      3.88822923E+02
     -2.35945989E+03     -1.01051357E+03      5.91957022E+02
     -8.20898023E+02     -1.49345060E+02      3.29633567E+02
     -1.73945448E+02      5.31848531E+02      1.24541530E+02
     -2.85787335E+03     -5.74356508E+02      1.56049237E+03
      8.90885619E+01      1.58810146E+03      1.81703923E+03
     -1.97468836E+03      8.69128186E+02      9.14700317E+02
      9.56705482E+01      1.24480176E+03     -4.68580353E+01
      7.40049772E+02     -8.79013395E+01     -3.43843652E+02
     -2.67992545E+03     -2.24711318E+02     -2.60044064E+03
      1.43689446E+03     -3.11311539E+02      1.57272362E+03
     -3.76168534E+02      1.59145196E+02     -7.73251641E+02
      1.10079964E+03      1.03606819E+03      1.13237909E+02
      1.22647010E+03      5.11035167E+02     -1.51528388E+03
      5.43039484E+02      5.27232983E+01      2.78285161E+02
      1.41541096E+03      4.36931057E+02      1.73849996E+03
      1.95338103E+03      1.27239845E+03      3.18021158E+03
     -4.41260477E+02      3.89541454E+02     -6.14084874E+02
     -3.62751824E+02     -6.74739133E+02      1.07703116E+03
      1.09388956E+03     -7.89437112E+02     -1.22554461E+03
      1.44439125E+01     -5.15614896E+02     -5.41671022E+02
     -1.65240345E+03      2.14481104E+03      2.06783225E+03
     -6.67858599E+02     -1.40487486E+03      1.22395644E+03
     -9.88458152E+01     -1.79705183E+02      2.26272612E+01
      3.49528495E+03     -4.00565026E+03     -1.47096834E+03
     -5.82492684E+02      2.48857375E+03      4.76762208E+02
     -5.92310463E+02     -3.53425398E+02      3.51537188E+02
      1.18627522E+03     -3.30644567E+03     -4.14259659E+02
     -2.21802731E+03      2.15689580E+03     -1.57394670E+03
     -1.36482302E+02     -4.42783191E+02     -1.08191287E+02
     -9.56173410E+02      3.79658636E+02      1.40767321E+03
      1.14291535E+03     -2.96263591E+03      1.02069859E+03
     -6.69959249E+02     -4.25948114E+02      8.27621013E+02
      6.79945869E+02     -1.86172291E+03     -1.49554880E+02
      1.81214301E+03     -8.15861707E+01     -3.21926037E+03
      3.52770115E+02     -4.48252207E+02      2.38408058E+02
      2.96298750E+02     -9.08021977E+02      8.89518411E+02
      1.85829174E+03      8.02695315E+02      3.04141276E+03
     -6.56071432E+01     -3.99468566E+01     -2.90357822E+02
     -3.82967105E+02     -1.17993887E+02     -2.44534553E+01
     -6.30528529E+02     -1.65595180E+03     -7.82140053E+02
     -1.23932521E+02     -6.08147464E+02     -6.53238190E+02
      7.09841967E+02     -1.15032800E+02      7.08933045E+02
      3.08108054E+01     -2.42796738E+02     -8.34704475E+01
     -1.74836096E+03     -4.44150019E+03     -1.63536210E+03
     -3.27078514E+02     -5.79573982E+02     -1.76929353E+02
      1.13731820E+02     -4.02369892E+02     -1.09554786E+02
      3.94522380E+03     -1.20359228E+03      3.94411920E+02
     -5.34394935E+02      7.35687053E+01     -3.18679169E+02
      7.43998349E+02      1.27415363E+02      6.86293335E+00
      2.97892901E+02     -1.37143448E+02      6.25151514E+02
     -3.01853092E+03      3.42038674E+01     -2.05310599E+02
     -5.20648428E+02      3.20727828E+02     -3.37292529E+02
      3.15100666E+03     -1.00503515E+02      4.28402101E+02
      5.79202295E+02     -9.67717893E+02      1.71194390E+03
     -4.50358649E+02     -1.55268131E+01     -2.97637476E+02
     -2.67907439E+03      6.40248902E+02      2.04160873E+02
     -3.22430720E+02      4.52460441E+02     -1.88223413E+02
     -2.35714544E+02      6.09156569E+02     -7.65610687E+02
     -1.70940407E+02     -2.72897881E+02     -1.95590861E+03
     -2.12074442E+03     -1.26779889E+03     -1.91622832E+03
      5.23888033E+02     -1.14388042E+01     -5.73902751E+02
     -2.18300901E+03      6.90546543E+02     -9.34793916E+02
      2.90694741E+03     -1.03035667E+03     -9.38369774E+02
      1.05318400E+02     -5.57320330E+02      6.52621899E+02
     -8.78078581E+02      2.15149627E+03     -1.80455045E+03
      6.19824702E+02      2.38587453E+03      1.86692303E+03
      6.28525205E+02     -4.59801155E+02     -2.13401615E+02
      1.04836077E+03     -1.80834818E+03      1.06957536E+03
     -1.45564360E+03     -1.16546656E+02     -2.51799110E+03
      4.37735876E+02     -1.15159952E+03      1.37304374E+03
      2.29851443E+02     -8.02468717E+02     -5.84042509E+02
     -1.55049625E+03     -1.15418674E+03     -2.81071523E+03
     -4.01359361E+02     -7.94870025E+02      2.61057085E+02
      4.02530222E+02     -9.21249801E+02     -5.60055303E+02
      2.38914851E+02     -6.78651440E+02      2.67466316E+02
     -1.39827876E+02     -1.42989511E+03      1.47511666E+02
      1.71385615E+03     -2.15508183E+03      5.87875984E+02
     -6.53311866E+02      7.05913035E+01     -1.76376690E+02
     -3.19374487E+02     -4.90684627E+02      1.96342814E+03
      8.59485298E+02      7.98136515E+02      1.32114335E+03
      3.47412356E+02     -1.92411091E+02      1.02654553E+02
      2.84663829E+03     -1.86346972E+03     -5.46858181E+02
     -1.81951495E+03      1.36680851E+03     -3.36209341E+03
      5.36646811E+02     -8.72696027E+02     -1.54669774E+02
      1.76459885E+03     -8.24897162E+02      2.44512174E+03
     -5.98736789E+02     -1.12182001E+03     -2.02507509E+03
      6.12616330E+02      5.04231077E+01     -9.39251350E+02
     -1.51083053E+03     -4.35550118E+01     -1.47793896E+03
      9.60804059E+02      1.33600131E+03     -1.36479149E+03
      5.08119114E+01     -3.46665017E+02      8.75108644E+02
     -1.64481288E+03     -8.21456497E+02      1.13294672E+03
      5.03169243E+02     -1.06244123E+03      9.40415416E+02
      4.76943473E+02     -4.52663629E+02      4.31653757E+02
      1.68111354E+03     -2.21075333E+03     -2.81255686E+03
      4.32520951E+02      5.58701934E+02      1.20251316E+03
     -6.98242311E+02      1.45976243E+02     -3.17435450E+02
     -1.45573093E+02      1.20425888E+03      5.34834111E+01
     -2.60261272E+03     -7.20421490E+02      1.70908269E+02
     -3.25524847E+02     -5.18770615E+02      2.59996053E+02
      3.53714159E+03      1.05989625E+03      2.06129827E+03
     -1.81967218E+02      5.34242695E+02     -2.92975531E+01
      7.07173641E+02      1.87700864E+03      2.14316216E+03
      5.17312731E+02     -6.10659841E+02      5.78380870E+02
      3.60079252E+03     -3.71595717E+03     -3.00542092E+03
      2.25763542E+02     -1.12005514E+03     -1.93560087E+03
      1.41536807E+03      1.07397706E+03      1.96058690E+03
      3.99072359E+02      4.00055312E+02      1.32219534E+02
     -3.65191862E+01     -2.28028916E+03      7.95476481E+02
      5.04516770E+01     -3.36787016E+02     -3.42296539E+03
     -2.15283378E+02     -3.73941409E+02      3.73052071E+02
      1.27905607E+03      2.09782121E+03     -9.08621405E+02
      2.37587874E+02     -3.78501099E+02      2.11784102E+03
     -5.17756834E+02     -1.15054761E+03     -1.55748419E+02
     -1.73597061E+03     -1.84416242E+03      3.27211074E+03
      2.20780494E+03      1.27493239E+03     -5.64583419E+02
      1.28688928E+02      1.50228226E+01     -3.18016408E+02
     -1.48011123E+03     -5.15131237E+02     -9.14242567E+02
     -6.61463458E+02      1.46380007E+03      8.92275604E+02
     -2.84856629E+02     -3.92132941E+02     -4.85833193E+02
     -1.13913343E+03      8.18271563E+02     -5.86078614E+02
     -1.42081160E+03      1.45517445E+03      1.25721603E+03
      1.51553200E+02     -5.27404331E+01     -2.06962478E+02
      1.23374771E+03     -6.52132748E+02     -3.01628253E+03
     -2.35215548E+03     -1.07758337E+02      3.44144693E+03
     -3.51934492E+02     -2.58785891E+02      6.26679762E+01
      7.11588600E+02     -1.90595208E+03      1.54856311E+03
     -2.53359268E+02     -1.97697135E+02     -5.68587597E+02
      4.03599615E+02      1.04126197E+02      6.32656206E+01
      3.32303697E+02      3.91917396E+02      7.38630695E+02
     -1.35221980E+02     -7.83217756E+02      7.20364823E+02
     -8.66694404E+02      5.08205775E+01     -1.17395662E+02
     -1.08767459E+03      2.23593115E+03     -8.54995004E+01
      1.41346524E+02      2.82718931E+02      1.06305550E+03
     -1.57645981E+03      1.59867555E+03     -1.50504616E+03
      2.54091157E+02      3.94595287E+02     -4.03697873E+02
      5.10566110E+02     -5.63322317E+02     -2.14588078E+03
      8.75323094E+02      9.77269743E+01     -1.56047411E+03
      5.14444297E+02     -9.19524931E+02     -8.58261067E+02
     -3.87055789E+02     -6.45578164E+02     -2.60568096E+02
      1.49624101E+03      3.21062214E+03      1.56966827E+03
     -2.02312220E+03     -1.18928760E+03      1.57241654E+03
     -7.79938809E+02     -1.31677807E+02      5.08588781E+02
     -6.98241653E+02     -3.72994388E+02      3.17951045E+02
     -5.18458549E+02     -1.06567094E+03      4.85693208E+02
      5.78206716E+02      8.07053110E+02     -1.74228270E+02
     -2.65296129E+03     -4.78151735E+02     -1.99092885E+03
     -2.09561928E+03     -8.76946903E+01     -2.16310312E+03
     -3.07861891E+02     -1.79589360E+02     -5.66130605E+02
      1.20854803E+03     -1.00528969E+03      9.90356272E+02
     -6.42540467E+02     -9.01796425E+02     -5.14768795E+02
     -3.09114254E+02     -5.29609272E+02     -4.40244008E+02
      1.73309272E+03      9.48754376E+00      3.40036726E+02
     -2.03738924E+03      2.95965461E+02     -1.12351217E+03
      2.71469608E+02      1.47091977E+02     -8.26441182E+02
     -9.59747387E+02     -1.81003178E+03     -6.43710228E+01
     -3.20838675E+03      1.38074282E+03      1.52871935E+02
      1.62527251E+02     -8.54456828E+01     -2.99170792E+02
     -2.03095839E+03     -1.98593362E+02      1.47155290E+03
     -2.80396000E+01     -1.02462731E+03      2.10789386E+03
      1.47419840E+02     -1.20994421E+02      3.15463272E+02
     -1.61071288E+03      2.98427670E+03      1.05097046E+03
     -1.63054167E+03     -1.48019380E+03     -8.30868494E+02
      4.27853137E+02      2.41360720E+02     -2.39532265E+02
      1.02171695E+03      1.15921590E+02     -2.14502204E+03
      1.14426958E+03      8.78347116E+02      1.33516339E+03
      1.63052777E+03     -5.15729013E+02      2.55403958E+03
     -9.70684706E+01      5.33254534E+02     -1.92532731E+02
     -6.20460901E+02      4.06901539E+02     -2.67035965E+02
     -8.49316725E+02      8.49008571E+02      1.70854529E+03
     -1.51492753E+02     -6.60730731E+02      1.55507043E+03
      8.70163176E+02      1.45262102E+02     -4.58698606E+02
     -1.20011355E+02     -7.94384936E+02     -2.24270101E+03
      2.37436055E+03      2.43298235E+03      5.64741810E+02
     -2.67532843E+02     -4.49316306E+02      3.61391203E+02
      2.89526228E+03     -3.33797607E+03      1.03073907E+03
     -4.52684239E+03      6.41649399E+01     -2.16192547E+03
     -1.19262404E+03     -3.94322412E+02     -2.58594495E+02
      7.44522958E+02      2.08777949E+03      2.42081859E+03
      6.35291030E+02      9.91541023E+01     -1.57027509E+03
      1.86977064E+02     -4.92929362E+02     -2.16153482E+02
     -1.10628790E+03     -2.24179620E+03     -6.94402595E+01
      1.85096664E+03      1.11172572E+03     -8.02751498E+02
     -1.78183084E+02     -1.38899703E+02     -4.99784085E+02
     -1.54071906E+03     -2.58892024E+03      1.12814852E+03
     -8.58729514E+02     -4.39527311E+01     -2.93406894E+02
      1.28862796E+02     -3.98312986E+01      7.70332439E+02
     -9.98672358E+01      2.54863744E+01      1.56684110E+03
     -1.21253392E+03      1.09841863E+03     -1.50064408E+03
      2.37240033E+02     -7.44237935E+02     -1.69434744E+02
     -8.09197942E+01     -1.81010594E+03      1.25817639E+03
      1.68302066E+03      1.86621242E+03     -9.52103674E+02
      8.26360835E+01      7.23174008E+01      6.30781522E+02
     -1.69501571E+03      9.85620138E+02     -2.58802964E+03
      8.96268110E+02     -6.25791555E+02     -2.30303633E+03
     -2.31810460E+02      6.49952249E+02     -3.48963968E+02
      1.04975520E+03     -1.99447297E+02     -1.28754057E+03
     -7.52351520E+02     -2.52935183E+03     -5.97031418E+02
     -7.86583621E+02     -6.74633783E+02     -3.59646910E+02
     -7.36271295E+02     -8.80581679E+01      6.94251455E+01
      2.74015306E+02      8.00899407E+00     -1.29497215E+03
     -1.57143535E+03      7.24116998E+02     -4.26248979E+02
     -1.71140222E+02     -5.58618140E+02     -9.45696195E+02
  }
}

Hamiltonian = DFTB {
  SCC = Yes
  SCCTolerance = 1e-6
  MaxSCCIterations = 200
  ForceEvaluation = Dynamics
  MaxAngularMomentum = {
    C = "p"
    H = "s"
  }
  Charge = 0.0
  SpinPolarisation = {}
  Eigensolver = Standard {}
  Filling = Fermi {
    Temperature [Kelvin] = 300.0
  }
  SlaterKosterFiles = Type2FileNames {
    Prefix = "../../pbc-0-3/"
    Separator = "-"
    Suffix = ".skf"
    LowerCaseTypeName = No
  }
  KPointsAndWeights = {
    0.0000000000000 0.0000000000000 0.0000000000000 1.00000000000000
  }
  Dispersion = LennardJones { 
    Parameters = UFFParameters {}
  }
}

ParserOptions = {
  ParserVersion = 3
}
