Geometry = GenFormat {
<<< "system.gen"
}

Driver = VelocityVerlet{
  Steps = 100000
  TimeStep [fs] = 0.2
  MDRestartFrequency = 5
  Thermostat = None {
    #InitialTemperature [Kelvin] = 300.0
  }
  Xlbomd{ 
    IntegrationSteps = 6 
    MinSccIterations = 2
    MaxSccIterations = 200
    SccTolerance = 1e-6 
  }
  Velocities [m/s] {
      9.50825108E+02     -1.10093133E+02      4.60941067E+02
     -2.27769715E+03     -1.10815710E+03     -1.45711059E+02
     -1.12550458E+03      7.26235331E+02      2.12726148E+03
      3.81083195E+02      4.44731426E+02      6.39921955E+02
      2.59135328E+03     -7.33402468E+02     -2.88441522E+03
      5.33072953E+02     -2.83440528E+03      1.22110408E+03
      1.38691424E+02     -5.93101386E+02      3.06957189E+02
     -2.27916146E+03      4.34656597E+02      1.87545270E+02
      5.84768331E+02     -3.12260821E+03      1.20042992E+03
     -7.10003944E+02      2.92841995E+02      9.51391612E+02
     -3.74295324E+03     -2.14083598E+03      5.89723145E+02
     -7.78631128E+02      4.16565501E+02     -1.05283399E+03
     -9.75934687E+02     -1.07841864E+02      5.27080644E+02
      1.81940585E+02      1.04933636E+03      1.54731596E+03
     -9.38577587E+02      2.25226228E+03      1.42765318E+03
      4.88323035E+00     -4.04883636E+02     -6.66512786E+02
     -4.70918224E+02     -1.11310361E+03     -5.75227927E+02
     -1.63906637E+03     -1.01585192E+03      2.41034656E+03
      2.71325718E+02      1.59446977E+02      6.55396495E+02
      1.11904310E+03      4.03147992E+02     -3.83344531E+02
      1.52063818E+03     -1.74696562E+02     -9.70375496E+02
     -1.42028402E+02     -1.29314528E+02     -3.79801129E+02
     -7.72866807E+02      1.80126881E+03      8.34434234E+02
     -2.34893794E+02      1.64386198E+03     -5.86581785E+02
     -9.92349671E+02      5.19489639E+02     -5.80811376E+02
      3.45369589E+02      2.81298093E+03      2.23472588E+03
      3.62258034E+03      3.01639149E+01      9.97293927E+02
      1.61442069E+03     -1.82561808E+03      2.39085832E+03
      3.39637840E+02     -2.33645550E+02      3.62825865E+02
     -2.28801781E+03      1.95640672E+03      1.27193954E+02
     -2.90225728E+03     -1.07085606E+03     -2.37829632E+03
     -1.06106228E+03     -3.68325333E+01     -3.64380033E+02
      3.77434117E+00      4.64376237E+02      5.29539913E+02
     -1.84995219E+03     -1.90106460E+03      3.62607869E+03
      2.67775546E+02      4.18698475E+03     -2.91081395E+03
     -2.41873852E+02     -7.49541860E+02      6.72695823E+02
      1.27908954E+03      2.69366204E+02     -3.33148869E+02
     -1.12812167E+03     -1.79829270E+02     -2.54052987E+03
     -7.86546539E+02      3.61320602E+02      3.50779761E+02
     -9.37057700E+02     -2.46303088E+03     -2.44242211E+03
     -9.29698089E+02     -2.77481131E+03     -1.09518895E+03
     -2.94977242E+02      6.21070587E+01     -3.01450649E+02
     -7.21410503E+02      5.17913116E+01      4.15400170E+01
      1.15155411E+03      8.67019936E+02      8.06475926E+02
     -9.61813428E+01     -6.48122094E+02      2.59725964E+02
     -5.97596209E+02     -3.73245958E+03      1.62423808E+03
      4.50962263E+02     -8.71185432E+02     -2.47299364E+03
      3.94047965E+02      7.38007724E+02      8.61582133E+02
      4.82710490E+02      4.15965118E+02      1.37135808E+03
      3.07285064E+03     -2.18029325E+03     -9.90934740E+02
      1.25073194E+02      2.51289855E+02     -3.21996998E+02
      1.55908954E+03     -1.24800097E+03     -7.28663604E+02
     -6.68073839E+02     -1.22648658E+03     -3.16882053E+02
     -7.04398613E+02      9.46957436E+01      7.67700236E+02
     -1.11641931E+03     -6.29385917E+02      9.76431562E+02
     -8.75335052E+02      1.73479199E+03      2.50711418E+02
      2.57884533E+02     -7.67412232E+02      6.29060084E+02
     -5.55202245E+02     -2.12524481E+02      1.45748873E+03
      3.29946616E+02      1.01057039E+03      2.01517971E+03
      2.27650000E+03      6.38676866E+02      2.37081101E+03
      4.86988382E+02     -8.70354768E+01      1.17292551E+03
      1.93256271E+02     -8.05679019E+01     -3.50783661E+02
     -1.76900911E+03      8.37572822E+02     -1.51226616E+03
     -1.37589335E+03     -5.78647969E+02      2.39531047E+03
     -4.63126211E+01     -7.88105500E+02      2.76705951E+02
      3.44612213E+02      1.35453077E+02     -2.83665439E+03
      3.59948479E+03      1.18017711E+03      2.42550572E+03
      3.02823594E+02     -9.42257775E+01     -7.82010807E+02
      2.11609002E+03      1.86977707E+02      1.08649099E+03
      1.58957260E+03     -6.02738715E+02     -1.16473342E+03
     -1.73138849E+02      4.99768657E+02      2.59023252E+02
      7.87640873E+02      1.56326920E+03     -1.91277002E+02
     -1.36831310E+03      1.47475598E+02     -4.15721222E+02
      6.26664421E+03      7.53740764E+03     -1.95276277E+04
      2.46959027E+03      1.68417444E+03     -1.64191636E+03
      3.77840955E+02      1.92771294E+03      1.40379240E+03
      6.32921871E+02      2.86277637E+02      1.25037423E+01
     -1.30252709E+02      1.12478049E+03      2.25361729E+03
      5.17545080E+02     -1.59524792E+03     -1.66609102E+03
     -9.51569096E+00      1.04073676E+03     -5.82022608E+02
     -2.56580007E+03      1.86138617E+03     -2.79077048E+02
     -7.43630517E+02     -1.28589257E+03     -1.72024892E+03
     -6.68220142E+02     -8.46454777E+02      4.18432928E+02
      2.14778046E+03      2.90360514E+02     -6.29815808E+02
     -9.40148223E+02      9.77906657E+02      7.76992939E+02
      5.82968793E+00     -1.32451489E+02      2.33505999E+01
      2.29419694E+03     -1.55036476E+02     -7.91926565E+02
      2.28359701E+01     -2.94287390E+03     -6.41371499E+02
     -8.85614386E+02     -1.40127249E+02      4.41723715E+02
     -4.56676910E+03      1.44766681E+03      2.66270663E+03
      6.34010345E+02      6.20994661E+02      7.35056580E+02
      3.81344521E+03     -6.17910462E+02     -1.66049491E+03
      2.11819128E+02     -5.55683093E+01      3.96423737E+01
      7.20327564E+02      4.07927229E+02     -3.00604552E+03
     -8.28355578E+02     -1.43328542E+03      1.20606078E+02
     -1.21270024E+03      1.01317883E+03      1.07621911E+03
      1.06945490E+03     -1.05993182E+02     -2.14496004E+02
     -1.27081011E+02      3.01254444E+03      1.93426255E+03
      1.10714493E+03     -1.37311223E+03      1.02254707E+02
      3.12993310E+02     -1.05610228E+03      6.59800523E+02
      2.46692561E+03      3.00016890E+02      2.25968426E+03
     -2.03007560E+03     -6.19049040E+02     -1.36503270E+03
      7.76784922E+02      6.04003516E+02     -4.22709381E+01
      3.78891051E+02     -2.28602828E+03     -2.37643878E+03
      7.51362813E+02     -5.95034498E+02      2.24601332E+03
     -4.18832269E+02     -8.94177992E+02      5.00739519E+02
     -1.22258773E+03     -1.24695025E+03     -1.91727322E+03
     -9.62750294E+02     -8.68629296E+02     -3.76080999E+02
     -2.70059399E+02     -4.24947157E+02      4.99530307E+02
     -2.22834046E+03     -1.41910397E+03      1.12434617E+03
      2.90162853E+03     -3.49501343E+02     -1.60048302E+03
     -2.27058884E+02     -7.42683404E+01      3.41050751E+02
     -2.69807794E+03     -6.57598754E+02      4.24354804E+02
      1.04477260E+03      1.72816038E+03     -1.99358825E+03
      3.35737741E+01     -1.54679160E+02      5.18138485E+02
      6.23137999E+01      1.39169515E+03      1.04198861E+03
     -5.23112324E+02     -6.55974405E+02      1.41408788E+03
      1.97619164E+02      1.50058471E+02      6.36093941E+02
      2.54543371E+03      1.84417929E+03     -3.49873119E+02
      2.12411441E+03     -2.15210575E+03     -1.89233366E+02
     -7.40243246E+00      3.52736293E+01     -2.12904573E+02
     -2.72647724E+02      1.45731460E+03      4.85036462E+02
     -1.98676398E+02      8.76234003E+02     -5.28952762E+02
     -4.77543832E+02      1.22606788E+03      1.00842687E+02
     -7.89846655E+02     -1.68844692E+02      2.84401826E+02
      7.85108424E+02      3.02254036E+02     -1.05963498E+03
      2.28987578E+02      5.07906369E+02     -3.84319762E+03
      2.24491903E+03      1.12227716E+03     -1.11610170E+03
     -1.60551738E+02     -2.41382022E+01     -2.36901121E+01
     -3.47288666E+02      3.99691117E+03     -1.70750115E+03
     -4.73036993E+03      2.51001343E+02     -8.05362073E+02
     -3.22124039E+02      2.70270645E+02      1.40391951E+02
      8.74904676E+02      3.83103202E+02     -6.72279993E+02
      1.55821593E+02     -5.12151050E+02     -1.48586550E+03
      9.28325555E+02     -9.21938716E+02      6.75797291E+01
      9.70808144E+02     -2.49369748E+03     -2.06523359E+03
     -5.70646139E+03     -6.08132071E+02     -2.86875358E+03
      2.21358729E+02     -4.50323901E+02     -8.33990520E+02
      1.52060762E+03     -2.74369225E+03     -4.94237033E+01
     -1.04393727E+03     -9.21766683E+02     -2.10119137E+03
     -1.87595564E+02     -6.23076157E+01      2.27906346E+02
     -8.25848227E+02      1.69036981E+03      7.07969080E+02
      1.64493270E+03      9.63113425E+02      9.11105121E+02
     -2.28773442E+02      7.27765057E+02      8.24299837E+02
      2.33988462E+02     -2.49700186E+02      3.34741249E+02
      1.33988243E+03      6.11087314E+03      2.28812803E+03
     -2.37709422E+02      2.04009055E+02      3.31299959E+02
     -8.94837112E+02      3.96147624E+02      1.63188053E+03
     -4.44676704E+02      3.92213239E+02     -1.23047866E+03
     -1.08061298E+03     -2.51430146E+02     -6.53848773E+02
     -4.06937320E+03     -3.80480882E+02      1.30764498E+03
      1.00429832E+03     -2.87600992E+02     -3.57987437E+03
      5.53227003E+02      2.39882920E+02      1.10439824E+03
     -2.61655805E+02      6.42284155E+02      7.80827185E+02
     -9.98865514E+02     -1.16404971E+03     -5.41819571E+02
      4.23778588E+02      1.35998462E+03      3.34514154E+02
     -1.65051003E+02      1.19857733E+02     -1.98907165E+02
      2.98472242E+02      3.66734448E+03      8.56286742E+02
     -1.18624586E+03     -1.79079582E+03     -9.23928971E+02
      8.55814331E+02      3.05383491E+03      1.39250678E+02
     -6.71614109E+02     -1.97232368E+02      8.37133362E+02
     -1.34053326E+03     -8.56748853E+02      6.61577514E+02
      2.08814898E+02      1.96057974E+03      2.33894213E+03
     -5.12869935E+02     -2.91092935E+02      3.10024629E+02
      2.54717384E+03      1.54665868E+03      1.04607052E+03
      2.29048069E+03     -2.26906081E+03      4.84628108E+02
     -6.35312989E+02      1.19279317E+02     -2.03553364E+02
     -3.31260538E+03     -1.26924859E+03      1.30681870E+03
     -1.25718877E+03     -1.12762416E+03      2.49506838E+02
      3.63616619E+02     -5.18174665E+02      5.94694259E+02
     -9.49858260E+02     -1.02692490E+03     -2.56605926E+02
     -4.20368518E+02      8.33924196E+02      9.52265740E+02
     -2.63003674E+01      7.52044859E+02      3.46861873E+02
     -3.65878566E+02     -9.98721860E+02     -1.00580518E+03
     -1.41278826E+02      2.48593027E+03     -1.83873988E+02
      1.53732996E+02     -3.67903345E+02      9.41424171E+02
     -1.39184820E+01     -1.05715234E+03      2.08607254E+01
      1.29754061E+03      2.14615552E+03      1.10367567E+03
     -5.74459883E+01      4.98233117E+02      5.21180194E+01
     -1.83787704E+03      1.77206495E+03     -1.01702377E+03
     -3.01091684E+02      3.40730853E+03      2.88094904E+00
      2.98841264E+02     -2.21339732E+02      5.77077761E+02
      2.66244093E+02      6.79350080E+02      1.33373470E+03
      2.53640807E+03     -5.26734787E+02      9.74188749E+02
     -2.90163746E+02     -4.54265845E+01      1.07795076E+02
      2.35769346E+03     -2.01021778E+03     -6.64382624E+02
      3.76127754E+03      1.34620810E+03     -2.67058100E+02
     -8.34912399E+02     -1.76610231E+03     -2.29878576E+02
     -7.64161663E+02     -4.13849095E+01     -6.22201406E+02
      8.10216528E+02     -9.42163327E+02      7.11013011E+02
     -1.26636017E+02     -6.00456249E+02      3.66174487E+02
      3.27239693E+03     -1.11633745E+03      2.60965360E+03
     -2.34146503E+02     -4.14554975E+02     -3.98727354E+02
      1.12048429E+03     -1.30690703E+03      1.62398963E+03
      7.24312020E+02      1.92521120E+03     -4.87720672E+02
     -2.90765125E+01     -3.03513986E+02     -1.55737228E+02
      1.59947681E+03      5.33403474E+02      1.76291904E+03
      1.89597649E+03     -1.00157168E+02     -8.28110629E+02
      3.11359812E-01      5.21116127E+02      1.46701120E+02
     -3.64916748E+02     -8.22803739E+02      8.11031478E+02
     -9.36448946E+02     -1.08614453E+03     -4.63029103E+02
     -4.81303785E+02     -2.86969665E+01     -7.16245615E+02
     -1.37708629E+03      2.64328749E+03     -2.42188478E+03
      3.53502404E+01     -1.48586875E+03     -1.55608899E+03
     -8.43162812E+02     -1.37322903E+02     -2.05010912E+02
      9.65357192E+02      2.31778701E+02     -7.39945107E+02
     -7.27821392E+02      7.10605478E+02      8.89624769E+02
     -1.06981190E+02     -4.33294284E+02      1.24953843E+03
      5.56259675E+02     -2.96364571E+02     -9.47915064E+02
      2.99417227E+03     -7.67586385E+02     -3.24198169E+02
      6.51176670E+01     -2.42534911E+02      2.75594701E+02
     -1.30378322E+03     -3.27916655E+02      2.47871732E+03
     -2.00243310E+03     -2.03273213E+03      2.11078905E+03
      1.79704391E+02      4.67838984E+01     -7.38045971E+02
     -8.96277555E+02      3.14402938E+03      1.15928185E+03
     -7.90139123E+02      5.35629665E+02     -3.52987359E+02
      2.25464874E+02      1.30747713E+02     -2.15890212E+02
     -1.09244341E+03     -1.93775807E+02     -1.01308012E+03
     -1.99309007E+03     -5.53516090E+01      1.34070149E+03
     -3.21138751E+02     -7.01147629E+02      1.65698997E+02
      2.24483010E+02      4.51375996E+02      8.19936660E+02
     -7.15134682E+02      9.68171976E+02     -2.56679128E+02
      1.27208634E+03     -1.45357663E+03      1.85026305E+03
     -2.83665264E+02      4.70684895E+02      5.11938442E+02
     -5.51419603E+02      3.97219356E+02      5.18671245E+02
      1.24478661E+03     -1.78057764E+03     -3.41891067E+02
     -2.17317147E+03     -2.09158347E+03      1.71083917E+03
     -6.53424207E+02     -6.90874811E+02     -1.79360615E+02
      6.59673883E+02      7.76529813E+02     -1.13026060E+03
     -2.72936080E+01     -2.11003724E+03     -1.44157612E+03
     -2.79998800E+02     -4.07334064E+02      2.06266586E+02
     -3.73681555E+03     -8.29908647E+02      1.99161284E+03
      3.04755858E+02      7.62780283E+02      2.19856150E+03
     -3.95098647E+02     -5.69213971E+02      2.81576354E+02
      3.05955838E+01     -1.08378148E+03      1.03813218E+03
      3.56944920E+02     -1.18926520E+03      3.40657860E+03
      1.01554385E+02      7.21235494E+02      3.20213047E+02
      4.78719634E+03     -2.29913985E+02     -2.47214100E+03
      1.11569868E+03      5.33410346E+02     -7.38920355E+02
      5.93090971E+02      1.12406990E+02      3.23937728E+02
     -2.23071061E+03      8.32292582E+02     -1.05458322E+03
     -6.87479178E+02     -4.14105352E+02     -4.75491861E+02
     -1.71875842E+02      1.68330685E+02      9.71144811E+02
     -1.28846173E+03     -1.25645378E+03      1.25081108E+03
     -8.32579804E+02      9.45799896E+02      1.73844741E+01
     -1.81350616E+02      4.62092797E+02     -7.63258406E+02
      3.21557945E+03      5.37789221E+02      1.06008686E+03
     -1.31447927E+03      4.58167707E+02      2.58593595E+03
      3.94131625E+02      6.41699937E+01     -8.59774887E+01
      1.10831584E+02     -1.25060020E+03      1.35456258E+03
     -3.42538987E+02      3.33349246E+03     -5.54374468E+02
     -9.17422505E+02     -1.95138741E+02     -2.31484211E+02
     -5.34909667E+01      9.88828890E+02      3.47512568E+02
      3.27181432E+02      4.81863161E+02      5.16441075E+02
      3.61799449E+02     -2.37170110E+03      1.14242032E+03
      1.26811613E+03     -1.21005330E+03      2.63368932E+02
      9.88811251E+01      2.76193725E+01      8.21559965E+02
     -2.49294051E+03     -9.26739715E+02      2.73976585E+03
     -1.52027166E+03      1.41497400E+03     -1.21237157E+03
     -7.21572693E+02     -4.49175803E+02     -3.91793529E+02
     -1.21134576E+03     -3.76365456E+03     -7.27946583E+02
     -3.90734253E+03      3.73435931E+02     -4.09054879E+03
      6.36134751E+02     -4.15685656E+02      2.90175825E+02
      1.24251809E+03     -8.68874888E+02     -1.99028747E+02
      2.08146537E+02     -2.78851879E+03     -4.65282870E+02
      2.22160579E+02     -4.24759093E+01     -3.52609788E+01
      1.54301882E+03     -1.86995345E+03      1.55543725E+03
      5.27821082E+02      3.98233568E+02     -1.66435799E+03
     -3.30839647E+01     -4.32737461E+02      4.45742988E+02
      2.25538449E+03     -1.50904270E+03     -1.49635004E+03
     -3.78907839E+03      4.27099417E+02     -9.28837770E+01
     -8.79019292E+02     -2.79006495E+02     -5.79600877E+02
      1.64647683E+03      6.37752588E+02     -4.08235294E+02
     -6.41400401E+02      2.70841474E+03      8.15062046E+02
      1.27033635E+02     -7.16184467E+02      3.44426309E+02
      4.11764264E+02     -8.16008575E+02      1.87729430E+03
     -1.48137256E+03     -5.20073050E+02      4.34972246E+03
      5.06588117E+02      2.32139053E+01     -2.40586954E+02
     -9.01195267E+02     -1.33184142E+02     -8.72918572E+02
      6.77465410E+02     -5.09507284E+02     -1.56199201E+02
      8.43582513E+02     -1.03719766E+02     -7.18462067E+02
      1.62777547E+03     -9.78544448E+02      4.97914163E+02
     -1.00162911E+03     -1.39510811E+03      2.46736843E+03
     -9.41843487E+02      6.15168443E+02     -2.19124434E+02
      2.34275690E+02      2.39918704E+02      5.02327350E+02
     -2.55184439E+03     -2.27757043E+03     -1.86994064E+03
      1.12584725E+03     -4.38190544E+02      2.65943494E+02
     -6.84027981E+02     -2.30578292E+02     -1.17921249E+03
     -1.71502819E+02      1.47255397E+02     -7.95777785E+02
     -8.25880516E+02     -3.62443131E+02     -7.50127069E+02
     -6.03996549E+02     -1.67701005E+02     -2.86121087E+02
     -4.48463823E+02     -3.66375456E+02      4.11198964E+02
     -6.38862549E+02      6.33500292E+01     -4.52973150E+02
     -4.70985104E+02     -1.52943523E+03     -2.97978411E+01
     -2.29015006E+02      3.16570844E+02      2.75655269E+02
      1.42353116E+03      9.99983964E+00     -1.27729854E+03
      6.04773197E+02     -1.66955189E+02     -1.50267045E+03
      1.90208575E+02     -1.41048698E+02      1.48051975E+02
      5.00129202E+02     -2.43647452E+03     -8.00221402E+02
      5.63040440E+02     -3.06938096E+03     -2.38345970E+03
      6.03562906E+01      5.09144787E+02     -2.33323344E+01
      1.16895686E+01     -1.62998450E+02     -2.84555496E+01
      2.07817098E+03      2.25673127E+03      1.06398564E+03
     -3.11821241E+02      1.86044491E+02      5.05931283E+02
     -5.08800344E+02      1.82047471E+02      1.99914702E+03
      2.08519714E+03     -3.49251326E+02      6.02291322E+02
      3.22913740E+01      4.83568387E+02     -1.12340750E+02
      9.33902114E+02      1.50337988E+03     -8.72936195E+02
     -2.87283993E+03     -1.48145040E+01     -1.63607962E+03
      7.09076342E+02      3.13908267E+01      8.83079389E+02
     -2.16681571E+02     -2.01831677E+03      7.52988895E+02
     -2.12588898E+03      3.11037196E+02      3.57002312E+02
      3.95884939E+02      5.59532109E+02      4.20045515E+02
     -1.90024491E+03      7.42940764E+02     -1.92917517E+03
     -9.79123151E+02      8.03913029E+02      1.91573703E+03
      3.99420053E+02     -1.65220608E+03     -2.10234984E+03
      8.87287229E+01     -4.47944598E+02     -1.67911534E+02
      3.79843116E+02      2.00640595E+03      1.21723928E+02
      3.16222184E+03     -1.42643433E+03      8.12883772E+02
      8.31191857E+02      6.49915243E+02     -3.53526149E+02
     -4.47022259E+02     -6.30878172E+02      4.96001841E+02
     -1.27775081E+03      2.03810953E+03      7.20907117E+02
      1.10913623E+03     -5.62736223E+02     -1.45156391E+02
     -9.65809714E+01      2.50086821E+01     -2.92415577E+02
     -2.23995238E+02     -3.72401185E+02      2.55022409E+03
     -1.14328890E+03     -1.10361209E+03     -1.17149550E+03
      5.33136204E+02     -1.58846213E+02      1.22639555E+02
      1.37474261E+03      1.35021658E+03     -7.00316992E+02
     -3.15447514E+03      1.38310507E+03      6.83138088E+02
     -4.30551051E+02      3.18054675E+01     -1.09382168E+03
      1.22563592E+03      1.19766796E+02      1.42310329E+03
     -5.80037574E+02      1.10237069E+03     -2.14829602E+03
     -6.72951696E+02     -9.62333641E+02      1.56724067E+02
     -2.12176999E+03     -1.05945466E+03      3.17862990E+03
      1.91663338E+03      2.12650856E+03      6.67105079E+02
     -2.47529567E+02     -5.25741920E+02     -2.17468539E+02
     -9.33894403E+01      3.55089384E+02      3.20175413E+02
      9.62683836E+01      8.64860831E+02      1.81681597E+03
      1.05826550E+01     -5.25920518E+02      1.46359116E+03
      7.28600830E+01     -4.02502305E+02     -1.40865936E+02
     -5.93976108E+02     -2.10735954E+03     -2.04064340E+03
      1.91906598E+02     -2.68767630E+02     -4.42946129E+02
      8.75626034E+02      5.46825294E+02     -8.66883656E+02
      1.91755034E+03      2.87384142E+03     -1.11980084E+03
      1.98834634E+02      4.96474740E+02      3.61994296E+02
     -1.18349502E+03     -3.26908034E+03     -1.37923711E+02
      1.26751218E+03     -2.84108767E+03      1.48778276E+02
     -7.85971285E+02     -5.99136136E+02     -1.70244086E+03
      6.38348846E+02     -3.42946410E+02      3.16367706E+02
      2.89215590E+02     -2.05762947E+03      8.72443022E+02
     -9.87333997E+02      1.87730937E+03      1.27803452E+02
      3.01737050E+02     -3.20144435E+03     -3.02398857E+03
  }
}

Hamiltonian = DFTB {
  SCC = Yes
  SCCTolerance = 1e-6
  MaxSCCIterations = 200
  ForceEvaluation = Dynamics
  MaxAngularMomentum = {
    C = "p"
    H = "s"
  }
  Charge = 0.0
  SpinPolarisation = {}
  Eigensolver = Standard {}
  Filling = Fermi {
    Temperature [Kelvin] = 300.0
  }
  SlaterKosterFiles = Type2FileNames {
    Prefix = "../../pbc-0-3/"
    Separator = "-"
    Suffix = ".skf"
    LowerCaseTypeName = No
  }
  KPointsAndWeights = {
    0.0000000000000 0.0000000000000 0.0000000000000 1.00000000000000
  }
  Dispersion = LennardJones { 
    Parameters = UFFParameters {}
  }
}

ParserOptions = {
  ParserVersion = 3
}
