Geometry = GenFormat {
<<< "system.gen"
}

Driver = VelocityVerlet{
  Steps = 100000
  TimeStep [fs] = 0.2
  MDRestartFrequency = 5
  Thermostat = None {
    #InitialTemperature [Kelvin] = 300.0
  }
  Xlbomd{ 
    IntegrationSteps = 6 
    MinSccIterations = 2
    MaxSccIterations = 200
    SccTolerance = 1e-6 
  }
  Velocities [m/s] {
      6.48424297E+02     -7.28777330E+01      7.32770556E+02
      1.10545153E+03      6.01130964E+02     -3.06054051E+02
     -1.27984771E+03      2.18899203E+03      3.07084412E+02
      4.42795150E+02     -3.08341787E+02     -7.34892516E+01
      7.40333049E+02      1.16819775E+03      1.23291544E+03
     -1.72117793E+03      1.27198548E+03      1.83947891E+03
     -7.22259303E+02     -4.29324033E+02      8.32809309E+01
     -2.47447445E+03      1.13192598E+02     -4.14282425E+02
     -2.30115021E+03     -1.24760522E+03      9.57100518E+02
     -4.69185839E+02      5.42573480E+02      6.62649955E+02
     -2.09335860E+03      1.24370740E+03      5.45059825E+02
      1.28887464E+03     -2.14570950E+03      1.35845586E+03
      1.51987772E+02      6.40235885E+02     -3.29014088E+02
     -4.76297417E+02      9.49203665E+02      1.29972572E+03
      1.36128600E+03      1.90682567E+03     -1.84999417E+03
      4.53301593E+01      2.80594356E+02     -9.06671358E+02
      2.71099594E+03      6.57942902E+02     -1.61373775E+02
      8.19291026E+02     -2.26111902E+03     -7.48109787E+02
     -1.07870417E+02      2.12526415E+02      3.19148715E+02
     -4.59470666E+02      2.67891664E+03      5.59293817E+02
      9.53180791E+02      2.85366140E+02     -6.15593083E+02
     -3.83566997E+02      4.97751614E+02      4.91423621E+01
     -3.09228564E+03      2.66390771E+03      1.84461097E+03
      2.23787561E+03     -2.45392120E+03      1.97316165E+03
     -1.24135482E+02      7.61852439E+01      2.89680007E+02
     -1.60102330E+03     -5.75588437E+02     -2.66381574E+02
      1.39046524E+03      6.83091233E+01     -1.92630830E+03
      4.68025776E+00     -7.27504067E+02     -1.21819093E+03
      3.81551637E+01     -1.98377499E+02      9.08312961E+02
     -9.98966659E+02      7.41501525E+02      1.52955986E+03
     -1.56338418E+03     -1.41317676E+03      2.59758512E+02
     -1.71975560E+03      8.22442550E+02     -4.38069634E+02
     -4.77993498E+02      2.49855875E+02     -6.85224240E+02
      1.39687883E+03      1.25287431E+03      1.02551930E+03
      2.37559298E+03     -1.15669097E+03      1.55225071E+03
     -2.78685547E+02     -9.28184110E+01     -2.52269686E+02
     -1.12908586E+03      6.09574530E+01      1.85906945E+03
     -7.95095387E+02     -2.24882410E+03      1.97002732E+03
     -1.56474133E+02      5.70479563E+02     -5.81501072E+02
      7.35347793E+02      3.95569859E+02     -1.19499024E+03
     -2.97717776E+03      1.95397928E+02      6.80874088E+02
     -1.59713452E+02     -1.29853277E+02      8.05018413E+02
      1.33594131E+03      3.69948007E+02     -6.51729788E+02
     -1.46189738E+03      4.16702055E+02      1.46819514E+03
      1.12811651E+03     -1.68524620E+00      3.78487095E+02
     -1.96011553E+03      5.30021931E+02     -1.25248659E+03
      1.19894200E+03      1.22956036E+03      2.46282743E+03
     -5.17714453E+02      4.64779927E+02     -6.76210500E+02
     -1.11011544E+03     -1.04959776E+03      1.17744726E+02
     -3.30723899E+02      9.65242168E+01     -7.31371361E+02
     -2.31305660E+02      7.70212269E+01     -9.22409364E+02
     -5.35551863E+02      3.56803157E+02      7.82828471E+02
      1.00531348E+03      2.05641776E+02     -2.41483495E+02
     -4.97962154E+02      4.58932725E+01      3.98059025E+02
     -1.13025871E+03      4.55659927E+03     -1.05244273E+03
      1.92972782E+02      7.98313892E+02     -9.51624065E+02
     -2.04494176E+02      5.82532615E+01     -3.01547576E+02
     -3.80628061E+02     -1.73084021E+03     -1.48143911E+03
     -9.48413714E+02     -3.18792005E+02      3.47692052E+02
      8.13011771E+02     -1.46564753E+03      2.00280866E+03
      2.19005139E+02     -2.29609427E+02      5.15824366E+02
      8.19567728E+02      1.58059084E+03     -1.75198078E+03
     -4.94144973E+02      1.94513434E+03     -3.74846251E+03
      6.92197216E+02     -1.10074491E+03      1.81914400E+03
      2.99069430E+02      2.94530625E+02     -3.88911177E+02
      2.93941241E+03      4.34962402E+03      1.51159728E+03
     -2.33563747E+03     -7.87878891E+02     -4.23840502E+02
      1.72760149E+02     -1.03414005E+02     -5.59325848E+02
     -1.15435065E+03     -3.19628858E+02     -7.88167158E+02
     -1.73069644E+03      1.18389384E+03      2.21305466E+03
      5.05072324E+00      1.06455793E+02     -3.18526111E+02
      2.15910221E+02      1.47934459E+03     -3.13559471E+02
     -8.78806704E+02      2.14497024E+03      1.54629859E+03
      2.34795684E+02     -1.32709973E+02      5.87962563E+02
      4.41378027E+02      1.13341850E+03      2.21563886E+03
     -1.74459083E+03      2.06463239E+03      8.29804997E+02
      1.10586409E+03      4.42900329E+02      5.92066204E+02
      1.15640435E+03     -3.23018824E+03      3.64739908E+02
      1.29738702E+03     -1.15672334E+03      1.59647340E+02
      2.48578320E+02      3.47772943E+02      7.44201112E+02
      1.36439285E+02     -1.27191654E+03      1.49148521E+03
     -1.01395089E+03      7.82524552E+02      5.12246953E+02
     -7.51077625E+02     -1.37845876E+02      3.77300057E+01
      3.45967038E+03      2.27159890E+03      1.18484014E+03
     -8.07981212E+01      9.41079207E+02     -6.41044602E+00
      4.89526123E+02      2.19568487E+02      6.39586758E+02
      6.79498992E+02     -1.68611888E+03     -7.78349196E+02
     -8.34579121E+02      1.16011584E+03     -2.27252510E+03
     -5.35936899E+02     -7.27817519E+02      7.90825653E+02
     -3.75419103E+01     -1.73509124E+03      1.64328437E+03
     -2.32302950E+03     -2.98913742E+03      8.26291101E+02
      2.07436910E+02      2.05694819E+03      5.93666671E+02
      6.90003279E+02      5.36280182E+01     -2.78395403E+02
     -4.83422530E+02     -5.58439679E+02      6.37342096E+02
      4.15952590E+02     -2.24086002E+03      7.34638739E+02
      1.69777195E+03      1.54503322E+03      9.27312885E+02
     -1.09867841E+02     -8.10399958E+01      3.73206800E+02
     -2.01782342E+03      1.69129400E+03     -8.28463531E+02
      1.57512202E+03     -1.52860426E+03     -3.69586408E+03
     -2.83644310E+02      6.02835699E+02     -4.58637558E+02
      1.31410564E+03      7.97770695E+02      1.35745473E+02
      5.59250059E+02     -1.16597578E+03      1.14754428E+03
      5.23820427E+02      6.28525015E+02      1.95681632E+02
     -3.68294769E+02      2.02753470E+03      3.35902986E+01
      4.81931046E+02     -2.05903660E+02     -2.29064911E+03
      3.80181706E+02      2.31273224E+02      5.49663547E+02
      1.21599164E+03     -5.38500741E+02      2.69939782E+03
      6.39944097E+01      1.80443536E+03      3.66517949E+03
      5.42953963E+02     -2.07048964E+02      2.91742373E+02
     -3.15800502E+03      5.15950526E+02     -6.78046919E+02
     -5.56115912E+02      1.30920294E+03      4.54786916E+02
     -7.67320357E+02      1.17564670E+03      5.01746379E+02
     -1.39563039E+02      1.13660466E+03      2.19069979E+03
     -1.59805863E+03     -2.74663485E+02      1.52767342E+03
     -8.58743308E+02      2.72938419E+02      3.22887043E+01
      3.12078582E+03      1.98172992E+02      3.99355408E+02
     -4.76572673E+01     -3.06998753E+02      1.43116800E+03
     -2.86697896E+02     -4.61520936E+01     -5.92675725E+02
     -8.31026423E+02      1.04261755E+03     -1.06426234E+03
      1.19916689E+02      4.37775605E+00      1.54451792E+03
      3.40807028E+02      3.05467595E+02      6.87048540E+02
      1.87006755E+03      7.48708878E+01     -1.43396261E+03
     -4.01080002E+02     -3.14656850E+01      1.36295964E+02
      8.10561445E+01      2.37192833E+03     -1.06101613E+02
      1.52639675E+02     -9.65799689E+01      6.18159428E+02
     -3.19058128E+03      5.45622170E+02      8.68376433E+02
      8.43655605E+02     -6.83189849E+02      3.92015697E+03
      7.75844418E+00      6.09326733E+02     -9.26017692E+02
      1.19986412E+02     -3.82375323E+02      2.40751085E+02
      3.03525060E+03     -1.53033601E+03     -2.89485617E+02
     -2.80363817E+03      1.05444297E+03      1.71213076E+03
      1.04018364E+02      5.51424107E+02      3.53000567E+02
      1.36416022E+03     -1.11205348E+03     -7.39664848E+02
      1.04738785E+03      6.30307531E+02     -6.84190880E+02
     -1.84857447E+02      6.57079290E+02     -8.76565250E+02
      3.89912362E+02      7.06076293E+02     -1.27859000E+03
     -6.51724728E+01     -2.03836328E+03      2.29652485E+03
      1.20283721E+02      2.95424525E+02      9.30616296E+02
     -2.32357192E+03      1.87764141E+02      1.17338128E+03
     -2.11401049E+03      7.65447722E+02      1.55124305E+02
      3.48055396E+02      2.33574698E+02      1.67286296E+02
      7.89300304E+02      2.91009148E+03      2.03393607E+03
      4.95270550E+02      1.15092957E+03     -1.94403069E+03
      7.49557826E+02      2.20721209E+02      4.04054589E+02
     -2.75388622E+03      1.69120216E+03      1.55588363E+03
     -1.63969286E+02      4.62331225E+02     -4.75000054E+01
     -3.25809732E+01     -5.97094926E-02     -2.73139817E+02
     -2.99377073E+03     -1.39076726E+03      8.13191400E+02
      1.54138734E+02     -1.21108752E+03     -1.65175671E+03
     -4.13603950E+02     -3.74708339E+02     -3.49643615E+02
      1.26724044E+03      3.00588744E+03      2.22804494E+03
      8.13186185E+02     -9.46659048E+02      3.37147688E+02
      3.88524946E+02     -7.26414652E+02      2.20504521E+02
     -2.84777560E+02      9.90450753E+02     -1.73007225E+03
     -1.19028273E+03      1.16153360E+02     -3.89840330E+02
     -1.21863143E+03     -2.26998393E+03      1.51075731E+03
      3.70110476E+02     -4.48529636E+02      3.35788597E+02
     -3.45186097E+02     -3.74643199E+00      1.55190644E+03
      2.21322948E+03      6.31701686E+02     -1.53321249E+03
      4.27105508E+01      2.42270325E+03      2.42954607E+03
     -7.05160537E+01      7.73863472E+02     -2.90638054E+01
      1.11018166E+03      1.36529268E+03      1.23493321E+03
      8.45907482E+02      4.36436335E+02     -2.38960414E+03
      5.13276210E+01      1.91915884E+02     -1.89755551E+02
      1.43231475E+03      1.39637662E+03      3.59457704E+02
      2.30582295E+02     -1.23808324E+03     -8.54606530E+02
     -9.73384754E+02      5.52644535E+01     -3.52764613E+02
     -8.37975554E+02      3.10958324E+02     -1.75517331E+03
     -1.03585163E+03      3.21873733E+02      4.95731973E+02
      2.46674650E+01      8.78222558E+02     -1.29595838E+02
     -2.27105636E+03     -1.65239887E+03      4.60391407E+02
     -8.01053008E+02      3.28967187E+03     -1.30799891E+03
     -3.34760894E+02      2.14103875E+02     -4.59337284E+02
     -1.51932415E+03      1.37119984E+03      1.94513819E+03
      2.32079060E+03     -1.53933282E+03     -1.90030534E+03
      2.86497158E+02     -4.39645039E+01      4.43759230E+02
     -1.89909402E+03      1.12342412E+03      2.20481687E+02
     -1.44162025E+03      1.76319758E+03      6.73213316E+02
      3.66882573E+02      1.51118049E+02      7.82001350E+01
      1.78326934E+03      4.13882429E+02      2.82066304E+03
      9.05304038E+02      4.18567781E+03      1.93513165E+03
      2.73494895E+02      5.41168077E+02     -2.64075216E+02
      9.86962657E+02      1.63071405E+03      1.38997252E+03
      1.01291611E+03     -8.86405862E+02      6.24420660E+02
      6.33321143E+01      4.11116721E+02     -8.36769354E+02
      1.77647621E+03      1.00154666E+03      1.08268430E+03
      1.95555636E+03     -1.13024035E+01      1.73609959E+03
      1.34513098E+03     -1.48346325E+02     -1.11799605E+03
      7.40474436E+01     -1.89063290E+02      2.14310191E+02
     -4.84855489E+02     -6.14951436E+02      5.21411984E+02
     -5.28858829E+02     -1.43438162E+03      5.48023680E+02
      3.52842660E+03      1.62564275E+03     -6.25343282E+02
     -6.19434670E+02      6.85252135E+02      5.37875157E+02
      1.61205986E+02      1.12953052E+03      1.55339916E+03
     -3.28288726E+02      5.42931495E+01      2.17006545E+03
     -3.83007215E+02      3.87701543E+02      7.31528265E+01
      1.11663033E+03      4.31937946E+02      2.04205879E+03
     -1.38970324E+03     -1.31396659E+03     -1.95489728E+02
     -5.90222558E+02     -3.43683266E+02     -3.83928759E+02
     -1.49976269E+03     -5.88758161E+02     -2.19645332E+03
     -2.11401362E+03     -1.12545145E+03     -1.42143044E+03
     -5.78053813E+02      6.39808119E+01     -1.73428596E+02
     -1.42319255E+03      1.20512403E+02     -8.93918809E+02
      1.02052254E+03      5.38916688E+01     -6.68226429E+02
     -1.39174673E+02      1.80982347E+02      1.64565157E+00
     -9.80355673E+02      3.02854772E+02      5.39582144E+02
     -2.16839022E+02      1.34684953E+03      2.58693635E+03
     -5.61802215E+02      1.26363456E+03      3.63854026E+02
      2.91671553E+03      1.35974443E+03     -8.77352864E+02
      7.22692327E+02     -2.23816444E+03      1.55903996E+02
      1.21195910E+04     -2.53406942E+04     -1.78057753E+04
     -3.94871848E+02      6.75745704E+02     -1.86465074E+02
     -1.68215210E+03      6.47957633E+02      1.94891734E+03
      6.72077698E+02     -1.18745997E+02     -1.83973885E+02
     -4.01685092E+02      1.68944106E+03      3.83482475E+03
     -1.19250958E+03     -4.48778205E+03      1.82852469E+03
     -1.13275377E+01      2.05698728E+02      1.87270477E+02
      2.45184707E+03     -8.11979543E+02      3.22679513E+03
     -2.93979500E+02      3.09528350E+02      2.23951605E+03
      2.78101293E+03      2.13124490E+02     -8.46992519E+02
     -2.09131809E+02      6.74540762E+02     -6.93972327E+02
     -2.18230544E+03      1.73188637E+03     -9.90469009E+01
     -1.17911812E+03     -2.53429794E+02      2.14733428E+02
      2.10662529E+03      7.96956406E+02      5.36516288E+02
     -5.96735418E+02      2.34983389E+02      1.08911458E+03
     -1.41258321E+03      2.02031574E+03      2.62541779E+03
     -1.73439361E+03      2.36938903E+03      7.13474336E+02
     -8.30430980E+02      2.11698646E+02      4.27116558E+01
     -9.26445016E+02      1.20766986E+03     -2.96057424E+03
     -2.11444972E+03     -5.24613681E+02     -3.72755562E+03
      9.26707865E+02      4.10998405E+02      9.92104185E+02
      5.13692888E+02     -2.21466525E+03     -2.23408763E+03
     -6.51588589E+02      3.02680379E+03     -1.98846319E+03
     -5.03019373E+02     -4.25104302E+02      5.78710084E+02
     -2.29918067E+02     -4.89397337E+02      3.47735185E+03
      7.64383225E+01     -1.69299100E+03     -3.19372007E+02
      4.03792504E+02     -1.00670105E+02      3.45937231E+02
     -7.68101521E+02      4.08220885E+02     -1.36014132E+03
     -2.15190950E+03     -8.35992989E+02     -4.28019057E+02
      3.71994012E+01      5.07387412E+02     -2.41505520E+02
     -2.16508486E+02      7.37503687E+02      7.79864241E+02
      4.58061019E+02     -8.27617543E+01     -7.99835633E+02
      4.69761328E+02      4.55026830E+02      3.49456226E+02
      1.00172179E+03     -6.62907041E+02     -2.42425226E+03
      1.22343427E+03     -1.80265230E+02     -2.75390233E+01
     -3.48110152E+02      7.81717632E+02      3.16089217E+02
     -2.54841488E+03     -1.06618249E+03     -3.76789522E+03
     -1.45535391E+03      2.06296557E+03      1.02247136E+03
      1.64495200E+02     -2.42299453E+02      8.41281043E+02
      2.43382553E+02     -2.18652726E+03      1.01859066E+03
     -5.51412204E+02     -2.48236860E+02      1.55225149E+03
      1.35804894E+03      1.86923490E+03      5.84453238E+02
     -3.91409631E+02     -6.44291077E+01     -2.69617117E+02
      5.56432390E+02     -1.50238804E+03     -3.69379794E+01
     -3.74841646E+02     -6.71674267E+02      2.35141578E+03
      1.83902601E+03      9.91660863E+02      3.80486908E+02
     -2.52710263E+02      4.95043207E+02     -5.04213592E+01
     -2.97059073E+03     -2.95138081E+03     -2.87941374E+03
      5.80451642E+02     -1.85831290E+03      1.01543120E+03
      3.44566472E+02      6.81324279E+02      5.54093419E+02
      6.18399460E+02      1.57337746E+03     -3.96612216E+02
     -2.13094237E+03     -4.13760226E+02      3.45889939E+03
     -2.30315925E+02      6.40965403E+02      1.92797994E+02
     -1.63633122E+03     -1.15167283E+03      8.97547613E+01
     -4.42060194E+02     -1.48892296E+03      5.10522710E+02
     -7.30644688E+02      8.61153008E+02     -3.50033452E+01
      3.48252531E+02     -8.40627263E+02      3.38687132E+03
     -1.17379536E+03      4.30047683E+02      1.28189985E+03
     -3.99312202E+02      8.97720230E+02      5.48004969E+02
      1.93567298E+02     -1.00829175E+03      1.77535628E+03
      5.84819849E+02      2.82561774E+02      7.09098677E+02
     -5.48433994E+01     -5.61139932E+02      2.58652678E+02
     -1.88498102E+03      2.14508567E+01      1.80658691E+03
      3.22324301E+03     -1.64205840E+03      1.91976794E+03
     -3.20084619E+02      8.99273480E+02      1.26827422E+02
     -2.82218019E+03     -3.48340535E+02     -5.76003367E+02
     -1.68551229E+03     -1.23345194E+03      1.38033087E+02
     -6.51651818E+02      4.33056922E+02      5.08353784E+01
     -3.06243600E+02      1.47271909E+03     -8.87037251E+02
     -3.57116493E+03      6.80652831E+02     -5.92729279E+02
      2.34881303E+02     -5.33529884E+02      3.58634732E+02
     -1.56619072E+03      7.27592084E+02     -2.27112255E+03
      8.49924831E+02      1.86033916E+03     -7.92978309E+02
     -3.06038423E+03      1.61724528E+03      6.25374610E+02
     -5.76963835E+02      9.40481993E+02      6.69230826E+02
     -5.84144628E+02     -5.04738709E+02      8.10154792E+02
      6.25004858E+02      5.75395782E+02     -9.93945467E+02
     -1.31195536E+03     -1.42258235E+02     -3.08589493E+02
      1.29810559E+02     -9.66692809E+00      1.76508629E+02
     -2.80932118E+03      1.16933904E+03      1.26990516E+03
      1.04678894E+02     -6.01060486E+02     -2.48207256E+03
      5.79258345E+02     -4.01428759E+02     -7.16935861E+02
      4.30105234E+02     -1.42745198E+03      3.63020841E+02
     -2.34574533E+02     -2.83348260E+03     -2.71498624E+03
      5.43644475E+02      3.92062429E+02      2.59927315E+00
      4.32899552E+02     -1.27442160E+03     -6.73753840E+02
     -4.79419160E+02     -1.34917027E+03      5.99237109E+02
     -4.68702376E+02     -5.06246660E+02      8.66588302E+02
      2.30934620E+02     -2.13104465E+03      7.53128046E+02
     -1.36861108E+03      9.70062988E+02      4.04586187E+02
     -7.01073683E+02      6.46567624E+02     -1.31901554E+01
     -9.52010973E+02      1.90324833E+03      1.75245939E+03
     -8.79597336E+02      1.72330694E+03     -1.72719585E+03
     -4.73548869E+02      1.40864731E+03      2.87299275E+02
     -7.35125737E+02      3.19073264E+03     -2.27997116E+03
     -3.66612874E+03     -6.15374762E+02     -2.41135810E+02
     -5.29942522E+01     -2.73594843E+02      2.47080242E+02
      1.37362772E+02     -2.50545112E+02      1.48165442E+03
     -2.97345313E+03      2.10206846E+03     -3.79925607E+02
      6.12698446E+02     -1.63505117E+02     -5.93880798E+01
      7.82689111E+02      1.93157330E+03     -8.39530261E+02
     -1.28877705E+03     -6.91354764E+02     -9.19555301E+02
     -3.66922321E+02     -2.99499934E+02      3.05572498E+02
     -3.17630773E+03      1.09998488E+03      1.20264221E+03
     -2.91250992E+02     -1.61270090E+03      1.01382759E+02
      9.99218575E+02     -4.83715861E+03      8.43224016E+00
      4.72231188E+02     -3.22760756E+02      3.72097649E+02
     -8.65702062E+02      4.61936115E+03      1.51364934E+03
     -1.67002355E+02     -2.10307588E+02      3.67212518E+03
     -5.83317647E+02     -1.01796705E+03     -6.90967681E+02
     -4.73613299E+01      8.96072926E+02     -1.65649257E+02
     -1.25140835E+03     -6.82066180E+02     -5.40622282E+02
      1.17127817E+03     -2.22392366E+03      1.27857055E+03
     -7.31337494E+02      8.25774702E+02     -3.40787814E+02
      3.56864739E+02     -7.36205099E+02      3.72613318E+03
     -1.03057473E+03      4.87562315E+02      2.22622471E+03
     -4.13522742E+02      9.61923507E+02      1.67257918E+02
     -1.89463944E+03      1.41430303E+03      2.01925012E+03
     -8.05167359E+02      1.80337109E+03     -3.34309632E+03
     -3.95434893E+01     -2.62876852E+02     -2.88487505E+02
     -2.14032889E+02      1.96433638E+02     -6.05306483E+02
     -8.54081450E+02     -6.10448343E+02     -9.62306280E+02
     -6.80490132E+02      4.16935726E+02      1.08084512E+03
     -1.08004657E+03     -1.64361603E+03     -4.88038236E+02
      2.52804840E+03     -1.15916332E+02     -7.87888751E+02
      1.01888731E+02      4.08839215E+02     -7.84588691E+02
     -4.27794774E+03      1.48598768E+00     -1.19660835E+03
      5.66608083E+02     -1.95298655E+03     -2.71570772E+03
     -7.88071591E+02     -2.15323330E+02     -3.09414835E+00
     -2.24261129E+03     -1.26781492E+03     -8.39176384E+02
     -2.07579554E+02      1.39933300E+03      8.63507146E+02
     -2.59641448E+02     -6.09481347E+01      2.33544744E+02
     -9.06311816E+02      9.10947508E+02     -1.35407192E+03
      1.52739562E+03     -4.15527210E+02      9.16162356E+02
     -6.17408543E+02      6.49081682E+02     -2.70407357E+01
      1.34656535E+03     -2.08800814E+03     -3.74182552E+02
      4.86066385E+02      1.63318782E+03     -5.13967383E+02
      2.87000601E+03     -1.04693971E+03      6.07350226E+01
      3.07285865E+02     -2.63558866E+02      8.40162409E+02
     -1.99609629E+03      1.01547903E+03      4.42850982E+02
      2.49648428E+03      1.69091945E+03      2.00250256E+01
     -9.44032934E+02      2.06568467E+03      5.82266476E+02
  }
}

Hamiltonian = DFTB {
  SCC = Yes
  SCCTolerance = 1e-6
  MaxSCCIterations = 200
  ForceEvaluation = Dynamics
  MaxAngularMomentum = {
    C = "p"
    H = "s"
  }
  Charge = 0.0
  SpinPolarisation = {}
  Eigensolver = Standard {}
  Filling = Fermi {
    Temperature [Kelvin] = 300.0
  }
  SlaterKosterFiles = Type2FileNames {
    Prefix = "../../pbc-0-3/"
    Separator = "-"
    Suffix = ".skf"
    LowerCaseTypeName = No
  }
  KPointsAndWeights = {
    0.0000000000000 0.0000000000000 0.0000000000000 1.00000000000000
  }
  Dispersion = LennardJones { 
    Parameters = UFFParameters {}
  }
}

ParserOptions = {
  ParserVersion = 3
}
