Geometry = GenFormat {
<<< "system.gen"
}

Driver = VelocityVerlet{
  Steps = 50000
  TimeStep [fs] = 0.2
  MDRestartFrequency = 5
  Thermostat = None {
    #InitialTemperature [Kelvin] = 300.0
  }
  Xlbomd{ 
    IntegrationSteps = 6 
    MinSccIterations = 2
    MaxSccIterations = 200
    SccTolerance = 1e-6 
  }
  Velocities [m/s] {
      5.47345808E+02     -2.81306795E+02      1.57355570E+01
      4.41581249E+02      1.96310600E+03     -4.87467809E+02
      4.37075152E+02     -9.37332860E+02     -2.40611512E+03
      4.61866918E+02      9.46826332E+01      7.04214171E+02
      1.33180099E+03     -9.45946481E+02      1.85838459E+03
     -2.47051078E+03      1.34298606E+02     -1.33534787E+03
     -2.49184983E+02      9.55655567E+01      7.57472441E+02
      1.62340128E+03     -4.92904987E+01      2.20195162E+03
      5.76818253E+02      2.58364437E+03      7.92205103E+01
     -7.55296927E+02      2.18646357E+02      3.55737021E+02
      1.83328215E+03     -1.43567070E+03     -1.16356600E+03
     -1.15617894E+03     -1.15882459E+03     -1.31197384E+03
     -4.32050545E+01     -4.48531045E+02     -4.87686728E+02
     -9.64103201E+02      4.61077426E+02      3.32789031E+03
      5.56324233E+02     -9.02697456E+02      8.58377937E+02
     -3.83221366E+02      4.36108131E+02      3.61034746E+02
     -3.87780733E+02     -1.70309579E+03     -8.70243856E+02
      6.49329110E+02      1.52373146E+02      8.50451495E+02
      1.34916639E+01      8.21718574E+02     -7.12361167E+02
     -1.17646496E+03     -1.66858968E+03      3.32571350E+02
     -2.12405529E+03      3.67262849E+03     -2.16021188E+03
      7.73596350E+02      6.87116087E+02      3.52647002E+02
     -1.54485726E+02      6.44658135E+02      2.52361157E+03
     -6.48023064E+02      2.12607101E+03      1.05907231E+03
      4.95389150E+02      7.77779957E+02     -2.30423013E+02
      8.82488481E+02     -2.40427520E+03      6.81939360E+02
     -4.90419942E+02      2.44213251E+03     -1.55219137E+03
      3.78597596E+03     -8.84566475E+02      2.30500283E+03
      5.46520212E+00      6.04591051E+02      9.65684295E+02
     -4.11499780E+02     -1.92061443E+03      5.80439848E+01
      5.95479807E+01     -1.01265258E+03      1.70884705E+03
     -1.21318471E+02      2.17706118E+03     -6.83385889E+02
     -2.83985552E+02     -6.20245279E+02      6.97456397E+02
     -1.39283011E+03     -1.79629983E+02      3.30411439E+03
     -3.05913680E+03     -1.05578847E+03      2.83048164E+03
     -6.00221525E+01     -4.90355049E+02      9.01434025E+02
     -2.44867677E+02     -2.70360299E+03      1.19755236E+03
     -5.03379372E+02      1.52263294E+03      1.49230008E+03
      4.85947194E+02     -2.58597908E+02      1.64697635E+02
     -5.04473212E+02      2.66641500E+03      9.16909720E+02
     -9.21521527E+02     -7.67593700E+02      1.72468850E+03
      3.13557954E+02      1.09188717E+03      1.93915438E+02
     -5.26545195E+02     -8.95922858E+02     -1.69357980E+03
     -1.26195440E+03     -2.93786089E+03     -8.61677041E+02
     -2.91670763E+02     -8.88259652E+02     -1.28045084E+02
      2.09924564E+03      1.77244520E+03      3.02523747E+02
     -6.48744396E+02      2.16812582E+03      6.53042025E+02
     -5.23842262E+02      4.36453757E+02     -2.82084894E+02
     -1.59192608E+02      2.28970882E+03      3.94087217E+02
      9.99246932E+02     -1.56550973E+03     -8.70790907E+02
     -2.40348482E+02      1.70509396E+02      2.08338243E+02
     -1.70585328E+03      9.91458444E+01      3.26872933E+03
     -1.50171285E+02      5.06686680E+02     -2.60853025E+02
     -3.35441742E+02      3.45376303E+02      7.60701621E+02
     -8.78356514E+02     -3.79065515E+01     -5.89130862E+02
     -2.16542592E+03     -5.66457898E+02      8.16114873E+02
     -9.45580976E+02     -2.45441244E+02     -1.07701337E+02
     -3.21766889E+03      1.06419358E+03      2.44674026E+03
     -4.04626877E+02     -6.12453849E+02      2.20863683E+02
      6.95055829E+02     -6.89351765E+02      1.18524307E+02
     -3.21394129E+02     -1.32416765E+02      2.45674871E+02
      7.28677632E+02     -4.85750743E+02      1.92873078E+03
     -1.60996218E+03     -2.65688578E+03      6.18246610E+02
      5.00571256E+02     -1.72696534E+02     -2.08303085E+03
      1.54687918E+02      2.41349020E+02      8.92121600E+02
     -8.53620530E+02      2.89432251E+03     -4.22751938E+02
     -2.46926779E+03     -8.10771756E+02     -2.34831574E+02
      2.87367933E+02      1.05045391E+03      2.96031276E+02
     -1.20819553E+03     -2.04919542E+03      1.26707334E+03
     -1.61654216E+03      6.38793990E+02      9.26755609E+02
      5.70758950E+02      9.78314471E+02     -9.88530501E+02
      5.32796428E+01      1.13722853E+03     -1.17801320E+03
      9.31216066E+02      2.27739909E+03     -4.10453623E+03
     -1.54009684E+02      6.07782585E+02      3.38858901E+02
     -2.24334465E+03     -1.37009140E+02     -5.65280067E+02
     -4.90670107E+01      1.68881038E+03     -4.13682299E+03
      1.09360313E+01     -3.47032572E+02      5.01709220E+02
      1.10787178E+03     -4.33708409E+03     -6.15521013E+02
     -9.49830813E+02      9.93933662E+02     -1.17933379E+03
     -1.91414817E+01     -3.72506535E+02      2.83970348E+02
      2.34479395E+03      4.01041107E+02      7.91242811E+02
      1.75563912E+03     -1.77985997E+03     -1.60063144E+02
      3.83507522E+02      6.00744915E+01      6.18285526E+01
      3.68844315E+01      3.60411448E+02      4.73266275E+02
      2.84946019E+03     -1.71736251E+03      7.27916126E+02
      1.36655466E+02     -2.13479949E+02      8.98703791E+01
     -1.03462008E+03      7.11628104E+01     -1.05301113E+02
     -1.28500896E+02     -1.49658625E+03      3.76539078E+02
     -4.37609730E+02      3.88385935E+01     -1.05891710E+03
      1.28693048E+03     -1.79352379E+03      8.39113658E+02
     -1.09649238E+03     -6.71602064E+02     -3.84892328E+02
      1.51764360E+03      3.33339813E+02      3.62451626E+02
      3.47501702E+01     -1.95222261E+02      2.50634337E+02
      9.84277920E+02      4.46976387E+02      2.89620264E+02
      2.47188260E+03      1.90991199E+02      1.18602710E+03
     -1.47555453E+02     -1.13506345E+03      6.45109673E+02
      5.34598643E+02     -7.74787907E+02     -1.40682434E+02
     -2.11190054E+03     -3.46957911E+02     -7.48268314E+02
     -1.30198764E+03     -1.79100746E+03      1.15083202E+03
      4.27937764E+02     -1.30160325E+03      1.96602897E+02
     -2.08637870E+03     -1.12877244E+03     -1.05636306E+03
      8.89549394E+02     -1.07822789E+03      1.05237241E+03
     -2.99089552E+01      1.91341265E+02     -1.08341538E+02
     -1.06268675E+03     -1.33401724E+02      1.30954861E+03
      1.38227272E+02     -2.06146624E+03     -1.16613891E+03
      2.67673562E+02      3.31369877E+02     -1.61293328E+02
      3.19876356E+03      1.57602374E+02     -3.42211691E+01
     -2.65604356E+02      1.40557158E+03     -2.35948432E+03
     -7.68883675E+02      2.76325994E+02      8.00427616E+01
     -3.18576244E+02      4.91620139E+02     -1.84430979E+02
      1.06737375E+03      3.38226128E+03      2.79405912E+03
      9.15753005E+01     -1.75055025E+02      4.48483132E+02
     -3.48556428E+01      1.40874548E+02     -3.05737572E+02
     -6.51025417E+02      1.29572799E+03     -4.27917887E+02
      1.86200521E+02      6.67099342E+02      2.41324159E+02
     -2.08399601E+02      1.12175122E+03     -1.59399228E+03
     -1.23851803E+02     -1.69720110E+03     -1.11693238E+03
      9.11232266E+01      2.36420759E+01      7.07951591E+02
      8.49929100E+02      1.62993242E+03      1.48519143E+03
     -9.68190285E+02      1.83573782E+02     -1.37105285E+03
      5.03780754E+02      6.24794121E+02      3.43398970E+02
     -9.74794228E+02      1.69767175E+03     -1.77280197E+03
      7.51703432E+01     -9.74485687E+02     -1.79963114E+03
     -1.36614460E+02     -2.65401965E+02     -1.55478722E+03
     -6.21703120E+02      3.78368530E+02     -5.76251176E+01
     -1.48445296E+03     -1.55179943E+02      8.16363221E+02
      2.26275680E+03     -1.65652134E+02      9.58538203E+01
     -2.41005649E+03     -1.64955185E+02      9.15699362E+02
     -2.92826780E+02      4.12695743E+02     -6.35624783E+02
      9.15925017E+02     -1.99636214E+03     -3.05283708E+03
     -2.38252608E+03     -1.26882744E+03     -1.83341262E+03
     -2.63438014E+02     -2.14463598E+02     -2.05788649E+02
      1.74087414E+02     -1.58988723E+02      2.46728303E+03
      7.88481074E+01     -3.97172081E+02     -1.09607961E+03
     -4.54305828E+02      1.06677355E+02     -6.36458963E+01
     -3.01763986E+03      1.51728923E+03     -1.49951514E+03
      1.76598949E+03     -1.13414890E+03      3.27770311E+02
     -1.69915411E+02     -4.10291418E+02     -1.21004727E+03
     -1.53964749E+03      3.23638398E+03      1.83173649E+02
      1.89546128E+03     -1.03275370E+03      5.70688416E+02
      3.02668894E+01     -4.49559217E+02     -7.84428234E+01
      7.96636848E+02      2.46721786E+03      5.83730662E+02
      2.04839728E+03      1.27375887E+03      2.11660273E+03
      1.92962986E+02      1.70755772E+02      2.96339324E+02
     -2.52649592E+02      4.20884721E+02      8.04195410E+02
     -2.54230663E+03      1.89099302E+03     -4.88046839E+02
     -3.12926360E+02      1.70549301E+02     -8.18121036E+02
     -4.37731498E+02      5.46819328E+02     -2.74733641E+03
      1.11998426E+03      2.03339439E+03     -2.61141608E+03
     -1.69770136E+02     -1.00423635E+02      1.92434162E+02
     -7.52093743E+02      6.97996022E+01      9.89119495E+02
     -1.12908741E+03     -3.26042220E+03      9.87887160E+02
      3.68928985E+02     -1.01547481E+01      7.29551880E+01
      1.24132157E+03     -9.19621346E+02      1.92772190E+03
     -1.87988085E+03      4.33948025E+03     -3.22566491E+03
      5.75737373E+02     -1.68300774E+02      6.94365140E+02
     -1.82155057E+02      2.17651321E+02      2.20407913E+02
      3.61987427E+02     -1.99200101E+03      4.35041541E+03
      1.14166891E+03     -3.64846654E+02     -2.45293964E+03
     -2.69537135E+03     -1.88942531E+03      2.83903278E+02
     -4.14989151E+02     -5.33965302E+01      3.34818048E+02
      1.29447084E+03     -7.40407001E+02      3.54141495E+02
      6.17771318E+01      1.65479401E+02     -1.84050779E+02
     -8.69842088E+01     -5.43256686E+02     -4.49004195E+02
      1.00244211E+03     -1.90021859E+03     -4.91977356E+02
     -9.57016626E+02      1.07987256E+03     -5.99380818E+02
      4.38047483E+02      6.54224425E+02     -7.83205496E+02
      2.16786932E+03      1.76811415E+03      2.37797929E+03
     -1.01304462E+03      2.23410411E+02     -1.24560062E+03
      1.73267740E+02      6.15784528E+02      1.09390499E+03
      1.12457344E+02      8.77227654E+01     -5.12070582E+02
     -6.10930643E+00      1.83675444E+03     -2.86093606E+03
      4.23716574E+02      8.97605927E+02      6.83736097E+02
     -3.39145059E+03      1.75461681E+03     -3.13012337E+03
     -2.66962339E+02      2.03457157E+03      1.07799844E+03
     -4.19908568E+02     -3.58182417E+02      4.68969115E+02
     -2.47943830E+03     -1.67167673E+03     -2.24128128E+03
      9.00906102E+02      2.42142062E+03     -4.45949324E+01
     -6.85679550E+02      6.89109979E+02     -1.88686971E+02
     -1.61729371E+03      5.67876051E+02     -1.81835436E+03
      1.68527416E+03     -2.79992320E+02     -1.11168514E+03
      5.25606104E+02      1.51440544E+02     -3.92077943E+02
     -3.70763456E+02      8.64218204E+02      2.12019801E+02
      5.40955396E+02     -2.44922012E+03      3.41677242E+03
     -5.16556457E+02      4.54720711E+02      1.25423430E+03
      3.85532953E+03     -1.19253892E+03     -9.09414231E+02
     -1.84556825E+03      2.18795456E+03     -1.35306119E+03
      2.04164428E+03     -2.91066091E+02     -3.24400589E+03
      2.73501796E+02      6.17650840E+02     -1.62264545E+02
      1.48151865E+03      1.26010731E+03     -2.88582611E+03
     -6.54996271E+02     -1.86020756E+03     -2.58807708E+03
      7.46678720E+02      9.89923698E+02      4.16880602E+01
      6.54561252E+02     -3.03962220E+01      1.25523415E+03
      7.09831094E+02      1.61960308E+03     -1.07715715E+03
      8.84985166E+00     -7.41515203E+02     -1.06016248E+02
      5.20633613E+02      1.17002197E+03     -1.30754711E+02
      2.90446283E+03     -1.86003813E+03      1.03884959E+03
      2.94439959E+02     -1.19138052E+03     -1.21323429E+03
     -6.00515787E+02      1.30538590E+02     -1.64074623E+02
     -1.59567206E+03     -1.05158677E+03     -9.07873169E+02
     -1.02484990E+03     -6.66521429E+02     -1.42312887E+03
      1.60558607E+02     -4.43156859E+02      2.21057129E+02
      1.27531117E+03      2.11721015E+02     -5.36434312E+02
      1.15049582E+03      8.17156727E+02      1.36868431E+03
     -1.01264071E+02     -8.23183952E+02      2.58020497E+02
     -4.25487534E+02      1.84835854E+03     -8.87200111E+02
      1.17758892E+03     -1.55509591E+03      2.68572654E+02
      6.04729842E+02     -4.91664293E+02      9.56327691E+01
     -2.91389941E+02      2.06412930E+03      1.31159570E+03
     -3.66428929E+03     -1.07906661E+02      2.57592536E+03
     -1.35192593E+02      8.52931652E+02      8.14257719E+02
     -2.08131340E+02      2.22638616E+03      6.72219676E+02
     -1.11375294E+03     -4.25241880E-01      3.80555453E+02
      3.91895894E+03     -1.23956265E+04     -1.74335825E+04
     -5.82941805E+02      9.09015541E+02     -1.56641526E+01
      1.58985050E+03      1.01408224E+03     -1.16648254E+03
      3.33510037E+02      4.94769165E+02      9.50656831E+02
      1.72427842E+03     -7.90916215E+02     -4.26923030E+02
     -2.58602344E+03      1.23792279E+02      8.30573541E+02
      4.86647513E+02     -9.20075613E+02     -5.62906401E+02
     -3.21311814E+02      1.90052940E+02     -4.10549191E+02
      1.51501377E+02      1.06261689E+03      2.70164751E+02
     -4.62680883E+02     -1.18774813E+02      2.64179099E+03
     -7.30110403E+02      1.26568630E+03      5.84420684E+02
      6.29640645E+01      1.30601001E+02      4.04709359E+02
     -1.67266891E+03      1.50133831E+03      4.37461858E+02
      3.18132406E+02      7.22833961E+02     -1.51668002E+03
      7.47976096E+02      4.24225039E+02      4.37805129E+02
      2.01022658E+03      8.17963289E+02     -2.68115254E+03
      1.44792403E+03     -3.32408343E+02     -1.31342786E+03
      3.42750382E+02      4.64571203E+02      3.41372698E+02
      4.56126753E+03      2.47531446E+03     -2.23894302E+02
      7.44543669E+01     -3.98984420E+02      2.38600517E+03
     -4.17783689E+02      7.83095791E+00      2.83795540E+02
      1.68103216E+03     -1.28863448E+03     -9.32872023E+02
      1.87400942E+03     -2.79759856E+03      1.23178245E+02
     -3.51002419E+02     -3.64511144E+00     -1.11008174E+02
      2.27828233E+02     -3.36459838E+02     -1.62139615E+03
      4.58529256E+02     -9.15014839E+02     -1.30215122E+03
     -6.46011136E+02      3.78129109E+02      3.01954366E+02
      2.27610424E+03     -2.31448638E+03      1.82329400E+03
      7.57124818E+02     -4.58432134E+02     -1.81824667E+02
     -2.89823337E+02      1.72981301E+02      5.75310630E+02
     -2.90910633E+03      1.36220863E+03     -6.21255861E+02
     -1.40831246E+03     -6.04150624E+02      1.91312723E+03
      5.81282552E+02     -6.14468680E+02      3.48117364E+00
     -9.69744474E+02     -1.44217271E+03     -5.99399127E+02
     -2.80874163E+02      1.56395167E+03      1.06980950E+03
     -3.86882181E+02      5.61895437E+01     -2.98556574E+01
     -1.44892392E+03      1.52036082E+02     -1.61346416E+03
     -1.23084010E+03      1.66300805E+03      1.77614232E+02
     -4.63103097E+03     -2.30570865E+03     -5.89613725E+02
      3.02051972E+01      8.63536386E+01      4.36276791E+02
      1.44706025E+03     -1.29122996E+03     -1.52714132E+03
      2.65376929E+03     -1.08794888E+03      1.54718605E+03
      2.27030331E+02      1.92724654E+03     -1.68271546E+03
     -1.16785066E+02      3.34930752E+02     -1.00684675E+03
     -2.49713173E+03      1.14675997E+03     -6.53122704E+02
      5.84617734E+02     -6.30974578E+02     -4.45637245E+02
      1.33812934E+02     -3.13916892E+01     -4.68048263E+02
      4.80057358E+02      2.11184182E+02      5.67971084E+02
      4.95036313E+01     -1.70210431E+03     -2.21754507E+02
     -1.39254870E+02      3.13560327E+02     -6.49761905E+01
      1.15484607E+02     -3.52815405E+02     -2.84937590E+03
      1.61672381E+01      4.79183400E+02      3.82915602E+02
     -5.58873274E+02      3.89041916E+02      1.25122614E+02
     -3.38672949E+03      8.09972372E+02     -4.59992120E+01
      3.73605555E+02      8.93091587E+02      4.23497277E+02
      1.12448735E+02      7.39504123E+02      4.86732686E+02
      3.29046660E+03     -1.05857318E+03      1.66757369E+03
      8.87998555E+00     -4.04151624E+01      3.87374073E+03
     -3.78189134E+02     -4.73773528E+01     -2.06690327E+02
     -2.74975202E+03      2.24437835E+02      2.64484199E+03
      2.07105983E+03     -1.88136814E+02      8.86164322E+02
     -4.75688134E+02      7.85623227E+01     -3.28332212E+02
      1.80805522E+03      3.56390361E+03     -1.09778069E+03
      1.70445643E+03     -4.80053723E+02      9.29934859E+02
      7.95995142E+02      1.54731484E+02      2.51080830E+01
     -5.32204005E+02     -1.14747070E+03      4.74276729E+02
      7.43067992E+02      4.13509126E+00     -3.89186374E+03
      7.55605693E+01      1.45968175E+03      1.89478368E+02
     -3.31538431E+03      2.37114613E+03     -2.14195003E+03
      3.42806450E+03     -2.95752636E+03     -2.60051997E+03
     -1.19512877E+02      2.65065813E+03     -1.31570590E+03
     -1.01698402E+02      4.57359517E+02      3.55444939E+02
     -4.85299622E+02     -4.73596148E+02     -9.20295813E+02
      1.74534505E+03     -1.51681517E+03      1.15748691E+03
      1.44115345E+03      2.38443055E+02      1.19317652E+03
     -2.25061899E+02      1.38015291E+02      2.53535827E+02
     -2.39176190E+03      4.33037584E+02      1.93254038E+02
     -1.37117739E+02      3.66139330E+03     -9.46491738E+02
      1.07250077E+02     -1.00808729E+03      8.86070838E+02
      9.70903827E+02     -9.58124119E+02     -4.31318072E+01
      2.39409530E+03      1.94021051E+03      2.43002349E+03
      4.08555590E+02      3.40798603E+02      1.16644189E+03
     -2.36338978E+03      6.40623441E+01      5.87687510E+02
     -5.76314949E+02      1.86864223E+02      3.85096786E+02
     -5.46703034E+02     -2.46321307E+02      1.60277662E+02
     -4.19197450E+02      1.57824336E+03      3.08376078E+03
     -8.34457700E+02      1.75768012E+03      1.32632628E+03
     -1.23939668E+01      2.42634205E+01      5.45486676E+02
     -3.91160451E+03      1.24471468E+03     -3.85895999E+02
     -3.62998240E+03     -1.21012339E+03      9.97441666E+01
     -3.10508352E+02      5.55736647E+02      2.76226713E+02
     -1.52899535E+03     -3.52447279E+03     -6.49914655E+01
      1.65627150E+03      1.93857853E+03     -9.25745232E+02
     -7.17938632E+02     -1.66325410E+02      5.84210309E+02
     -7.21337547E+02     -1.18243122E+02      5.00995634E+02
      2.30990579E+02      7.51389030E+02      2.91849792E+03
     -6.64762291E+02     -3.57581029E+02     -2.45676529E+02
     -1.55489978E+03     -1.61962107E+03      1.40017775E+03
     -1.34227323E+03      2.53612215E+03      2.79492404E+03
      2.34379547E+02     -1.02890058E+02     -1.74572317E+02
      6.29571087E+02      7.25111719E+02      1.68561466E+03
      3.06393772E+03     -6.13771680E+02      8.39129793E+02
     -1.35332444E+03     -7.98325964E+02      7.00988929E+02
     -5.32101428E+00      1.75367418E+02      1.00988153E+02
      1.01546026E+03     -2.29000175E+01     -1.40996983E+03
      3.72500024E+03     -2.16439018E+03      1.69965235E+03
     -1.91711451E+02     -3.46900358E+00      1.28645718E+03
     -1.33631154E+02      5.41756844E+02      4.16336656E+01
      1.27453274E+03      1.01210532E+03     -7.56947822E+02
      8.70093501E+02     -1.88826154E+03     -1.57792458E+03
      1.83828046E+02     -3.67802885E+02      9.09634310E+01
      6.38436276E+02      1.24244464E+03      1.75279399E+03
      1.47382212E+03      9.07609043E+02      8.89284758E+02
      9.79996699E+01      2.27616358E+02      5.40511383E+01
     -5.98131551E+02     -1.04322796E+03     -2.43311642E+03
     -1.48850268E+03      2.21317987E+03     -1.31179486E+03
      1.53449953E+02     -1.11285312E+02      2.28547092E+02
     -1.00246521E+03      1.98579012E+03     -2.04295969E+01
      1.42489254E+03     -3.02243705E+03      1.36197245E+02
      1.41819060E+02      5.41903752E+01     -5.15667191E+02
      1.39368931E+02      5.02133554E+02     -6.83791196E+02
      1.64839846E+03     -1.05256723E+03     -2.42725320E+02
     -1.52478966E+02     -7.99516763E+01      6.74361476E+02
     -6.23101289E+02      2.12989998E+03      1.79243740E+03
      1.56382634E+02     -4.79509518E+02      3.12996504E+02
      1.46184692E+02     -5.13978303E+02     -5.68419727E+00
      2.81049347E+02     -8.77265643E+02      2.05780668E+02
     -1.99740750E+03      1.06229100E+03     -1.25964231E+03
      1.44822098E+02      1.58916559E+02      6.42770413E+02
      1.32673663E+03     -6.15579696E+01     -1.86183693E+03
     -2.86608118E+03     -2.43564529E+03      3.82514114E+03
      2.20104359E+02     -5.49187936E+02      3.26610367E+02
     -8.38334561E+02     -1.42823641E+03     -1.69687531E+03
     -3.16141420E+03     -3.04744366E+01     -2.39232268E+03
     -1.09852444E+03     -1.74438962E+03     -3.45053836E+02
     -1.11999384E+02     -5.60457881E+02      1.06162698E+03
     -2.31994425E+02      9.62628830E+02     -1.09568851E+03
     -3.11756116E+03     -2.44596520E+03      2.75552674E+03
      3.75000269E+02     -7.78313817E+02      1.59901637E+03
  }
}

Hamiltonian = DFTB {
  SCC = Yes
  SCCTolerance = 1e-6
  MaxSCCIterations = 200
  ForceEvaluation = Dynamics
  MaxAngularMomentum = {
    C = "p"
    H = "s"
  }
  Charge = 0.0
  SpinPolarisation = {}
  Eigensolver = Standard {}
  Filling = Fermi {
    Temperature [Kelvin] = 300.0
  }
  SlaterKosterFiles = Type2FileNames {
    Prefix = "../../pbc-0-3/"
    Separator = "-"
    Suffix = ".skf"
    LowerCaseTypeName = No
  }
  KPointsAndWeights = {
    0.0000000000000 0.0000000000000 0.0000000000000 1.00000000000000
  }
  Dispersion = LennardJones { 
    Parameters = UFFParameters {}
  }
}

ParserOptions = {
  ParserVersion = 3
}
