Geometry = GenFormat {
<<< "system.gen"
}

Driver = VelocityVerlet{
  Steps = 100000
  TimeStep [fs] = 0.2
  MDRestartFrequency = 5
  Thermostat = None {
    #InitialTemperature [Kelvin] = 300.0
  }
  Xlbomd{ 
    IntegrationSteps = 6 
    MinSccIterations = 2
    MaxSccIterations = 200
    SccTolerance = 1e-6 
  }
  Velocities [m/s] {
      1.19693266E+03      1.14396955E+02      5.45250242E+02
     -2.58341704E+03      1.73836433E+02      9.05712891E+02
     -1.17724532E+03     -1.32247177E+03     -2.29621729E+03
     -5.39935465E+02     -5.49619637E+02      2.23181130E+01
      7.72498609E+02     -1.25347322E+03     -1.80534409E+03
     -9.46198128E+02      1.38225692E+03     -1.39806337E+03
      4.98371315E+02      1.12685324E+02      5.22437607E+02
      2.93594578E+03      2.17907213E+02     -1.31252570E+03
     -7.00689566E+02      2.41588567E+03      1.85218069E+03
     -1.02910057E+02     -1.26105352E+03      5.51686589E+02
      4.28364055E+02      1.13704658E+03      2.60046735E+01
      2.91221657E+03     -3.71610256E+02      5.66021409E+01
     -1.26602117E+03      2.73149080E+02      1.89289161E+02
      9.23514025E+02      1.33272376E+03      4.55311434E+03
     -1.05888342E+03     -5.98750268E+02     -2.45183607E+03
      1.01561340E+02     -5.44052780E+02      4.61521802E+02
      3.12246952E+02      2.57576771E+03      3.03088921E+03
     -1.35236164E+03     -3.30981499E+02      2.02477648E+03
      7.97903810E+02      3.66168059E+02     -1.60804913E+01
      2.41132422E+03      1.32996770E+03      1.08250346E+02
     -3.10776082E+01     -3.79010407E+02      1.15975009E+03
     -3.80296372E+01     -9.67025243E+02      6.65678470E+01
      5.17319754E+02      6.36082306E+02      9.05690636E+02
     -1.51979222E+02      1.51201515E+03      9.26539416E+02
      8.95452500E+02     -8.05489607E+02      1.95715375E+02
     -3.07911444E+02      8.99647162E+02     -2.23073014E+02
      1.31614731E+03     -3.83356308E+02      2.15231412E+03
      2.31724838E+03     -4.89039054E+02     -3.14393152E+02
      9.25317929E+01      7.67016193E+01     -9.88889114E+02
      1.23407261E+03     -5.38547667E+02     -8.13182325E+02
      9.10044177E+02     -7.10822203E+02     -1.93671900E+02
     -1.31325072E+03     -1.83602835E+03      8.29929937E+02
      4.39541373E+02     -1.07478339E+02      2.04355322E+02
     -4.14986752E+02     -1.13995975E+03      9.26197719E+02
      5.71755814E+02     -4.10918412E+02     -3.05909434E+03
      2.26839067E+02     -2.51138993E+02     -2.78853047E+02
     -1.66847092E+03     -1.68935474E+03      8.83628202E+01
      2.89305159E+03      1.58742020E+03     -2.52443231E+03
     -2.02379911E+04      7.12999468E+03     -1.81662125E+04
      1.44102915E+02     -5.56133759E+02      4.02716504E+02
     -1.28764213E+03     -2.21674043E+03     -1.28282407E+03
      3.65687828E+02      3.87371679E+02      9.27695475E+02
     -9.57866648E+02      6.84701104E+02     -4.83336235E+02
      2.99088910E+03     -5.56139607E+02     -5.51997423E+02
      2.62177569E+02     -5.10767372E+02      1.45315444E+02
     -9.90764423E+02     -9.42076240E+02      3.81718710E+02
     -4.45898456E+03      1.76846558E+02     -9.18557668E+02
      1.76176198E+02      5.64678185E+02     -3.97160293E+02
     -2.45706263E+02     -3.56292836E+02      2.27578251E+03
     -8.56817196E+02     -3.02252455E+03      1.48896746E+03
      8.77109141E+02     -3.67553616E+02     -4.91072359E+02
      9.28631187E+02      9.90436406E+01     -3.83639146E+02
     -2.37067523E+03      6.72895211E+02      1.38832333E+03
      4.65416610E+02     -7.00340942E+02      5.65995869E+02
     -2.15998549E+03     -2.13610521E+03      9.01916737E+02
      4.53568750E+02      6.96346791E+02      1.24431360E+03
     -3.97884151E+02     -6.42851677E+02     -1.69598190E+02
     -2.87253602E+03      3.36907310E+03      2.82301099E+03
      9.55843903E+02      8.94483459E+02      7.17581338E+02
     -7.21302000E+02     -4.94653017E+02     -8.21078050E+02
     -4.01850500E+02      5.82197989E+01     -4.42074392E+02
     -1.41946549E+03     -3.91057826E+02     -5.78104368E+01
      4.84186653E+02     -4.90169487E+02      6.56162378E+02
     -3.38693741E+02      1.43518985E+03     -7.08025496E+02
     -1.70449671E+02      3.24511748E+02     -2.10263530E+02
     -1.31146383E+02      1.11517725E+03     -1.64049537E+03
     -3.39899190E+02     -2.19168627E+03      1.87380671E+03
     -2.87879928E+01     -5.95253998E+01     -8.32963787E+01
     -8.39860471E+02     -8.04032797E+02      5.93274530E+02
      2.11749826E+02      4.77857707E+02      1.32952133E+02
     -5.99100318E+01      3.86103515E+02      5.63213504E+02
      1.90663383E+03     -2.41689955E+02      1.92755327E+03
      1.93066148E+03     -2.17386140E+03     -1.28174102E+02
      1.63799549E+02      5.68675885E+01      4.29988564E+02
     -5.23834595E+02     -1.10188146E+03      6.60108425E+00
      1.54258098E+03     -1.15330404E+02     -1.42138689E+03
      1.31799438E+02      1.54166174E+02      1.73295641E+02
     -6.69798027E+02     -8.87465707E+02      1.42830744E+03
      2.42870649E+03      1.38025998E+03      3.17764175E+03
     -4.25046625E+02      6.43031843E+02     -9.30225036E+02
      8.88254354E+02      1.58397254E+03     -1.43576448E+03
     -5.47779963E+02     -2.85409930E+02     -2.49789484E+03
      8.46359411E+02      1.76156269E+02      3.65987343E+02
     -1.10227472E+03     -3.92927181E+02      8.61702267E+02
     -1.51657286E+03     -7.39907691E+02     -1.86896468E+03
     -6.18289314E+02     -1.53216729E+02      1.63222710E+01
     -1.87285315E+02     -1.67895462E+02     -7.08922888E+02
      7.20471416E+02      1.30819156E+02     -3.50262523E+02
      4.69019655E+02      1.21969939E+02      4.55204485E+02
     -1.59662672E+03     -1.01276599E+03      2.25087478E+03
      2.04232014E+02     -1.39580980E+00     -3.08930403E+02
      1.17457058E+03      8.99615336E+02     -1.67371940E+03
      7.92122347E+02     -2.77955878E+02      7.82091373E+02
      7.30507560E+02      1.30364448E+03      4.69723280E+03
      4.78340097E+02     -2.80163488E+02     -2.34586081E+02
      4.24442687E+01      2.02522120E+02     -1.36590291E+03
      3.88132748E+02     -4.95008052E+02     -1.97341472E+02
      1.13974403E+02     -3.82876020E+02      1.42567965E+03
     -1.13710117E+03      1.14227613E+03     -1.18087605E+03
     -3.60046971E+02      4.98503283E+02      4.14675341E+02
      1.27622644E+03      4.58058697E+02      2.04539943E+01
      6.84550067E+02      2.58673323E+03      5.24334881E+02
      7.65961217E+02      7.69311753E+01     -3.59915096E+02
      2.07869432E+03      4.61758845E+02     -5.88128362E+02
     -1.28996504E+03     -1.25590877E+03      3.44905493E+03
      1.47617301E+02      4.64317455E+02     -6.48280590E+02
     -1.09048208E+03      4.88328672E+02      1.06115503E+03
      3.07547762E+03      6.13981225E+02     -5.98876466E+01
     -8.40975155E+01     -7.78945658E+02      1.12465139E+02
     -2.07567081E+02     -8.11204260E+02     -4.30900618E+01
     -1.10709958E+03     -9.28600141E+02      3.75284432E+03
      2.28709189E+02     -5.30008603E+02      1.21909882E+02
      1.48555525E+03     -3.23103242E+02     -6.36097543E+02
      3.40868009E+03     -3.14627047E+03     -1.64917721E+02
      3.29669092E+02      5.25791050E+02     -4.49065643E+02
      8.34497414E+02      1.95592326E+03     -1.33820505E+03
     -1.77406459E+03     -1.49905605E+03      2.79714223E+03
      2.24285427E+02     -3.20467818E+02      7.53221726E+01
     -1.56329612E+03     -9.30203380E+02      4.38022815E+03
      1.59218653E+03      1.53740418E+03      1.57772275E+03
     -8.29464744E+02      1.40784064E+02      6.59918609E+01
     -7.72883202E+02     -2.29430979E+03      1.74752667E+03
      2.89384845E+03      1.38170899E+03      7.90474147E+02
     -2.35517049E+02      1.23592435E+03      3.48872766E+02
     -3.32098702E+02     -7.14721467E+02      1.06878689E+03
      1.35386486E+03      1.86326389E+03      4.48113126E+02
     -7.84507884E+02      1.24272521E+02      2.88525296E+03
     -3.66554638E+02      2.26101317E+03     -1.31974708E+03
      2.81332571E+02      2.93276055E+02      3.49690281E+02
      9.74210283E+02      2.02759594E+03     -2.80729023E+03
     -9.88415295E+02      9.55725366E+01      2.62358087E+02
     -2.16166235E+02     -9.27134735E+02      5.82538280E+02
     -2.04435942E+03      4.96851932E+02      1.00528039E+03
     -6.33429137E+01     -3.84620230E+03      7.62457941E+02
     -3.48905954E+01      5.53092081E+02      5.41668519E+02
      1.39157825E+03     -1.05350776E+03      5.04831120E+02
     -2.51141739E+02      7.35155396E+02     -2.56457248E+03
      6.03086318E+02     -4.39263630E+02     -1.52479694E+02
      1.13372946E+03      1.73565712E+03     -4.88159500E+02
     -1.06771513E+03      4.42822754E+02      1.46787267E+03
     -8.55982326E+02     -6.05076677E+02      3.20036777E+02
      4.76278058E+02     -5.69106045E+01     -3.34165228E+02
      6.44870065E+01     -1.35402410E+03     -1.69439050E+03
      2.57092582E+02     -4.10317620E+02     -1.56111728E+02
      9.63419143E+02      2.22052556E+03     -4.56585741E+02
     -3.08432483E+02      1.25903674E+03      1.48241194E+03
     -4.83532014E+02     -8.64455575E+01      6.99626620E+01
     -1.54838099E+03      1.38176557E+03      6.06599568E+02
      9.26094976E+02     -9.39327578E+02     -3.72554824E+02
      4.20316370E+02     -3.50211607E+02      1.02717745E+02
      1.30475478E+02     -1.38574624E+03     -1.06926978E+03
      9.92619990E+02     -1.90874861E+03      1.08552198E+03
      9.01053619E+02     -4.90240387E+00     -6.32212275E+01
      1.01054179E+03     -1.12152838E+03     -8.09228015E+02
      9.60616092E+02      3.75817139E+02      2.10399341E+02
      1.20754505E+03      1.10738983E+03      6.36665351E+01
     -6.84015717E+01      6.65201912E+01     -1.08048850E+02
     -2.98477330E+02     -8.57722653E+02     -2.55850642E+02
     -2.55936248E+03     -1.36461302E+03      1.06223351E+03
      2.52832939E+03     -2.92792912E+03     -1.10363868E+03
      7.49640544E+02      8.92415663E+01      1.25513561E+03
      1.40153269E+03     -5.09636371E+02     -2.48210656E+03
     -2.45948280E+02     -1.53988036E+03      8.15321389E+02
      7.99225610E+02     -2.90047365E+02     -9.62630727E+01
      3.53074762E+03      1.59346530E+03      8.31056298E+02
     -2.30382833E+03      8.41240065E+02      1.13825234E+03
      2.94044092E+02     -1.70548598E+02      3.11314593E+02
      2.22040486E+01      1.05198885E+03      1.21969239E+03
      1.93733481E+03     -1.73255884E+03     -9.56727765E+02
     -2.19700720E+02      3.07132738E+02     -4.77858347E+02
      5.64052109E+01     -7.21267670E+02     -2.24157044E+03
     -5.02678672E+02     -3.94862128E+02      1.10454230E+03
     -3.19444606E+02     -2.79690512E+02      1.95803870E+02
      2.43549201E+02     -3.25383101E+03     -4.14434193E+03
      8.00193687E+02     -3.11265882E+02      4.48492785E+01
     -4.93401859E+02     -2.15399615E+02      5.31382138E+02
      2.19104903E+03     -1.17540651E+03     -9.35142858E+02
     -1.72711941E+03     -2.35828385E+03      5.56980004E+02
     -7.15239370E+01      4.33644066E+02      9.44011390E+02
      8.14233110E+02      1.71346154E+03      4.22451211E+03
      1.58170820E+03     -2.29324543E+03      2.50089145E+02
      2.79583398E+02     -4.62079352E+02     -8.24192963E+02
     -6.07416825E+02      1.11352567E+03      1.41074910E+03
     -1.62130244E+03      1.29888477E+03     -9.66605399E+02
      3.62449235E+01     -1.53132271E+02      8.68899614E+02
      1.24977293E+03     -2.02527220E+03     -1.10798515E+03
      2.49811537E+03      1.34246433E+03     -2.06382976E+03
      1.98224707E+03      1.74365192E+03     -4.86041460E+02
     -3.63216644E+02     -6.94109676E+02      1.07969426E+03
      3.47610378E+03     -2.27101454E+03      1.53906324E+03
     -9.15346657E+02     -5.32370656E+02      4.77584905E+02
     -8.07602888E+02      3.19590586E+02      3.76372950E+02
     -1.43720365E+02     -1.63877217E+02      6.88978646E+02
      2.70851231E+03      6.33489365E+02     -4.15205371E+03
     -3.28535081E+03     -5.23847107E+02      1.59381820E+02
      5.84351533E+02      5.65634276E+02     -8.14265204E+01
      3.45196084E+02      2.19722438E+03      1.30060626E+03
      4.14739008E+02     -2.50241382E+03     -2.77583130E+02
      1.00768452E+03      1.03781830E+02     -8.30901009E+01
      6.59026244E+02      1.15130593E+03      6.44917660E+02
      7.07380790E+02      7.34727728E+02      4.31059418E+02
     -3.52472726E+02     -2.16113510E+02      9.70888630E+01
      3.48458862E+03     -1.09967103E+03     -1.12861223E+03
     -1.50687022E+03      6.58301418E+02     -7.71940798E+01
     -5.21624983E+01      2.28210580E+02      8.76892452E+02
     -4.70655117E+02      2.21774609E+02     -2.13730359E+03
      2.64367060E+01     -1.46456250E+03     -1.58993347E+02
      1.42187938E+02      2.23777714E+00      5.37099021E+02
      4.39996782E+02      7.54683564E+02     -4.63821716E+02
      1.54094050E+03      3.78658515E+03     -9.91473293E+02
      8.43411450E+02      3.43632934E+02      5.00349684E+02
      2.08447694E+03      1.42749659E+03     -1.01716001E+03
     -2.82799534E+03      6.53414116E+01      3.18585469E+02
     -4.50526208E+02     -1.36073106E+02     -4.76716030E+02
     -3.24027473E+02      2.58589419E+03     -2.18069791E+02
      7.65547646E+02      1.11359095E+03      8.22612363E+02
     -4.76927687E+02     -3.37973275E+02      1.63580766E+02
     -2.40154554E+03      8.67993501E+02     -1.42640464E+03
      9.87007747E+02     -9.32808657E+01      1.62001643E+03
     -4.63236435E+02     -6.98042409E+02      2.52505537E+02
      3.82459816E+02     -3.22636792E+02     -3.45018742E+02
      1.91916344E+03     -6.50866928E+02      1.49854314E+03
     -2.88634663E+03      4.27804861E+02     -4.21126202E+01
     -1.66163603E+03     -8.38697327E+02      3.08602250E+02
     -5.11872589E+01     -2.36818600E+02      6.85176049E+02
     -1.63029661E+03     -3.10539546E+02     -2.91923988E+03
     -6.06238287E+00      1.09500177E+03     -1.00201016E+03
      3.69135191E+02      6.79256880E+02      7.78439878E+02
     -8.99336873E+02     -1.18640327E+03     -1.46149184E+03
      4.09443647E+02      2.06305555E+03     -3.35661741E+03
      5.87259360E+01      7.81086439E+02     -7.29151881E+01
     -1.12833949E+03      3.06253310E+03      4.93222950E+02
      1.50611860E+02     -3.01056410E+02     -9.99605925E+02
      7.97947928E+02      3.11236820E+02      1.35841803E+00
      6.90908577E+02      3.46459572E+02     -1.47896220E+03
      3.75521298E+03      5.96899479E+01      8.64705632E+02
      6.19285837E+02     -8.34703794E+02      6.30796691E+02
      2.29441239E+03     -1.78302523E+02     -2.80857781E+03
      4.31483801E+02      1.11503855E+03     -1.01125783E+03
     -2.42873789E+01     -1.79059325E+02     -1.10372213E+03
     -2.79405420E+00     -1.66116412E+03      2.59989333E+03
     -9.57560158E+01      7.76273776E+02      1.62976665E+03
     -1.45779354E+01     -7.27164389E+02     -4.19148276E+02
      1.21176296E+03     -4.36835428E+02     -2.03977010E+03
     -1.24813710E+03     -3.21792695E+03     -1.67549662E+03
     -1.11114327E+01     -5.83930064E+02      6.25004413E+02
      4.74825368E+02     -1.12732392E+03     -9.84009434E+02
     -6.84762987E+02     -8.69258973E+02      1.47855252E+03
     -5.30806302E+01      6.45144513E+02      5.41435253E+02
      2.39447869E+03      5.86924971E+02      1.82332247E+03
     -1.18042270E+03     -3.20455054E+03     -2.77509503E+03
     -6.56939825E+02     -1.12341076E+02      2.54855765E+01
      4.74605531E+02      1.59775250E+02      2.98407974E+02
     -2.44128916E+03     -7.21544931E+02     -1.89781127E+03
      2.97980261E+02     -6.51082735E+02     -6.01870541E+02
      2.36428610E+03      1.44632773E+03      8.58173218E+02
      3.95750169E+02     -1.83611338E+03      7.16364802E+02
     -3.49010820E+03      1.80054776E+03      3.70871050E+02
      1.24926427E+03     -6.27249502E+02      1.43098449E+03
     -1.09999411E+02     -5.16452969E+02      1.14409294E+02
     -9.12552082E+02     -2.05534961E+03     -7.33519680E+02
      8.89891812E+02     -1.55375639E+02      5.95884864E+02
      2.17030318E+02      4.82413902E+02      4.79605599E+02
     -7.45642239E+02     -1.98322476E+03      7.61307010E+02
     -4.16002144E+01      8.50176379E+00      1.59589377E+03
      7.51021367E+02      6.04913611E+02      1.14261557E+02
      1.89041567E+03      6.58154501E+02      9.80732703E+02
     -2.27374311E+03      1.06337899E+03      1.03787806E+03
     -3.74796664E+02      1.59624116E+02      1.71984933E+02
      4.57525699E+02      1.91320601E+03     -5.22539091E+02
      5.85056433E+01      5.18096292E+02      9.84377816E+02
      9.27153384E+02      5.76389124E+02      7.26290652E+02
      4.83628635E+02      3.62462063E+03      1.24960183E+03
     -1.31859406E+03     -2.67245833E+03      2.59042309E+02
      3.41034278E+02     -2.62202840E+02      5.17076697E+02
     -9.94546247E+02      2.23080747E+03     -4.62853023E+02
     -5.95099555E+02     -1.37588237E+03      1.38998649E+02
      5.46303134E+01      3.40310743E+02      1.15191827E+03
     -2.30967385E+03      2.04594286E+03      1.58504132E+03
     -1.10093185E+03      2.31317329E+03     -7.40198377E+02
      8.87247486E+01     -4.39968218E+01      2.21404603E+02
     -3.20941397E+02     -2.24343784E+03     -7.74980166E+02
      1.25104317E+03      1.38554410E+03     -3.48920947E+02
     -7.90909443E+02      5.24738203E+02      1.47253418E+02
      1.63548883E+02     -9.55279512E+02      4.84681782E+02
     -8.39578315E+02      1.02844430E+03     -3.08796914E+03
     -9.02986753E+02      5.31215097E+02     -1.75938271E+03
     -9.42279501E+02      1.00369975E+03     -2.38134203E+03
      8.82142241E+02      4.47403898E+02     -3.43492923E+02
     -1.01403376E+03      1.73417072E+03      1.84681210E+03
     -2.02548188E+03      8.52871543E+01      3.29629550E+02
      1.10260888E+03     -5.00874788E+02     -4.05962785E+02
      1.45924887E+03     -1.92071029E+03      1.30414972E+03
     -1.45737823E+03      2.00292413E+03      6.86014444E+02
      5.94862408E+02      7.41789549E+02     -3.39827486E+02
      2.90199944E+03      2.22335608E+03      2.67826816E+03
      4.96423746E+02     -6.77827864E+02      1.93690038E+03
      3.09226412E+02     -5.47567222E+02      8.29145926E+02
      2.94676372E+03     -1.72429099E+03     -1.06730540E+03
     -5.56090200E+02     -7.20797485E+02      2.69550401E+03
      2.89601208E+02     -2.86241394E+02      2.28636739E+02
     -1.91688526E+03     -3.23372455E+02     -1.86116799E+03
     -6.38905345E+02      2.02376238E+02     -1.80780524E+03
     -3.96232595E+01      1.52404435E+02     -6.03902968E+02
     -1.15188845E+03      1.68208043E+03      1.06633310E+03
     -5.19360006E+02      3.16586835E+03     -9.28598597E+02
     -6.87722198E+01     -1.34423554E+02      2.47646157E+02
      4.09149975E+02     -1.47821465E+03     -3.46257419E+03
     -1.42975803E+03     -1.03707643E+03      2.24960256E+03
     -1.06464379E+03      3.69457591E+02      6.20526800E+01
     -1.31710655E+03      1.38805940E+03     -1.62066943E+03
      4.22317033E+02      3.18482939E+03      2.67284896E+03
      3.29501282E+02      1.94829509E+02      6.55385807E+02
      1.36709118E+03      1.05967068E+03      5.56074235E+02
      2.40140146E+03      3.38244035E+02      2.17041356E+03
     -2.19202060E+03     -1.36593029E+03      2.50040573E+03
      5.34206557E+01      1.92746681E+02     -1.12945524E+01
      1.99829848E+03      8.81743895E+02      1.29891420E+03
     -2.67740859E+02     -4.50252193E+02     -4.47788791E+02
      8.94333525E+02     -2.52701551E+02      5.28832531E+02
      5.38332635E+02      9.71019665E+02     -4.52182134E+02
      2.42647104E+03      6.12868662E+02      2.99960744E+03
      5.52994587E+02      9.00827564E+02     -2.45249625E+03
      9.58201326E+02     -2.55713313E+02      4.25595468E+01
      4.73645163E+02     -2.97067109E+03     -6.90086237E+02
     -3.26185451E+02      5.32842119E+02     -1.29456859E+03
     -3.70144182E+02      4.56823411E+01     -5.43402484E+02
     -8.74512534E+02     -5.95954019E+02      2.90383262E+03
      2.54216975E+03      2.55845462E+03     -6.92931151E+02
      5.65244674E+02     -5.25812492E+01     -5.86515587E+02
     -1.19794502E+03      3.65851189E+02     -6.71204204E+02
      1.60386308E+02      3.24411013E+01      7.92797015E+02
      6.52084050E+02      5.80887947E+02     -2.19233188E+02
     -2.72261385E+03      2.15899215E+01     -9.98982959E+01
      8.92867861E+02      2.33970913E+03      2.63411634E+03
      5.26996021E+01     -3.67931444E+02      1.48216143E+02
      1.21236760E+03     -1.72049483E+02     -3.62288634E+02
     -3.83393406E+02     -1.48824220E+03      2.21087554E+03
     -3.05866651E+02     -3.90144696E+02     -1.75659930E+02
      2.13048335E+03     -2.44723262E+02      2.37672162E+02
     -2.82311662E+03     -4.35767427E+01     -8.89419676E+02
      4.69546286E+02     -4.14076412E+02     -2.62409945E+01
      3.55153070E+02     -9.77262448E+02      7.87124934E+02
     -1.51135570E+01      5.76174607E+02     -2.02252394E+03
      4.66991470E+02      1.06252080E+02      3.62812418E+02
     -7.18415186E+02      2.09917541E+02      1.58268494E+03
     -1.18406265E+02      5.84846960E+02      9.33032569E+02
     -1.74487023E+03     -1.25564085E+03      1.63706038E+03
      1.99645551E+02      1.94122065E+01     -2.94757890E+02
      3.20026665E+01      2.95016121E+03     -1.54888571E+02
     -1.03172131E+03     -1.26485151E+03      1.50047143E+03
      2.32204983E+03      2.71248281E+02     -2.60134427E+03
  }
}

Hamiltonian = DFTB {
  SCC = Yes
  SCCTolerance = 1e-6
  MaxSCCIterations = 200
  ForceEvaluation = Dynamics
  MaxAngularMomentum = {
    C = "p"
    H = "s"
  }
  Charge = 0.0
  SpinPolarisation = {}
  Eigensolver = Standard {}
  Filling = Fermi {
    Temperature [Kelvin] = 300.0
  }
  SlaterKosterFiles = Type2FileNames {
    Prefix = "../../pbc-0-3/"
    Separator = "-"
    Suffix = ".skf"
    LowerCaseTypeName = No
  }
  KPointsAndWeights = {
    0.0000000000000 0.0000000000000 0.0000000000000 1.00000000000000
  }
  Dispersion = LennardJones { 
    Parameters = UFFParameters {}
  }
}

ParserOptions = {
  ParserVersion = 3
}
