Geometry = GenFormat {
<<< "system.gen"
}

Driver = VelocityVerlet{
  Steps = 100000
  TimeStep [fs] = 0.2
  MDRestartFrequency = 5
  Thermostat = None {
    #InitialTemperature [Kelvin] = 300.0
  }
  Xlbomd{ 
    IntegrationSteps = 6 
    MinSccIterations = 2
    MaxSccIterations = 200
    SccTolerance = 1e-6 
  }
  Velocities [m/s] {
     -2.14475796E+02     -3.26207004E+02     -2.87269828E+01
     -1.18457687E+03     -2.04653346E+03      1.32726804E+03
      1.88337624E+02     -1.79124551E+03     -3.11665585E+02
      9.14744737E+02     -4.13635565E+02      3.52709557E+02
      1.66336743E+03      2.22451522E+02      5.34012556E+02
     -1.99338994E+03     -4.18760377E+02     -1.87206632E+03
     -3.42999434E+02      4.60143148E+02     -1.17662394E+03
     -5.62410141E+02     -2.98469476E+02     -2.68937052E+03
     -8.63986982E+02     -2.18557797E+03      1.23239607E+03
     -2.52067928E+02      4.18837615E+02     -5.48430270E+02
     -3.06195079E+03      2.96882693E+03      3.29564622E+03
      6.32232381E+02      1.43582854E+02     -3.19036287E+03
     -4.44074789E+02     -9.02920929E+01      5.86045567E+02
     -1.56590823E+03      2.15498817E+03     -1.38532008E+03
      2.04012020E+03     -1.13039841E+03      3.81350325E+01
     -5.72946933E+02     -3.91852527E+02      3.61652276E+02
      9.68840169E+02      2.36071930E+02      2.23987275E+02
     -1.63935218E+03      2.44833628E+03      3.02885012E+03
      4.99634893E+01      4.86706664E+01     -1.84264405E+02
     -9.64474021E+02     -5.68098979E+02      1.50423142E+01
     -1.90753235E+03     -3.08959613E+03      1.00038594E+03
     -1.72770087E+02      7.11703184E+01      7.99826398E+02
      4.28865023E+02      2.04705525E+03     -2.34843739E+03
     -2.81754316E+02      1.99304485E+03      2.07817703E+03
     -2.31646767E+02      5.94891712E+01      4.37201292E+01
      2.14614408E+03      6.97446687E+02      1.04789938E+03
      5.71520417E+02      2.84752578E+02      3.16714036E+01
      2.18906278E+03     -3.36795123E+03     -3.81021178E+02
     -1.44644550E+02     -7.50390057E+01      9.11963361E+01
      1.71689782E+03     -5.31126356E+02      3.35886821E+03
     -3.82822549E+02      1.99500490E+03     -1.19330629E+03
      2.72586372E+03      9.38673853E+02      3.06606289E+03
     -3.70243695E+02      1.77370564E+02      1.17478440E+03
     -2.04308039E+03      5.84766845E+03     -3.17808784E+03
      1.13434219E+02      2.33848050E+02     -1.96042544E+03
     -8.18481458E+02      5.33566836E+01      3.22071126E+02
     -4.97287952E+03     -2.37250989E+01     -9.75638541E+02
      2.34308093E+03     -2.67895703E+03      3.47556586E+03
      6.34538733E+02      1.92879405E+02      9.70691743E+01
      9.63056851E+02      1.11499245E+02     -3.59988411E+03
      1.62976408E+03      1.10290391E+03     -8.86190437E+02
      6.15278853E+01      1.16015366E+03      3.71185241E+02
     -1.04615666E+03     -1.66370257E+03      1.67081867E+03
     -5.32398607E+02     -1.69522582E+03     -2.20881354E+03
      2.91859793E+02      1.84408802E+02     -4.31616258E+01
     -1.82825907E+03      2.06800508E+03      8.17982179E+01
      5.67434798E+02     -2.66035405E+03      4.92933285E+02
      2.46534954E+02     -9.80831635E+01     -3.30088521E+02
     -2.92959410E+03     -3.46980270E+03      1.70442425E+03
      5.69899621E+02     -4.04502223E+02      4.21707005E+02
     -4.31429850E+02     -1.99017795E+02      1.02266905E+02
     -1.08242400E+03     -3.27440543E+02      9.15441505E+02
     -6.78052885E+02      7.95475717E+02      2.83283162E+03
     -1.24122371E+02      5.32069729E+00      3.37132930E+02
     -1.78787111E+02      5.73203321E+02     -1.35680880E+03
      4.28799391E+02     -3.44139264E+02      1.27495008E+02
     -6.17390096E+02     -2.14068258E+02     -5.88018845E+02
     -3.23501802E+03     -1.87573421E+03      1.93589527E+03
     -2.71098992E+03      8.08232271E+02      3.47646143E+02
     -6.15915530E+02     -3.25444862E+02     -1.21106223E+03
     -4.96868265E+01      3.60817224E+02      3.21865254E+02
      1.25123745E+02      2.93131916E+02     -1.72466495E+02
      5.41112146E+02      2.45763586E+03     -3.95824641E+02
      6.15569867E+01      2.13288223E+03      1.84792895E+02
      2.23044210E+04     -1.41081907E+04     -9.64430458E+03
     -1.46895348E+03     -3.04358059E+03      2.85508045E+03
      2.44557496E+03     -8.73354511E+02     -2.93416013E+01
     -3.27471875E+02      4.60694881E+02      1.15969669E+02
     -3.41526134E+02      1.32527638E+03      1.18085278E+03
     -3.22941703E+02      1.33324049E+03      1.47945076E+03
     -7.38966582E+02      7.63016450E+02      9.94849090E+02
     -6.30815493E+02      9.15611100E+02      8.75967745E+02
     -3.53898474E+02      1.51686069E+02      7.80974681E+02
     -5.27690832E+02      8.09481749E+02     -5.69884646E+02
      1.73320119E+03      2.28909408E+03      1.81761322E+03
     -6.94570803E+02      1.33312327E+03     -1.40440698E+02
     -1.73254951E+02      5.24121194E+02      4.14344936E+02
     -3.20583306E+03     -1.26161558E+03     -1.19453252E+03
     -1.89990731E+03     -2.69184434E+02     -1.37171491E+03
      3.37140251E+02     -4.67353150E+02     -4.72348237E+02
      1.46739102E+03     -1.60206394E+03     -5.92178225E+01
     -7.17300530E+02      2.74201181E+03      1.97069696E+02
     -4.74561787E+02     -7.25744143E+02      2.21861457E+02
     -1.42440841E+03      1.35038065E+03     -2.22757345E+03
      2.22246964E+03     -7.64573363E+01      1.24944316E+03
     -6.15191188E+02     -1.04351331E+01      3.35656753E+02
     -2.11283413E+02     -1.24867036E+03     -1.05553272E+02
      3.21040543E+03      2.95851136E+03      1.59651057E+03
      1.02717697E+02      1.06787435E+03      5.80744294E+02
     -6.24340061E+02      3.93964751E+02     -1.25788127E+03
     -2.49942593E+02     -3.51311527E+01     -1.21830641E+03
      1.69122344E+02      2.16205814E+03      1.29900218E+02
      6.21094426E+01      1.57173277E+02      3.31103108E+02
      3.26849382E+03      1.49337915E+03     -2.12066039E+03
     -2.98839326E+02     -1.07480620E+02     -1.33628905E+02
      2.19853419E+03     -2.79333704E+02     -8.52468673E+02
     -3.64964712E+02      3.91315720E+02      9.05154942E+01
      2.11062059E+03     -8.81919333E+02      1.46579174E+03
     -2.44151182E+03     -4.78200993E+02      1.07342658E+03
      2.85002981E+02      6.99058784E+02      5.62496639E+02
     -1.41594679E+03      2.48651774E+03     -2.84232880E+03
      4.91118700E+02      3.16447047E+02     -1.89426500E+03
      3.31606463E+02      9.08266621E+02      1.13712411E+02
     -3.77452851E+02     -3.39855224E+02     -1.47609039E+03
      2.08338317E+03     -1.83284039E+02     -1.08500317E+03
     -4.61530322E+02      2.55941141E+02      3.37875080E+02
     -5.76884388E+02      2.16911002E+03     -1.38030589E+03
      1.71522203E+03     -1.67659225E+03      5.77998815E+02
     -2.82374503E+02     -2.07725588E+02     -4.90004272E+02
     -6.23240356E+02     -2.39981446E+02     -9.64084717E+02
     -2.39874426E+03     -2.12341014E+02      4.44745217E+02
     -7.40956074E+02      2.13256173E+02      5.50449045E+02
     -3.38158755E+02     -2.13693456E+03      1.60649422E+02
     -2.52571785E+03     -1.89595405E+03     -2.40097107E+03
     -3.21942311E+02      5.18672970E+02     -3.57132710E+02
      2.31635241E+03     -1.68887593E+03      1.78785953E+02
     -1.35872019E+03      7.26709447E+02     -2.18600297E+03
      3.51689111E+02     -2.41290423E+02     -4.25685049E+01
     -2.40981816E+03     -1.32306770E+03     -1.63418650E+02
     -1.55883102E+03      1.22171976E+03     -1.40746979E+03
     -9.71601256E+02      4.97168317E+01      3.74961971E+02
     -3.76300425E+02      1.98339314E+03     -2.44805104E+02
     -1.32499021E+03      1.61220881E+03     -3.95809061E+02
      6.45794876E+01     -1.52966364E+03      9.13760888E+02
     -1.26868007E+02     -7.06982760E+02      3.06758460E+02
     -3.67758855E+03     -1.31234223E+03     -1.16279592E+03
      1.09036534E+03      1.24500833E+03      2.86300630E+03
      2.24266371E+02      8.72933133E+02     -1.98280749E+03
     -5.17298719E+02     -6.23444995E+02      2.51597122E+02
      9.30242207E+02     -2.16234268E+03     -3.74367609E+03
     -2.16591124E+03     -3.35378397E+03     -1.72596992E+03
      5.74885553E+01      6.63273248E+01      1.24920351E+03
      1.48424898E+01      6.30377274E+02     -4.19893402E+02
      1.73658519E+03      1.40234554E+03      1.47533529E+03
      1.25696601E+02      1.11325609E+03     -2.88857813E+02
      1.87651699E+03      1.09367295E+03      2.06076460E+03
     -1.34838177E+03      1.34389260E+03     -4.43206713E+02
     -2.60368543E+02      4.27778878E+02     -9.23716308E+02
     -1.75102032E+02      2.36621527E+02     -2.63435329E+03
      1.88991151E+03      8.36141137E+02     -7.73349384E+02
     -1.12411839E+03     -6.05621111E+01      5.51482951E+02
     -1.67448640E+03      2.24553227E+02     -3.00234383E+03
     -6.90139456E+02      8.55554597E+02      1.22745585E+03
      1.14693186E+02     -2.63254860E+02      1.47308028E+02
     -1.03255450E+03      4.20824299E+02     -1.18896215E+03
     -1.93738241E+03     -1.07477082E+03     -5.29604790E+02
     -9.14752367E+02      5.13663151E+02      4.63369059E+02
      4.49038294E+01     -3.29872081E+02      2.06618098E+02
      9.44477006E+01     -1.97611276E+01      8.75651664E+02
     -4.09906933E+02      8.13984365E+02      5.50125228E+02
      6.15635965E+02      3.45260535E+02     -6.16024167E+02
     -5.77746000E+02      1.23923736E+03     -1.48497866E+03
     -3.65898435E+01      6.18727782E+02     -4.32872883E+02
      6.99231445E+01     -6.00879237E+02     -2.90636070E+01
     -4.40387540E+02     -1.49467530E+03     -6.88203087E+02
      2.99499864E+03     -1.67297863E+03      9.89787888E+02
     -2.19910608E+02      1.15202577E+02     -6.67449191E+02
      1.72231757E+03      1.28112539E+03      5.17904741E+02
      9.16471502E+02     -3.83208173E+02     -3.10298302E+03
      8.61046532E+02      9.16538560E+02     -1.78657872E+01
     -2.20868658E+02     -8.85807563E+01      6.81350770E+02
      2.80349396E+03     -2.11381450E+02     -1.41004338E+02
     -1.79986278E+03     -8.34138093E+02     -1.91669444E+03
     -1.01000973E+03      1.45724907E+02     -1.00226986E+02
     -8.51282363E+02     -7.38968216E+02     -1.20680232E+03
     -1.80819408E+03      9.70301338E+02     -2.70501585E+02
      1.49579591E+02      1.81181897E+02      2.61342612E+02
      9.19870958E+02      1.25441044E+03      7.03971055E+02
      9.82010931E+01      1.09253704E+03     -5.68241567E+02
      4.21085496E+02      9.74995278E+01     -4.51257895E+02
     -1.14672274E+02      5.13465798E+02     -2.40342912E+02
     -9.60868323E+02     -3.78051541E+02      7.81274622E+02
      2.21597125E+02     -8.08911796E+01      5.18272266E+02
      3.64596030E+02      1.22077235E+03      1.91627019E+02
      1.49471640E+02     -4.82170079E+02      9.60525523E+02
      2.36466329E+02     -2.14018072E+01      6.68714781E+02
      1.26805087E+03      1.33155924E+03      1.76771544E+03
      1.90987076E+03     -3.70734809E+02      2.06644322E+03
     -6.61638582E+02      3.59615721E+02     -9.78396686E+02
      4.26757556E+02     -1.42069251E+03     -1.50874991E+03
     -3.00471500E+03      2.58741834E+03      2.84783301E+03
     -1.22364538E+02     -6.82737239E+02     -3.26655368E+02
      4.25968752E+02      2.29034957E+03      4.72601480E+03
     -1.31361698E+03     -1.94783609E+03     -5.89500925E+02
      1.07704684E+02     -5.42401749E+02      5.94311262E+02
     -2.00045673E+03     -7.60007938E+02      1.35705148E+03
      8.65860843E+02      1.11590479E+03      1.36485721E+03
      9.01412266E+02      5.33598179E+02     -9.22942815E+02
     -3.22154030E+02     -1.86838977E+02      1.78352352E+02
     -1.75558272E+03     -8.98268161E+01      1.22684724E+03
     -1.66399525E+03      3.86542240E+00     -8.21313079E+02
     -7.62437605E+02      2.76046123E+02      2.53279212E+03
      7.29331902E+02      1.34354252E+02     -4.44945837E+02
      1.79677755E+03      2.50510044E+03      8.69807659E+02
      2.25503929E+02      3.35333579E+02      1.63121508E+03
      5.36649913E+02      3.46498260E+02     -8.84157225E+02
     -5.06723932E+02     -2.60821507E+03     -2.20140892E+03
     -1.52101995E+03     -2.65545251E+03      1.86246971E+02
     -2.90900891E+02     -2.46210439E+02      6.45762213E+02
     -4.16246758E+02      9.12639929E+02     -1.76879635E+03
     -4.52116309E+02      1.68207819E+03      1.21836099E+01
     -4.74403239E+02      1.66563284E+02      8.00691680E+02
     -1.72136681E+03      7.86102642E+02      1.03779511E+03
     -1.34109578E+03     -4.10451540E+02     -1.04518153E+03
     -3.36320116E+02      6.56081547E+02      1.52029655E+02
     -1.97179955E+03     -1.49620832E+03      6.99647998E+02
     -6.16944774E+02     -9.22120911E+01     -6.93212513E+02
      3.51966326E+02      1.87162333E+02      3.25288592E+01
     -8.87840666E+02     -1.40631307E+03      1.47509924E+03
      8.68746968E+02     -2.10074805E+03     -2.08354664E+03
     -1.16689302E+03      2.57181503E+02     -1.69949238E+02
      2.42846393E+03     -3.58703748E+02      7.53786129E+02
      3.14976162E+03     -1.13863130E+03     -1.96337432E+03
     -1.17541988E+03     -5.03232935E+01      5.83194185E+02
      1.30693201E+03      2.63284659E+03      4.45708659E+02
      9.17872452E+02      4.36011340E+02      2.04637773E+03
     -5.07976804E+02      1.08441081E+01     -9.16759242E+01
      2.08337045E+03      1.79680637E+03     -1.00004518E+03
     -1.55639724E+03      1.90052152E+02      3.73201401E+01
     -1.17090257E+03     -3.49017728E+03     -2.21399136E+03
     -1.55042186E+02     -2.90987997E+02     -1.00872420E+03
      1.19104218E+03     -6.36344756E+02      1.57705381E+03
      3.51130383E+02      4.37282520E+03     -1.73457006E+03
      2.74429068E+03     -3.22149167E+03     -1.70549901E+03
      5.54881634E+02      5.99123172E+02     -3.28639214E+02
     -1.81925491E+02     -3.58961699E+03     -1.98025665E+02
      8.32941535E+02      1.98174029E+03      1.41202127E+02
     -7.15840238E+02      3.40977007E+02      4.67905402E+02
     -3.14107096E+03      1.57852134E+03      9.40515782E+01
      3.59422568E+02     -5.72059907E+02     -4.44191816E+02
      9.04263995E+02      4.03842419E+02      7.26581726E+02
      1.01416057E+03      6.30040644E+02     -2.86961443E+03
     -1.53950743E+03     -1.32786171E+03     -1.26329988E+03
     -5.01794077E+02     -6.53043165E+02     -1.74990247E+02
     -4.49246713E+02     -1.91033028E+02      1.86731466E+02
     -2.50512036E+03      8.89450773E+02      2.96413092E+03
      3.13616497E+02     -6.86962685E+02      8.31591979E+01
     -2.62607288E+02     -2.04685701E+03     -4.70824219E+03
     -1.50104807E+03     -1.73419009E+03     -1.03297458E+03
     -8.94994635E+02     -1.64386812E+02     -4.47867200E+02
      7.77609007E+02     -8.00989559E+02      1.18914117E+03
     -6.60197234E+02     -1.69491534E+01     -9.32170951E+02
      2.32593244E+01     -1.25567902E+03      1.37207041E+02
      5.64911909E+02      1.29700943E+03      4.02208109E+02
     -1.61969645E+03      4.44723078E+02      2.43171517E+03
     -1.24129621E+03      2.07340439E+02     -5.09029561E+02
     -2.31364015E+03     -1.13534038E+03     -1.14337486E+03
      1.45566070E+03      9.58711052E+02     -1.97179088E+03
     -1.07585938E+03      4.59354654E+02      3.12354886E+02
      1.49217496E+03     -9.95853951E+02      2.40105646E+03
      1.95317351E+03      3.88664797E+01     -3.45079642E+02
     -3.07327006E+03     -4.85155832E+02      1.37388912E+03
     -4.07128921E+01      2.05417020E+02      6.71237234E+00
     -1.73841924E+03      1.27317084E+03     -1.91996293E+02
     -1.99606583E+03     -2.62117938E+01      1.73274858E+03
     -4.50595118E+01     -1.31336830E+03     -1.16231239E+03
     -4.82955725E+02      1.38003478E+02      4.62035521E+01
      6.97680605E+02      1.14590263E+03      1.16963469E+03
      7.50071763E+02      1.02392778E+03     -5.57806925E+02
     -5.82729156E+01     -4.58569848E+02      6.34983445E+02
      5.78668859E+02      1.48865807E+03      3.56675892E+03
      3.73800508E+02      1.84934234E+03      5.32356808E+02
     -3.17478456E+01      3.97635360E+02      1.73375956E+02
     -2.62138463E+03      5.44899613E+02      7.67115253E+01
      1.18511673E+03     -3.13255621E+03     -1.27916308E+03
     -2.30417566E+02     -3.71056655E+02     -4.82043829E+02
     -1.79122881E+03     -2.04260003E+03     -2.18893736E+01
     -1.84298555E+02      1.39169545E+03      2.10318056E+03
     -1.73078658E+02      4.07481808E+02     -3.88252719E+02
      1.37026286E+03      2.45462631E+03      3.43330457E+02
      4.11778658E+02     -9.79737011E+02     -3.10919585E+03
     -6.19085519E+02      4.97399923E+02      8.68031234E+01
      6.11713457E+02      1.46229468E+03      1.04138241E+03
     -2.61520461E+02     -1.33252187E+03     -1.60931552E+03
      2.35246921E+02      5.88499981E+02      3.12008514E+02
      1.16941540E+03      2.76550916E+03     -2.04098007E+03
     -8.76216875E+01     -2.09733218E+03      2.28755891E+03
      3.09402025E+02      3.57189650E+02      1.74462395E+02
      2.58348068E+03     -3.15096803E+03      1.76939599E+03
      2.96149937E+03     -1.04065389E+03     -4.08551565E+03
     -8.66688972E+02      8.13044619E+02      5.32116257E+02
     -6.79797792E+02      2.13423421E+03      2.12156225E+03
      7.60651995E+02      1.31575617E+03      1.63866428E+03
      1.94482367E+03      2.32538251E+03      1.26188235E+02
      3.18812868E+01      5.14608108E+02      2.84494536E+02
      1.31278971E+03      1.52559599E+03     -2.02215091E+02
     -5.26279667E+02     -3.07580223E+03      2.35818969E+03
      9.34254778E+02     -1.76765701E+03     -1.40169305E+03
     -3.87270418E+02     -6.76545774E+00     -4.79313249E+02
     -9.62433712E+02     -1.69457737E+01     -2.08142173E+02
      6.04051529E+02      1.52625540E+03      2.77654697E+02
     -5.39027299E+02      2.24126112E+02      5.54227429E+02
      8.13609824E+02     -5.37236355E+02      2.25478587E+02
     -2.35015077E+03      4.26504772E+02      1.10178751E+02
     -2.62002560E+01     -6.31748350E+01      4.13440752E+02
      5.35132950E+01      4.15936039E+02     -1.51074886E+03
     -2.96045541E+03      1.73011424E+03     -1.46895266E+03
     -5.16815361E+01      6.16222939E+02     -3.95642625E+02
     -9.15953934E+02     -2.48117891E+03      1.49630553E+02
     -1.36505950E+03      2.49703927E+03      3.18656032E+02
      1.99728193E+02      5.27338357E+02      9.00390396E+02
      1.18234177E+02     -4.62717582E+02     -1.58078254E+03
      2.96750988E+03     -1.02972554E+03     -7.48660850E+02
      7.67744157E+01      4.68312349E+02     -4.09363873E+02
      7.76429124E+02     -2.56252600E+02     -7.18175823E+01
     -2.07593536E+03     -3.46364191E+03     -9.92754096E+02
     -5.61961740E+02      9.35887103E+00      3.58070853E+01
     -1.56577514E+03     -3.34815290E+02      2.43124346E+02
      4.44842051E+01     -1.27685848E+03      1.29640532E+01
     -6.09809190E+02      4.60164651E+02      1.15417586E+02
     -2.47821571E+03      1.19734408E+03      1.01503464E+03
     -2.14135201E+03      3.11096144E+03     -9.78141899E+02
      3.74116506E+02      3.86173750E+02      8.02157774E+02
      8.10928988E+02      9.18945198E+02     -1.29967319E+03
      1.69976246E+03     -2.25256142E+03      2.40474552E+03
      4.79618928E+02      1.34706848E+02      5.22746527E+02
     -2.23004460E+02      7.31417284E+01      3.77672656E+02
     -1.19703847E+02     -3.99964659E+03      1.24909090E+03
     -2.26894906E+03      1.22452446E+03     -9.04402171E+02
      4.42456374E+02      2.54924990E+02      6.11491606E+02
     -5.20345904E+02      8.54492203E+02      5.31537776E+02
      1.42730670E+03      8.16485500E+02     -2.93175421E+02
     -1.52986981E+03     -4.80728215E+03      1.50416515E+01
     -3.70960700E+02     -8.73141248E+02      2.00018002E+02
     -1.58338559E+03      6.07990256E+02      2.06856431E+03
     -6.75004544E+02     -2.47718802E+03     -2.12762334E+03
      2.76637949E+02      5.43973448E+02      1.41648231E+02
      9.09559262E+02      7.75650522E+02      2.56421995E+02
     -3.15841036E+02     -7.12796776E+02      1.70400431E+03
     -2.83039948E+02      1.43842343E+02     -6.70688834E+02
      8.28732674E+02      1.47622971E+03      1.44372475E+03
      5.74197845E+02     -1.07271779E+03      1.06462517E+03
      1.61830298E+02      4.00320510E+02      3.15239723E+02
      1.47637239E+03      1.88668335E+03      2.50948084E+03
      1.44262519E+03      6.76387463E+02      5.58329553E+02
     -3.95402306E+02      5.05341820E+02      1.25923279E+02
      1.67928048E+03     -1.44335108E+02      3.04379455E+01
      1.06304473E+03     -2.22919245E+03      4.33964289E+02
      7.35693602E+01     -3.73964860E+02     -4.09613143E+02
      1.09710056E+03     -1.79064753E+03      8.85176239E+01
      1.42331610E+02      1.18105592E+03     -1.11774457E+03
     -1.16605906E+02      2.90333782E+02     -6.23693065E+02
      5.70404074E+02     -8.81463070E+02     -1.91098433E+03
     -1.45648371E+03     -2.47062078E+03     -8.78063988E+02
      5.58357365E+02     -6.45062848E+02      5.10257401E+02
      7.02278836E+02      2.41500641E+03      1.31439625E+02
      1.83215197E+03     -3.80332444E+03      4.28885348E+02
      2.07776879E+03      1.07507950E+03      9.32494503E+02
      1.72989702E+02     -3.18095772E+02     -3.02963974E+02
     -1.87927394E+03     -1.40102298E+03     -1.06849265E+03
      2.21648064E+03     -4.98362853E+02     -4.57443776E+02
      1.75532306E+03      1.79835468E+02     -5.63715051E+01
  }
}

Hamiltonian = DFTB {
  SCC = Yes
  SCCTolerance = 1e-6
  MaxSCCIterations = 200
  ForceEvaluation = Dynamics
  MaxAngularMomentum = {
    C = "p"
    H = "s"
  }
  Charge = 0.0
  SpinPolarisation = {}
  Eigensolver = Standard {}
  Filling = Fermi {
    Temperature [Kelvin] = 300.0
  }
  SlaterKosterFiles = Type2FileNames {
    Prefix = "../../pbc-0-3/"
    Separator = "-"
    Suffix = ".skf"
    LowerCaseTypeName = No
  }
  KPointsAndWeights = {
    0.0000000000000 0.0000000000000 0.0000000000000 1.00000000000000
  }
  Dispersion = LennardJones { 
    Parameters = UFFParameters {}
  }
}

ParserOptions = {
  ParserVersion = 3
}
