Geometry = GenFormat {
<<< "system.gen"
}

Driver = VelocityVerlet{
  Steps = 100000
  TimeStep [fs] = 0.2
  MDRestartFrequency = 5
  Thermostat = None {
    #InitialTemperature [Kelvin] = 300.0
  }
  Xlbomd{ 
    IntegrationSteps = 6 
    MinSccIterations = 2
    MaxSccIterations = 200
    SccTolerance = 1e-6 
  }
  Velocities [m/s] {
     -9.13026778E+02      4.14598964E+02     -1.03653707E+02
      8.37682931E+02     -1.00281967E+03     -2.65893578E+03
     -1.17800766E+03      2.31168582E+03     -2.74281727E+02
     -3.50862540E+02     -1.93830993E+02      4.86400605E+02
      1.93143895E+03      2.46112815E+03      1.25015709E+03
      1.67535619E+03      4.03857791E+02     -3.66440220E+03
     -6.12516736E+02      5.17507371E+02     -8.20966533E+01
      7.36002368E+02     -1.94927792E+03      9.77541864E+02
     -1.62720474E+03     -1.70682643E+03      1.74837862E+01
     -3.49300085E+02      4.96616106E+01      4.49281383E+01
      7.87066643E+02     -3.51825398E+02      1.54177693E+03
     -8.19327960E+02     -1.37631894E+03     -1.41183936E+02
      5.73631773E+02      4.19633208E+02      4.46669934E+02
      2.73274069E+03     -4.42046698E+03     -1.86324184E+03
      7.81413954E+02      6.93393987E+02      3.02318953E+03
     -1.02044701E+03      1.02268736E+02      5.11347309E+01
      7.68044275E+02      6.29235826E+02      1.78263008E+03
      4.97821610E+02     -6.49203237E+02     -1.59125236E+01
     -2.51549965E+02      3.94593491E+01     -9.09476287E+01
     -9.37717387E+02     -2.64243339E+03      3.75465278E+03
      1.45094493E+03      3.39160606E+03      6.14483359E+02
      3.42230000E+02     -6.18251956E+01      2.38762344E+02
     -1.19898880E+01      8.78217446E+02     -8.20242040E+01
      1.43173252E+03     -1.75115413E+03      2.85657910E+02
     -5.69437605E+01     -4.90201238E+01     -5.74449283E+02
      1.50170662E+03      1.66406494E+02     -1.11803561E+03
      1.50362671E+03     -3.65710864E+02      5.00217272E+02
     -1.78217006E+03     -9.36065804E+02     -2.79030310E+03
      2.37486261E+02      3.46309650E+02     -1.43531783E+01
      2.69168090E+03      4.42861585E+02     -9.05720728E+02
     -2.02454206E+03      6.61864049E+02      1.74850891E+02
      8.93526991E+02     -1.80974167E+03      2.14379078E+03
     -1.74623051E+02      1.80879035E-01     -1.07296430E+02
     -1.84177537E+03      4.73847010E+02      1.19337254E+02
      1.03771695E+02      1.77125270E+03      6.85115959E+02
     -2.86939604E+02     -6.87842372E+01     -4.88670866E+02
     -7.27361356E+02     -2.01926840E+03      1.94370373E+03
     -3.76512821E+03     -5.03091116E+02      1.25550933E+03
      4.91196475E+02     -6.18048109E-01      1.52598703E+02
      1.81702115E+02     -1.51254510E+03     -1.30413914E+02
      7.22829097E+02     -1.67980969E+03     -1.07344901E+03
     -4.26643342E+02      1.15658619E+02      6.86054770E+02
     -2.31409191E+03      1.75650959E+03     -1.46079815E+03
     -2.18848272E+03     -1.16822948E+03     -8.10362584E+01
     -5.73883027E+02      2.75978742E+02      2.27197288E+02
      3.74501843E+02      3.53279462E+03     -3.00230249E+03
      1.99036875E+03      9.28700518E+02     -1.84222972E+01
      1.65027584E+02     -5.95205003E+02      1.15104752E+03
     -9.65427124E+02     -9.62966125E+02      2.04689308E+02
      3.38914906E+03     -1.16806663E+03     -3.03870832E+03
     -6.38546098E+02      1.72503404E+02     -1.45634596E+02
     -1.37873536E+03     -6.98171425E+02      3.35672936E+03
     -1.45260816E+03      3.59646685E+02     -4.13754673E+02
      4.13021363E+02      3.73677670E+01      2.22575507E+01
     -2.27137110E+03      1.86842703E+03      1.59926409E+02
      1.82375754E+03     -9.09489201E+02     -5.51603767E+02
     -9.41120114E+01     -1.72079198E+02      1.01459735E+03
     -2.05285988E+03      2.66434631E+02      1.72794600E+03
      1.06406168E+03     -1.61387423E+03     -3.32634873E+02
     -1.64545768E+03      7.09881224E+02     -3.41952137E+02
     -1.22170278E+02     -1.67794546E+02     -1.04473679E+02
      1.36831624E+02     -3.12847835E+02      5.15665694E+02
     -1.46720942E+03     -2.81123087E+03     -7.41981491E+02
      1.34671366E+03      1.95012840E+03     -1.09109658E+02
     -6.38641861E+02     -9.55274667E+02      1.53883368E+02
      2.87281725E+03     -6.56901716E+02      2.90810530E+02
      8.65054753E+02     -9.39636903E+02     -2.36436849E+03
     -6.03392345E+02      8.36694000E+02      3.47605230E+02
      1.90864794E+02      6.86556134E+02     -9.99282059E+02
      1.20156634E+03      2.19940554E+03      7.46498869E+02
     -1.10771763E+03      5.49477507E+02     -3.07332158E+02
     -1.11066301E+03      3.24693728E+02      8.50830428E+02
      2.53553776E+03     -1.32159571E+03     -1.29138933E+03
     -1.64387831E+02      3.90066593E+02     -1.20655992E+02
     -3.30201465E+02     -1.21407254E+03      1.37927055E+03
      1.55734080E+03     -1.33119203E+02     -1.16721489E+03
     -2.14542162E+02      3.91575396E+02     -7.20559196E+01
     -8.99032657E+02      1.54110190E+03      5.55657516E+02
      5.56337410E+02      6.30237953E+02      2.47930979E+02
     -5.09787002E+00      6.75516109E+02     -2.78046244E+01
     -2.71059242E+03     -2.47029345E+03      1.90570017E+03
     -1.50360646E+02      7.63207935E+02     -1.09446522E+03
     -7.75836646E+02     -5.32534385E+02     -7.75884658E+02
     -1.73390697E+03      1.89895924E+02     -2.04114661E+03
      1.62970864E+02      1.30277891E+03      3.82662811E+02
     -1.76033753E+02      1.28502184E+02      1.89309542E+02
      1.44916716E+03     -2.07145517E+02      1.37424754E+03
      1.16672414E+03     -2.55551785E+03      4.01457992E+03
     -1.04028842E+02      5.92222634E+02      2.50349919E+02
     -3.77785006E+02      2.88343073E+03      2.02107056E+02
      8.58377598E+02     -1.82468849E+02      8.86407628E+02
     -2.98427257E+03     -6.67045896E+02     -9.19240337E+02
     -7.46222197E+02      6.08091687E+02      5.35897824E+01
     -1.83334701E+03     -2.46603925E+03     -2.65522398E+02
      2.28099503E+03      9.47984846E+02     -3.26868260E+02
      3.96013501E+02     -1.21896951E+02     -1.73322957E+03
     -1.06575405E+03     -6.91085226E+02      5.37800158E+02
      9.93000098E+01      2.41254843E+03      2.04612803E+03
     -9.91349898E+02     -1.83221442E+03     -1.32717190E+03
     -4.54636527E+02      4.10826842E+00     -2.81740953E+02
      8.73508178E+01      1.52010093E+03     -8.57589308E+02
      1.14818652E+03      2.18179765E+03     -1.03225159E+01
     -1.10082917E+03     -4.56737901E+02      1.07127316E+03
      5.89255252E+02      2.15546101E+03     -6.87216281E+02
      1.22486521E+03      9.18485497E+02      3.33853600E+02
      1.99056382E+02      2.30447127E+02      1.00112381E+01
     -1.17620815E+03      7.62000732E+00      2.51714506E+03
     -2.27641187E+03     -2.44738544E+02      5.10046834E+02
     -9.75120905E+02      6.33698154E+02     -5.15505649E+02
     -2.01717056E+03      2.22848293E+01     -4.86068727E+02
      7.13630003E+02      1.14151590E+02      3.62238528E+03
      4.64000382E+01     -3.96989532E+02      1.35288607E+02
     -1.80198186E+03      1.47465892E+03      1.31648606E+03
     -2.67738519E+03      1.89096506E+03      6.88238729E+02
      2.42668079E+04     -1.29803937E+04     -5.91718272E+03
     -1.17564370E+03     -1.92427188E+03      2.99676205E+02
     -7.21585155E+02      7.59843501E+02     -3.11750715E+03
     -4.54270368E+02     -6.71681781E+02     -6.65427814E+01
     -9.06635124E+02      9.15075163E+02     -8.94763288E+02
     -2.72490144E+02     -5.71125817E+02     -5.40284430E+02
      2.31686999E+02     -5.87207650E+01      3.68585857E+02
      2.94397147E+03     -1.30230704E+03     -2.53799986E+03
      9.28794822E+02     -1.27326419E+03     -6.97431333E+02
      2.04001219E+03      1.51853398E+03     -9.52086892E+01
      4.71792268E+02      6.83719166E+01      1.04155679E+01
     -1.08689592E+03      4.04000675E+02      9.01334893E+02
     -1.16757097E+03      1.23505044E+03      1.48919032E+03
     -1.36757981E+03      9.85130113E+01     -2.07219847E+03
     -5.42948067E+02      7.09717763E+02     -3.75624085E+02
      1.10407520E+03     -1.62157760E+03      2.18357706E+03
      7.64898939E+02      6.12148137E+01      8.38155829E+02
     -3.96802307E+02      2.32875843E+02      1.13167860E+02
     -1.57412968E+03      1.64544913E+03      1.28390945E+03
     -8.34472092E+02      3.75963685E+03     -2.33822806E+03
     -4.15834600E+02      3.19511834E+02      2.40117747E+02
      2.35351389E+03      8.29950400E+02     -1.68427397E+03
     -2.23839063E+02     -1.73845698E+03     -1.86851751E+03
     -3.12301983E+02     -2.40064767E+02     -1.88722044E+02
     -3.55718521E+02      8.85865981E+02     -5.06935588E+02
     -4.37942178E+02     -2.65285582E+02     -2.70996188E+03
     -7.69347233E+01      6.95342754E+02      5.30673030E+02
      4.91078329E+02      3.75026897E+02     -1.01274386E+03
      2.01137530E+03      2.16932369E+03     -1.63410210E+03
     -5.31601606E+02      4.20593067E+02     -6.79888839E+01
     -1.98252474E+03     -8.97441475E+02     -8.09802764E+02
      3.48544385E+02     -1.25011923E+03     -2.19905374E+03
      9.63599503E+02     -2.15391681E+02      1.74168675E+02
     -1.52237363E+03      1.33933915E+03      5.66451782E+02
      1.48671603E+03      2.02243684E+03     -2.36301339E+02
      3.29039458E+02      5.16139745E+02      3.05448192E+02
     -1.44799933E+03      5.93281143E+02      5.58158009E+02
      1.12340178E+03      3.82207149E+02      4.40151573E+02
     -3.88795866E+02      5.10133989E+02     -5.48463228E+02
      1.72487814E+02     -2.19944955E+02     -2.55899958E+03
      2.34140808E+03     -1.39836165E+03      2.18661076E+03
      3.93276361E+01     -3.24356714E+02     -1.89107774E+03
     -8.66157230E+02     -1.58957988E+02     -5.34427420E+02
      1.36155127E+03      1.40680302E+03      4.91779744E+02
     -1.83944575E+03      1.34993385E+03     -3.45371841E+02
      4.54232359E+02     -2.56866656E+02      9.21642523E+02
     -7.70051358E+02      1.91799861E+02      1.81531042E+02
      1.95151446E+02      1.33080355E+02     -1.73204418E+03
      3.46979774E+02     -3.13924442E+03     -2.72939159E+03
      1.01692350E+02     -3.40749616E+02      9.33791337E+02
     -2.09095201E+03      1.62486825E+03      2.12646483E+03
     -2.06959654E+02      1.67591481E+03      4.99960677E+02
      5.92846530E+02     -8.79314328E+01     -2.92437648E+02
      4.05517060E+02      5.43107543E+02      1.61623488E+03
     -3.41745966E+03     -1.33885731E+03      2.97884685E+02
     -4.66043334E+02      8.34216048E+01      5.33189646E+02
     -1.68955853E+02     -8.39787657E+02     -1.64289108E+03
      5.93701367E+02     -2.55481120E+02      1.84684727E+03
     -3.91160214E+02     -1.06558197E+02      2.91308450E+02
      2.80067609E+02      4.18889737E+02      1.66252095E+03
     -6.53897446E+02      1.80392969E+03      9.91898232E+02
     -5.36792504E+02      1.11951494E+03      2.42263510E+02
     -1.77106203E+03      1.17671607E+03      9.48483461E+02
     -2.28814007E+02     -3.16390852E+02      4.38640321E+02
     -1.60848293E+02      1.11273545E+03      4.15715180E+01
      1.61922087E+03      2.21088838E+03     -1.30069309E+03
     -2.15560175E+03     -1.69612216E+03      9.66119834E+02
     -2.45371962E+02     -3.63043979E+02      6.56595497E+02
      2.89528621E+02     -2.36887265E+03      2.27291207E+03
     -3.21462682E+03      2.69124805E+02      1.19706489E+03
      1.78849533E+02      2.41129085E+02     -2.56442146E+02
     -1.94466105E+03      3.56655532E+03     -1.09402655E+03
     -1.78866855E+03      6.33916374E+02      1.49897568E+03
     -2.94607223E+02     -1.36450743E+03     -6.29251900E+02
     -2.85026834E+02     -5.45591998E+02      4.30827487E+02
      1.77305901E+03     -2.86624770E+03      1.70572721E+03
     -6.73115861E+02     -9.44413758E+02      1.79958673E+03
      7.19989427E+02     -6.25921457E+02      7.59624353E+02
     -7.08911247E+02     -2.29956729E+02     -1.47947256E+02
      3.26943466E+02     -1.86651237E+03     -1.55491447E+03
      3.77568901E+02      1.34606963E+03      1.54282155E+03
     -8.36580788E+02      7.93159087E+02      3.42895546E+01
     -2.76551460E+03      6.56650932E+00     -8.13057824E+02
     -3.93356306E+02     -1.07159355E+03     -2.93095042E+03
     -3.45179551E+02      6.91573937E+02      5.76747071E+02
     -6.74528399E+02     -2.02590846E+03     -2.77743686E+02
     -2.09365566E+03      8.02752632E+02      1.56067180E+03
     -6.86590109E+02     -1.71987362E+02     -5.15627611E+02
      1.25177493E+03      4.06372270E+02     -2.26107557E+03
     -4.01801933E+03     -7.00965479E+02     -3.28899111E+03
      1.94203870E+00     -1.52210141E+02     -4.41000009E+02
     -6.93085712E+02     -2.22437948E+02      9.83000362E+01
     -7.94728729E+02     -2.29202966E+03      3.51146412E+02
     -7.21167301E+02     -3.73615551E+00      5.05637192E+02
      3.00141544E+03      1.79959333E+03      2.30099564E+03
     -1.19435536E+03      4.50100464E+03     -2.13822444E+03
     -3.00027524E+02      4.96959792E+02      7.11286958E+01
     -2.07931410E+03     -8.28693877E+02     -7.61663353E+02
     -2.44333951E+02      6.15923856E+02      1.75179971E+03
     -7.29558151E+01     -4.73436299E+02      5.60060072E+02
     -5.74355059E+02      1.65232832E+03     -3.54295079E+03
      5.63002776E+02     -2.77149164E+03     -8.16073489E+01
     -2.76187828E+02     -3.48886162E+01     -7.19230397E+02
     -2.19576856E+03     -1.29781894E+03      9.04997617E+02
     -1.21284590E+03      1.83813276E+02      1.67813623E+01
      3.00893919E+03      9.91107502E+02     -1.24652472E+03
     -2.14893832E+02     -6.89553357E+01      3.10145145E+02
     -9.52407341E+02      3.53659340E+03     -1.08696341E+03
     -1.89037331E+03     -1.18670689E+03     -4.00262867E+03
      1.18943618E+02      2.63625844E+03      1.34649466E+03
     -5.46139890E+01     -3.06372145E+02     -1.69326602E+02
      2.71531632E+03     -1.25422201E+03     -1.27385870E+03
      3.50467711E+01     -1.63819072E+03     -1.75907209E+03
      1.02990622E+03      1.68113599E+02     -4.10132876E+02
      6.53738641E+02      3.51262978E+03     -3.11494352E+03
     -4.41659072E+02      8.38643551E+01     -2.39369108E+03
      2.22420882E+02      4.88006602E+02     -3.51134826E+02
     -6.53550584E+02     -1.06454388E+03      9.38580446E+01
     -6.75860012E+02     -7.03254982E+02     -1.47891427E+01
     -3.22925034E+02      4.82596482E+02      6.36157655E+01
     -4.77668895E+02      5.36105339E+02     -1.46493792E+02
     -2.31374111E+01      2.60823441E+03     -5.21274493E+02
      4.53034597E+02     -5.63597467E+02     -1.61528942E+02
      3.26591062E+03     -3.17492457E+03      1.31499910E+03
      1.81290133E+02      1.04444270E+03      2.96426328E+02
     -2.17090731E+02     -7.47482095E+01      3.79514672E+02
      4.48697469E+02     -7.29330667E+02     -1.29988179E+03
     -3.76645997E+02      6.12058439E+02     -1.14009665E+03
     -4.87245589E+02      5.82552567E+02     -2.01709222E+02
     -6.52201458E+02     -3.58219664E+03      9.19701582E+02
     -4.35107549E+01     -5.98760548E+02     -2.15302900E+03
     -1.73210887E+02     -9.90248143E+01     -6.94001838E+02
      1.07720807E+03     -1.30464609E+03     -1.17257273E+03
     -3.78996111E+02     -2.56473030E+02     -3.16032002E+03
     -6.15836107E+02     -6.60333469E+01      8.09789623E+02
     -6.20002851E+02      1.44314928E+03      1.81779643E+02
     -3.07244318E+03     -1.94426292E+03      3.48003551E+03
     -1.97180410E+02     -1.76873263E+03      1.44394833E+03
      7.30475811E+02     -2.47130779E+02     -8.74630069E+02
     -1.29091257E+03      1.63471323E+03     -1.06882233E+03
     -3.00016963E+03      1.18360475E+02     -3.89826255E+02
     -1.41791309E+03      2.38687796E+03     -6.04292537E+02
     -1.03025372E+03     -2.28438102E+02      9.54827911E+02
     -2.12810214E+03     -1.04074463E+03      4.77120968E+02
     -9.44242389E+02     -2.65463186E+01     -1.80341772E+03
     -2.65319515E+02      1.75703296E+02      5.15685696E+02
     -5.65541916E+02      1.34296835E+03     -5.39439549E+02
      1.02263496E+03     -1.12729059E+03     -3.86637871E+02
      1.65241019E+02     -2.65898715E+02      1.95106460E+02
     -1.34607016E+03     -1.33953713E+03     -1.63907076E+03
     -6.39740976E+02      1.61974370E+03      6.43031766E+02
      6.59200080E+01      5.38730392E+02     -8.87804017E+01
      1.69131223E+03     -2.28471599E+03      3.65649550E+02
      9.54219276E+02      2.06179069E+03      4.93986681E+02
      2.70882391E+02      1.83340330E+02      1.37243597E+02
     -6.20434050E+02      2.72723561E+03     -1.75276675E+02
      6.11516401E+02     -1.75816220E+02      7.76052254E+02
     -4.63322548E+02      1.78194214E+02      4.88293559E+00
     -1.25142270E+03     -7.33232560E+02      4.79837231E+02
      1.24528831E+03      1.05406240E+03     -1.64837002E+03
      6.65355539E+01      2.60631476E+02      5.53574414E+02
      6.49473210E+02      3.40469084E+02     -9.89056997E+02
      2.43091947E+03      1.62406626E+03      1.82629708E+03
     -4.58534016E+02      3.38781339E+02     -6.69909265E+01
      2.81378618E+00      3.79372577E+03     -1.20679446E+03
     -6.04333013E+02      2.69649480E+02      1.56071259E+02
     -2.75748056E+02      6.85733157E+02      4.81910954E+01
      1.49873768E+03     -1.39601554E+03      2.40433515E+03
     -2.11130013E+02      2.24186796E+03     -3.05769247E+03
      6.24159806E+02     -1.14752537E+03      1.76772586E+03
     -1.44197575E+02      5.31167296E+02     -7.90584990E+02
     -3.67207869E+02     -7.10779697E+02     -1.36455282E+03
     -2.34955031E+03      2.86215295E+03      6.35828374E+02
     -9.05221557E+02      3.44509138E+03     -1.91277025E+03
     -5.24176057E+01      5.12649873E+02     -3.93128091E+02
     -3.93711167E+02     -3.83578478E+03     -1.81447830E+03
     -6.11362439E+02     -3.72770081E+02     -6.36430894E+02
     -2.98126696E+02      3.28644014E+02     -5.83809379E+01
      1.12761196E+03     -1.08192827E+03      1.60678742E+02
     -1.21685237E+03      4.53591424E+02     -1.54695192E+03
      3.43473722E+02      1.28741451E+02     -2.79591149E+02
      3.21973622E+03     -7.77848385E+02      3.77949227E+01
     -1.03415568E+03      6.60854318E+02     -9.42053200E+02
      1.56147448E+02      2.07017257E+02      1.84797323E+02
     -1.96805605E+03     -3.33808410E+03     -8.03287000E+02
      3.18285067E+02     -2.34728623E+02     -1.67869231E+01
     -8.89294362E+01     -3.02193533E+02     -2.60633676E+02
      3.36916456E+02      1.78012756E+03      1.42886600E+03
      8.99848815E+02      4.61362286E+02      8.97683996E+02
      2.67151078E+02      2.13345972E+02     -2.73518183E+02
     -2.58599018E+02     -7.15367375E+02     -4.65107820E+02
     -2.02713714E+03      8.84014221E+02     -4.58858954E+02
      4.57874569E+02      3.31050328E+02      5.52431070E+02
      1.12148114E+03     -3.40904608E+03      2.59867266E+03
     -1.58833538E+03      1.34353070E+03      1.93097294E+03
     -4.47002147E+02      1.09321599E+02      1.18313968E+02
     -5.88273232E+02     -3.67242072E+02      6.90175567E+02
     -1.29416231E+03      8.69638521E+01      7.85991227E+01
      1.07208919E+02      7.22194789E+02      7.63465121E+02
     -3.57799878E+02      4.37690620E+01      8.93220527E+02
      7.57736662E+02      2.32725386E+03      1.68432500E+03
      3.84228913E+02     -2.92938020E+02     -3.33325772E+03
     -4.13179157E+02      4.26709362E+02      1.16827965E+02
     -2.02881677E+03     -1.27612382E+03     -5.83047411E+02
     -2.51510954E+02     -6.92901603E+02      2.09610376E+02
     -4.72148786E+02      1.00703189E+03     -9.16007461E+02
     -1.37910836E+02     -4.09072035E+02      5.91042657E+02
      5.74213463E+02      1.22285306E+03      6.66431921E+02
      9.32923503E+02      5.01195498E+02      1.09640201E+03
      2.46919486E+02      1.43810366E+02      6.82257810E+02
      7.88397733E+02      7.15240922E+02      1.00376654E+03
      2.35389058E+02     -1.79936795E+03      3.14137588E+03
      4.64032500E+01     -3.93681453E+02     -1.55010600E+02
     -1.80479401E+03     -1.91936107E+03      2.43796560E+03
      7.46248352E+02      1.30928153E+03     -1.07555945E+03
      5.68207435E+02     -4.47540707E+02     -8.52646022E+01
      8.01248297E+02     -2.68172897E+03     -8.48270928E+02
     -1.94374663E+03      1.74621199E+03     -4.34533352E+02
     -2.11725126E+02     -3.32472851E+02     -1.58661417E+02
      4.71525127E+02     -2.01539709E+03     -2.86992867E+02
      2.49476854E+02     -8.55230866E+02      2.26310621E+03
      4.86522695E+01      3.24976378E+02      6.62542659E+02
     -1.64597751E+03     -3.14260936E+02      1.22634155E+03
      2.88863340E+03      7.49101366E+02      6.01340007E+01
     -7.10827066E+01     -2.90355075E+02     -5.23020743E+02
     -2.01022259E+03     -1.88863797E+02     -1.05701109E+03
      2.83887268E+03      1.14441225E+02      3.28543278E+03
     -8.10573812E+01      5.99485917E+02     -7.86197442E+02
      4.64343231E+02     -2.68427779E+03      1.74242144E+03
     -1.31210498E+03     -4.55610473E+02      9.62047046E+02
     -4.93030423E+02      9.50834197E+01      6.45129959E+01
      1.32367062E+03     -5.41325332E+02      1.07663892E+03
      2.04821742E+03     -9.70145856E+02      3.87404245E+02
      2.90954970E+03      2.41955012E+02     -1.81017051E+03
     -3.60893031E+02      1.75820501E+02      2.30533424E+02
      1.35599241E+03     -7.22781746E+02      1.37844264E+03
     -1.00590324E+03      1.61584157E+03     -1.73169736E+02
     -4.11675608E+03      4.20228058E+02     -2.30923520E+03
  }
}

Hamiltonian = DFTB {
  SCC = Yes
  SCCTolerance = 1e-6
  MaxSCCIterations = 200
  ForceEvaluation = Dynamics
  MaxAngularMomentum = {
    C = "p"
    H = "s"
  }
  Charge = 0.0
  SpinPolarisation = {}
  Eigensolver = Standard {}
  Filling = Fermi {
    Temperature [Kelvin] = 300.0
  }
  SlaterKosterFiles = Type2FileNames {
    Prefix = "../../pbc-0-3/"
    Separator = "-"
    Suffix = ".skf"
    LowerCaseTypeName = No
  }
  KPointsAndWeights = {
    0.0000000000000 0.0000000000000 0.0000000000000 1.00000000000000
  }
  Dispersion = LennardJones { 
    Parameters = UFFParameters {}
  }
}

ParserOptions = {
  ParserVersion = 3
}
