Geometry = GenFormat {
<<< "system.gen"
}

Driver = VelocityVerlet{
  Steps = 100000
  TimeStep [fs] = 0.2
  MDRestartFrequency = 5
  Thermostat = None {
    #InitialTemperature [Kelvin] = 300.0
  }
  Xlbomd{ 
    IntegrationSteps = 6 
    MinSccIterations = 2
    MaxSccIterations = 200
    SccTolerance = 1e-6 
  }
  Velocities [m/s] {
     -7.15168175E+02      5.79606778E+01     -6.47860934E+02
      2.64442725E+02      1.29257068E+03      3.15446833E+03
      1.25152960E+03     -5.44224920E+02      2.14392840E+03
      3.13686036E+02      9.06604281E+02     -1.30669567E+02
      5.40205619E+02      1.87758269E+03      7.34162952E+02
     -3.24793652E+02      2.06924340E+03      1.52140527E+03
      1.55138625E+02     -3.58013058E+01      7.25436885E+02
      5.75052200E+02     -2.11179042E+03     -2.73965059E+02
      7.18363829E+02      6.08358191E+02     -2.73500287E+03
      4.19410185E+01      5.09113184E+02      4.44809549E+02
      1.63563835E+02     -1.49314317E+03      9.50151909E+02
     -9.45920296E+02      1.40813691E+03      7.75585675E+02
     -1.88445377E+02      4.71907833E+02     -4.93569276E+02
     -2.20023454E+03     -4.22196185E+02     -9.10206938E+02
      3.50887388E+03      1.72571713E+03     -4.42167688E+02
      2.71227262E+02     -1.48083090E+00      8.85588493E+02
      8.51768593E+01     -1.71271354E+03     -2.25583584E+02
      8.83129634E+02     -6.84810573E+01      2.17195545E+03
      5.28482355E+02     -5.75044316E+01     -1.84815067E+02
     -2.70614029E+03      1.62025226E+03      1.04765781E+03
      1.41891084E+03      2.54389476E+03      3.10946405E+03
      1.39781574E+01      8.03714521E+02      6.93384663E+02
     -3.67339792E+02     -1.82694215E+02      3.76728027E+02
     -1.64140294E+03     -9.58894709E+02     -3.14559629E+03
     -3.49364265E+02     -5.78343691E+02      9.78472715E+01
     -1.75813636E+03      1.59891799E+03     -3.70254950E+02
     -1.40608216E+03      1.21476421E+03     -1.04077461E+03
      1.23958378E+03     -4.86234553E+01     -9.94154584E+01
      1.05215013E+03      6.14734015E+02      2.98718747E+02
     -3.65943432E+02     -6.52774770E+02     -1.40917564E+03
      7.58440740E+02     -1.28165893E+03      2.98899316E+02
     -1.44097201E+03     -2.50717804E+03     -5.36216796E+02
     -2.99221893E+02      5.29981569E+02      8.20937722E+02
      1.00053210E+03      1.28149035E+03     -4.02897278E+02
     -3.77161471E+02     -1.75814987E+03     -5.94350204E+02
     -1.60198302E+02     -7.49406877E+02      1.96188150E+02
      6.99368410E+02     -1.04508018E+03     -9.92309199E+02
     -4.78483763E+03     -1.62936168E+03     -2.93698295E+02
      2.26974581E+02      4.14194202E+02      4.09744730E+01
      2.07058409E+03      6.35256810E+02      3.87249376E+03
      2.22081307E+02      5.12004620E+02     -7.54813917E+02
     -1.55790323E+01      6.24135384E+02      8.89291637E+02
     -1.05579759E+02      2.38854422E+03     -7.24319394E+02
      3.16435695E+03     -4.76394061E+02      2.67869217E+03
     -8.99690814E+02      7.61125852E+02     -3.93445625E+02
      2.76165132E+02     -7.97961695E+02     -2.55374416E+03
      1.32734562E+03     -2.11201424E+02      3.07240924E+02
      8.86459946E+02     -6.37695444E+02      6.19271177E+01
     -1.93527474E+03      3.68782498E+02     -7.98864424E+00
      1.19762100E+03     -1.15699923E+03     -2.08075959E+03
     -7.85681484E+02      5.22692939E+02      1.16616180E+03
      9.36713900E+02      2.18786202E+03      1.16466226E+02
     -1.78224032E+03      4.06460934E+02     -2.40591408E+03
     -2.99157688E+02      4.02446081E+02     -4.86627448E+02
      1.40953554E+02      2.36873971E+03     -1.90866513E+02
     -6.89387146E+02     -1.97337441E+03     -1.78105682E+03
      2.12619194E+02     -3.92408995E+02      3.64274231E+02
      2.35525604E+02     -4.33389664E+02     -6.84309445E+02
      6.54977804E+02     -4.47052214E+02     -1.97696876E+02
      8.72644322E+02      2.31422168E+02      1.02210986E+03
      4.86950045E+02      7.89173112E+02     -9.59014534E+01
      2.31748832E+03      9.21291075E+02     -4.55131891E+02
     -2.53331476E+02     -2.20219315E+03      7.80014672E+02
     -4.77255249E+02     -8.67170173E+02     -3.02562868E+02
      8.09425466E+01      5.51666045E+02      2.83081582E+02
      4.00626807E+02     -8.34418637E+02      1.85799978E+03
      7.54137841E+02     -2.61212309E+03      6.06140161E+02
      2.89272256E+02      2.62643527E+02     -6.62181675E+01
     -1.89634626E+03      9.49144656E+02     -5.72374101E+02
     -8.49597200E+02     -1.11854839E+03     -1.91052417E+03
      9.21793886E+00     -2.69735842E+02     -2.88552129E+02
      1.42848132E+03      6.26240842E+02      1.47760332E+03
     -3.01099642E+03      6.61281222E+02     -1.21267402E+03
      3.68426093E+02     -1.22448371E+02     -4.27299428E+02
     -8.84430449E+02     -3.81695158E+02     -9.81178265E+02
     -1.81246757E+02     -3.36315061E+03      1.77287528E+02
     -6.03045042E+01      4.77743804E+02      7.25263414E+02
      3.42940957E+03      8.03466327E+02     -3.62564956E+02
      9.33323782E+02      2.56368123E+03      1.97330307E+02
     -3.07347306E+02      4.22478826E+02     -7.81908515E+02
     -1.68547763E+03     -2.69724581E+02      1.34028765E+03
     -7.27341869E+02     -1.97248597E+02      3.46330085E+02
      2.82742269E+02     -7.29977235E+01     -2.21032092E+02
     -1.13679378E+03     -1.29825990E+03      1.39503735E+03
      1.65792097E+03      2.22737583E+03     -5.09449639E+02
      7.56155269E+02     -3.75002375E+02      5.01638197E+02
      7.14558866E+02      2.50178266E+03      1.44300093E+03
      3.01850295E+03     -1.81065050E+03      4.85417000E+02
     -2.94317861E+02      4.06944143E+02      1.27083734E+02
     -2.29458671E+03      4.14611182E+02     -2.03201447E+02
      2.11287414E+03     -3.10750437E+03     -9.01409413E+02
      4.31707847E+02     -1.30491098E+03     -1.52684938E+03
     -1.76326213E+02     -7.95593743E+01      6.42138495E+01
     -3.13767525E+03     -7.73454216E+02     -1.21026224E+03
      1.25387423E+03     -1.72662577E+03      5.06150699E+02
     -2.35837799E+03     -1.00069918E+02     -3.38450899E+03
     -8.35992454E+02      4.60556145E+02     -3.25638595E+02
      1.86348673E+03     -2.55380602E+03     -8.52110470E+02
      4.84739623E+02      4.33321129E+01      1.65491145E+03
     -9.12130800E+02     -8.87017440E+02      2.34433067E+02
     -1.41733543E+02     -1.16254299E+03     -1.70188826E+02
      1.26616597E+03      8.87451980E+02     -1.60084364E+03
     -8.37824056E+01     -1.28010386E+02      1.20934812E+02
      1.19418556E+03      1.25784113E+03     -1.01048672E+03
      1.01291335E+02      1.72080567E+03     -3.55767494E+03
      1.72916757E+03     -6.75315890E+02      3.73733145E+02
      1.14080045E+03      7.58690048E+00     -3.86638354E+03
     -6.01160498E+02     -1.15335820E+03      1.59273240E+03
     -9.64177747E+02     -5.97071015E+02     -1.59591478E+02
      4.37368980E+02      9.00573795E+02      5.65584705E+02
      1.37119259E-02     -2.99816879E+02     -7.33739397E+01
     -1.69897227E+02      2.21710347E+01     -6.42509183E+02
      1.07448289E+03      1.51296145E+03      1.26213608E+02
      3.25284304E+03     -2.93587946E+02     -2.50915709E+03
     -1.87108773E+02      1.90729882E+02     -3.63852539E+01
      1.31126259E+03     -5.89449706E+02      1.30987778E+03
      7.49232702E+02      3.72706189E+03     -2.09578112E+03
      3.35781770E+02      3.29718798E+02     -7.28113361E+01
     -1.57181215E+03      1.49454892E+03      2.99118330E+03
      1.13094923E+03      2.70716925E+03      1.51851853E+03
      1.61880859E+02     -4.99923803E+02     -2.99795286E+02
      9.00089424E+02      1.30715720E+03      1.92097368E+03
     -2.06185788E+03      7.34473100E+02      4.61784605E+02
      9.93661981E+02     -1.07473606E+03      2.04814575E+03
      8.25898126E+02      4.86614341E+02      6.06587803E+02
     -2.70829444E+03     -6.77500321E+02      1.45593595E+03
     -3.17085712E+03      6.07881863E+02      2.35503998E+02
     -1.15444291E+03     -6.69575215E+02      2.17364087E+03
     -4.39813435E+02     -1.06215099E+03     -8.40667762E+01
      9.91535179E+02     -6.06208427E+02     -1.00826247E+03
     -2.26254482E+02      1.52957557E+03      1.45329448E+03
      1.79580714E+02     -5.00793871E+02     -1.07959473E+03
      1.14659583E+03     -2.88090639E+03      5.35063136E+02
     -2.02822641E+03      1.00835652E+03      3.59564345E+02
     -5.05610973E+02      2.19465170E+02      3.78678830E+01
     -5.05489457E+02     -7.74830153E+02     -3.37606502E+02
     -1.44740632E+03      1.40670014E+03     -3.53320851E+03
     -7.72039175E+02      8.74909737E+02     -1.17621296E+02
     -7.68020872E+01     -3.12830540E+02     -4.73147791E+02
      2.00858270E+03     -2.55711163E+02     -2.94257461E+03
     -5.36920336E+01      6.63594786E+02      1.52045081E+02
      1.71856163E+03     -2.35472923E+03      2.99854353E+02
     -1.02973474E+03      9.57096416E+02      2.96056700E+03
      7.65236239E+02     -8.67513031E+02     -3.22789438E+02
      1.14008229E+03     -8.21738367E+02     -1.08836779E+03
     -4.76020029E+02     -1.33891227E+03     -3.96104169E+01
      4.96186186E+01      8.20822376E+02      1.61196087E+02
     -9.27008758E+02      1.94904201E+02     -2.13074156E+03
     -2.64271418E+03     -2.36945033E+03     -3.51234750E+02
     -6.18111301E+01     -9.89674402E+02     -5.40358530E+00
      1.19639400E+03      3.89855595E+03      1.57550450E+03
      6.65789431E+02     -9.52870106E+01     -2.58656330E+02
      3.37888676E+02      1.07327567E+02     -2.97349624E+02
     -8.36242981E+02     -2.25912120E+03      8.08888275E+02
      4.46248375E+02      1.03470896E+03      1.11716052E+03
     -5.05365876E+02     -1.50170490E+03     -1.44519177E+02
     -1.17605694E+02      5.08497596E+02      2.76785042E+01
     -3.25596353E+03     -4.27884566E+02     -1.67582240E+03
     -1.93160880E+03     -1.89990842E+03      2.84342493E+02
     -1.51346723E+03     -1.21718058E+03      3.31686557E+03
      3.06598716E+02      7.25603227E+02     -1.52555545E+02
      2.88254460E+02     -2.18225450E+02     -1.09321968E+03
     -1.11906577E+03     -8.31189977E+02      5.00662702E+01
      3.00004710E+02      6.19032942E+01      5.18870992E+02
     -7.95949032E+02     -2.55326941E+03      3.64903447E+03
      3.70813925E+03      9.67703658E+01     -6.25631266E+01
      2.84387468E+02     -8.13131867E+02     -4.07168973E+02
      5.03954109E+02      6.08348504E+02     -9.23387385E+02
     -1.63160272E+03     -3.76656801E+03      2.20026086E+03
     -4.60132755E+01     -1.41788063E+00      3.77292008E+02
      2.27302044E+03     -2.18401794E+03      7.55776162E+02
      5.96755560E+02      1.48482753E+03      7.83094614E+02
     -6.57238302E+02      6.67011677E+00      7.29420568E+02
      2.13346715E+03      1.27109036E+02      7.75914792E+02
      9.19388065E+02      4.40006408E+01      9.97255450E+02
     -2.32935947E+02      2.98107450E+02      1.16325467E+02
     -7.53689362E+02      2.70449585E+03     -1.60941398E+02
      7.33389106E+02      1.49589092E+03     -1.44159356E+03
     -6.50655246E+01     -8.74593145E+02     -6.40495898E+02
     -1.08220884E+03      2.13946178E+03     -3.39229193E+02
      2.49187038E+03     -1.21354416E+03     -2.09163334E+03
     -2.07090912E+01      4.22076962E+02      1.62913333E+02
     -3.43823615E+03     -9.81874203E+02     -1.03297026E+03
     -3.23154254E+03     -6.92000232E+02     -5.81849466E+02
      2.59759159E+02     -1.27860873E+02      8.69348979E+02
      9.71768260E+02     -4.19095537E+02     -1.73239660E+03
     -1.38833325E+03     -7.19290847E+02      7.67824418E+02
     -3.47063825E+02     -1.49892687E+03     -1.44326139E+03
      3.10772241E+02      2.70348009E+02      4.95943517E+02
     -3.36761442E+03      6.41411795E+02     -7.68799766E+02
     -7.16338582E+02      3.24382457E+03     -7.56210117E+02
     -8.81682620E+02      9.21174451E+02     -1.38116234E+03
      4.15556864E+01     -1.44337900E+02      5.24315342E+02
      5.07300591E+02     -5.79378880E+02     -1.52743092E+03
      6.50635726E+02     -7.56096049E+02     -9.18797698E+02
      3.80673139E+02      1.10890005E+02     -1.45130600E+02
      9.28198780E+02      1.58088693E+03     -1.40267807E+03
     -2.87751511E+02      8.76150814E+02      4.72219139E+02
      6.66390404E+02     -5.39594240E+02     -7.16488080E+01
      1.70626375E+03      1.80310113E+03      2.37534818E+03
      5.88550183E+02     -3.52651946E+03      1.67025589E+03
     -1.60302090E+02      2.50530259E+02     -1.19062528E+02
     -2.82474916E+02      4.34842054E+03      1.03439237E+03
     -2.57627211E+03      2.03123120E+03     -6.00219250E+02
     -3.18467762E+01     -1.67426326E+02      4.77741338E+02
     -2.65413304E+03      1.13669476E+03     -1.30126112E+03
      4.40682145E+01      7.97307952E+02     -4.53261079E+01
     -5.18670777E+02     -7.84869702E+02      1.49547901E+02
     -6.20986205E+02     -5.63049868E+02      6.19580757E+02
      8.20961472E+01     -6.26150748E+01      1.52937858E+03
      1.37139586E+02      3.27900922E+02     -1.73285035E+02
     -1.01696414E+02      7.70078956E+01      1.25675898E+02
     -4.26184286E+02      1.49709245E+03      8.17183878E+02
      3.79530564E+02     -6.16565735E+02      3.94892662E+02
     -1.31907170E+03     -4.28414735E+03     -9.63843893E+02
      1.07223233E+03     -1.13141709E+03      1.98073096E+03
      1.06145119E+03     -9.37339325E+02     -3.74460102E+02
     -9.09082124E+02      1.16749484E+03      2.34111130E+01
     -2.57549897E+03      5.55173055E+01     -1.66467721E+03
     -1.44110697E+03     -1.30565899E+03      7.60495862E+02
     -5.41582243E+02      5.64929367E+02     -2.93115888E+02
      6.85449314E+02      2.18441339E+03      3.21215006E+02
     -3.09751862E+03     -1.01240020E+03     -3.99016248E+02
     -1.30370314E+03     -9.49040362E+02      3.24575851E+03
      9.17629453E+02      4.86714297E+01      3.82074567E+02
      7.09591463E+02     -5.73666376E+02      2.90206783E+03
      2.79689056E+02      1.08851337E+03      1.54668055E+02
      1.04275489E+03     -1.26866188E+02      6.29977176E+02
      7.17644483E+01     -1.03378086E+03      2.95883077E+03
      7.21700185E+02      1.67253020E+03     -3.53662410E+02
      1.33654160E+02     -4.94834187E+02     -5.15279287E+02
      1.44777438E+03     -1.54135608E+03     -1.30128096E+03
     -2.78900967E+02     -2.77647488E+02     -2.00155564E+02
     -1.23417119E+02      9.46917857E+02      4.28417009E+02
      2.83547686E+02      2.91932775E+03      7.05096907E+02
      1.30476950E+03     -4.48133869E+03      2.04688168E+03
     -1.18231715E+02      4.50104580E+02      1.36300474E+02
      5.26688472E+02     -9.64768851E+02     -8.20195393E+02
      1.43112344E+02      5.08934234E+02      7.01555513E+02
     -1.46042631E+02      1.48634777E+01      5.80512515E+02
     -1.19961882E+03      9.55095049E+01     -1.26319163E+03
     -9.32976004E+02      5.92174184E+01     -6.89655304E+02
      3.66804606E+02      3.67504479E+02      4.94582539E+01
     -5.16384638E+02      2.23621224E+03     -1.82780001E+03
      2.41228076E+02     -1.82785088E+03      1.74120968E+03
     -3.00468184E+02     -7.70319243E+03     -9.88612150E+03
     -1.35871772E+03     -1.18118789E+02      1.78324092E+02
     -3.24748720E+03     -1.57663202E+03      1.12798422E+02
     -6.32724368E+02     -4.79382049E+01     -3.02828734E+02
     -1.28650312E+03     -2.86069913E+03      7.08497201E+02
      9.49396718E+02      2.16239971E+03      1.69078391E+03
      6.20932456E+02     -1.65234500E+03      2.87281374E+03
      2.17024523E+02      3.73502689E+02      1.54268051E+02
      8.77067957E+02      2.06972589E+03      1.51355584E+02
     -7.81949920E+00     -5.67276519E+02     -2.08805480E+02
     -2.65663626E+03     -2.55069266E+03      1.63457837E+03
      8.28251562E+02     -2.68505189E+02      5.02871779E+02
     -9.87084258E+02      1.93759470E+01      2.10712365E+03
     -1.41068028E+03      1.70615216E+03      7.25912111E+02
      8.40936723E+02      9.71603707E+01     -4.59427681E+02
     -6.12119955E+02      1.79885143E+03     -3.56855386E+02
     -1.14373171E+03      7.64571113E+02     -1.33032385E+03
     -6.73928324E+02     -5.96066324E+02      6.71579627E+02
      1.18984740E+03      2.34190712E+03      4.10107138E+02
      1.43475270E+03     -2.41999099E+03      4.23694511E+02
     -2.28041415E+02     -6.38131271E+02      7.77453911E+02
      1.36878705E+03      9.26640551E+02      2.00114052E+03
     -1.23200667E+03     -3.24624833E+03     -2.36500941E+03
     -1.04112630E+01     -6.59584854E+01     -6.26684011E+01
      1.93594881E+03      1.75383335E+03      5.69073480E+02
     -2.44840702E+02     -7.17654444E+02      2.17418881E+03
      1.21429867E+01      3.92590751E+01      4.89561741E+02
      2.72216362E+02      2.98562996E+03      1.22129437E+03
     -2.23383739E+03     -6.99225165E+02     -1.05114878E+03
     -4.19143396E+02     -2.51267070E+02      4.39852888E+02
     -3.74073618E+03     -6.37562577E+02     -9.25592261E+02
     -1.84584247E+03      2.41750350E+03     -8.26020497E+00
     -5.49107984E+01     -1.47899333E+01     -3.95566581E+02
      1.80300721E+03     -4.82937913E+02      2.10093111E+03
     -2.39110230E+03      2.27313057E+02     -2.96411546E+03
     -8.70265165E+02      4.69283074E+02     -2.18916329E+02
     -1.35071323E+03      1.49565142E+03     -1.01204957E+03
      3.76092743E+03     -2.17982541E+02     -1.16246710E+03
     -2.37336062E+03     -3.80911021E+02      3.05110936E+03
     -4.66369108E+02      1.60425252E+02      4.63729484E+02
     -2.03372661E+02      1.52810674E+03      1.48082653E+03
      2.24804464E+03     -7.10555663E+02     -3.22763922E+03
     -9.15651476E+02      4.30107388E+01      4.73390017E+02
      5.71329744E+01      1.57730819E+02     -1.57003157E+01
      1.38383047E+03      2.15731360E+03      4.75985628E+02
     -4.50641058E+03     -3.34742468E+03     -1.85778187E+02
     -3.37962279E+02     -3.13598882E+02     -5.41354848E+02
      1.81154497E+03      1.79251225E+03     -1.78218005E+02
      1.61276141E+03      8.87464384E+02      1.19281885E+03
      1.08074675E+02     -1.44950142E+02      6.32142356E+02
      6.14401429E+02     -9.44503688E+02     -1.08624840E+03
     -1.16481000E+03     -7.27219959E+02      1.61961951E+03
      6.27456449E+02      1.17479645E+02      3.21891841E+02
     -1.01698649E+03     -8.26989060E+02     -8.54829627E+00
     -2.09980054E+03     -3.39784854E+02      1.43638905E+03
     -9.63123946E+01      6.81571022E+01      1.20936418E+02
      2.04172348E+02      1.18009413E+03      1.24857150E+02
      1.37091848E+02      2.17897043E+03     -9.01895733E+02
      2.83947639E+02     -1.66760515E+02     -4.17871232E+02
     -7.69647500E+02     -7.27627721E+02      2.22045368E+03
      4.68799796E+02     -2.20296064E+02      1.49452347E+03
     -1.36802757E+02      5.05001234E+02      8.39376950E+01
     -2.70586518E+03     -7.26309225E+02     -6.87566541E+02
     -1.86717747E+03      1.62810783E+03      4.66111079E+02
     -7.80541435E+02      6.17587597E+02      1.22728303E+03
      2.98786244E+02     -9.83997894E+02     -1.96157265E+03
     -1.56010250E+03      6.79907479E+02      1.59835026E+03
      3.09348170E+02      7.38350034E+02     -1.35742906E+01
      2.72099391E+03      7.64996933E+02     -2.83546721E+03
      1.34686275E+03     -1.14920672E+03     -9.07621909E+02
      8.39101085E+02      4.34944536E+01      5.41363373E+02
      9.54908362E+02     -2.26078886E+02     -6.23963037E+02
     -3.18426310E+02      1.43481635E+02     -2.10326610E+03
      1.73901840E+02     -6.31202761E+02      9.57395646E+02
      1.32152788E+03     -1.57567390E+03     -6.65580717E+02
      1.00172241E+02     -4.72532045E+01      6.02284920E+02
     -1.46117345E+03     -1.80655760E+03     -1.55286928E+03
      1.38898483E+03      4.81376408E+02      1.52612511E+02
     -4.20766507E+02      2.62119037E+02      8.73036945E+00
      1.38258104E+03     -1.94367765E+02     -1.98865117E+03
      2.77004292E+03      1.12985509E+02     -1.42331057E+03
     -1.72435790E+01      3.38110881E+02     -2.81107233E+02
     -1.83526994E+01     -1.47387753E+03      4.50508329E+03
     -4.27671476E+02     -9.65458272E+02     -2.46202619E+03
      5.03026533E+02      7.00534981E+02      1.89901858E+02
     -6.73249264E+02     -1.36374347E+03     -2.85650427E+03
     -2.41938783E+03      3.44514135E+03     -5.01157570E+02
      1.64523723E+01     -2.99609961E+02     -4.43414337E+02
      7.08027616E+02      2.00242586E+02     -1.93225755E+03
      7.65772016E+01      1.41207399E+03     -8.47008685E+02
     -5.70464707E+02      6.73074922E+02      1.73336495E+02
     -1.33794874E+03     -3.52862890E+02      2.95869966E+02
      1.96307319E+02      6.70039373E+02      9.98070879E+02
      2.13931847E+02      2.43354599E+02     -1.69492169E+02
      7.15721588E+02     -9.48491278E+02      6.39675087E+02
      1.45226356E+03      2.70941103E+03      1.83133137E+03
     -7.60318582E+01      3.77711251E+02      1.17792663E+02
     -7.37922943E+01      1.91620114E+03      3.58033614E+02
     -8.17837890E+02     -5.37923806E+02      7.44227222E+02
     -1.16743415E+03      8.21409071E+02     -5.64260216E+02
      1.51751371E+03      3.34780627E+02      1.49771742E+03
      3.78930759E+03     -1.36415390E+03      3.37831414E+02
      5.99330137E+02      1.72856398E+03      1.42117435E+03
     -5.06879540E+02      2.09826006E+02     -3.11025862E+02
     -1.75736183E+03     -1.22189287E+03     -1.03765978E+03
     -9.75459548E+02     -3.10629898E+02      4.99424845E+02
      3.42832907E+03      1.01044521E+03      4.15863356E+02
  }
}

Hamiltonian = DFTB {
  SCC = Yes
  SCCTolerance = 1e-6
  MaxSCCIterations = 200
  ForceEvaluation = Dynamics
  MaxAngularMomentum = {
    C = "p"
    H = "s"
  }
  Charge = 0.0
  SpinPolarisation = {}
  Eigensolver = Standard {}
  Filling = Fermi {
    Temperature [Kelvin] = 300.0
  }
  SlaterKosterFiles = Type2FileNames {
    Prefix = "../../pbc-0-3/"
    Separator = "-"
    Suffix = ".skf"
    LowerCaseTypeName = No
  }
  KPointsAndWeights = {
    0.0000000000000 0.0000000000000 0.0000000000000 1.00000000000000
  }
  Dispersion = LennardJones { 
    Parameters = UFFParameters {}
  }
}

ParserOptions = {
  ParserVersion = 3
}
