Geometry = GenFormat {
<<< "system.gen"
}

Driver = VelocityVerlet{
  Steps = 50000
  TimeStep [fs] = 0.2
  MDRestartFrequency = 25
  Thermostat = None {
    #InitialTemperature [Kelvin] = 300.0
  }
  Xlbomd{ 
    IntegrationSteps = 6 
    MinSccIterations = 2
    MaxSccIterations = 200
    SccTolerance = 1e-6 
  }
  Velocities [m/s] {
     -4.92438707E+02      3.35968783E+02      2.86053293E+02
     -1.25402611E+03     -8.88569279E+02     -3.63619431E+02
      6.00895297E+02      2.44254255E+01     -3.52009870E+03
     -1.32202294E+02     -6.10283943E+02      3.77325796E+02
      1.60355932E+03     -8.42510782E+02     -5.92339253E+02
      1.95344413E+03      1.41129556E+03      1.56670784E+03
     -9.53849497E+01     -3.16602461E+02      1.16485099E+02
      4.02302513E+02      1.11693950E+03      2.84499434E+02
      8.32203559E+02      1.40395868E+02     -1.29338827E+03
      6.20699717E+02     -1.66261493E+01     -6.56681203E+02
      1.86889011E+03      6.11293185E+02     -1.65080795E+03
      2.18899742E+02      1.39932713E+03     -4.49426133E+03
     -7.63979855E+01     -1.92800992E+02     -1.04032055E+02
     -3.98985287E+02      5.02544831E+02      1.36578544E+03
     -2.10404819E+03      1.26911509E+01      1.29961086E+03
      1.12422863E+03     -1.84449947E+02     -5.95541452E+02
     -6.06307342E+02     -2.32723343E+03      3.53277670E+03
     -7.77927028E+02     -1.59696400E+03     -6.61682828E+02
      6.60949583E+01     -2.75760009E+02     -5.28547427E+02
     -1.15949553E+02      2.57241693E+03     -2.57536427E+02
      1.71395262E+02     -8.86641839E+02      5.74283767E+02
     -3.79704841E+02     -7.70553311E+01      4.95427636E+02
      1.65220746E+03      6.98826956E+02      1.68014397E+03
      1.49409725E+03     -2.92032166E+02      4.29786728E+02
     -7.87600606E+02     -4.43253689E+02     -6.15030951E+02
     -8.02680560E+02     -1.49670624E+03      1.24972155E+03
      1.22070739E+03     -1.16198696E+03     -1.01152628E+03
     -5.34651227E+02     -3.04721135E+03      1.80589560E+03
      1.21741055E+02     -5.40489573E+02     -1.41386169E+02
     -2.71625393E+02     -1.86404175E+03     -2.36215548E+03
     -9.30060873E+02      8.99271239E+02     -2.70281494E+01
     -1.30015996E+03      3.22885395E+02     -2.02199868E+03
     -2.42291128E+02     -6.71124831E+02     -1.91701272E+02
      1.33614142E+03      9.33488227E+02     -1.43291780E+03
      1.34215969E+03     -3.27548273E+03     -3.35106666E+02
      2.11375146E+01     -3.15862699E+02     -2.26086517E+02
     -1.21321437E+03      2.11612241E+03     -1.09739621E+03
      1.28035371E+03     -1.74086166E+03     -1.87223473E+03
      2.66252170E+02     -1.98315081E+02      6.21225636E+02
      5.97385592E+01     -1.80701932E+03     -1.58800649E+02
      1.46781398E+03      9.75956293E+02      2.30756454E+03
      9.62994256E+01     -4.90684256E+02     -1.91479344E+02
      1.36760146E+03     -2.11086052E+03     -4.56994423E+02
      5.14005673E+02      1.28241952E+03     -7.62763850E+01
      4.21697811E+02      1.18533792E+03      3.51349268E+01
     -4.11082445E+02     -6.85186715E+02      1.95691301E+03
      4.65817386E+02     -1.71437253E+03     -1.11761485E+03
      8.31935643E+02     -1.30177222E+01     -5.65997392E+02
      9.38813265E+02      1.89339068E+03     -1.80479173E+03
     -9.42130015E+02     -1.24129157E+03     -7.47367121E+02
      3.19976637E+02     -4.11251644E+02      3.96475944E+02
      2.40165992E+03     -1.09987447E+03      1.92957800E+02
     -1.44220738E+03     -2.29718391E+03     -9.65259978E+02
     -4.64401699E+02      1.17831066E+01      4.06591258E+02
     -2.88424857E+03     -1.89424056E+03      8.09861781E+02
      8.80901030E+02      2.64637688E+03     -5.29711772E+02
     -4.39746631E+01     -2.02669431E+02      4.22048579E+02
      1.14185841E+03      9.95916606E+02     -2.05767605E+03
      2.28090845E+03     -1.35974371E+03      1.33802835E+03
     -2.81721530E+03     -1.24085359E+02      8.98537006E+02
     -2.16270890E+02      2.04184714E+02      1.43817997E+02
      8.24783018E+02      6.52292996E+02      7.43825374E+02
     -1.32571900E+03      2.55058036E+03     -2.22010039E+03
      6.78767436E+02     -3.49570988E+03      1.06727958E+03
      6.61479233E+01     -6.94768586E+02      8.58742119E+02
      9.15438616E+02     -1.00494058E+03     -2.00882149E+03
     -1.02386083E+03      7.92146453E+02     -1.56334371E+03
     -5.01010514E+02      6.22509414E+02     -3.02213042E+02
     -2.33461956E+02     -2.68938023E+03      3.22843932E+01
     -1.04000174E+03     -1.65627553E+03     -4.83135645E+02
      9.44711726E+02      1.36342322E+02      3.87555526E+01
      1.38202242E+03     -8.46029728E+01      1.79272129E+03
     -2.12675653E+03      3.09830632E+02      7.44425561E+02
      9.15165864E+02     -9.65445404E+02      2.87751534E+02
     -1.12733603E+02     -3.88723355E+03     -8.01254245E+01
      2.78481776E+03     -3.02873255E+02      1.37709711E+03
     -3.11770289E+02      8.33874620E+01     -4.87354232E+02
      8.39782309E+02     -1.16230191E+03      1.50529525E+03
      1.09464438E+03     -1.93736032E+03      3.78275017E+03
     -2.54016494E+02      1.23298254E+02     -1.48860085E+02
      1.13737276E+03     -4.99696025E+02      5.03451291E+02
     -2.29924789E+02     -1.27033574E+03      1.01504193E+03
     -1.01458023E+02     -3.76553387E+02     -2.26409918E+02
      1.06637593E+01      9.87499741E+02      1.51817806E+03
     -1.46587283E+03      2.52268176E+03      5.47114108E+02
      1.64180763E+02      1.02801497E+02     -6.15819278E+01
      2.61686291E+03     -1.10416791E+03      2.28202032E+02
     -1.31860277E+03     -7.89039736E+02     -1.77027736E+03
      5.76829338E+00     -1.75641483E+02     -3.10188614E+02
     -1.68575513E+03      1.06232340E+03     -3.31444772E+02
      5.25748995E+02      6.57913088E+00     -6.97159139E+02
      1.75288770E+03     -2.24582523E+03     -1.44373926E+03
     -4.00301717E+00     -1.76881191E+02     -1.59677260E+01
      2.19773586E+03     -1.80667642E+02     -1.33488538E+03
     -2.14663634E+02     -1.70547272E+03      2.06914831E+03
      7.84390638E+01      2.35225725E+03      1.25638387E+03
      3.98270826E+02     -6.09985665E+02      1.33732675E+02
      1.45023337E+03      2.48383673E+03      4.31406456E+02
      1.55566997E+03     -2.58705996E+03      6.45177113E+02
      5.02790570E+02     -6.31335366E+02     -5.25082750E+02
     -1.38552752E+03      1.34431704E+03      1.57789784E+03
     -3.52740568E+03     -1.29462769E+03      5.23253975E+02
     -8.63556981E+02     -7.73780402E+02     -2.43482484E+02
     -1.54190474E+02     -7.30603897E+02     -1.92046849E+02
     -3.64356390E+02      2.38293469E+01      1.18552383E+03
     -1.55018120E+02      2.33843006E+02      4.27283049E+02
      5.36252635E+02      1.50748516E+03      6.28379558E+02
      1.53762167E+03     -1.68219593E+03     -1.42626337E+02
     -1.47192753E+02      7.37642121E+00     -1.05696586E+02
     -2.45063370E+02      2.03163270E+03      6.91072900E+02
      8.62274477E+02      8.35798626E+02      1.20449083E+03
      2.15205498E+02     -1.50800355E+02      5.31726823E+02
     -4.91694952E+02      4.14663037E+03     -6.44865217E+02
     -2.68504236E+02     -1.49290860E+03     -1.47268097E+02
     -1.04139016E+02      1.65586584E+02     -8.88846345E+02
      6.32173229E+02     -2.87801878E+02     -1.28079086E+03
      3.16321991E+02     -2.42671019E+02      1.96759723E+03
     -5.63312753E+02     -5.44591785E+02     -2.63045179E+02
     -9.91237470E+02      6.38282842E+02      2.39470223E+03
     -8.12056241E+02     -1.43670738E+03      1.88682940E+03
      6.24292630E+02     -5.31190042E+02      3.96612717E+02
     -6.15661000E+02      2.04686883E+03     -4.35265137E+01
      2.10588053E+03      8.08143480E+02      2.26646992E+03
      1.43379203E+03      5.30009066E+02     -2.02371079E+03
     -4.50406555E+00     -9.93896510E+02      6.81018207E+00
     -1.65160666E+03     -4.10769874E+02     -1.87223540E+00
     -1.56219893E+03      1.67253189E+03     -1.92244555E+02
     -1.27575553E+03      4.16330426E+02     -1.80324286E+03
      7.29054401E+02     -5.32543140E+02      8.15487951E+01
      6.50790845E+02     -7.25677528E+02     -9.42348454E+02
      9.75637704E+02      1.81757995E+03      3.60499253E+02
      2.16660046E+02     -6.33876077E+02     -3.83255236E+02
      1.45575582E+03      5.96329468E+02      3.02642927E+01
     -2.13347598E+03     -5.16618462E+02     -4.28505411E+02
      1.83410940E+02     -4.67095525E+02     -2.13622797E+02
      6.31204464E+02     -1.29545979E+03      9.18025051E+02
      2.46098184E+03      1.30968671E+02     -1.61577622E+01
     -6.61921745E+02     -4.13841284E+02     -1.21718587E+02
      2.24040417E+03     -3.16594528E+03     -6.66381449E+02
      8.52542301E+02      1.22596031E+03     -1.13306350E+03
      1.87923606E+02     -2.21134502E+02     -2.70675697E+02
      7.47266866E+02     -6.56568410E+02     -8.12115261E+02
     -4.28759765E+03     -6.91886250E+02      1.44109745E+03
      9.02142129E+02     -9.18807946E+01      8.31357625E+02
      3.09709708E+02      1.11379554E+03      1.92075010E+02
      8.25332915E+02     -2.04111374E+02      2.25756353E+03
      3.93054685E+02      4.82350693E+02     -2.30456935E+02
     -2.28946467E+02      1.42593093E+03     -1.90675435E+03
     -1.74513607E+03     -9.67581510E+02      1.04064890E+03
     -5.79775206E+02      2.61725568E+02     -7.80790929E+02
      7.28735982E+02      1.64072633E+03      3.01169077E+03
     -3.84125068E+03      5.97797172E+02     -4.36506146E+03
      7.63445206E+01      6.77532749E+02     -3.99505416E+02
      5.54046422E+02      9.48338032E+02     -8.58012817E+02
     -3.45206711E+02      2.34009727E+01     -6.53238743E+02
      8.59744231E+02      2.16978461E+03      1.58056488E+03
      4.75578813E+02      1.89824319E+02     -6.51688414E+02
      3.24914691E+03      2.21989512E+02      3.08422302E+03
      6.92276504E+02      7.25499914E+02     -5.20455129E+02
      1.43673616E+03      1.53320640E+03      5.69736194E+01
      5.60497273E+01     -1.17660700E+02     -6.56016438E+02
      2.00798043E+03     -5.56986098E+02     -5.02811037E+02
     -2.72972284E+02     -1.15395548E+03     -1.33682179E+03
      3.71276082E+02     -4.71355988E+02     -7.93464102E+01
      1.54317838E+03      3.47336031E+02     -2.70698908E+03
      1.81802498E+03     -9.83017594E+02      4.28427705E+02
      4.61980591E+02     -6.47915125E+02      4.97826122E+02
     -1.18437308E+03      1.82680264E+03      2.49631529E+03
      1.13817939E+02      9.71496286E+02     -2.11706863E+03
      8.19412351E+02      2.18567073E+02      1.00334004E+02
     -1.91403757E+03     -5.92948298E+02     -6.75225321E+02
     -2.10943637E+03      2.22778128E+03     -2.86026179E+03
     -6.97823216E+02      3.05080859E+02      1.17172952E+02
      1.53258443E+03     -1.80960000E+02      1.64632528E+03
     -1.08233221E+02      8.99439881E+02      8.10050347E+02
      2.77234497E+02      3.61807214E+02      4.35055040E+02
     -9.26889351E+02      3.51797187E+03     -1.93755312E+02
     -3.99015178E+02      1.43616350E+03     -1.19232055E+03
     -8.90658916E+02     -5.34474311E+02      6.43499297E+02
     -1.04732793E+03      2.44397387E+01     -8.68034164E+02
     -5.41572723E+02      1.22693217E+03     -1.07520269E+03
      9.77109273E+01     -6.05192520E+02     -1.99092284E+02
     -6.53447583E+02     -1.90321178E+03     -1.63806408E+03
      2.38452298E+03      2.62745503E+02     -1.17658851E+03
      3.63719743E+02      2.50800003E+02      5.64009592E+02
      8.61135113E+02      6.09355572E+02     -1.72551177E+03
      8.69047794E+02      3.04946454E+03      3.15126199E+03
      2.41376081E+03     -5.22833910E+02      1.15736825E+03
      7.63703976E+02     -3.01705832E+02      2.25446280E+02
     -5.90547342E+02     -1.71816250E+02     -1.61347156E+03
      2.42773234E+03     -1.30555573E+03     -7.74941578E+01
     -4.76419153E+02      1.80100454E+02     -2.64707978E+03
      4.60133720E+02     -8.02983783E+02      1.31374877E+03
     -1.10153037E+03     -3.39229426E+03     -1.60448108E+03
      2.74374086E+03     -7.35442967E+02     -7.57262663E+02
      9.63700676E+02     -4.08513734E+02     -4.33274689E+02
      7.15156424E+02      8.16664489E+02      8.81316121E+02
     -1.53041287E+02      5.85307751E+02     -8.25517238E+02
      4.12094188E+02     -2.48395670E+02      4.29979679E+02
     -3.67001337E+02      2.43352219E+03     -2.19097397E+03
     -9.62730487E+02      1.05873814E+03      4.35460338E+03
      7.11942894E+02      4.96082045E+01     -1.38818156E+02
      7.46317469E+02      6.40671907E+02      1.20806400E+03
     -9.07229093E+02     -1.83704620E+03     -1.48249335E+03
      2.41106193E+02     -3.26478244E+02      5.62259066E+02
     -8.12566977E+02      1.49991816E+03      6.40786808E+02
     -2.36435332E+03     -5.52749543E+02      1.68168220E+03
     -2.70251316E+02      2.97649005E+02     -1.20307848E+02
      2.06708721E+03     -7.07996823E+02     -4.25731640E+01
      2.48607104E+03     -2.53482630E+02      6.75558359E+02
     -4.20214014E+01      1.41635857E+02     -1.48877614E+02
      1.01173711E+03     -1.76268240E+03      1.07623015E+03
     -1.22351755E+03      1.75534454E+02      2.23580588E+03
      6.70399964E+02      5.47580725E+02     -6.14447929E+02
      5.46560430E+02     -1.05362751E+03      1.85248507E+03
     -7.29515822E+02     -1.39612728E+03     -3.83283604E+02
     -7.27658131E+02     -1.10347700E+02     -8.72761727E+02
     -4.72216834E+02     -2.27402033E+02      5.76658813E+02
      3.47565664E+02     -1.40145217E+02      1.06637925E+03
      3.36370851E+02      2.83456833E+03     -2.58834619E+02
     -6.14657350E+02     -2.79308416E+01     -5.66521496E+02
      8.27713511E+02      4.23248059E+02      1.55146328E+03
      7.29970464E+02     -7.39821339E+02     -1.39672421E+03
     -5.74454367E+01      1.62404007E+03     -1.28522308E+03
     -2.23301995E+02      2.26281417E+02      3.35970150E+02
     -1.32343682E+03     -1.72705642E+03      4.07975637E+02
     -2.63925804E+03     -1.16320180E+02     -2.00427050E+03
     -3.40052221E+02     -5.17750246E+02     -6.21682981E+02
     -2.43956554E+03      1.28040946E+03     -1.31904600E+02
      1.55303211E+03     -5.51140176E+02     -3.18051296E+03
      5.54069718E+02     -7.81079398E+02     -1.32602076E+03
      2.28772091E+03      2.55896230E+02     -1.06958486E+03
     -4.32236533E+02     -5.98046421E+02      1.20775106E+03
      1.09110602E+02     -6.76024704E+01     -1.71949388E+02
      1.83955468E+03      6.91850548E+02      1.31799075E+03
      2.09656853E+03      1.75870718E+03      6.20743371E+02
     -8.63692818E+01     -4.62472189E+01     -5.33910283E+02
      7.26613986E+02     -4.15433072E+01     -2.48627308E+03
      1.23286318E+03     -5.52305549E+02      7.03979426E+02
      6.65499621E+02      1.87594861E+02      1.71467333E+02
     -2.13616636E+03      4.00333360E+02     -2.61966880E+03
     -6.77288133E+01      3.39879117E+03     -1.42209849E+03
     -2.52163915E+02     -7.15144298E+02      6.00979728E+02
     -1.56888497E+03      9.67475572E+02      1.45368141E+03
      1.53053439E+03     -2.68058548E+02      6.11425892E+02
     -3.50654501E+02      3.36147880E+02      2.97357173E+02
      1.20755487E+03      2.08563039E+02     -8.28400882E+02
      1.33779238E+03      5.99046756E+02     -4.48282630E+01
      2.22039614E+02      6.91877833E+01     -2.27336734E+02
     -2.01367606E+03     -6.02424657E+02     -6.77018144E+02
      1.36244484E+03      1.17598652E+03      9.39973793E+02
      2.29005333E+03     -2.13954919E+02      6.47709513E+02
      4.61245524E+02      3.29537178E+02      4.23419186E+02
      1.11566903E+03      1.47411522E+03     -2.14883166E+03
      1.78807618E+03     -1.58193577E+03      2.44082155E+03
     -7.36895258E+02      1.55821350E+03      1.03138296E+03
     -1.73345337E+01      2.67531544E+02      2.70026330E+01
      4.63212010E+02      1.84136939E+03      1.31202570E+03
     -2.48708505E+02     -2.38907667E+03      4.36518680E+03
      1.78009073E+02     -1.15075031E+01     -7.10750514E+02
      8.15072765E+02      2.53722910E+02     -5.40735519E+02
      5.64380225E+02     -1.09731482E+03      1.47863965E+03
     -3.57957437E+01     -1.70031164E+02     -2.08560091E+00
     -1.13590322E+03     -1.53055976E+03     -1.22615404E+02
     -4.05834556E+02     -7.49514859E+02      1.12707206E+03
      3.84911011E+02     -1.19403882E+02     -8.19225605E+01
      7.35391039E+02     -2.19988321E+03      2.13247934E+03
     -1.11169271E+03      1.88838091E+03      3.71921585E+02
      6.67222839E+02      1.85487845E+02      3.50334802E+02
      4.92106186E+02      2.22181140E+03     -1.46391204E+03
      2.87627090E+02     -4.36229409E+02      2.33559918E+03
      4.31432140E+01      2.19995285E+02     -4.93257997E+02
     -1.06919932E+03      6.08850141E+02     -2.87784027E+02
      1.25171415E+03     -1.38270715E+03      1.92206851E+03
      3.90172562E+02      1.87237761E+02     -1.45019501E+02
     -1.18082408E+03     -3.67926021E+01      2.73793708E+03
      1.16654668E+03      1.76614969E+03     -2.15570902E+03
     -1.50929743E+02     -4.27107174E+02     -1.19837067E+03
     -9.30469477E+02      1.41373916E+03     -1.67226362E+02
     -3.06501070E+03     -1.41584937E+03      4.73974848E+03
     -5.60678000E+02      7.27014022E+02     -4.26794905E+02
     -2.91323684E+03     -1.96614241E+03     -2.84954288E+03
     -8.67303950E+01      2.91816369E+03      1.32489447E+03
     -6.56410458E+01     -2.52999559E+03     -3.64593876E+03
      1.50590896E+02     -1.87917956E+02     -7.42446581E+02
      7.42862855E+02      2.33485566E+02     -1.35890992E+03
      1.73653487E+03     -2.61821488E+03      7.44145835E+02
     -4.79829613E+02     -8.96850604E+02      2.13450159E+03
      4.06875623E+02      3.17626707E+02     -3.91521827E+02
      3.46337491E+02     -9.56357361E+02      2.10688820E+03
     -1.73048356E+03     -1.08926165E+03      7.93040265E+02
      3.57889888E+02      1.69311683E+01      1.02552759E+02
      2.28035486E+03     -1.91611873E+03      1.25831589E+03
     -1.32858680E+03     -1.81924726E+03      3.07955227E+03
     -3.84860092E+02      2.93073270E+02      4.00198608E+02
      1.29821767E+03      9.99345202E+01     -4.63959566E+02
     -2.38293677E+03     -2.12688504E+02     -1.55951772E+03
     -1.28280811E+00     -1.65517467E+02      8.23155297E+02
     -6.26342962E+02      1.04241482E+03     -2.26236782E+02
     -1.38726871E+03     -1.16375151E+03     -8.44451443E+02
     -1.58933773E+01     -3.78284852E+01      3.54518221E+02
     -3.00143525E+02     -1.39492385E+03      8.67379093E+02
      1.07290312E+03     -1.68193098E+03      1.00454647E+03
      2.10017359E+02     -2.78320262E+02     -4.10547286E+01
      1.73670909E+03      1.40272711E+03     -1.13292239E+03
      1.53717945E+03      2.81469040E+03      6.15621996E+00
      8.33362168E+02     -1.75583505E+02     -2.33235586E+02
     -1.53482814E+03     -1.90111964E+02     -5.00004807E+01
      1.35101500E+03      2.24786515E+03      2.38264657E+03
      4.82836906E+02     -7.25441227E+01      3.83750013E+01
     -1.83876539E+03     -1.96070011E+03      1.64775288E+03
      1.70526029E+03      7.75084649E+02      5.45979129E+02
     -7.91577163E+01     -4.84241747E+02     -5.86013310E+02
      1.69143967E+03     -1.58577727E+03     -5.07738404E+01
      1.95699626E+03     -2.82779463E+02     -1.33418137E+03
      2.96409365E+02      6.49251143E+02     -5.82619073E+02
      5.33719097E+01     -3.95582767E+01     -2.44581381E+02
     -1.00123666E+03     -6.46385798E+02      2.08954942E+03
     -1.82698320E+03      6.42584719E+02      1.30148161E+03
     -2.17662920E+03     -3.02293827E+02      9.41052395E+02
     -1.22215256E+02     -7.23781112E+01      1.05253236E+02
      9.70635033E+02      1.43168512E+03     -2.58958256E+03
     -1.69507931E+03     -9.52768882E+01      1.41263172E+03
     -7.62134888E+02     -3.21832092E+02      4.70319479E+02
     -1.21696377E+02     -1.79490135E+03      8.73728952E+02
      2.87472871E+03      4.51966078E+02      1.34994603E+02
      5.43454810E+02     -2.39793037E+02      3.05780484E+02
      2.15664237E+02     -9.52037172E+01      1.56350730E+03
     -6.40076438E+02     -7.51483396E+02     -7.04589814E+02
      6.29023880E+02      2.59072378E+02     -2.84023697E+02
      9.31918409E+02     -2.81088097E+03     -1.04708377E+02
     -5.20101391E+02      5.63592680E+02      9.86611966E+02
     -4.18153025E+02     -3.11422124E+02     -3.87331554E+02
     -8.19248936E+02     -1.39287480E+03     -8.53490701E+02
      9.09251527E+02     -9.90348426E+02     -3.29850787E+03
      1.20707014E+02     -5.79734626E+02     -5.18506906E+02
      1.31734420E+03      6.16001925E+02      1.67162629E+03
      1.31930116E+03     -2.30272442E+03     -8.16381945E+02
     -3.31807557E+02     -1.74725227E+00     -3.83905424E+02
      1.81579173E+03      3.86516919E+02      2.77406393E+03
      3.70462332E+02     -3.18727241E+03     -6.86152451E+02
     -1.36760496E+04      1.53831099E+04      7.13291322E+03
     -3.10874359E+02      1.28704777E+03     -1.17110864E+03
      2.16808776E+02      7.32894402E+02     -5.86765417E+02
     -5.32460252E+02      4.18873402E+01     -5.16402781E+02
     -1.08446004E+03      3.75920923E+02      7.55357199E+02
      2.19370124E+03     -2.13305621E+03     -3.68139179E+02
      3.37559761E+03      1.61130875E+03      7.66487477E+02
      6.81758230E+02     -5.39835565E+02     -8.89185228E+02
     -1.68488394E+02      5.74219791E+02     -1.70582427E+01
     -1.15778327E+03     -2.49300927E+03      1.19426134E+03
     -2.31822846E+03      3.85174661E+03     -3.33761691E+03
  }
}

Hamiltonian = DFTB {
  SCC = Yes
  SCCTolerance = 1e-6
  MaxSCCIterations = 200
  ForceEvaluation = Dynamics
  MaxAngularMomentum = {
    C = "p"
    H = "s"
  }
  Charge = 0.0
  SpinPolarisation = {}
  Eigensolver = Standard {}
  Filling = Fermi {
    Temperature [Kelvin] = 300.0
  }
  SlaterKosterFiles = Type2FileNames {
    Prefix = "../../pbc-0-3/"
    Separator = "-"
    Suffix = ".skf"
    LowerCaseTypeName = No
  }
  KPointsAndWeights = {
    0.0000000000000 0.0000000000000 0.0000000000000 1.00000000000000
  }
  Dispersion = LennardJones { 
    Parameters = UFFParameters {}
  }
}

ParserOptions = {
  ParserVersion = 3
}
