Geometry = GenFormat {
<<< "system.gen"
}

Driver = VelocityVerlet{
  Steps = 100000
  TimeStep [fs] = 0.2
  MDRestartFrequency = 5
  Thermostat = None {
    #InitialTemperature [Kelvin] = 300.0
  }
  Xlbomd{ 
    IntegrationSteps = 6 
    MinSccIterations = 2
    MaxSccIterations = 200
    SccTolerance = 1e-6 
  }
  Velocities [m/s] {
      8.81043010E+02      1.64822734E+01      1.80736016E+02
      5.93394747E+02      3.64245152E+02      1.46545826E+03
     -6.25899978E+02      2.16067771E+03     -2.75054033E+02
      2.82707420E+02      2.70225586E+02     -2.36418822E+02
      2.72770219E+02      9.92756364E+02     -1.29144942E+03
      1.01647855E+03     -5.28822118E+01      6.56883313E+02
     -7.97518307E+02      3.83935327E+02     -5.17222728E+02
      1.07553937E+03      5.96281087E+01     -9.21114922E+02
      7.95026905E+02      9.54315160E+02      3.16586090E+02
      8.37150794E+02     -4.83304674E+02     -1.05367358E+03
      1.16097902E+02     -1.27288283E+03     -5.51566368E+02
     -1.10119356E+03     -4.14950343E+02      1.29326510E+02
     -1.04060365E+03      1.34428060E+02      4.00632931E+02
     -1.66057642E+03     -1.56541643E+03      1.38848576E+02
     -2.93792573E+03     -4.66988389E+02      4.35254824E+02
      1.11813859E+02      1.64540541E+02     -1.79521115E+02
      3.42953319E+03     -6.74705427E+02      7.90405651E+02
     -6.85557718E+02      1.09100583E+03      1.56283410E+03
     -2.38519712E+02     -1.12269797E+02      1.25197844E+02
     -1.57276633E+03      1.06370748E+03      5.76905307E+02
     -1.80665752E+02     -4.04935975E+03     -2.16938681E+03
      1.73201168E+01      3.00527383E+02     -5.16428365E+02
      2.69384887E+01     -2.30951109E+02     -9.04907044E+02
      5.69819210E+02     -5.09581196E+01     -1.03979574E+01
     -3.86755677E+02     -7.03492152E+01      8.39859845E+01
      1.58246643E+02     -3.09280269E+03      2.01925628E+03
     -5.97947538E+02      1.90861505E+03     -1.72999720E+02
     -7.63656738E+01      2.88246504E+02     -1.95379082E+03
     -1.79458543E+02     -7.79131607E+02      3.83059765E+02
      1.50830217E+03      1.30162875E+03      7.90584024E+02
      2.49700195E+02     -2.78161116E+03      2.61256138E+02
     -1.19785858E+03     -3.83621241E+03     -8.10952235E+02
      9.47173129E+02      3.80572589E+01      8.83327863E+02
     -1.64656448E+03      1.44351483E+03     -1.46930208E+03
      4.48723643E+02     -2.14363541E+03     -8.80766512E+02
     -5.94211166E+02      4.31837345E+02      1.79934195E+01
      1.08127470E+03     -7.80401494E+02     -1.51025497E+03
      1.23922401E+01     -5.73487996E+02     -1.95240233E+02
      1.51606979E+02      3.45641090E+02      6.18721970E+01
      5.32639694E+02     -2.21954275E+03     -1.05429264E+03
      4.45671534E+02      3.07107317E+02     -1.91637647E+01
     -1.70110386E+02     -2.84039792E+02     -2.29607557E+02
      8.28198554E+01      9.24144889E+02     -1.12556844E+03
     -1.68768734E+03      3.32805014E+03     -1.56001961E+03
     -1.58396794E+02     -3.90245559E+02      1.40833877E+02
      1.13038762E+03     -1.63482446E+03      1.75473428E+03
     -7.38121047E+02     -1.34041039E+03     -2.77005525E+03
      5.68875615E+02      4.79410353E+02     -4.35159860E+02
     -2.26052059E+03     -3.12040726E+02      1.19417793E+03
     -3.47746306E+03     -1.17574760E+03     -3.53773553E+02
     -8.02463012E+02      5.10252902E+02      5.67434866E+02
      1.98132197E+03     -1.89711649E+03      3.20005512E+02
     -3.81183940E+03     -3.65991151E+03      2.02118396E+02
      2.18020695E+02     -9.78638501E+02      7.14464686E+02
     -5.70321540E+02     -2.95165221E+03     -2.57482103E+02
     -6.48873491E+02     -7.26747390E+02     -9.96248188E+02
     -3.34987563E+02     -1.19513685E+02     -1.48087097E+00
     -2.10052653E+03      1.23852707E+01     -8.80228260E+02
     -6.74283136E+02      3.08187555E+03      1.18198924E+03
     -2.41422531E+03      1.38304259E+01     -2.45124624E+03
      1.33505677E+02     -9.28015674E+02      1.45262723E+02
     -3.44586345E+02     -1.35174261E+03     -1.14917087E+03
     -1.89571729E+03     -5.35296158E+02      3.75549606E+02
     -6.79645555E+02     -2.44120971E+03     -1.14778269E+02
     -1.68318035E+03      6.35848201E+02     -1.36019736E+02
     -4.17709975E+02      2.23121139E+03     -2.19515869E+02
     -3.77113538E+03     -5.22426502E+02      1.88974319E+03
     -3.24088624E+02      1.09152654E+02     -3.50656896E+02
     -4.73499084E+02     -4.20706742E+03      1.71630366E+02
     -2.51865095E+03      1.30297433E+03     -4.76965643E+02
     -2.05419952E+02      3.11602875E+02      5.48690761E+01
     -3.48640535E+03     -5.37254795E+02     -1.50486769E+03
     -1.10026462E+03      2.75757804E+02      1.56602523E+03
     -2.97400698E+02      1.90120429E+00     -1.34703217E+02
     -1.39206927E+03     -3.45864150E+02     -3.61085400E+02
     -5.94108429E+02      2.10644729E+02     -1.70963244E+03
     -6.31105107E+01     -3.12249387E+02     -6.22069133E+00
     -7.52448970E+02      1.24864286E+03     -1.11674560E+03
     -2.87458362E+03      1.57261128E+02      9.97900869E+02
     -5.79321546E+02     -4.25369359E+02     -7.46008207E+02
     -3.26707145E+03      4.00549930E+02     -2.08127068E+02
     -7.72089892E+02     -1.99688903E+03     -1.44325525E+02
     -1.12851060E+03     -5.29209097E+02     -4.57754257E+02
      1.29020783E+03      1.84926423E+03      7.54207418E+02
      1.13905896E+03     -7.06953070E+02     -7.62572308E+02
     -1.12370136E+03     -2.62023733E+02      6.01335231E+01
      1.98857837E+02      1.24458767E+01      9.08469748E+02
     -2.44082580E+03     -2.19008642E+03      1.10698164E+03
      2.03104415E+02     -4.78923153E+02     -2.33529051E+01
     -1.29517529E+03      2.22188338E+03     -7.56427963E+02
      7.99804407E+02     -1.89225440E+01     -6.67871674E+02
      1.15529982E+03      8.63760584E+02      2.32559967E+02
     -2.47826632E+02     -3.21786572E+02      1.29789634E+02
      7.08412652E+02     -9.40649780E+02      1.84673840E+03
     -2.00313826E+03      2.32012573E+03     -1.05577474E+03
      5.56919954E+02      9.22198888E+02      2.00479755E+03
     -1.43787604E+02      2.44835887E+02      4.65431362E+01
     -1.47432496E+03      3.20576004E+03     -1.08084468E+03
      7.76567283E+02      8.62752136E+02     -1.41976553E+03
      8.90821437E+02      3.90430572E+02      1.26542583E+02
      2.60297096E+02     -8.87417974E+02      1.28092177E+03
      1.07984875E+03      1.04479847E+03     -4.42855076E+03
     -4.53503073E+02     -7.61587444E+02     -1.35693101E+02
     -1.29828893E+03      2.74291663E+03      4.17342974E+02
      1.39098647E+03     -1.74524224E+03     -1.00969473E+03
      5.20273073E+02      1.50085812E+02     -1.06358349E+02
      2.63588940E+03      1.06778881E+02     -1.97196789E+02
     -1.40006410E+03      1.56030937E+03      1.32729535E+02
      8.04391063E+02     -5.28027485E+02     -3.84742456E+02
      1.57717663E+03      1.14215707E+03      5.94927731E+02
      2.73826821E+03     -1.11373192E+02     -1.15934593E+03
     -3.67217012E+02     -4.63433569E+02     -5.84067459E+02
      2.57953935E+03      8.34855789E+02      1.54465967E+03
     -6.65366012E+02      9.15947812E+02     -2.29586763E+03
     -1.84252542E+02     -4.13366138E+02     -5.83574448E+02
     -2.33050318E+03     -5.90855038E+00     -2.23702707E+03
     -1.71962645E+03      1.21514794E+03      7.44127515E+02
     -6.91083340E+02      9.14042361E+02      4.83141165E+02
     -3.03242614E+02      1.88893344E+02     -7.32055488E+02
     -1.47924582E+02     -2.15506661E+03     -3.01345810E+03
      4.04540129E+02      3.14383543E+01     -9.03133901E+02
      5.46278631E+02      1.30936122E+03     -1.95018466E+03
     -1.47626206E+03     -1.33498014E+03      9.21424191E+02
     -1.63558966E+02     -2.93526562E+02      1.14230312E+03
     -1.28953627E+02      6.40840137E+01     -3.59660672E+01
      9.24567716E+02      1.35316219E+03      1.29373086E+03
     -4.98291642E+02      4.57202042E+01     -9.61063659E+02
     -1.90370199E+03     -1.45990010E+03     -7.12850666E+02
      5.11658737E+01      6.41366281E+02     -5.32133536E+02
      8.68321480E+02      7.81384363E+02     -4.09256972E+03
      1.61133617E+03      6.87224343E+02     -7.07517851E+02
     -4.91128336E+02      4.78528941E+02      2.96072973E+00
     -8.23977075E+02     -5.35548709E+02      6.33746146E+02
      5.94803420E+02     -1.40893813E+03      7.78099693E+02
      3.02556883E+02     -1.87577820E+02      5.12750675E+02
     -7.39005908E+02      8.91011963E+01     -1.56209899E+03
     -1.56095899E+03     -1.08696927E+03     -3.43704155E+03
      7.54661892E+02     -7.36035242E+02     -2.07993495E+02
     -6.06885246E+02     -2.37843917E+03      3.87737303E+02
      1.34532962E+02     -6.18502303E+01      2.51845734E+03
     -3.18526967E+02     -5.06460739E+02      5.43595153E+02
     -6.79357713E+02     -4.19748024E+02     -6.52844230E+02
     -9.37595191E+02     -1.39919967E+03     -1.31682657E+03
      1.69603730E+02     -2.83425151E+02     -7.30577687E+02
     -2.05989089E+03     -2.72705851E+03     -2.71137273E+03
     -8.93620778E+02      3.50677317E+00     -1.16935491E+02
      9.66219887E+01     -8.46171239E+01      2.28347984E+02
      2.29439376E+03     -9.29114444E+02      1.59533439E+03
     -1.01958462E+03      2.05839244E+02      8.30609021E+02
      1.77970543E+02     -3.49183473E+02      2.63597959E+02
      3.96941812E+02     -2.92007952E+03      1.08793431E+03
      2.02671290E+03     -2.25056394E+03      1.08846817E+03
      4.30834345E+02      4.23097352E+02     -3.73644056E+02
      6.23072769E+02      8.84394536E+01      3.68750533E+01
     -8.14506728E+02     -1.42514672E+03     -8.63509138E+02
     -3.37050988E+03     -1.15023658E+03      1.24637815E+03
      1.66613615E+01     -4.38006870E+02     -1.29318848E+03
     -1.71569541E+03     -8.95293621E+02     -1.25556329E+03
     -5.47630623E+02     -9.99766604E+02     -8.80102642E+02
     -1.67725211E+03      3.86104903E+02      4.02839470E+02
      2.55827554E+02     -4.42641140E+01      2.81559824E+02
      4.16039364E+03      7.48967549E+02     -1.49532863E+03
      1.17718359E+03      2.87460031E+03     -4.44948973E+02
      2.58918838E+02      4.64728849E+01      5.34137893E+02
      1.95874482E+02     -2.17604091E+03     -9.72944795E+02
      8.28179491E+02     -6.84193448E+02      7.01592192E+02
     -1.44096460E+02     -3.72878714E+02     -1.22064904E+03
     -3.33317787E+02     -8.54445764E+02      1.64434443E+03
      3.23740367E+02      2.06631626E+03     -1.47201502E+03
      1.04198252E+03      7.86306121E+01     -4.25619997E+02
     -1.17326885E+03      1.79028549E+02     -1.21879118E+03
     -3.92530941E+03      1.48457213E+02     -4.32498111E+01
      1.46601089E+02      2.58992129E+02      2.51324336E+02
      1.48556254E+03      1.37540662E+02      1.95600878E+03
     -1.34235915E+03     -1.58087148E+03     -9.63679526E+02
      6.97547702E+03      1.46135133E+04      1.45289030E+04
     -1.39481219E+03     -1.93006902E+02     -1.73404222E+02
     -3.37699137E+02      1.50492523E+02     -8.44890910E+02
      3.11984783E+02     -2.55096048E+01      6.65232305E+02
     -1.70896458E+03      3.78384418E+02      8.18234907E+02
      1.65406393E+02     -1.72577692E+03      1.23812668E+03
      2.11361770E+02      3.16687103E+02     -2.63076375E+02
     -1.99630569E+03     -3.76855142E+02     -2.12812403E+02
     -3.05645363E+03     -1.67813061E+03      4.21219112E+03
      2.52194342E+02      6.56165000E+01     -6.87252629E+02
      2.10198416E+03     -4.68850984E+02     -9.45694380E+02
      3.08757139E+03      2.45379259E+03      1.96472686E+03
      5.96244818E+01     -4.67552029E+03     -1.38373009E+03
      4.98398525E+02     -4.50349469E+02      1.67140679E+02
     -1.63158233E+03     -1.75636116E+03      3.12537164E+03
      1.57948948E+03     -1.49003398E+03     -2.10715191E+03
      1.12188538E+03     -3.39972492E+03      3.83451093E-01
      2.00262799E+02     -2.56504471E+02      3.11788964E+02
      1.37770925E+03     -1.93143336E+03      3.85455445E+03
     -1.78507022E+03      1.54750329E+02      5.79736441E+02
     -3.29341088E+01     -9.74718007E+02     -8.30017977E+02
     -1.56187175E+03      6.87421828E+02     -4.16172545E+02
      3.21035252E+03     -2.48538739E+03      2.29435204E+03
      7.22933017E+02     -3.01053570E+02     -7.06098967E+01
      9.39638614E+01      1.12348801E+03      4.58516273E+03
     -1.70793899E+03      2.64414400E+03      1.15985766E+03
     -4.72037603E+02      5.18157846E+02     -5.54252749E+01
      6.83965244E+01      5.10321520E+02     -1.72920825E+03
      3.74530614E+03     -8.37628248E+02     -2.03240459E+03
     -1.07018797E+02     -2.97598636E+02      2.39791991E+02
      1.36009440E+03      1.50040034E+02     -1.34415953E+03
      2.94876433E+03     -3.50627686E+02     -2.84076940E+03
     -4.84170404E+02     -6.29372532E+02     -6.89121262E+02
     -1.75687213E+03      2.62982701E+03      5.06429568E+02
     -1.86973030E+02      1.55475830E+03     -1.83454075E+03
      3.29401784E+02      5.35389921E+02     -2.68460494E+02
      7.92574468E+02     -3.01646401E+02      1.80731316E+03
      2.02572050E+03     -7.20872861E+02      1.49697709E+03
     -5.05990121E+02      2.73936540E+01      4.27846778E+00
     -1.52135658E+03      8.84201086E+01     -4.93988193E+02
      2.69130864E+02     -5.17081949E+02      7.88854616E+02
      9.68329519E+02     -9.76143835E+01     -3.29971357E+01
      3.71744657E+03     -3.01266241E+03     -2.46292418E+03
      8.48329353E+02     -1.41637303E+02      4.36575117E+03
     -8.78583273E+01     -6.96465388E+02      2.41620432E+03
      3.85628956E+02     -1.00589749E+02     -7.09889190E+02
     -2.19661062E+03     -2.33522446E+03      2.88111669E+03
      1.61067130E+03      3.24626567E+03      2.39197972E+03
     -1.07910002E+03     -1.89744113E+03      7.28486367E+02
      8.18631340E+01      4.19892273E+02      3.86729112E+02
     -1.26324621E+03      2.22682745E+02     -3.29855160E+02
      1.32613749E+03     -5.82732896E+02      2.83052249E+03
      9.11856717E+01     -4.38690972E+02      5.79274136E+01
      2.09571131E+03      1.47999197E+03     -2.36149746E+03
     -8.35385813E+02      3.91124474E+02     -2.84676070E+03
     -1.06946312E+02      5.96693048E+02     -6.93165512E+02
      1.20955540E+03      2.34322776E+03      1.83087436E+02
      3.79058174E+02     -1.47430850E+02     -3.28703316E+02
      7.05508025E+02     -1.03890722E+03      1.54559590E+02
     -2.98498303E+03      7.71479608E+02      4.12715135E+02
      2.98688411E+03     -2.32480757E+02     -3.18739146E+03
      2.60802844E+02      1.15664914E+02     -9.61622537E+01
     -8.82193511E+01      2.09572566E+03     -1.24851631E+02
     -2.59900269E+02      1.32844212E+03     -4.76886026E+02
      2.04408312E+02     -1.67703643E+02      2.33850470E+02
     -6.31597983E+02     -1.52213311E+03     -2.57937480E+03
      4.03267219E+02     -2.02953343E+02     -6.14009414E+02
      2.32827204E+02      2.13262669E+01     -2.49778471E+02
      1.69883928E+03     -1.33204502E+03      6.83682929E+02
      8.24036736E+02      6.75668290E+02     -1.45171178E+03
      2.32220515E+02     -3.94023347E+02     -3.38438612E+02
     -2.58145493E+03      1.48489108E+03     -1.25970991E+02
      1.90417309E+03     -1.45433652E+03     -1.42833113E+03
     -6.54926438E+02     -5.87282300E+01     -1.05957743E+02
      8.49007419E+02     -2.37094006E+03     -2.45896306E+03
     -5.55974435E+02      1.45354466E+03     -7.36543870E+02
      2.71484361E+02     -3.16043974E+03      1.65971624E+03
      3.16217397E+02     -4.07378917E+02      2.78169098E+02
      4.07078136E+02      3.30425034E+03     -8.05442936E+02
      4.51824128E+02      6.95260550E+02      1.17673609E+03
      6.88675534E+02      1.56505071E+01     -1.47715094E+03
      9.05655215E+02     -6.17287789E+02      7.92796765E+02
      1.37437532E+03      4.19484659E+03     -8.66410742E+02
      1.40847124E+03     -2.01495639E+03      2.11354731E+02
     -9.30157730E+02     -3.43445819E+02     -5.10643608E+02
      7.21454676E+02     -6.83964189E+02     -2.52477046E+03
     -1.19551405E+03      1.56812257E+03      9.87547268E+02
      2.86549332E+02      1.51013499E+01     -4.21376325E+02
     -1.41549083E+03      4.14990669E+03     -2.79418639E+02
     -9.94738584E+02      1.59556721E+03     -4.12714547E+03
      5.19695528E+02      2.32393161E+02     -2.51972395E+02
     -1.62837140E+03      1.97535835E+03      2.27495565E+02
     -2.66532753E+03      3.23543502E+03     -1.47397128E+02
     -1.29007828E+01     -1.38918177E+02     -4.73677508E+02
     -6.47539180E+02      2.94133893E+03     -3.93453646E+02
      7.67527700E+02      3.65473303E+03     -1.83677914E+03
     -5.36713212E+02     -3.09880592E+02     -2.91978096E+02
     -1.97145073E+03     -1.29413384E+03     -1.18216391E+03
     -2.40939291E+03      9.53433357E+02     -7.73857065E+02
     -3.74370550E+02     -4.96812150E+02     -4.54646124E+02
     -2.32179109E+02     -1.10849055E+03     -5.13620437E+02
     -1.54256475E+03     -3.34147687E+03      2.31330712E+03
      3.14879700E+02     -2.60721295E+02      2.02731023E+02
      8.83218841E+02      6.55206853E+01      1.90439174E+03
      1.98542539E+02      4.33687830E+02     -3.47076738E+03
     -3.31839315E+02     -2.78883387E+01      3.94875716E+01
     -1.37730238E+03      2.31045432E+03      3.66049929E+03
      1.75540548E+02      5.61477539E+02     -1.23194656E+03
     -3.91532814E+03     -3.40578982E+03     -7.22772701E+02
     -1.27947956E+01      3.60058181E+02     -4.30433463E+02
      4.41322078E+02      9.26439053E+02     -1.55276000E+03
     -2.43773892E+03      1.03871426E+03      1.10612204E+03
      3.79002522E+03     -2.28720152E+03     -1.20371188E+03
     -2.20433873E+02      5.51564749E+02      2.78945021E+02
      1.54984725E+02     -3.21314688E+03      5.59238913E+02
      1.84683771E+03      1.58567350E+02      1.49857279E+03
     -1.39275920E+03     -2.22818993E+02     -2.94382203E+02
     -4.26836723E+03      1.96542107E+03     -2.70895648E+03
      5.18881330E+02     -1.95587286E+03      1.18715405E+03
     -1.57548083E+02      8.71357078E+01     -1.93823523E+02
     -6.35012507E+02     -1.69746961E+03     -4.70779923E+02
     -1.12621141E+03     -6.73292021E+02      1.05404074E+03
      8.94360930E+02     -7.19296159E+02     -2.62455020E+02
     -8.45159695E+01     -2.42741882E+03      7.60816145E+02
     -6.81103435E+02      2.55308779E+02      8.39850331E+02
     -7.78600945E+01      6.44219511E+01      2.34326203E+02
     -1.12522047E+03      7.31814232E+02      1.83498228E+02
     -4.76790358E+02     -1.57258659E+03     -7.61604161E+02
     -1.68382106E+02     -3.28770955E+02      1.44885985E+02
     -2.46256075E+03     -2.53132675E+03      9.80608730E+02
      2.60858943E+03      1.28911702E+03      3.34778287E+03
     -4.60174564E+01      5.04740541E+00      5.19463077E+02
      1.58093335E+02      9.06836802E+01     -1.70460456E+03
     -2.39397434E+02      1.20072756E+03     -9.86761285E+02
      7.24237654E+02     -5.46338143E+02     -8.05030644E+01
     -3.39123952E+03     -1.43857850E+03      1.34385989E+02
      9.01073683E+02      1.06864683E+03     -3.17709895E+03
     -3.19153589E+02     -6.63131269E+01     -7.31135890E+00
      7.00397438E+01      6.46519529E+01     -2.28753916E+02
      3.40158124E+02      1.72255423E+03      9.35348197E+01
     -4.41052207E+02     -1.61448088E+03      4.74216705E+02
      1.23811897E+02     -1.01686851E+02     -4.38513312E+02
     -1.73225835E+03     -1.49384501E+03     -4.06853175E+02
      9.15299370E+02     -1.52837362E+03     -1.23646849E+03
     -4.44652040E+02      1.83173161E+03      2.29438918E+02
     -4.92351710E+02     -1.02294842E+02      4.65902472E+02
     -1.88994599E+02     -1.76511971E+03     -1.01169284E+03
      5.96734868E+02      8.38704463E+02     -3.79602705E+03
     -1.64517882E+02      5.44098833E+02      5.39561539E+02
     -1.48707235E+02     -1.31637335E+03     -4.54808522E+02
     -1.87099973E+03     -2.97876593E+03      1.11683471E+03
      3.12627350E+02      3.84014804E+01     -1.93164855E+02
     -3.00492533E+03     -3.86341860E+02     -2.06883428E+03
      8.68627289E+02     -2.83624794E+02     -1.00210058E+03
     -4.45192774E+02      9.19345002E+01     -3.42310125E+02
     -6.38455445E+02      2.53411967E+01     -2.64618152E+03
     -1.32821170E+02     -4.67734500E+02     -1.73962053E+03
     -5.66859475E+02     -5.33499234E+01      2.51496284E+02
      2.01640243E+03     -4.42345836E+03      1.21322190E+03
     -5.89553440E+02     -8.00405592E+02     -1.12044719E+03
      1.97344767E+02     -5.17201224E+02     -3.66519842E+02
     -1.79222141E+03     -1.19122356E+03      8.33408392E+02
     -2.05751793E+02      1.76236916E+03     -1.13111455E+03
      7.43919672E+02     -7.98931768E+02     -5.96116650E+02
      1.36160871E+03     -1.63192370E+03     -1.36783556E+03
      4.65588452E+02      5.13073305E+01     -1.96639137E+03
      4.93053118E+01     -5.46694403E+02     -9.20354012E+02
      1.35426128E+03      2.00932651E+03      1.90335285E+03
      1.12724302E+03     -6.79242239E+02      1.23140645E+03
     -5.52720187E+02      5.70442584E+00     -7.81338404E+02
      2.03499766E+03      1.46788919E+03      1.51378372E+03
     -2.91017695E+03      2.75879885E+02     -2.03310094E+02
     -5.10140225E+03     -6.49575872E+02      4.60708441E+02
     -7.53745992E+02      3.45631569E+02      1.02593635E+03
     -1.21397147E+03     -1.32294631E+03     -4.11529016E+02
     -3.08036278E+03      1.62547234E+02     -1.12345318E+03
     -1.31628377E+03     -2.12375556E+03      7.86857103E+02
  }
}

Hamiltonian = DFTB {
  SCC = Yes
  SCCTolerance = 1e-6
  MaxSCCIterations = 200
  ForceEvaluation = Dynamics
  MaxAngularMomentum = {
    C = "p"
    H = "s"
  }
  Charge = 0.0
  SpinPolarisation = {}
  Eigensolver = Standard {}
  Filling = Fermi {
    Temperature [Kelvin] = 300.0
  }
  SlaterKosterFiles = Type2FileNames {
    Prefix = "../../pbc-0-3/"
    Separator = "-"
    Suffix = ".skf"
    LowerCaseTypeName = No
  }
  KPointsAndWeights = {
    0.0000000000000 0.0000000000000 0.0000000000000 1.00000000000000
  }
  Dispersion = LennardJones { 
    Parameters = UFFParameters {}
  }
}

ParserOptions = {
  ParserVersion = 3
}
