Geometry = GenFormat {
<<< "system.gen"
}

Driver = VelocityVerlet{
  Steps = 50000
  TimeStep [fs] = 0.2
  MDRestartFrequency = 5
  Thermostat = None {
    #InitialTemperature [Kelvin] = 300.0
  }
  Xlbomd{ 
    IntegrationSteps = 6 
    MinSccIterations = 2
    MaxSccIterations = 200
    SccTolerance = 1e-6 
  }
  Velocities [m/s] {
      4.04838634E+02      7.32381745E+01     -2.45782089E+02
      2.50844873E+03      5.61247264E+02     -3.87097947E+02
     -1.79883183E+03     -1.58859338E+03      7.98236127E+01
      3.99502405E+02     -8.01296602E+02     -5.83102422E+02
      1.83479746E+03      7.74092210E+02     -6.59122208E+01
     -2.70619943E+03     -1.89594373E+03      1.29567205E+03
     -2.73140542E+02     -1.06619919E+02      1.13543990E+02
     -4.14432579E+02     -1.82559212E+03      1.80385354E+03
      8.05486377E+02     -8.27814630E+02      1.44210459E+03
      1.59521345E+02      1.11793063E+02     -1.47535379E+02
      3.29825027E+02      2.29008723E+02      1.94918000E+03
     -2.37519481E+03      9.25866924E+01      1.32544024E+03
     -4.49199640E+02      3.43148492E+02     -4.72805642E+02
     -2.96190791E+03     -3.08129354E+02     -1.28419051E+03
      1.14813724E+03      4.62552645E+01     -1.92692761E+03
     -6.01292630E+02     -1.95441129E+02     -9.13853742E+01
      8.64554157E+02      1.75005274E+03      2.53561078E+03
      1.05866781E+03      2.67752780E+03     -4.32141134E+02
     -2.76878461E+02      6.86704265E+02      3.34092914E+02
      1.87649327E+03      2.26000975E+03      4.70010242E+02
      1.85514780E+02      1.84402875E+03      5.60255227E+02
      2.26674881E+02     -1.01699382E+02     -3.62504094E+02
     -2.16774851E+03     -9.52439693E+02     -2.96549120E+03
     -2.24562808E+03     -2.38369351E+03     -1.39004030E+02
      5.76216733E+01     -2.68337908E+02      4.04133899E+02
     -5.40103665E+02      3.70848017E+01      1.19092019E+03
     -3.36826988E+02      1.90484497E+03      3.73049360E+02
      5.61314522E+02      3.66313620E+02     -1.19777263E+03
      1.28723476E+02      3.02801333E+02     -1.59461679E+02
     -2.70174262E+02     -9.67806350E+01      9.83231619E+02
     -2.23340756E+03     -6.69875884E+02     -3.07973888E+01
     -8.79765553E+02     -8.65053177E+02      1.99051721E+01
     -4.82729485E+02     -2.28687235E+02      4.87627074E+02
     -2.09238596E+03     -8.58982617E+02      2.83925477E+03
      1.78760261E+03     -1.00243166E+03      6.02434174E+02
     -4.56803157E+02     -1.56804422E+02     -1.23616690E+02
     -5.34611226E+02     -2.76452482E+03      9.11345815E+02
     -2.88686441E+03     -1.89703935E+03      6.91389311E+02
      2.17185416E+02     -6.09238071E+02     -8.67843705E+02
      8.07227193E+02     -1.36819259E+02      1.55115480E+03
      1.08556417E+02     -9.79584313E+02      9.22997408E+01
      2.55520177E+01      4.39067377E+02      7.93622818E+02
      1.86261292E+03      2.45601598E+03      3.87257837E+02
     -4.43581194E+02     -1.25441005E+03      7.24947630E+02
      2.45482432E+02      1.18895428E+02     -7.84323916E+01
      3.07381225E+03      1.02019510E+03     -7.10103873E+02
      9.41935399E+02      9.44264419E+02     -1.82433310E+03
     -1.00704092E+03      2.15830954E+02     -1.76092559E+02
      2.28440710E+03      1.22835982E+03      4.69571377E+02
     -1.06669797E+03      1.91778571E+03      6.16262506E+02
     -2.16856323E+01     -5.85133030E+02     -3.69902677E+02
      8.31728165E+02     -3.15220363E+03      5.14844561E+02
      3.27054839E+03      8.02331577E+02      3.78021971E+02
     -2.86773968E+02      2.31410398E+01     -1.08748569E+02
     -3.55879201E+03     -5.48838482E+02      8.88152989E+02
     -5.36674785E+02     -4.41429654E+02     -1.34083561E+02
      8.45852813E+02     -1.68901014E+02     -3.40939516E+02
     -1.18022238E+03     -1.18483196E+03     -3.17931146E+02
      1.58419550E+03      3.77152557E+02     -1.73628305E+03
     -5.70250359E+02      2.24676844E+02     -1.94175004E+03
      3.77214547E+02     -1.37484741E+02     -3.27327351E+02
     -2.71841367E+02      3.60182414E+02     -7.77338981E+02
      3.79773741E+03      7.39007305E+02      5.74253060E+02
      1.84602017E+03     -1.90308730E+03     -7.14298402E+02
      5.46320930E+02      5.83680494E+00     -2.16722142E+02
     -3.09497108E+03      1.90977236E+03     -1.32782063E+03
     -2.80099163E+03      6.88383957E+02     -1.83689436E+03
      2.51060165E+02     -1.49553730E+02     -1.34677983E+02
      2.19501691E+03      1.52256762E+03     -5.82056823E+02
      4.55550125E+02      2.15640196E+03      1.72372262E+03
     -4.67322710E+02     -8.37290035E+01     -3.04063080E+02
      1.65398551E+03     -4.38383056E+02      3.07751074E+02
      2.50246726E+01      1.68591707E+02     -1.81200397E+03
      1.76141070E+02     -3.84715013E+02     -6.82849086E+02
     -1.05940989E+03     -1.00012563E+03      1.77399697E+03
     -5.33711727E+01     -1.25956648E+03     -2.98968819E+02
     -7.73196169E+02      5.94416568E+02      2.01784995E+01
      3.18936863E+03      1.35056422E+03     -4.53190202E+02
      1.52189805E+03      1.07662225E+03      6.81112784E+02
     -4.87380990E+02     -8.94624989E+01     -5.39298486E+02
      2.57792627E+03     -2.94526350E+02      2.80377001E+01
     -7.04670821E+02     -9.05755227E+02     -8.58721616E+02
     -2.71251067E+02      2.70746970E+02      1.95029933E+02
     -1.27474784E+03     -5.68932538E+02      2.32937091E+03
      4.26329941E+01      1.98521308E+02      2.77402195E+03
     -1.60076013E+02      8.17387037E+01     -9.46702000E+02
      1.89639407E+03     -7.91899273E+02      1.38451600E+03
      1.69471017E+03     -1.62927180E+03     -1.82189474E+02
     -5.95978508E+02      1.09109773E+02     -1.03916604E+02
     -5.51303083E+02      2.33975275E+03     -7.31614196E+02
      8.66284745E+02     -1.99256669E+03     -1.36580549E+03
      2.44813553E+02      2.28959689E+02      2.47730935E+03
      8.21987028E+02      6.37855371E+02     -2.36641450E+02
     -1.86466830E+03     -1.01318031E+03     -5.50068864E+02
      9.64209802E+01     -5.24730568E+02     -8.42003402E+02
      2.59751740E+03     -2.77261529E+02     -1.14747914E+03
      2.83043111E+02     -1.68356895E+01     -8.77741891E+02
     -2.25067433E+03     -1.55165373E+03      2.06361230E+01
     -2.58741582E+01      1.64596210E+03     -1.36700876E+03
      2.43785799E+02      2.56863110E+02     -4.98375665E+02
     -3.03423179E+03     -1.13919106E+03     -1.29512401E+03
      4.43678094E+02     -1.50109554E+03      1.01502575E+03
      6.35179067E+02     -1.29770210E+00     -2.88218541E+02
     -2.57140323E+03     -7.64339816E+02     -1.91894500E+03
     -4.08709788E+02     -3.50509667E+03     -2.53785601E+03
     -4.62515770E+02     -7.04779716E+00     -4.28908801E+02
      1.12076822E+03     -6.80339423E+02     -9.95443468E+02
     -1.46492155E+03      1.34792951E+03      6.24331263E+02
      6.49153295E+02      2.60268477E+02     -8.85281598E+02
     -1.84681242E+02      1.13603751E+03      2.62605743E+02
     -1.78013084E+01      3.32409693E+02     -1.29891982E+03
     -4.90012471E+02      2.41969515E+02      9.05839744E+00
      9.19365853E+02      1.13809578E+03      1.22007164E+03
     -5.90462013E+02      1.47271254E+03     -1.02036300E+03
     -2.51538408E+02     -7.03630785E+02     -4.87025163E+02
      3.82024698E+02     -9.11616246E+02     -2.63919293E+03
     -8.22192573E+02      9.18619584E+02      1.55113318E+03
     -1.53152327E+01     -3.52906937E+02      3.76904646E+02
     -1.07076271E+02      3.86865387E+03     -6.52313856E+02
      2.13196978E+03      2.12737191E+02     -7.45855959E+02
      4.76629924E+02     -2.33270249E+02      1.54050726E+02
      1.27296957E+03      1.81247419E+03      2.18899453E+03
      3.25681318E+03     -1.30173114E+03      1.14851046E+03
      2.55222225E+03      1.77339236E+03     -5.66857661E+02
      1.87795815E+02     -8.36818913E+02     -2.83458700E+02
     -1.01969213E+03     -1.44155255E+03      4.70576530E+02
      6.30525782E+02      2.69882631E+02      3.52801497E+02
     -1.01632911E+03      2.34652353E+03     -2.77097950E+03
     -1.46741412E+02     -4.73157248E+00     -1.72539528E+02
     -2.45371620E+03     -1.12773580E+03     -2.03446482E+03
     -8.63555073E+02     -1.96069873E+03     -1.29030487E+03
     -4.68121591E+02     -3.39617414E+01     -5.71382175E+01
      1.34852809E+03     -2.71972798E+03     -2.05135430E+02
     -1.35306176E+03     -1.04572815E+03      1.40409565E+03
      3.03708103E+02      4.63561616E+02     -2.23687285E+02
     -3.18683824E+03      2.03428200E+03      1.46942220E+03
     -3.62285628E+03      9.04301985E+02      2.75122313E+02
     -4.39498252E+02      9.65603755E+01     -4.70816117E+02
      1.80448681E+03     -3.10557957E+03      1.26790928E+03
      2.58074788E+02     -1.08034584E+03     -3.78871960E+02
      4.21093839E+02      2.76449461E+02     -3.59134737E+01
      9.38044306E+02      3.10757907E+03      1.56871556E+03
     -5.37830507E+02     -5.62018490E+02     -1.81147384E+02
      2.92095597E+02      2.24785339E+01      1.01741999E+02
      6.25819414E+02     -1.44136466E+01     -1.80832746E+03
      2.47759073E+03     -2.73587616E+02      7.32940427E+02
      2.07998551E+02     -5.38843187E+01     -1.96003700E+02
      5.74249432E+03      1.42391628E+03     -1.17490001E+02
     -2.49621284E+03     -1.75176305E+03     -1.93687233E+03
      1.16988141E+03      6.06056347E+02     -8.65873136E+02
      1.52411569E+03     -2.17553720E+03      7.72371559E+02
     -2.05991943E+03     -6.88214671E+02      9.79548594E+02
     -3.95171987E+02     -1.60992839E+02     -2.24481044E+01
     -7.70514171E+02     -4.44471210E+02     -1.08141063E+03
      1.76855049E+03     -2.63238532E+03      7.42751162E+02
     -5.05782382E+02     -6.41145535E+02      2.13398341E+03
     -2.70396352E+01     -4.14917141E+02      3.50434023E+02
      1.47471881E+03      1.51674715E+03      4.34763850E+03
      2.30726148E+03      1.64846826E+03     -1.48318329E+02
      1.91042774E+03     -1.23449491E+03      2.53893860E+02
      2.00367741E+02      2.08574095E+02      8.30618725E+01
      2.32440652E+03      3.29485198E+03     -2.20921700E+03
     -1.24605374E+03     -9.03341764E+01     -9.60816002E+02
      2.15247801E+02     -5.17546801E+02      2.11168077E+02
      1.24986003E+03      8.31581412E+02      9.94432892E+02
     -7.08300103E+02     -5.30355576E+01     -2.19888889E+03
     -4.74618809E+02     -6.22388317E+02     -4.16437369E+02
     -1.48138092E+03     -7.95616638E+01      1.90676903E+03
      1.96782994E+03     -6.07115190E+02      1.01778967E+03
      3.28728027E+01      6.80943163E+02     -1.12170248E+03
     -2.23636410E+03     -1.41371026E+03      1.65087088E+03
      1.03410358E+03      9.19256525E+02     -6.52738720E+02
     -6.90461597E+02     -4.35033719E+02      7.73049686E+02
      1.34087006E+03     -2.38254755E+03     -9.00655440E+02
     -5.09888266E+02      1.25856795E+03     -4.11283896E+02
     -7.24636793E+02     -1.48641362E+02     -2.32322625E+02
     -5.38664010E+02      3.26770152E+03      2.17634171E+03
     -2.39219227E+03     -7.43855968E+02      2.33528110E+03
      1.59740294E+02      4.11580626E+02      1.86447895E+02
     -1.44968466E+03     -2.31816470E+03     -1.50785503E+02
      4.13826140E+02      1.33141455E+03     -1.87206223E+03
     -6.41936564E+02      1.30474745E+02      2.39492547E+01
     -1.19644947E+03      5.96916801E+02     -8.20593389E+02
     -1.85258527E+03     -2.94320702E+02     -1.42578690E+03
      4.03082258E+02     -6.35621024E+00     -5.39991928E+02
      1.72884486E+03      1.02718038E+03     -7.56536593E+02
     -2.17779105E+03      2.92884818E+02      2.85861014E+02
      1.70261731E+03     -1.83515914E+03     -3.18680581E+02
     -9.91627733E+02      3.82209666E+02     -2.35846987E+02
     -5.21234481E+03     -1.52498178E+03     -8.08422401E+02
     -8.47334488E+02      1.21127709E+03     -3.45809113E+03
     -1.64811386E+03     -7.89013766E+02     -2.91497169E+03
      3.01458573E+02      2.32155968E+02      5.27445923E+02
      9.86233581E+01     -3.32139831E+03      3.32880709E+02
     -7.41020343E+02      5.27093644E+02      3.02242269E+03
      1.05315727E+03      3.35045200E+02      2.48562121E+01
     -5.21491582E+02      5.50096373E+02      1.94144602E+03
     -1.80963282E+03      1.00194246E+03     -8.49458304E+02
     -2.95811501E+02     -1.18783793E+02     -5.17960125E+02
      1.39855061E+03     -1.50825876E+03      2.24894802E+02
     -3.30753452E+03     -1.90293255E+03      1.80012793E+03
     -5.25654335E+02     -2.46058119E+02      3.05885003E+02
      7.60575003E+02     -2.73000066E+02      1.89527817E+03
      1.11966815E+03     -2.51021929E+03      1.70492940E+03
     -3.30484870E+02      5.78531489E+02      6.07462785E+02
      1.92845546E+03     -2.29215630E+03     -1.03788601E+03
     -3.82671925E+02     -7.13876372E+02     -1.89612905E+03
      3.43243392E+02     -3.22132811E+02     -7.76704980E+02
     -1.01489220E+03     -2.47522088E+02     -1.06716151E+03
     -1.16361770E+03     -8.30666520E+02      1.10681411E+03
      5.27987253E+02     -3.71426016E+02      3.30852681E+02
     -1.53761958E+03     -2.32238101E+03     -3.35087642E+03
     -1.28774072E+03      7.69178771E+02     -1.04923828E+03
     -7.49876334E+02      2.33142968E+02      7.47426099E+02
     -1.08062281E+02     -4.12691647E+02     -1.61207460E+03
     -4.08263550E+02      1.79509761E+03     -8.74685997E+02
      1.14604638E+02      5.67453416E+02     -5.00009165E+02
     -2.63516359E+03      6.65132790E+02      5.75988417E+02
      1.17407338E+03      2.10570727E+01      9.74672886E+02
      1.42479310E+03     -1.55001547E+03     -1.09594878E+02
      3.22682476E+02      1.89199636E+01      1.07426068E+02
     -3.11352204E+03      2.53617864E+03      1.57638362E+03
     -1.35120946E+03      3.97441908E+02     -4.14181308E+02
     -1.49734949E+03      1.17854005E+03     -1.59926645E+03
     -4.06376682E+02     -2.04819925E+02     -5.73360948E+02
      3.23101282E+03      1.06201140E+03     -2.11176637E+03
     -1.26119671E+03     -1.37559129E+03      1.57241392E+03
     -1.88090422E+02     -5.33605670E+02     -3.81923504E+01
      2.41447916E+03      2.08045620E+03      3.67202863E+03
     -3.30921797E+02      1.16209046E+03      1.05271570E+03
      4.19117677E+02     -1.32382030E+03      7.09840247E+02
      1.83100431E+03      1.27466301E+02     -3.70098605E+03
      9.40322234E+02     -1.68426986E+02     -7.86153177E+02
     -3.05580445E+02     -4.72875642E+02     -4.69548708E+02
     -4.87064677E+02      1.53548034E+03      3.11700780E+03
     -4.53110070E+03     -6.69044371E+02     -1.58768976E+03
      3.54922176E+01     -3.43488563E+02     -2.61887488E+02
      9.52787852E+02      1.86905675E+03      6.59824837E+02
     -2.79969735E+03     -3.02495247E+03     -1.20925819E+03
     -2.84147392E+02      7.99628712E+00      6.27075847E+02
     -4.28868581E+02      1.09639984E+02     -3.31588919E+02
      5.12495653E+02     -3.33718910E+02     -1.36408267E+03
      6.68780442E+01      3.08628705E+02     -4.67661288E+02
     -1.23516184E+03     -3.24820796E+03      2.31485648E+03
      1.46498124E+03      3.40369216E+01      1.28813418E+03
      3.85327513E+01     -1.53770706E+02      1.73153491E+02
     -1.31100091E+02     -3.54205234E+02      3.18297050E+03
      6.18395303E+02      2.25761154E+03      5.27886571E+02
      3.96875145E+02     -1.08674854E+02     -4.97104187E+02
      9.31749882E+02     -1.09643048E+03      8.11682311E+01
     -2.72036525E+03      2.16608533E+03     -2.03029702E+03
      2.10698115E+02     -7.92551095E+02      1.91587643E+02
      4.70007909E+02     -9.76590718E+02     -1.36523078E+02
      5.23746806E+02      5.86502785E+02      8.22736872E+02
      2.41769506E+03      1.28188009E+03      1.18316819E+03
     -6.59121962E+02      6.41135780E+02     -3.06433025E+03
     -1.02061317E+02     -5.23738844E+02      2.83946106E+02
      1.22485182E+03      7.34876203E+02      4.20048355E+03
      1.44579827E+03     -1.03683478E+03      1.30845601E+03
      4.34730976E+01     -2.92967101E+02     -6.59369098E+02
      7.22073295E+01     -1.93921181E+03      5.30994434E+02
     -1.03786607E+03     -2.37606864E+03      7.73735036E+02
      2.69948527E+02     -6.84312322E+02     -4.16748763E+02
      1.48668711E+03     -4.30142263E+03      8.35539086E+02
      1.32537452E+03      2.14697022E+03     -7.57559586E+02
      1.42470291E+02     -6.20861985E+02     -2.08825075E+02
      1.53387990E+02     -7.98098566E+02      8.68540188E+02
      2.96090314E+02      1.47881330E+03     -5.81054170E+02
      5.43691015E+02     -2.70327118E+02     -7.58779688E+02
     -1.58580674E+03      7.41626390E+02     -6.43157074E+02
      7.84883155E+02      2.33394645E+03     -3.19431124E+02
     -1.11887703E+01     -2.32108017E+02     -3.68236173E+01
      1.00961878E+03     -7.05037859E+02     -2.97359340E+03
      2.14123001E+02      1.04166658E+03      1.56965447E+03
     -4.93895907E+02      1.93623657E+02     -1.06985381E+03
      2.30069169E+02      3.57342674E+02     -2.57662630E+03
      9.42079855E+02      4.20586069E+02      8.26377024E+02
      2.60811373E+02      4.78364373E+02      1.19007682E+02
     -1.61039083E+02     -7.45939486E+02     -9.12583457E+02
      1.21911549E+02      1.43616890E+03      6.79128280E+02
     -2.88837207E+02     -6.17637967E+01     -2.50089534E+02
      8.64832319E+02      7.44959333E+01      9.88176902E+02
     -5.61969162E+02     -2.20118373E+03     -1.01442527E+03
      1.87277363E+02      1.58989574E+03     -7.83690139E+02
     -8.56277870E+02      5.29392521E+02     -1.18092913E+03
     -2.62007957E+03      6.76406173E+00     -1.05742442E+03
     -3.61068169E+02      5.59697537E+02      2.43838131E+03
     -8.29723998E+02      1.54757196E+03     -1.22312367E+03
     -1.82288313E+02      1.28162583E+02     -4.72989098E+02
     -5.38479135E+01     -1.04814784E+03     -1.84050855E+03
     -2.32786035E+03      4.16522571E+02     -2.20805275E+03
     -4.61736413E+02      4.41129746E+02      4.10927634E+02
      1.03636011E+02      2.67141303E+03     -1.38996076E+03
     -2.34466307E+03     -6.88140068E+02     -1.71527523E+03
     -1.76657548E+02     -1.50650259E+02      1.24369526E+02
     -3.10254114E+02     -1.23546091E+03     -3.10948610E+03
      1.41136683E+03     -2.87322477E+02      1.64092096E+03
      3.30575932E+01     -5.44676876E+02      4.31037896E+01
     -1.52677603E+03     -1.49522466E+03     -1.18838513E+03
     -8.91004117E+02      5.76755734E+02     -2.84311901E+03
      6.32912461E+02     -2.94235103E+02     -2.08474553E+02
      2.88805380E+02     -3.65341600E+02     -6.56118460E+02
     -1.63963369E+02     -3.51986345E+02     -2.28613752E+03
      3.28334222E+02     -2.15208734E+02     -2.98773184E+02
      1.77088989E+02     -7.94710558E+02      2.66008063E+02
      8.54078796E+02      2.50685123E+02     -2.48604671E+03
      8.34536190E+02      1.96891000E+02     -2.06645617E+02
     -1.70663949E+03     -1.58741190E+03      9.79663536E+02
     -1.06514468E+03     -3.57917322E+03     -1.94027696E+03
     -2.94063814E+02     -5.99624362E+02     -2.74786558E+02
      5.96424898E+02      4.70521061E+02     -9.02469270E+02
      3.04684164E+03      2.47300657E+03      3.79027998E+02
     -5.68167626E+01     -5.19771647E+02      1.56247216E+02
      5.74436945E+02     -1.25728034E+03      1.44693876E+03
     -2.24224429E+03      1.34906681E+03     -3.66685610E+02
      1.45589945E+03     -2.93620280E+02      2.32006279E+03
     -3.59338672E+02      5.66882238E+01     -1.33287512E+03
      2.68150253E+03      2.60570186E+03     -2.43693270E+02
     -5.13594740E+01      3.77834868E+02     -6.05564740E+02
      2.24998368E+03     -1.06125284E+03      2.41738209E+02
     -2.28961688E+02     -6.61828041E+02     -7.78126000E+02
     -3.50098103E+03      3.33030808E+03     -1.55699490E+03
      1.68160906E+03      4.02737046E+01      7.47526295E+02
     -1.11618461E+02     -1.90118853E+02     -5.23138341E+02
     -8.50312930E+02     -1.51991962E+03      8.37725489E+02
     -2.62070083E+03      2.15516366E+02      4.74608896E+02
     -1.19202699E+00      1.64619751E+02      1.88131214E+02
      1.04504216E+03     -1.36145655E+02      2.20241365E+02
      4.09615008E+02      2.06383460E+03      3.12351943E+02
      4.70130552E+02     -1.25133102E+02     -6.10459368E+02
     -2.09401388E+03     -3.58550282E+03      1.75349039E+03
     -3.18385251E+02      8.88629300E+02     -5.41725486E+02
      5.95478605E+02     -5.76581719E+02     -3.74923913E+02
      1.58218441E+03     -2.63190203E+03      8.76598040E+02
     -2.29901918E+03      4.65665764E+02      1.63624395E+03
     -1.13372195E+02     -1.18862255E+02      2.17319647E+02
     -2.86250285E+03     -8.81397090E+02     -1.94566546E+03
     -4.86031217E+02     -1.40415355E+03      3.43104652E+02
      3.44296368E+02      2.49021303E+01      4.87704022E+02
      5.08430152E+02      5.27859498E+02      9.13080694E+02
      2.61944830E+03     -1.73338568E+03      7.55730150E+02
      3.47554862E+02      7.68178993E+02      5.16100051E+02
      7.96802642E+01     -3.48696338E+03      3.86227517E+01
     -1.37054749E+03     -4.56836696E+03      7.59260888E+02
     -7.52234236E+01     -2.32778784E+02     -2.75554234E+02
      9.95809985E+02     -4.33735846E+03     -1.68528660E+03
     -1.54551270E+03     -7.50056824E+02     -6.19671339E+02
     -1.18606064E+03     -1.45490913E+03      3.13446759E+03
      1.16118161E+03      1.03214714E+04      1.91901777E+04
     -1.17795122E+03      9.31358548E+02      1.06050196E+03
      1.87993899E+01     -6.99925054E+02      1.30590692E+02
      4.67102402E+03     -1.66875198E+03     -1.10604158E+03
  }
}

Hamiltonian = DFTB {
  SCC = Yes
  SCCTolerance = 1e-6
  MaxSCCIterations = 200
  ForceEvaluation = Dynamics
  MaxAngularMomentum = {
    C = "p"
    H = "s"
  }
  Charge = 0.0
  SpinPolarisation = {}
  Eigensolver = Standard {}
  Filling = Fermi {
    Temperature [Kelvin] = 300.0
  }
  SlaterKosterFiles = Type2FileNames {
    Prefix = "../../pbc-0-3/"
    Separator = "-"
    Suffix = ".skf"
    LowerCaseTypeName = No
  }
  KPointsAndWeights = {
    0.0000000000000 0.0000000000000 0.0000000000000 1.00000000000000
  }
  Dispersion = LennardJones { 
    Parameters = UFFParameters {}
  }
}

ParserOptions = {
  ParserVersion = 3
}
