Geometry = GenFormat {
<<< "system.gen"
}

Driver = VelocityVerlet{
  Steps = 100000
  TimeStep [fs] = 0.2
  MDRestartFrequency = 5
  Thermostat = None {
    #InitialTemperature [Kelvin] = 300.0
  }
  Xlbomd{ 
    IntegrationSteps = 6 
    MinSccIterations = 2
    MaxSccIterations = 200
    SccTolerance = 1e-6 
  }
  Velocities [m/s] {
      1.09279223E+02      5.12052000E+02     -1.43871848E+02
      1.53262766E+03     -1.23287190E+03      6.24637336E+02
     -1.02652856E+03     -1.94507710E+02      2.24636675E+03
      3.65835154E+02     -2.16889273E+02     -1.44579301E+02
      8.84917860E+02      1.39204292E+03     -7.65492490E+01
     -4.97141071E+02     -1.01528077E+03     -8.85971333E+02
     -3.28968597E+02      1.12985702E+03     -2.12954029E+01
     -1.13873382E+03      3.84040147E+02     -7.77834476E+02
      2.18949998E+02     -6.74363658E+02      7.47175729E+02
     -1.04948524E+03      2.97662287E+02     -2.53221787E+02
     -7.13088264E+01     -1.11385659E+03     -1.19308796E+03
     -3.80676567E+03     -8.91049111E+02      1.07952609E+03
     -2.96862970E+02     -6.28475293E+01      1.82755428E+02
      1.66913618E+03      8.78706988E+01      8.90614122E+02
     -1.25221747E+03      8.83150102E+02     -1.58721451E+03
      3.85247949E+02     -4.27642328E+02      6.74809580E+02
     -2.86537727E+03      6.84402430E+02      7.90027024E+01
     -8.72683972E+02      1.06128829E+03     -1.08531820E+03
      5.69919729E+01     -2.96656033E+02      4.73268768E+02
     -2.45782129E+02      3.11791525E+02     -1.59158273E+03
      2.02253209E+03     -6.42695059E+01      1.69709815E+03
     -1.21302468E+02     -4.06308580E+02     -3.90331258E+02
     -4.79996795E+02     -3.65170098E+02      6.80033820E+01
     -2.16884570E+03      1.88605027E+03     -4.16037127E+02
     -3.46000162E+01      6.27537260E+02     -4.59048738E+02
      4.81290435E+02      1.98583396E+03      3.43427885E+03
      7.96501916E+02      9.26249222E+02     -1.30275498E+03
     -1.39019890E+03     -1.62605721E+02     -5.30517454E+03
     -2.19357693E+02     -5.59478299E+02     -3.60050116E+00
      5.96134796E+02      3.73863037E+01      1.24027337E+03
     -2.72618609E+03     -7.54903659E+02      6.94021162E+02
      1.81725432E+03      5.75776794E+02     -1.89028532E+03
      9.84163589E+01     -6.79847414E+01     -1.35585122E+01
      6.34722804E+02     -2.13825609E+03     -2.67455162E+03
     -8.01904902E+02     -2.11403358E+03      1.35059138E+03
     -1.00029344E+02     -1.01843903E+02      3.67715704E+01
      5.86562692E+02      3.00328259E+02     -1.25588842E+03
      3.54180860E+02     -6.97934801E+02      1.62457233E+03
     -1.58785362E+02      3.36273942E+02     -1.03299577E+03
     -2.50954563E+03      6.05119395E+02     -6.17502360E+02
     -2.15036557E+02      1.53473487E+03      1.60117253E+01
      7.68930592E+01      2.81392951E+02      5.99681616E+02
      1.01893514E+02      7.61798019E+02      9.07141862E+02
     -5.94169341E+02     -7.93667062E+01     -4.22146535E+02
     -1.01112178E+02     -3.49121484E+02      2.89786820E+02
      3.35668304E+03     -7.85631201E+02      1.24121553E+03
     -2.00341021E+03      1.43396624E+03     -7.17625468E+02
      9.56937350E+01      6.99635754E+01      7.77513026E+02
      1.32206021E+02      3.98084223E+02     -4.41769463E+02
      8.53954085E+02     -1.07353431E+03     -1.01310146E+03
     -2.38892052E+02      8.82734911E+02      2.69795748E+02
     -3.26876053E+03     -1.00705862E+03     -9.15687413E+02
      9.22852353E+02     -6.45490154E+02      3.40417591E+03
     -6.32456070E+02      2.73058403E+02      4.35570472E+01
      1.41239417E+03      4.28421195E+03      1.05956152E+03
     -2.64038244E+03      2.19792323E+03     -7.50977564E+02
     -2.75536528E+02      1.18528316E+02      1.82669196E+02
     -2.89442786E+03      1.32472950E+02     -6.04481766E+01
      1.58012008E+03      4.12872745E+02     -1.42057142E+03
     -9.93315025E+02     -1.26266526E+02      8.06999431E+02
     -1.97256139E+02      7.21345934E+02     -2.27637285E+02
      1.78606539E+03     -7.14103781E+02     -7.10134490E+02
      5.03146307E+02     -2.69887789E+03      2.35488206E+02
     -1.02064981E+03     -2.06072322E+03      1.36935397E+03
      6.77456073E+02     -5.74851945E+02      4.80293885E+01
     -4.64786545E+00      1.10590261E+02      1.71905356E+03
     -2.10290078E+03      2.30310811E+03      1.25728993E+03
     -2.23768585E+02     -5.93521197E+02     -1.50307537E+02
     -1.38751974E+03     -1.69687949E+02      7.50213700E+02
      1.69121119E+03     -1.21429305E+03     -5.88986954E+02
     -1.51333723E+02     -7.17157595E+02      9.86235596E+01
     -1.39121083E+03     -2.18233497E+03      2.63153022E+02
      9.22206013E+02      2.86866165E+03      5.30644438E+02
     -1.06397982E+03      8.35231861E+02     -6.70062159E+02
     -1.28586077E+02     -8.30772990E+02     -7.36490501E+02
      5.30174989E+02     -1.14513104E+03     -4.97961415E+03
     -7.74624929E+02     -1.05273589E+03      8.93994778E+02
      1.72192006E+03     -2.10099391E+03     -2.32676300E+03
      1.69707786E+02      2.83929041E+01      2.30343629E+03
     -9.29717873E+02      6.87676224E+02      7.50804942E+02
     -1.34053233E+03      1.86780910E+03     -9.98036179E+02
      5.36298956E+01     -2.98134949E+03      1.43942958E+03
      2.82114362E+02     -1.34969750E+02     -1.26924797E+02
      1.85005260E+03     -9.85918072E+02      2.25647194E+03
     -6.25116018E+02     -1.29468468E+03     -1.32115428E+03
     -2.36955113E+02      9.55277823E+01     -1.67994458E+03
      3.42552433E+03      8.07352366E+02     -2.06296339E+02
      5.20254033E+02     -1.25398369E+03      9.44129343E+02
      5.65712441E+02     -9.13654950E+02     -1.24794293E+02
     -6.92158858E+02      1.88069412E+03     -5.19458429E+02
     -2.74735305E+03     -4.20734046E+02     -5.41272489E+02
      1.61039407E+02      1.23653875E+03      1.40638002E+03
      6.34121225E+01      4.40116528E+02      5.14428924E+01
     -1.08225798E+03     -3.54476742E+03     -7.58511288E+02
      8.26176237E+02      5.70014264E+02      7.04322660E+02
     -1.04955214E+03     -4.27632900E+02      9.85496787E+00
     -2.74546791E+02     -3.75196562E+02     -7.14328757E+02
      1.00407945E+03      6.43671894E+02      4.08977384E+02
     -1.68045735E+03     -1.85084631E+03     -1.18585114E+03
     -2.54709924E+02     -1.66045234E+02     -1.02733706E+02
     -6.82401549E+01     -1.95795282E+03     -6.09792084E+02
      9.82872797E+01      3.00811008E+03     -3.45820800E+03
     -3.12927547E+02      2.56373709E+02     -6.10288069E+02
      1.48864457E+03      6.97370358E+02     -1.80460101E+02
      5.84354453E+02      6.24113675E+02      2.61332807E+03
     -5.94399737E+02     -1.28870182E+02      4.04883277E+01
      3.03577350E+03     -7.28074576E+02     -2.31789614E+03
      8.20334649E+02      1.83501021E+01     -1.07633179E+03
     -1.61350085E+02      6.77693059E+02      1.86208123E+02
      4.05177593E+02      1.63722997E+02     -4.80582523E+02
     -2.43929198E+02      1.11668428E+03      1.04133651E+02
     -2.36353426E+02      1.45065831E+02     -4.44840676E+02
     -7.05091035E+01      2.65017034E+03      2.01112385E+03
     -1.44540800E+03     -2.84164961E+03     -1.62027715E+03
     -1.39480174E+02      2.02854015E+02     -3.21714340E+02
      4.28962880E+02     -1.12000814E+03     -7.96784890E+02
      2.04489517E+03     -1.09078196E+03     -9.52108735E+02
      8.03760666E+01      3.23044333E+02      3.66140597E+02
     -1.75773500E+03     -6.36265773E+02     -5.26567040E+02
      1.34995692E+03     -5.89674270E+01      1.02458996E+03
     -1.21170809E+02      3.62616139E+02      6.87491940E+02
      1.75870494E+03     -7.90952036E+02     -6.11639302E+02
      1.14804475E+03     -4.40893751E+02     -4.05238755E+02
      1.10879455E+03     -3.59532683E+02     -1.03716306E+03
     -1.17912778E+02     -2.41813939E+02      1.16827044E+02
     -2.18033510E+03     -5.66644592E+02     -1.39892358E+03
     -3.25276725E+02     -6.57189365E+02      1.21341316E+03
     -1.78647224E+02      6.95726072E+02     -3.02865680E+03
     -9.66890105E+02      9.53772035E+02      3.89955393E+01
      2.88875791E+02      5.17461435E+02     -1.46181447E+03
      3.09806669E+02      1.79661559E+03      3.06430430E+02
      2.98517343E+01      7.62518264E+02     -1.94042931E+02
      2.35628916E+03     -6.68986929E+02     -2.86502170E+03
      1.40265400E+03      4.60209695E+03     -1.15288621E+03
     -8.92889487E+01     -9.48548253E+01      2.05502151E+01
      1.04618889E+03     -1.12197389E+03      1.80634650E+02
      1.81372008E+03     -1.40638090E+03     -3.73813300E+02
     -4.44180774E+02     -6.11958770E+01     -2.85688310E+02
      1.11129622E+03      1.15671729E+03      5.26588273E+02
     -1.65586206E+03      2.83866804E+03      2.01254912E+03
      2.95921761E+02      2.71025767E+01      8.92271080E+02
     -3.14028826E+03      8.64974546E+01     -1.05879047E+03
      2.08089230E+02     -9.19166926E+00     -9.61604423E+02
     -8.11327161E+02     -3.19811627E+02      7.67229684E+02
      2.46003997E+03      1.65319625E+03      4.43451224E+02
     -1.45044439E+02      1.72865296E+03      1.01105638E+03
     -6.08442798E+01      1.90010888E+02      2.08721772E+02
      9.93938721E+02     -3.49186552E+03     -3.44674059E+03
     -1.37340538E+03     -1.03397421E+03     -9.48025272E+02
     -2.50864683E+02     -2.96292855E+02      6.87013905E+02
     -4.22064286E+02      2.31775365E+03      8.50058016E+02
      2.64682459E+03      9.13213529E+02     -3.89371982E+03
      3.71545436E+02      7.16144002E+02     -4.82079476E+02
     -6.94121576E+02     -8.95209692E+02      2.00458441E+03
      2.42156607E+03      1.34712059E+03      1.65752437E+03
      2.47525669E+03     -1.57042322E+03     -7.87278086E+02
      3.70995383E+02     -1.15717090E+01     -9.71267357E+02
     -4.99614593E+02      8.64736185E+02     -1.48063230E+03
      2.05133738E+03     -2.49314904E+03      3.34317677E+02
      2.45668133E+02     -3.16172091E+03      4.31842340E+03
     -2.05185068E+01      6.10378045E+02      4.62424076E+01
     -8.22368148E+02      4.40320977E+02     -1.61472815E+03
      1.57069300E+03      3.66122658E+03     -1.43299895E+03
     -1.21857868E+03      1.73170045E+02     -8.05260135E+01
     -6.10472722E+02      2.21557298E+03     -1.66777117E+03
     -1.97081691E+03      6.63441379E+02      3.44078870E+03
     -2.73767075E+02     -7.87479034E+02      2.82585437E+02
      1.02417352E+03      1.73916693E+03     -1.38366240E+03
     -7.65793826E+02     -6.47460479E+02      2.35323886E+03
     -2.59604534E+02     -1.59161250E+02     -9.36731082E+02
     -4.92203232E+02     -1.57232018E+02      2.22853891E+03
      3.01283973E+03      1.40692040E+03     -1.38477071E+03
     -5.06698530E+02      5.38220952E+02     -8.10260651E+02
      1.24645844E+03     -1.59434829E+03      1.02517772E+03
      2.69969810E+03     -5.14224933E+02     -3.15181788E+03
     -1.69587375E+02     -6.26416081E+02      1.22486702E+02
      8.42601314E+02      9.53586595E+02      9.05555579E+02
      1.34514194E+03      1.67805056E+02      3.77442885E+02
      2.32532728E+01      7.47929464E+02      2.10180235E+02
     -1.48473306E+03      3.23192017E+03     -2.56116648E+03
      1.76061588E+03     -1.73250807E+03      2.03679308E+03
      9.04458508E+02     -1.11114923E+02     -2.47407573E+02
     -2.71374826E+03      6.00990907E+02      7.71536742E+02
     -1.22878245E+03     -5.83491943E+02      3.31261294E+03
     -3.17987673E+01      3.59789592E+02     -1.10652260E+02
     -2.69439270E+02     -1.68172460E+03      4.75290194E+02
      2.01255537E+03     -7.21797981E+02      1.72500726E+03
      1.32168239E+03      2.36097124E+02     -1.36052412E+03
     -6.27477925E+01      3.55455937E+02      2.44941015E+02
     -2.24232346E+03      3.73426138E+03      1.29058954E+03
     -8.17449797E+02     -2.07063597E+02      1.63802096E+02
     -1.58943767E+03     -3.42973790E+03      2.93469884E+02
     -4.47236896E+02     -5.02340334E+02      2.92218318E+01
     -2.17339687E+03     -1.39798088E+02     -1.59851125E+03
     -9.89284738E+02      2.21346592E+03      1.22988716E+03
     -2.11871171E+00     -2.90041773E+02      7.65318494E+02
      1.11890815E+03      9.35468464E+02      1.23132864E+03
      7.44157724E+01      1.34775633E+03      2.00328143E+03
      1.41600869E+02     -3.17578600E+02     -1.06570586E+01
      3.32759412E+03      8.80987372E+02     -1.23153952E+03
     -1.35564186E+03      2.04883719E+03      4.40995436E+03
      2.82400032E+02      7.81547265E+01      6.19889817E+00
      1.16101128E+03      3.66840638E+02      1.58742044E+02
      2.92945305E+03     -8.78469240E+02     -6.17497284E+02
     -2.28120874E+02     -3.00862609E+02     -3.15148630E+02
     -4.88465019E+02      1.22760482E+03     -2.01203838E+03
     -1.17056056E+03      1.69991167E+03     -1.48260497E+02
      5.02708787E+02      1.06822669E+03     -4.31639659E+02
     -2.26006927E+03     -3.02381602E+03      9.50112864E+02
     -2.59066369E+03     -2.44528853E+03      1.96129867E+03
      7.23179905E+01     -1.38392165E+02      2.85180165E+01
      1.40195949E+03     -5.08495011E+02     -2.44397258E+02
     -1.94920157E+03      4.41616611E+02      1.15761105E+03
      3.75424632E+02     -1.61991674E+02      1.14226549E+02
     -1.12070077E+03      6.26424487E+02      8.90866671E+02
      1.52801489E+03     -2.84547644E+03      1.52696492E+03
      3.95819538E+02     -7.85893669E+01      7.24381086E+01
     -2.37839604E+02     -4.98332271E+02      7.30362745E+02
     -1.83570442E+03      1.79178055E+02      5.54092288E+02
      1.14650183E+03     -1.99279721E+03     -2.42573354E+03
     -5.88114178E+02     -8.12147401E+01     -1.18719187E+02
     -4.05631325E+02     -1.65222667E+02     -5.53707450E+01
      1.52350761E+03      5.18386345E+02      1.34698998E+03
     -1.53495630E+03      2.09387614E+03     -2.11966705E+02
     -9.02635450E+01     -2.96687039E+02      2.54437667E+02
     -1.05292663E+03      2.63195846E+03     -3.49088804E+02
     -8.91044964E+02     -6.41198417E+02     -9.13288119E+02
     -2.01824244E+02      3.21034088E+02      1.94853935E+02
      2.51719576E+03     -8.21275648E+02     -3.22256667E+01
     -2.81883240E+03     -8.33264697E+02      4.20288874E+02
     -1.16681770E+02      3.19433301E+02      8.68992115E+02
     -1.05050447E+03      1.08706658E+03     -1.16196699E+03
      3.27195405E+03      1.32140836E+02      1.12037982E+03
      1.48565105E+02      1.04018515E+03     -2.06684885E+02
      4.30613064E+02     -1.16954255E+03      1.86073974E+03
     -5.34915880E+02     -2.66687293E+03      1.38921117E+02
      3.45828683E+00     -3.63599372E+02      8.43501090E+02
      4.66505948E+02      2.96362357E+02      1.69173574E+02
      1.33296339E+03     -2.96112275E+03      3.72095277E+02
      5.24959380E+01      4.75784296E+02      3.23815620E+02
     -1.17905832E+03      1.18130097E+03     -2.99086856E+02
      1.03464285E+03      2.07546098E+03     -1.84534371E+03
      2.50398931E+01     -1.57954145E+02     -1.02060989E+02
     -2.84365507E+02     -1.38422603E+03     -2.92643187E+03
      8.69084302E+02      1.48605041E+03     -3.45432460E+02
      3.29786343E+02      6.65370033E+01     -5.76950960E+02
     -6.08922325E+02      4.29914267E+02      1.22699193E+02
     -1.57672118E+03      1.15706480E+03      2.09135711E+03
     -7.46432525E+02      8.21040812E+00      2.02735148E+02
      1.41244013E+03     -1.98889142E+03     -3.20900883E+03
      2.27574164E+03      3.21316261E+03     -1.45796251E+03
     -7.86508087E+02      3.22184610E+02      2.82218188E+03
     -3.11640903E+02      6.32139054E+01     -2.92107723E+02
     -2.74636680E+01     -1.87831958E+03     -2.51674106E+03
     -2.46289450E+03      2.73059514E+03      1.40183540E+03
     -2.00451409E+03     -1.00676944E+03      1.39995982E+03
     -3.94299043E+02     -5.12456171E+02     -1.99853361E+02
     -1.57506212E+03     -6.82104239E+02     -5.76842613E+02
     -2.62139016E+02      2.29901568E+03     -9.14111303E+01
     -1.09708492E+03      2.21587870E+02      1.76878612E+02
      1.35261627E+03     -1.00525325E+03     -1.14880510E+02
     -1.93634958E+03      1.75259519E+03     -1.60777891E+02
      1.13894325E+04     -4.83274581E+03      2.26742891E+03
      1.04340903E+03     -8.19887423E+02      2.26149065E+01
      1.08905586E+03      1.39413012E+02     -1.24303132E+03
      7.36751690E+02      4.39728460E+02     -1.09041287E+02
     -1.25375754E+02     -6.13460404E+02     -2.12398122E+03
      1.17537048E+03      1.11391390E+03      1.77191427E+03
      9.58932236E+02      3.06623386E+02     -3.72927717E+02
     -1.54986921E+03      9.23550483E+02     -1.36652967E+03
      4.18951268E+02     -2.65740386E+03      5.65088218E+02
      2.18760757E+00      2.66870190E+02     -5.25812665E+02
     -2.25017500E+03     -7.01332893E+02     -2.90301728E+02
      9.00048802E+02      1.08308068E+03      1.11154305E+02
     -6.01851724E+02     -4.00647134E+02     -8.49864907E+02
     -2.18964636E+02     -3.70391790E+03      2.45688131E+03
      1.44098799E+03     -2.69012933E+01      1.12184165E+03
     -6.71536514E+01     -4.20779141E+02      2.22545215E+02
      2.62609943E+03      1.28722521E+02      1.00206764E+03
     -2.68126682E+03      2.36014294E+03     -2.09357186E+02
     -2.70740169E+02      1.95900442E+02      8.96478154E+02
     -2.52876621E+03     -3.79086511E+02      1.65727726E+03
     -7.34024894E+02      5.70182829E+02      1.60628359E+03
      2.75776864E+03      6.33454762E+02      1.83743957E+03
     -3.62743279E+02      4.27510381E+02      8.88154992E+01
      1.27363536E+03     -1.18304433E+03      1.21711354E+02
     -4.36219876E+02      8.48781337E+02      1.11607045E+03
      1.60628844E+03     -2.29081433E+02      6.93152372E+02
     -5.74243137E+02     -1.56891913E+02     -1.90048309E+02
     -4.83344792E+02      2.65965120E+03      4.36812208E+02
      4.42949810E+02     -1.93972420E+03      2.84660038E+02
      1.26830680E+02     -3.53258444E+02     -4.61005360E+01
     -7.85424843E+02      5.72542626E+02      4.65956744E+02
     -2.21897614E+03     -2.59756886E+03     -3.52125583E+02
     -6.46095838E+01     -7.40492731E+02     -2.30433488E+02
      8.87230691E+02      3.58393571E+02      3.74311630E+02
     -7.51047557E+02      2.29634043E+02      5.88884627E+02
      2.70935751E+02     -5.36023189E+02     -7.34987325E+02
     -1.39115808E+03     -2.70333925E+03     -3.51286689E+02
      4.56962139E+02      2.44355786E+03      1.05555218E+03
     -2.61350915E+02     -1.99630653E+02      5.47457365E+02
     -3.80531592E+02     -1.51094774E+03     -7.99670236E+02
      5.45189674E+02      1.44167431E+03      9.18117038E+02
      7.18375690E+02      1.00617803E+01      4.44094621E+02
      8.22160139E+02     -1.64646724E+02      7.34751439E+02
      3.92191012E+02     -1.12990938E+03      3.14853385E+03
     -3.88241446E+01     -5.23975201E+02     -5.11388530E+02
      1.66867682E+03     -2.79093461E+03     -1.81740792E+02
      7.93757831E+02     -3.52120011E+02     -3.65816067E+03
      3.47518608E+02      2.10333572E+02     -4.28706144E+02
      1.69788097E+03      7.99625634E+02      3.84155951E+02
     -6.26227932E+02     -4.45455940E+02      4.14462906E+02
     -4.91062750E+02     -1.42746327E+02      1.04088801E+02
     -6.80731066E+02      1.16336444E+03      3.00200821E+03
      1.05303284E+02      1.76870408E+03     -1.72138390E+03
      1.04751624E+03      2.74147294E+02     -1.21386098E+03
     -1.04909165E+02      2.24578359E+02      7.99976319E+01
     -1.87868747E+03      1.20134780E+03     -2.83361638E+01
     -1.25562692E+03      6.18215994E+02      4.61191421E+02
      7.39399311E+02      2.39973639E+03     -2.25419326E+03
      1.58941951E+02      2.59613885E+02     -5.19543754E+02
     -5.93464598E+02     -1.83435968E+03     -7.84287479E+02
     -2.55100860E+03     -4.60566614E+02      1.75985395E+02
     -7.04825401E+02     -4.89803584E+02      3.83305381E+02
     -2.54832055E+03     -3.12518385E+02     -1.12804984E+02
     -2.10389576E+03      1.02845599E+03      1.49513969E+03
      1.07778854E+02     -1.19062252E+02     -9.35319589E+01
     -3.75108160E+01     -1.33400439E+02      1.97914959E+03
     -1.90271977E+03      3.89147881E+01     -1.80847770E+02
     -8.96442483E+02     -1.35717764E+02     -1.70064761E+02
     -1.45170161E+03     -7.39430133E+02     -5.35568930E+02
     -2.60780861E+03      2.77359690E+02      4.07339234E+02
      1.15520088E+03      4.25471419E+02     -7.63373484E+01
     -7.70150957E+02      1.39645337E+02      1.96861835E+03
      8.93555904E+02      6.57217425E+02     -6.58211828E+02
     -2.64732468E+02     -8.70345485E+01     -7.21059516E+02
      4.13614579E+02     -3.82073693E+03     -9.13217319E+02
     -2.21300596E+03     -5.64008414E+02      5.78253568E+02
     -1.42184945E+02      1.64743253E+01     -2.31389516E+02
     -3.64707225E+03     -8.67150528E+02     -5.95636041E+02
     -2.39701147E+02      8.30231734E+02     -9.47862924E+02
      5.87475166E+02     -1.28287226E+02      1.17487269E+02
      9.40565782E+02      1.39886469E+03     -2.09409638E+02
      3.31829803E+03     -1.03854441E+03      5.73452792E+02
     -1.71756307E+02      3.57293956E+02     -4.07565341E+02
      1.13491224E+03      5.32543733E+02      1.82317330E+03
     -8.83829325E+02      8.39068042E+02     -2.72851209E+02
     -5.61822573E+02     -2.31437723E+03     -5.35094072E+02
      5.60535622E+02      6.09640892E+02      3.83455907E+02
      1.03031121E+03      1.44757984E+03     -2.32448893E+03
     -3.56380656E+02     -1.18743236E+03      2.81856419E+02
      4.10339706E+03     -2.04960515E+02      1.83171364E+03
  }
}

Hamiltonian = DFTB {
  SCC = Yes
  SCCTolerance = 1e-6
  MaxSCCIterations = 200
  ForceEvaluation = Dynamics
  MaxAngularMomentum = {
    C = "p"
    H = "s"
  }
  Charge = 0.0
  SpinPolarisation = {}
  Eigensolver = Standard {}
  Filling = Fermi {
    Temperature [Kelvin] = 300.0
  }
  SlaterKosterFiles = Type2FileNames {
    Prefix = "../../pbc-0-3/"
    Separator = "-"
    Suffix = ".skf"
    LowerCaseTypeName = No
  }
  KPointsAndWeights = {
    0.0000000000000 0.0000000000000 0.0000000000000 1.00000000000000
  }
  Dispersion = LennardJones { 
    Parameters = UFFParameters {}
  }
}

ParserOptions = {
  ParserVersion = 3
}
