Geometry = GenFormat {
<<< "system.gen"
}

Driver = VelocityVerlet{
  Steps = 50000
  TimeStep [fs] = 0.2
  MDRestartFrequency = 5
  Thermostat = None {
    #InitialTemperature [Kelvin] = 300.0
  }
  Xlbomd{ 
    IntegrationSteps = 6 
    MinSccIterations = 2
    MaxSccIterations = 200
    SccTolerance = 1e-6 
  }
  Velocities [m/s] {
     -5.62853982E+02      4.79494760E+02      1.48800319E+02
     -2.04584650E+03     -1.26412456E+03      8.81814236E+02
     -8.07521135E+00      1.15282353E+02      2.56174086E+03
      5.78420518E+02     -8.23230303E+02      2.15536767E+02
     -2.53111182E+03      1.13630631E+03     -5.11807091E+02
      1.69759854E+03      1.29583606E+02     -1.02507215E+03
      5.64074831E+02     -5.20360705E+02      2.85129089E+02
     -1.40105358E+03      8.15134881E+02     -1.39963113E+03
     -1.74656110E+03     -2.16375750E+03      1.59081031E+03
      2.94160124E+02     -3.29174720E+02      1.75726371E+02
      8.62850561E+02     -1.29208946E+03     -7.21092992E+02
      2.25728737E+03     -1.40170929E+03     -1.03871468E+03
      6.18737207E+02      2.54303228E+02     -4.95081488E+02
     -2.43785861E+02     -1.61268507E+03     -5.39866330E+02
      1.11541613E+03      9.61799947E+02      1.64732586E+02
      1.18631388E+03     -9.71755668E+02     -2.70546999E+02
      1.24627896E+03     -7.00561942E+02      4.91914326E+02
      1.92409422E+03     -4.31446603E+02      7.49253413E+02
     -7.02053976E+02      5.01734357E+00      6.87992861E+02
      1.61794939E+03     -1.54423703E+03      1.04655151E+03
      3.47433474E+02     -2.65839954E+02      2.95295231E+03
      3.33392722E+02      4.08689361E+02     -2.18056476E+02
     -1.33702175E+03      5.06065105E+02     -1.01809455E+03
      1.60812319E+03      3.23155396E+01      4.52292266E+03
     -1.70120002E+02     -7.74334337E+02     -5.38532304E+02
      1.46469332E+02     -3.10522732E+02      1.28873545E+03
      5.68431360E+02     -2.79918239E+02     -1.78148766E+03
      7.13661543E+02      2.42884741E+02      9.67048755E+02
     -6.56447796E+01      2.11056939E+02     -2.74905330E+02
     -8.82809049E+02     -5.26402592E+01     -9.86756776E+02
      1.25211957E+03     -4.08148757E+02     -1.25164540E+03
     -5.60673547E+02     -8.55028190E+02     -3.63055718E+02
      5.59097655E+01     -4.58112976E+02      8.05098550E+02
     -3.24420896E+02     -2.34492771E+03     -1.30766971E+03
      2.07910344E+03      2.04429391E+03     -1.37867434E+03
     -2.47574617E+02      3.25242092E+02     -5.63569633E+02
     -2.20282404E+03     -9.93676803E+02      1.13991727E+03
     -2.23138787E+03     -1.38640279E+03     -1.57593006E+03
     -9.54163242E+01     -7.34066202E+02     -1.37973534E+02
     -8.01699426E+02      5.37560837E+02      8.35256127E+02
      1.09125574E+02     -3.09594995E+03      1.70827088E+03
     -3.24286496E+02     -5.63606321E+02     -6.35889295E+00
     -6.21492300E+02     -1.91526338E+03      1.07335973E+03
      1.20364037E+03      3.56228162E+02      1.86058710E+03
     -8.89941937E+02     -6.02635902E+01      4.99981366E+02
     -8.67734364E+02      3.40921883E+03     -2.87776359E+03
      9.86272637E+02      3.00515151E+03      7.80304224E+02
     -9.30080279E+02      5.15149498E+02      6.56754544E+02
     -2.19504013E+03      1.82042791E+03     -2.06009678E+03
     -1.08576214E+03     -1.75290702E+03     -1.16191881E+01
      4.70627100E+02     -2.22481822E+01     -8.12777642E+01
      8.59063199E+02      1.45825923E+03      5.62776503E+01
      5.80600810E+02      2.70961370E+02      9.95688983E+02
     -5.14510870E+02     -2.95130652E+01      1.51237809E+02
     -2.37175557E+03     -2.02835993E+02      1.67510703E+03
     -2.17602556E+02     -1.57307148E+03      6.42282328E+00
      3.10498129E+02     -1.79325305E+02      2.80043539E+02
      4.03531974E+02      2.95512612E+03     -3.64529779E+02
      1.92602552E+03     -9.48180359E+02     -6.06714468E+02
     -1.04329087E+03      2.71331871E+02     -1.73860701E+03
      2.93036190E+02      7.99548889E+02     -6.11247479E+02
     -1.21348185E+02     -3.96989019E+02     -1.53188281E+03
     -8.90030043E+02      1.60872334E+03      5.70384877E+02
     -1.70601092E+03      1.21481708E+03      3.38861219E+03
     -1.08104515E+03     -9.82701668E+01      2.20472949E+02
     -1.12845540E+03      7.70641032E+02     -8.21258476E+02
      7.63416919E+02     -6.35581670E+02     -1.37015066E+03
     -1.78372109E+02     -6.91730345E+02      6.45078661E+01
      2.98684407E+03      4.84684958E+02     -1.99451219E+03
     -3.82811600E+03      7.10008692E+01     -9.83563085E+02
     -2.09805399E+02     -4.28914814E+02      3.30110730E+02
     -1.05280049E+03     -1.34144238E+03      1.27857022E+02
      2.00849628E+03     -2.66840512E+03      2.66521306E+03
     -3.15034417E+02      2.95910095E+02      8.59795142E+02
     -4.10471696E+02      1.75244176E+02     -9.43148067E+02
      1.66479208E+03     -9.40678087E+02      9.61198848E+02
     -4.01149264E+02     -3.12349402E+02     -3.33870781E+02
     -9.66537471E+01     -8.70075295E+02      8.35822988E+02
     -7.51865268E+02     -5.11834679E+02     -1.44893908E+03
     -5.02502132E+02     -5.76114148E+02      9.91005827E+01
      1.63114458E+03     -2.74449316E+03     -2.28498368E+03
      2.14963630E+03     -1.12940484E+03      1.25830098E+03
     -2.94284673E+01     -2.83413238E+02      1.26626776E+02
      2.49503115E+03     -1.83446393E+03      1.62316981E+03
      8.09418411E+02     -1.76861931E+02      1.80451823E+03
     -5.36187297E+02      3.89553357E+02     -6.09894327E+01
     -2.15352490E+03     -4.71350771E+01     -3.36766551E+02
     -1.01659863E+03     -3.90596471E+02     -1.20411135E+02
     -7.94885116E+02      1.32375477E+02     -1.47915449E+02
      2.21214195E+02     -1.38333047E+03     -3.73187109E+02
      6.96635261E+02      2.27701868E+03      1.88576218E+03
      5.11580703E+02      8.52260910E+02      1.11159670E+03
     -7.68731085E+02     -1.10317845E+03      2.40930891E+02
      1.58983941E+01      5.87676108E+01     -1.15620427E+03
     -4.50663097E+02      3.44474617E+03     -8.94990068E+02
      1.08060347E+02     -2.30300891E+02     -8.66922126E+02
     -5.12361280E+01     -3.29376142E+02      1.03257678E+02
      1.76282608E+03     -1.28600865E+03      2.21054351E+03
     -1.21588346E+03      7.51820953E+02      7.98324159E+02
     -2.43194518E+02     -1.13283162E+02      7.05468939E+02
     -2.30961409E+03      5.10423856E+02      9.32991206E+02
      3.58706322E+03      1.57185937E+03      1.33111628E+02
     -4.06666980E+02      6.67654836E+02      4.59818348E+02
     -1.14606846E+03      6.13670987E+02      1.32312956E+03
      1.78522357E+03     -8.64756825E+02     -1.34403571E+03
      1.74834688E+02     -4.43079334E+02      1.15835839E+03
      4.40278955E+02     -1.61439162E+03      7.46266435E+01
      2.63380308E+03      3.46151680E+02     -2.23562808E+03
     -2.54626746E+02      3.35982920E+02     -7.02901112E+02
      1.08886893E+03     -2.64829379E+03      4.09611411E+02
     -1.39293338E+03     -6.19860822E+01      1.50413226E+02
      3.73415630E+02     -1.94531918E+02      3.28048783E+02
     -2.45453583E+03     -6.91139554E+01     -5.46987357E+02
     -1.95132240E+03     -4.78511464E+02     -2.99945884E+03
     -3.08553749E+01      6.20796067E+02     -3.62627780E+02
      1.74558003E+02     -3.63735120E+02     -8.26528988E+02
     -2.99044263E+03      2.25073538E+02     -3.73139613E+02
      3.42043844E+02      4.72156235E+02     -4.66623931E+02
     -1.29767835E+03      2.68428128E+02      2.08707945E+02
     -1.07988907E+03     -1.52046338E+02     -5.71499949E+02
     -5.68789317E+02     -5.81733885E+02      8.41901891E+01
     -4.11878695E+02     -1.88587115E+03      3.78278003E+02
      7.41972086E+02     -4.96757880E+02      3.90258893E+02
      1.61876612E+03      8.88802612E+02      1.28311539E+02
      2.95487168E+02      4.43559504E+02     -4.29155086E+02
     -4.64450898E+02     -1.09939200E+03      1.12550167E+03
      1.50763041E+02     -7.87781572E+02      3.58591128E+03
     -1.85063080E+03      3.97327164E+02     -3.17372044E+03
      3.52858658E+02     -5.10999635E+02      2.25352741E+02
     -2.38512582E+03      1.16401279E+03     -1.92843592E+03
      1.81670108E+03     -7.54774534E+02     -1.31472664E+03
      7.58540745E+02     -5.22111637E+02     -3.12982301E+02
     -5.20240729E+02     -9.29804298E+02      8.59416721E+02
     -2.13243750E+02     -2.54693832E+03     -1.32623838E+03
      1.51298666E+02     -4.52257586E+02      5.87704697E+02
      1.10345309E+03      2.11950123E+02     -1.06662544E+02
      6.99308883E+02      2.35527438E+02     -9.68472995E+02
     -9.21185676E+01     -3.53389855E+02     -8.78712514E+02
     -1.39748384E+03      1.33341868E+03     -2.51462059E+02
     -3.82944395E+02     -1.25261856E+02     -1.25629938E+03
     -2.67926518E+01     -9.75378031E+01      6.65950996E+02
     -3.21050599E+02     -1.11183831E+03     -2.94844934E+02
      1.14601661E+02      1.73611898E+03      4.35244046E+02
      4.21332862E+02      1.30949846E+02      4.16965519E+02
      1.56012463E+03     -5.31193251E+02      1.97804429E+03
     -1.58957184E+02      2.18982912E+03     -1.46042821E+03
      1.62307308E+01     -5.27810509E+02      1.18202500E+02
     -1.53635724E+01      1.53980565E+03      5.10286211E+03
     -6.43957957E+02      1.48836413E+03      7.60318825E+02
      2.16056742E+02      5.45380943E+02      5.00483980E+02
     -1.27661810E+03      2.18608889E+03      4.37951358E+02
     -1.31566130E+03      3.21315121E+03     -2.75681833E+03
     -4.67912214E+02      7.24526999E+00      8.66064164E+02
     -7.42633182E+02      5.23090711E+03     -1.91927725E+03
     -1.06154737E+03     -2.46593690E+02      2.31940841E+03
      3.08689448E+02     -4.22271233E+02      3.50893155E+02
     -6.48558406E+02     -1.74912927E+02     -1.95122240E+02
     -2.48569135E+02      4.75026075E+02     -7.63823216E+02
     -3.67387439E+02     -8.83073816E+02     -2.18080597E+03
      2.36485098E+03     -1.88481925E+03     -1.65579197E+03
     -3.71190146E+02      7.35173526E+02     -2.92653973E+02
      4.42201508E+02      2.33378178E+03     -2.93772903E+03
      4.28719284E+02     -1.35123805E+03      1.04622592E+03
      7.37229623E+01     -2.62949004E+02      1.04361511E+02
     -3.07105454E+03     -1.51009191E+03     -1.13135311E+03
     -5.00784447E+02      8.07219128E+02     -2.47605047E+02
     -4.95859347E+02      3.86596839E+00      2.72474850E+02
     -1.14827993E+03     -6.04125274E+02     -1.22644419E+03
     -2.55659616E+03     -2.86848303E+02      2.22446391E+02
     -1.40301594E+02      1.71356229E+02     -4.97830423E+02
     -1.15290249E+03     -1.67376612E+03     -3.81219949E+03
      1.48389844E+03     -2.60287824E+02      1.93301758E+03
      1.62446787E+02      1.34201286E+02     -1.90143851E+02
     -1.98204837E+03     -2.88919565E+02     -3.14658782E+03
     -3.85497303E+03      1.07436350E+03      2.92983956E+03
      5.91921283E+02     -1.31076020E+02     -7.12515951E+01
     -2.34923165E+03     -2.06063769E+03     -7.53671834E+01
     -5.41485476E+02      1.79053814E+03     -1.09021107E+02
     -6.02950653E+02      5.07261548E+02      4.47946245E+02
      3.02690306E+03      1.86986599E+03      1.13895992E+02
      3.11762883E+02      1.05045553E+03      2.95642632E+02
     -2.38901471E+02     -1.24554826E+01      6.35315170E+02
      4.19677806E+02      1.47858926E+03      9.34962113E+02
      5.33903483E+02      2.98899465E+02      1.37718337E+03
     -2.95790812E+02      4.71362405E+02      3.26445238E+02
     -1.29631486E+03      5.89865818E+02     -1.32587797E+01
      2.40652553E+02      1.23652524E+03     -3.36656044E+03
      2.26259779E+03      1.49142063E+02     -2.86723892E+03
     -6.24546313E+02     -8.06977215E+01     -3.18895097E+02
     -1.24229072E+02      1.00297728E+03     -1.22011555E+03
      3.13946430E+02     -3.00960817E+02      4.25589051E+03
      1.18477176E+03     -1.71026290E+03     -2.42408074E+02
     -4.87116613E+02     -1.31936855E+02     -4.79060314E+02
     -3.25590418E+02      5.39171970E+00     -1.26514764E+03
     -1.94187790E+03      8.06359508E+02      9.12541384E+02
     -4.01746966E+02     -6.44008268E+02      1.94958164E+02
      7.62327490E+02     -1.12834167E+03     -4.05222084E+02
     -1.62243910E+03     -2.59477219E+03      1.00145677E+03
     -5.33411358E+02     -3.17617621E+02      5.81725158E+02
     -1.89878193E+03     -1.84246638E+02     -2.29375505E+03
     -8.85259053E+02     -1.16211738E+03     -1.42874735E+02
      1.11090960E+01      7.15553736E+02      9.93685494E+01
     -1.08357492E+03      2.20669038E+02     -3.57768453E+02
     -1.89681048E+03     -4.63158004E+02      3.17309416E+03
     -9.56365940E+01     -1.36273360E+02     -4.31918165E+02
     -1.27452268E+03      8.89452838E+01      2.66729055E+03
      1.37592513E+03     -8.64631436E+01      2.16221959E+02
      2.50325376E+02     -1.05487714E+02      5.19135383E+02
     -1.33551639E+03      1.12084434E+03     -3.49105516E+02
      3.59132203E+03     -8.75230869E+02     -4.45520523E+02
      6.95902938E+01     -3.53455907E+02     -2.91008095E+02
      9.38143710E+02      7.04588521E+02     -9.63487440E+02
     -1.28821517E+03      1.18039648E+03      3.50542950E+03
      2.07299407E+04      6.31572658E+03     -2.11491769E+03
     -1.64710041E+03     -9.48273775E+02     -9.94129601E+00
     -1.67965680E+03      6.77573516E+02     -1.27191544E+03
     -2.84904012E+02     -6.89037722E+01     -5.23588076E+02
      3.35927463E+02     -1.24829272E+03     -2.01117788E+03
      1.00507639E+03     -1.39011717E+01     -1.66424641E+02
     -2.04519908E+02      2.60002907E+03      1.73988656E+03
     -6.49151092E+02     -4.14867907E+02      1.32678306E+02
     -5.44190332E+02     -1.56403597E+03      1.49544610E+02
     -9.05536342E+02      1.38552501E+03     -1.12433375E+03
     -1.90568257E+03      7.03188735E+02      6.43153923E+02
     -2.69583984E+02     -2.84271470E+02      1.43412450E+02
      2.69425326E+03      2.54008881E+03     -1.33246418E+03
     -7.06991945E+02      3.62268811E+02      9.31476076E+02
     -1.76299009E+02     -2.42571619E+02     -1.03399623E+02
     -9.32654535E+02      3.75735147E+02      1.34995135E+03
     -1.46392719E+03      9.58927626E+02     -1.10236994E+03
     -4.92691472E+01      2.74281713E+02     -1.28396140E+02
      1.90126302E+03     -2.28336601E+03      1.44306864E+03
     -1.38226387E+03     -1.48954719E+03      5.35023703E+02
      2.30981842E+02     -2.52036906E+00     -1.32680286E+02
     -1.48596541E+03      9.21029694E+02     -2.98253700E+03
     -2.12121874E+03     -2.35981181E+03     -1.18032873E+03
     -3.08879925E+02     -8.63517176E+02      1.84395181E+02
      2.44466376E+03      2.39061786E+02     -8.89778708E+02
     -1.30217867E+02     -2.22726661E+03     -3.25163677E+03
     -1.61564342E+01     -6.13859914E+02     -1.19021107E+01
      1.00398012E+02      3.03972744E+02      1.80913928E+03
     -1.85770997E+03      1.42207558E+03     -3.97183395E+03
     -3.22695640E+02     -2.62212567E+01     -1.25765789E+02
     -2.63263654E+03      4.20771840E+01      9.11053143E+02
     -1.36917263E+03      2.66503088E+03     -7.13702598E+02
      6.74857045E+01      3.27594056E+02      7.23776969E+01
      7.24381505E+02      6.70343824E+02      1.57697044E+03
     -2.08403804E+03      1.15748885E+03     -3.63196314E+02
     -2.97022410E+02     -5.97601254E+02     -1.01501668E+03
     -1.33207692E+03     -5.60344811E+01      1.52193933E+03
      2.12958852E+03      2.74528447E+02      2.59751180E+02
     -1.97150159E+03     -1.36819537E+03      1.93755683E+03
     -7.36766931E+02     -5.91854338E+02     -3.48461286E+02
     -4.65812305E+02      2.87069805E+02      2.18513815E+02
     -9.83469888E+02     -2.14767113E+03      7.04534527E+02
     -2.67993806E+03     -3.61919482E+03      1.15753662E+02
     -2.31349788E+02     -2.71673973E+02      4.88434289E+02
     -1.09059449E+02      3.65607579E+02     -4.69727769E+02
     -1.49656264E+03      2.74599065E+03      2.16737485E+03
     -1.00946203E+02     -4.19979589E+02     -4.07502381E+02
     -4.13624023E+02      2.77830441E+02      9.99231927E+02
      1.16647979E+03     -7.21700026E+02     -7.25112345E+02
      1.09958402E+02      2.05996907E+02     -4.47744198E+02
     -1.64392390E+02      1.94605415E+03      1.53197995E+02
     -3.39479502E+02     -1.10891639E+03     -1.78378082E+03
     -2.45159086E+02      2.79119492E+02     -3.64219009E+02
      2.42374936E+03     -1.83180821E+02     -3.10638758E+01
     -1.57450062E+03      1.69025805E+03     -1.29866955E+02
      6.68276446E+01     -8.99342285E+01     -6.59239202E+02
     -1.88162598E+03     -1.75842850E+03     -5.60627810E+02
      1.05118719E+03      8.94839409E+02     -4.97542185E+02
      9.42627878E+02      7.19693847E+01      6.71452823E+02
     -1.94293943E+03     -3.15650841E+02      7.27058896E+02
     -4.33619733E+03     -1.02946337E+03      2.21678364E+02
     -5.65526548E+02     -2.37006953E+02     -5.41842074E+02
     -1.33580659E+03     -7.30491196E+02      1.37119008E+03
     -6.77849237E+02      5.51693529E+02     -5.96927795E+02
     -1.20881458E+03      2.44368601E+02     -6.36007407E+02
     -4.17106985E+02      2.18618160E+02     -1.20868500E+03
     -2.91272349E+03      3.06276993E+03      1.07220643E+03
      1.34620183E+03      1.51220986E+02      6.44558325E+02
      1.24664530E+03      1.45584009E+03      2.67165359E+02
     -5.87024581E+02     -3.99804329E+03     -2.29047360E+03
      1.57296870E+02     -2.38811507E+03      1.34341419E+03
     -1.67224450E+02      8.15269154E+01     -6.04038141E+02
      3.92087460E+03      1.57233288E+03      2.61744021E+02
     -1.26205210E+02      9.28500632E+02     -1.44397538E+03
     -1.75194903E+03      6.75234127E+02      7.58912169E+02
     -5.97483538E+02      2.06214875E+01      5.17169212E+01
     -9.24039625E+02      6.90745156E+01      3.48612924E+02
     -1.20893754E+03      9.29136192E+02      9.60963460E+02
      1.89363194E+02      8.69362695E+01     -4.16330917E+02
     -1.43006235E+03      3.90651648E+02     -5.75748287E+01
     -5.81292576E+02     -4.14660944E+02      7.26105090E+02
     -2.20961470E+02      5.54356012E+02     -2.85389071E+02
      3.40738137E+01     -2.76707437E+03     -1.37560347E+03
     -2.03973225E+03      1.92723677E+03     -4.76146709E+02
      5.35398703E+01     -6.05683976E+02      3.24835475E+01
     -2.39762859E+03     -1.26230428E+03     -2.20243446E+02
      8.52846480E+02      1.26361299E+03     -1.49277575E+03
     -3.95328365E+02      2.06942164E+02      4.52078003E+02
      6.63229888E+02      2.25163745E+02     -9.19604492E+02
     -3.10850379E+03     -1.32566619E+03     -1.70895914E+03
      1.40427348E+02     -3.29931230E+02      1.71512900E+02
     -1.44682430E+03      4.98515202E+02     -2.55924440E+03
     -1.04427424E+03      1.30546309E+03      2.30900071E+03
      7.50083218E+02      5.71448305E+02     -4.26256991E+02
      1.44495118E+03      4.26209208E+02      7.16755681E+02
      4.05223751E+02     -1.06798898E+03      2.28113664E+03
     -4.26419671E+02      3.39767950E+02      3.69048453E+02
      1.28283938E+02      1.94621358E+03     -8.36226799E+02
     -7.97521029E+02      1.14091767E+03      1.72659502E+03
     -4.31927133E+02      8.32210889E+02     -2.99628149E+02
     -2.98598553E+02     -1.09981191E+03      4.75240432E+02
     -5.83310573E+02      3.48550983E+03     -1.73381567E+03
      1.82032963E+02     -9.83185322E+02      1.12490551E+03
     -2.69262735E+01      3.21058242E+02      2.81140774E+02
     -5.46621112E+00      2.72482753E+03     -2.75883698E+03
     -1.93932759E+03      3.07360845E+03     -2.21736902E+03
     -3.48336214E+02      1.48461473E+03     -2.19723215E+03
     -8.29055327E+02      8.38437986E+01      1.31214193E+02
     -9.54546208E+02     -1.49605533E+03      3.81680871E+02
      2.75488077E+02     -2.09967091E+03     -2.34739267E+03
     -1.02983178E+03     -1.83889951E+02      4.49753745E+02
     -8.70393883E+01      1.39792345E+03      3.26432732E+03
     -1.90841722E+03      6.99717227E+02      2.66317132E+02
     -2.76938818E+02     -4.92693380E+02     -6.41039545E+02
     -6.67695916E+02      2.73663681E+03     -1.59387964E+03
      2.41284360E+03     -7.35035534E+02     -1.10188978E+03
     -2.37957467E+02      3.78701295E+02      8.10110601E+01
      6.30923085E+02     -1.03225967E+03     -1.66244286E+03
     -7.53034523E+02     -7.34956192E+02     -9.54930464E+02
     -7.56708205E+02      1.27244514E+02      5.46956641E+02
     -1.84605386E+03      1.94833342E+03      2.60176773E+03
     -1.05567047E+03     -2.74438935E+03     -4.84177443E+02
      3.81323294E+02      1.09585869E+03     -3.98484959E+02
     -1.43981962E+03      1.16093506E+03      2.42672065E+03
      1.04609988E+02     -6.33289915E+02      1.37347572E+03
      3.22126126E+02     -3.83780329E+02      1.68129473E+02
      7.07315696E-01     -6.84265390E+02     -1.97031571E+03
     -2.50648897E+03     -2.94938464E+03      6.23020356E+02
     -8.74905681E+02      3.35807938E+02     -3.19565922E+01
      8.04654830E+02     -3.75818870E+02      4.48412261E+02
     -3.13248303E+03     -2.60828546E+03      1.39538364E+03
      1.29415959E+02     -1.61937042E+01      7.39040704E+02
     -2.20320701E+03      5.68876777E+02      2.06116762E+03
      2.51194376E+02      8.31940501E+02     -2.55496315E+02
     -1.65383430E+03     -1.14993124E+03     -2.06885323E+03
     -1.23492602E+02     -4.95816560E+02     -5.49895087E+01
      1.02233471E+03     -7.33607180E+02      2.27384928E+03
      2.13739588E+03     -1.11495965E+03      2.29237112E+03
      1.95909801E+03     -3.50742056E+02      1.92726481E+01
  }
}

Hamiltonian = DFTB {
  SCC = Yes
  SCCTolerance = 1e-6
  MaxSCCIterations = 200
  ForceEvaluation = Dynamics
  MaxAngularMomentum = {
    C = "p"
    H = "s"
  }
  Charge = 0.0
  SpinPolarisation = {}
  Eigensolver = Standard {}
  Filling = Fermi {
    Temperature [Kelvin] = 300.0
  }
  SlaterKosterFiles = Type2FileNames {
    Prefix = "../../pbc-0-3/"
    Separator = "-"
    Suffix = ".skf"
    LowerCaseTypeName = No
  }
  KPointsAndWeights = {
    0.0000000000000 0.0000000000000 0.0000000000000 1.00000000000000
  }
  Dispersion = LennardJones { 
    Parameters = UFFParameters {}
  }
}

ParserOptions = {
  ParserVersion = 3
}
