Geometry = GenFormat {
<<< "system.gen"
}

Driver = VelocityVerlet{
  Steps = 100000
  TimeStep [fs] = 0.2
  MDRestartFrequency = 5
  Thermostat = None {
    #InitialTemperature [Kelvin] = 300.0
  }
  Xlbomd{ 
    IntegrationSteps = 6 
    MinSccIterations = 2
    MaxSccIterations = 200
    SccTolerance = 1e-6 
  }
  Velocities [m/s] {
     -4.07787682E+02     -1.59450237E+02     -5.84965161E+02
     -6.82666964E+02     -2.09617246E+03      1.00041184E+03
     -5.73598103E+02     -7.92249043E+02     -1.03486679E+03
      1.24569257E+02      1.10623986E+03      3.57164866E+02
     -7.09197759E+01      1.10958525E+03      3.68054317E+02
     -7.91293655E+01      6.30699662E+02      4.12865034E+02
      2.71125208E+04      9.77014450E+03     -1.66385971E+04
     -1.34367071E+02     -2.96533905E+03     -7.88249792E+02
     -2.65074950E+03      2.45796208E+03     -4.44935361E+03
      5.04098280E+01     -2.44751861E+02     -6.27509911E+02
     -2.31355695E+03     -5.91828976E+02      1.33644621E+03
      1.41260939E+03      2.47718894E+03     -4.11962167E+02
     -9.58436798E+02     -4.12859142E+02      4.64876051E+02
      2.18071347E+02      3.28313676E+02     -6.56391457E+01
     -1.79951248E+03      9.59680213E+02     -7.95331549E+02
     -1.35248799E+00     -9.27700902E+02      3.00901508E+02
     -2.19120929E+03     -1.06421413E+03      6.00597030E+02
     -1.12943583E+03      9.43936279E+01     -1.24365463E+03
     -6.11922659E+02      2.07483745E+02      4.73074551E+02
     -7.84706983E+02      2.35158738E+03      1.70183980E+02
      2.73725112E+03      4.37258122E+02     -6.39669378E+02
     -9.96433619E+02     -2.47536266E+02     -4.39006855E+02
     -1.34383263E+03     -6.99583550E+02      1.50007921E+03
      4.52460880E+03     -6.35799639E+02      4.07074685E+02
      2.28317535E+01      7.86206686E+02     -2.33001865E+01
     -9.14044722E+02     -1.84928259E+03      2.00906240E+03
      1.48182727E+03     -1.58012313E+03      1.07934013E+03
      1.69875110E+03      2.20680999E+03     -3.40192713E+03
     -5.75305257E+02      1.66727433E+02     -6.03975037E+02
     -1.53488033E+03      2.56321115E+03      1.84404266E+03
      4.33414687E+03      1.28991330E+03     -1.56387042E+03
     -2.62617379E+03     -1.61887276E+02      1.49217090E+03
     -9.42767730E+02     -8.51474488E+01     -4.35205736E+02
      2.31183241E+03      2.46301460E+02     -2.28465111E+03
      7.78353652E+02      1.31836679E+02      2.22274684E+02
      8.19869322E+01      5.66312015E+02     -4.15254651E+01
      2.46490955E+03      7.76357294E+02     -2.71461394E+03
     -1.58896200E+03     -4.38949242E+02     -2.34639629E+02
     -9.98420128E+02     -2.76719456E+02      1.61551596E+02
      1.76716405E+03     -1.20663754E+03      1.24865374E+03
      1.85514806E+03      4.42314056E+02      1.12143001E+03
      3.81220725E+02     -3.29801951E+02     -1.71648470E+02
      3.21287591E+03     -1.71505294E+03     -1.45984812E+03
      2.65649256E+03      1.98002628E+03     -3.30742917E+03
     -1.44280289E+02     -4.18775184E+02      8.07077810E+02
     -8.53006858E+01      1.06646751E+03     -3.55512816E+02
     -8.11755311E+02      2.80223483E+03      5.87097252E+02
      5.35239352E+01      1.61579548E+02     -2.17901518E+02
     -7.69793967E+02      6.94943146E+02      1.32970392E+03
     -3.42717913E+02      1.08148095E+03     -2.65531270E+02
     -7.94486875E+02     -1.17063291E+02     -6.23056111E+02
     -1.08250699E+02     -2.23007379E+03      2.34217204E+03
     -1.21785819E+03     -1.10210200E+03      2.73019738E+03
      4.22821902E+01     -5.56894812E+02      6.65267654E+02
     -4.05509124E+03      1.49805095E+02     -2.00802401E+03
     -2.01956600E+03     -3.27916374E+03      8.37909643E+02
     -3.43576925E+01     -8.25640731E+02      2.11735413E+02
     -8.14706910E+02      7.18507697E+02      1.36417297E+03
     -9.12309092E+02     -6.86889858E+02     -1.19856136E+02
     -2.50173544E+02      2.01782283E+03     -1.05168081E+03
     -1.16159163E+02     -7.06265576E+01      8.98682495E+01
      6.71696770E+01      7.96168782E+02      1.73792003E+03
     -3.10526466E+03      8.72675789E+02     -8.54311556E+02
     -1.51697125E+03      6.31351682E+02     -1.05869147E+03
     -2.13483697E+02     -8.18782698E+02      6.47284922E+02
     -1.63531391E+03      7.57243757E+02      1.93034083E+03
      2.46126434E+03      1.78679024E+03      1.55544797E+03
      4.37165993E+02     -5.12824320E+02      2.10708752E+02
     -1.01506583E+03     -3.42332982E+03      7.66680617E+00
      2.81972642E+03     -1.95037679E+02      1.62361083E+03
      6.14930441E+00     -8.83927182E+02      8.21261631E+02
     -1.15075468E+01      1.18959733E+03      1.11944305E+03
      3.52104415E+02     -3.78916568E+02      7.70940127E+01
     -3.42257887E+02     -2.73120038E+02     -3.06620874E+02
      4.43003866E+02      2.04597839E+03     -1.70127818E+03
     -9.33018227E+02      1.96049695E+03     -1.29537829E+03
      1.53172064E+02     -1.37696042E+02     -1.03856314E+02
     -1.14287371E+03      1.20638249E+02     -7.88019810E+02
      2.99705193E+03     -6.53389746E+02      2.46058295E+02
      5.01106454E+02     -1.77431598E+02     -1.30605633E+02
      9.24682592E+02      5.68025205E+02     -2.41443473E+03
      9.52430843E+02      2.19759114E+02      2.37695268E+03
     -1.34514533E+02      3.07095305E+01     -1.66099036E+02
      1.81722199E+02      3.67185005E+02      2.69889071E+03
      6.72420128E+01      1.06412761E+03     -4.77756253E+02
     -2.31729519E+02     -1.00700894E+02      9.78906048E+02
     -1.64321760E+03      7.13105946E+02     -1.16309117E+03
     -7.31423413E+02     -1.97917018E+03      2.07532250E+03
      2.77598523E+02     -2.52871444E+02     -2.68724076E+02
     -5.35559044E+03     -2.30353522E+03     -5.71249030E+02
      3.09201496E+03     -3.22069625E+03     -5.50449214E+02
      4.65196696E+02     -1.12793716E+03      8.51549328E+02
     -7.28948474E+02     -1.31541660E+02      1.27983478E+02
      3.31550469E+03     -7.12973124E+02     -3.11394967E+02
      1.69319437E+03     -2.60413105E+03     -3.02711275E+02
     -2.45633212E+03      2.14645086E+03      4.68132875E+01
     -5.89383472E+02      9.99984649E+02     -1.12297537E+02
      3.79987142E+02      2.00066704E+02      6.17063478E+02
     -2.81191120E+03      1.42201139E+02      3.16082781E+03
      2.18230087E+02     -4.97340551E+01     -1.77661716E+02
      2.68746103E+02     -3.85268303E+03      4.49110998E+02
     -3.53048379E+03      3.12296070E+02      2.30742999E+03
     -5.40148832E+02      1.20469731E+02     -1.30071753E+02
      8.85529147E+01      2.73230610E+03     -2.76023710E+03
     -8.92139548E+02     -2.87766260E+02      2.68822033E+03
     -3.68177618E+02      6.53502810E+02     -7.79926525E+02
     -4.00342731E+02      3.79785235E+01     -2.21030518E+03
     -1.13087033E+03     -6.45690509E+02      7.59718935E+02
     -6.34485061E+02     -5.59055491E+02     -1.06790956E+02
     -4.23712601E+02     -3.63721035E+02      5.06957801E+02
     -1.57996312E+03      9.11635504E+02      7.37651437E+02
     -8.94887259E+02      4.12779396E+00     -3.94242065E+01
     -3.47963894E+03     -1.49320550E+03      1.10431831E+03
     -3.73865557E+03     -2.04717473E+02     -6.22019977E+02
     -6.76293911E+00     -1.05596008E+02      5.82172117E+02
     -7.93410552E+02      7.63391418E+02      7.42394918E+02
      8.24061819E+02      7.17641408E+02     -8.10115401E+02
      5.10011944E+02     -2.63254467E+02      4.57381665E+02
      3.74508831E+02     -2.87047449E+03     -3.20433415E+03
     -6.45470023E+01     -3.20391527E+03     -9.61487067E+01
     -5.56001066E+02     -3.07479010E+02     -9.38772797E+01
      3.65043392E+02     -2.74692455E+03     -6.52462246E+02
     -3.56985017E+02      6.83064506E+02      1.52316930E+03
     -2.41362870E+03      1.43399819E+03      1.95920702E+03
     -3.87253370E+02      5.49145999E+02      1.08937315E+03
      3.59609671E+02      1.29491975E+02      4.18996316E+02
      1.59081551E+03     -8.69450190E+02      8.26614134E+02
     -2.01542553E+03     -2.15703179E+03      1.12470086E+03
     -6.99785327E+01     -2.88113525E+02      3.90957226E+02
      1.03682107E+03     -2.15948303E+03     -1.17528165E+03
      8.51527275E+02     -1.03232217E+03     -2.14032336E+03
     -3.97982545E+02      1.74097430E+02      2.90406727E+02
     -6.18430861E+02     -1.56514161E+02     -4.80588153E+02
      2.14857359E+03     -4.80989254E+02     -2.71919009E+02
     -2.11751987E+02     -5.97413554E+02      8.53468590E+01
     -1.07968827E+03     -2.14128617E+03     -6.30374411E+02
      6.94650604E+02     -6.34580202E+02      1.49247625E+03
     -4.43233781E+02     -9.60837018E+02      3.30347039E+02
     -1.29216361E+03     -1.25266146E+03      2.04507549E+03
     -1.30715818E+03      8.52528903E+02     -6.54031884E+02
      3.80201613E+02     -1.59469880E+02     -3.75029530E+02
     -1.34280466E+03     -1.62017053E+03     -5.52800262E+02
     -1.11115062E+03     -1.74952964E+03     -1.51877742E+03
     -2.03219976E+02     -4.16753828E+02      5.79951692E+02
     -1.79099735E+03      1.23355791E+03     -2.21665149E+03
     -1.48750664E+03     -2.19902304E+03     -1.22725010E+03
     -1.14752723E+02      1.02137925E+02      3.69651410E+02
      2.08131921E+03      6.25788989E+02     -3.81871599E+02
     -9.53243418E+02      1.60893716E+03      2.56716390E+03
     -1.05040713E+03     -9.63315510E+01      1.45422460E+02
     -2.53219804E+03      9.40278965E+02      3.73532738E+02
     -3.28382530E+02     -3.13335729E+02     -3.21488692E+02
     -4.47515567E+02      5.04346370E+02     -9.81887689E+01
     -4.20569100E+02      1.84327005E+03      3.22078263E+03
      2.63560215E+03     -1.75770649E+02     -5.08217728E+02
      7.45080660E+02     -2.49221300E+03     -9.66673738E+02
      8.11504031E+01      4.60426586E+00     -6.20758750E+02
     -2.33619204E+03     -1.03580214E+03      2.00509780E+03
     -7.06513329E+01      1.04535909E+03      1.24864062E+03
     -2.07846686E+03     -9.45093075E+01     -1.08165911E+03
     -4.06133986E+02      1.06096867E+03      3.64796910E+02
      6.77125255E+02     -1.73383988E+03      5.77694266E+02
     -2.02536048E+03      2.22507146E+03      1.03837896E+03
     -1.83740757E+01      3.93027266E+02      2.38021171E+02
      2.15231070E+02      1.71228608E+03      1.34053761E+03
      2.14337586E+03     -1.61472219E+03     -1.35881457E+02
      5.95005438E+02      1.63434320E+01      2.59118988E+02
      1.63194868E+03      4.59024622E+02     -1.26361961E+03
     -2.10160388E+03      5.55768000E+03     -1.05713480E+03
      9.57614894E+02      4.14138036E+02     -6.92775010E+02
     -9.01347656E+02     -2.04598643E+03     -1.73754453E+02
      1.45539633E+02      7.50152424E+02      9.41844592E+02
     -2.95814195E+02      3.08737742E+02      7.99291114E+02
     -9.95911166E+02      1.48795752E+03     -2.52977408E+03
      1.60814245E+03      9.75743725E+02      1.46016489E+03
      1.27983914E+02     -1.05724348E+02      1.10706862E+03
     -2.13574854E+03      6.75068463E+02     -1.37582703E+03
     -5.06342035E+03      3.35757223E+02     -1.51452027E+03
      4.81029675E+02      9.85731555E+01      1.32914006E+01
     -3.88948593E+02      7.23946218E+01      2.51861334E+03
      1.38756352E+03     -3.38777411E+02     -1.49051420E+03
     -4.23255221E+02     -5.81686488E+02      2.11607066E+02
      2.14977781E+03      4.36032298E+02      4.36697354E+02
      8.07726009E+02     -2.02196002E+03      2.87334604E+01
      6.36651757E+02     -3.54624416E+01      2.56696982E+02
     -1.98027440E+03      1.48080233E+03     -2.98919563E+03
     -5.97327171E+02      3.28653684E+03      2.18807991E+03
     -1.52151891E+03      1.75338361E+03     -9.10582915E+02
     -4.04820490E+02     -4.09438810E+02     -3.11514477E+02
      7.91817731E+02     -2.11745743E+02      2.02258652E+03
      3.48232394E+03      4.12022251E+03     -2.11720735E+02
     -1.40600655E+03     -8.35729020E+01      2.91227970E+02
     -5.75431281E+02     -6.43190695E+02     -2.40432462E+02
     -2.44281491E+03      3.05391269E+03      9.48934527E+02
     -3.06601930E+03      1.77001175E+03     -1.55082598E+03
     -6.63444121E+01     -5.52500061E+01      3.24096032E+02
     -5.24331638E+02     -9.88718890E+01      4.00949968E+03
      3.67270652E+02     -2.54119452E+03     -9.15582334E+02
     -5.88596132E+02     -3.40907492E+02     -3.10905421E+02
     -4.34810867E+02      1.88394701E+02     -5.23111211E+02
     -2.12528660E+02     -2.19919419E+03      1.93221028E+03
      2.54897706E+02     -4.74502770E+02      2.85832625E+01
     -1.89321572E+03     -1.54596392E+03      1.23641040E+03
      1.51227946E+03      3.03971020E+03      2.13068055E+03
      7.60642977E+01     -4.05898803E+02      4.05890927E+02
      1.55649888E+03      3.29656226E+03      9.35817576E+02
     -2.19671041E+02      3.56132525E+02     -2.90149396E+03
      2.46287362E+02     -2.66209493E+02     -3.19272883E+02
     -2.94706494E+03     -1.50049853E+03      7.45222507E+02
     -1.51082261E+03      3.81856609E+03     -1.71314933E+02
     -1.02644671E+03     -4.20988093E+01      3.59501900E+02
     -1.11814667E+03      1.16984487E+03      3.94602676E+03
      4.62316000E+02      1.49602191E+03     -7.45482392E+02
     -6.10745473E+02      2.35232093E+02      5.81084702E+02
     -1.94331792E+03      9.94738740E+02      2.84820433E+03
      6.67203100E+02     -6.92217982E+02     -1.98653855E+03
     -4.53110767E+02     -6.83156932E+02      1.08792282E+03
     -2.48793134E+03      2.52027674E+03      1.16527489E+03
      5.84565806E+02     -2.34008884E+02      3.22947163E+03
     -1.13174147E+02     -2.24158848E+03      8.99885151E+02
     -9.14575181E+02      4.83584658E+02      6.99129345E+02
      3.09471718E+02      2.77225373E+03     -1.08494580E+02
     -3.11093530E+03      1.08735946E+02     -5.87040608E+02
     -1.66640476E+03     -9.94159910E+02      9.65247043E+02
     -2.47211956E+02     -7.56465849E+00      1.33227493E+02
     -1.72880430E+02     -7.39031572E+02     -8.65142805E+02
      1.54195836E+03      2.39942519E+02      1.06027674E+03
     -6.53306344E+02     -4.31107058E+02      2.68556789E+02
      6.78807547E+02      1.37033926E+02     -1.17802482E+03
      3.53034059E+03     -4.14214805E+02     -5.06582555E+02
     -1.83445340E+02      7.82721168E+02      1.50789789E+02
      1.31135117E+01      1.68742487E+03      2.47149599E+03
     -3.45600447E+02     -1.02515508E+02     -9.21553212E+02
     -2.32882974E+01     -8.53060483E+01      6.30568076E+02
      1.68224999E+01     -3.02937429E+02     -2.87299942E+02
     -2.02723649E+03      6.41098197E+02      1.21025361E+03
     -9.80264437E+02      1.24137806E+02      9.28788406E+02
      1.20950480E+03      1.30822788E+03     -1.38618856E+03
     -4.37822131E+02     -1.18390439E+03     -6.82294301E+02
      3.85371279E+02     -1.57254901E+02     -4.50563794E+02
      1.72650171E+03     -6.95274913E+02      2.99071784E+02
      1.86259538E+02      1.54469872E+00      1.78372299E+03
      5.42746248E+01     -2.09142323E+02     -1.55621503E+02
     -1.68364177E+02     -9.40722945E+02     -2.96042007E+03
      1.82276594E+03      8.00767268E-01     -2.70697833E+03
     -3.02734053E+02     -4.72805777E+02     -1.74780097E+02
      3.24512866E+02     -1.48059366E+02      5.65928346E+02
     -3.12654746E+02      9.67357098E+02     -2.03351894E+03
     -1.48096993E+02      1.87276883E+02      4.60435797E+02
     -3.96596126E+02      1.68479082E+03      2.48457551E+03
     -3.26841297E+02     -2.76073268E+03     -1.59542101E+02
     -1.41834318E+03     -4.93621598E+02     -3.53007247E+03
     -1.70585786E+02      6.18958815E+02     -7.05612559E+01
      2.03388627E+03     -1.67443494E+03      2.70469046E+02
      1.21754810E+03     -1.56260141E+03      1.41076942E+03
      4.01725090E+02      5.72859371E+02      2.41698917E+02
     -1.69572090E+02      9.47800088E+01     -1.78581775E+02
     -2.46681209E+02      3.90604609E+02      7.43474610E+02
      8.30015308E+02     -8.91063094E+02      2.11404535E+02
     -8.78320882E+02     -5.68604490E+02     -3.81272376E+01
     -1.97053419E+03      4.33179536E+02     -1.55260739E+03
      1.52735425E+03     -8.11242604E+02     -1.27273948E+03
     -4.76641490E+01      1.28883569E+02     -3.67452293E+01
     -3.25799139E+02      1.38050461E+03      2.17320066E+03
      6.50727195E+02     -9.87042194E+02      3.44018996E+03
     -3.05795402E+02      2.65848186E+02      9.48905357E+02
      8.10280535E+02      1.36529187E+03     -8.71054700E+02
     -3.55842252E+02      2.86959690E+02      1.55224161E+03
     -1.04507940E+03     -3.78222214E+02     -2.64463671E+02
     -7.09250760E+02     -8.74808380E+02      7.61243641E+02
      1.92044490E+02      9.59287750E+02      9.96177538E+02
     -1.41039440E+03      3.92189481E+02     -1.66006725E+01
     -1.59690222E+03      3.94182066E+01      4.01956280E+02
      2.04869731E+03      2.78475716E+02      1.31654792E+03
      6.82199081E+02     -3.08813140E+02      2.34803430E+02
      1.18060333E+03      3.54589606E+02      9.94231977E+02
     -6.01162901E+02     -1.13785851E+03     -3.37348118E+03
      3.07664866E+02     -1.11504437E+02      8.61711581E+02
      4.29704634E+03      2.18321701E+02     -2.94688441E+03
     -2.45174920E+03      1.44502454E+03      3.32315485E+02
     -8.38131765E+02     -7.10423841E+02      5.60752314E+02
      1.46960931E+02     -1.40514130E+03      1.25790378E+03
     -3.19929820E+03     -9.15833015E+02      4.21943238E+03
     -4.03594179E+02      1.97451638E+03      1.18555377E+03
     -3.91963930E+02     -4.52076684E+02      1.00779308E+02
      1.32241026E+03      3.51302143E+02      1.85274924E+03
     -1.91561024E+02     -2.08933799E+02      2.58532897E+03
     -3.35976557E+03     -9.73347057E+02      4.59700200E+02
     -2.51086722E+02     -1.21563472E+01      5.27686093E+02
     -1.76799437E+03     -5.35838245E+02      1.01511406E+03
     -1.51819049E+03      8.16560372E+02     -1.24976143E+02
      2.86099248E+02     -1.47930128E+00     -9.54536653E+02
      1.30442245E+03      1.71021560E+03     -1.66616708E+03
     -1.83914422E+03      6.78253589E+02     -2.97980358E+03
     -6.79622166E+02      9.05113468E+02      5.43045360E+01
     -4.82181117E+02     -2.62459760E+02      9.66651542E+02
     -8.43939926E+01     -5.52418145E+02      3.74753820E+02
     -7.60734651E+00      2.02637298E+02      8.67064124E+02
     -2.44456056E+03     -2.16307035E+03      4.17713856E+03
     -2.12105282E+03     -1.32117826E+03     -2.37642623E+03
     -1.71213615E+02     -6.18060269E+02     -5.99058319E+01
     -6.47229797E+02      1.29511258E+03     -1.32801866E+03
      3.81811042E+02     -2.00373497E+03     -3.68514208E+02
      2.10668097E+02      2.71088601E+02     -1.66316010E+02
     -2.73585632E+03     -1.37349141E+03     -8.37115035E+02
     -7.38044788E+02     -2.26398879E+02      1.07213310E+03
     -4.60701007E+02     -7.69113012E+01      2.82122999E+02
     -1.35735863E+02     -1.70398375E+03      3.94028415E+01
     -2.72627430E+03     -3.61377380E+03      5.99688336E+02
      6.06148712E+02     -9.92820629E+02     -4.32073444E+02
     -1.06961970E+02      9.71338393E+02      1.97697988E+03
     -2.20431306E+02     -2.59073893E+03      2.55882042E+03
      2.45850613E+01     -9.67844417E+01     -3.43326132E+02
     -3.46408281E+03      2.69840985E+03     -2.85103839E+02
     -6.74003436E+00      1.30416618E+03     -1.36008769E+03
      2.16509794E+03      5.01852160E+02     -1.45712380E+03
     -5.48345981E+02     -3.46242480E+02     -7.21511154E+01
      2.99613585E+03      2.48514907E+02      1.35520905E+03
      4.05845945E+03     -1.28262706E+03      9.39872647E+02
      9.28805466E+02     -2.70021196E+03      2.69518831E+03
     -7.62971247E+02      9.28202446E+01     -5.82380715E+02
     -4.17319836E+02     -1.69881419E+03      3.41412465E+03
     -1.65460525E+02      5.92051244E+02     -9.61574122E+02
     -4.39009475E+02      1.42272818E+02      1.10629574E+02
     -3.92431080E+02     -1.31434589E+03      4.26323925E+02
      1.18465364E+03     -2.15457983E+03      3.52246556E+03
      1.13935767E+02     -1.76672236E+02      1.82157046E+02
      1.55537465E+03     -1.78327437E+02      6.79173736E+01
      2.81419306E+02     -7.67125276E+02      1.40254604E+03
     -4.34952849E+02     -4.19469910E+02      5.75447616E+02
     -1.94836872E+03      2.38681691E+02      5.74864817E+02
      8.23058747E+02      1.30417991E+03     -2.94223264E+02
      3.72813135E+01     -2.02744585E+02      1.26670429E+02
      1.11749666E+02     -1.14110361E+02     -6.27691527E+02
     -2.91018101E+02      2.63589364E+02      1.72505275E+03
     -6.63623050E+01      5.54842812E+02     -3.54326056E+02
     -1.46132398E+03      1.29727158E+03      2.48049464E+03
      1.76439629E+03      1.03406962E+03      2.68598280E+03
      1.76237507E+02     -6.87770616E+02      5.46630577E+02
      7.05497099E+02     -2.87781385E+02      3.12225471E+03
      1.49654206E+03     -2.39067605E+03      2.27764862E+03
     -5.25120658E+02      2.74630989E+02     -5.82278336E+01
     -1.72284363E+03     -1.26563063E+03     -8.20381784E+02
     -3.85150998E+02     -8.32768811E+02     -3.05961828E+03
      1.20881413E+03      2.81603398E+02      2.13113893E+02
      7.41059420E+02      1.61068629E+03      8.49383874E+01
     -8.92684524E+02     -1.05928633E+03     -1.67531627E+03
     -1.95010755E+03     -6.92764250E+02     -2.24379036E+03
     -4.24608851E+02     -3.77325241E+02      3.41421229E+02
      1.02577978E+03      8.29474735E+02      4.07495075E+02
     -2.72371155E+03     -1.24199613E+03     -1.63558565E+03
      3.01106312E+03     -1.20296041E+03     -3.34127092E+03
  }
}

Hamiltonian = DFTB {
  SCC = Yes
  SCCTolerance = 1e-6
  MaxSCCIterations = 200
  ForceEvaluation = Dynamics
  MaxAngularMomentum = {
    C = "p"
    H = "s"
  }
  Charge = 0.0
  SpinPolarisation = {}
  Eigensolver = Standard {}
  Filling = Fermi {
    Temperature [Kelvin] = 300.0
  }
  SlaterKosterFiles = Type2FileNames {
    Prefix = "../../pbc-0-3/"
    Separator = "-"
    Suffix = ".skf"
    LowerCaseTypeName = No
  }
  KPointsAndWeights = {
    0.0000000000000 0.0000000000000 0.0000000000000 1.00000000000000
  }
  Dispersion = LennardJones { 
    Parameters = UFFParameters {}
  }
}

ParserOptions = {
  ParserVersion = 3
}
