Geometry = GenFormat {
<<< "system.gen"
}

Driver = VelocityVerlet{
  Steps = 100000
  TimeStep [fs] = 0.2
  MDRestartFrequency = 5
  Thermostat = None {
    #InitialTemperature [Kelvin] = 300.0
  }
  Xlbomd{ 
    IntegrationSteps = 6 
    MinSccIterations = 2
    MaxSccIterations = 200
    SccTolerance = 1e-6 
  }
  Velocities [m/s] {
     -7.66554716E+02      6.20051640E+02     -1.99812536E+02
     -8.46893002E+02     -1.24530135E+03      2.93606017E+02
     -9.54258163E+02     -1.82803453E+02     -7.77638102E+02
      8.96232303E+02      4.42908639E+02     -3.49686058E+02
     -7.69345647E+01      1.43498411E+02     -5.03066338E+02
      1.52891241E+03      1.54775775E+03      2.76646552E+02
      1.94492127E+02     -4.91357438E+02      1.50687232E+02
     -1.24039511E+03     -1.45741142E+03     -1.36849246E+03
      9.32006264E+02      1.77275250E+03      6.68366289E+01
     -2.54637457E+01     -6.96679743E+02     -3.83613485E+02
      1.47823356E+03     -3.04377449E+03      1.12960496E+03
      2.07553566E+03      7.98754633E+02     -2.98071155E+03
     -1.00865698E+03      5.03351651E+02      1.52410326E+02
     -2.65830282E+03      1.57626760E+03     -1.61824639E+03
      9.33511670E+02     -2.80450338E+03      9.26716688E+02
     -1.01450446E+02      6.39458003E+02      6.10480219E+02
      1.02487419E+03      6.84457754E+02      2.58012729E+03
     -4.27605390E+02     -7.20091954E+02     -7.65120063E+02
      3.17022354E+02     -5.97187957E+01     -2.75222724E+02
     -3.05840045E+01      5.27002800E+02      6.62283152E+01
     -2.99672871E+03     -1.25499805E+02     -1.00877781E+03
      8.34354141E+02     -7.88549428E+01      6.38696755E+02
      1.21752096E+03     -5.02180033E+02      1.06297857E+03
     -1.97479484E+03      1.18209412E+02     -5.62178798E+02
     -4.51008460E+01      4.38868623E+02     -1.89088336E+02
      2.04109936E+03     -2.97784058E+02     -2.99838979E+02
      8.85235365E+02      4.21875558E+02      6.18094249E+02
     -2.50080929E+03     -2.06264485E+02      9.23883154E+02
      6.28783724E+02     -5.49289200E+02      5.92223091E+02
     -1.55963348E+03     -1.59985045E+01      9.67329105E+02
      7.44638873E+02      1.93858560E+03     -1.68981380E+03
      1.32655175E+03      2.86013377E+02     -3.03360588E+03
     -8.59989571E+01      1.02720382E+03      6.88580622E+01
     -1.87136966E+03     -3.83954635E+02      9.07956115E+02
      1.25544725E+03      2.94653362E+03     -2.12244877E+02
      2.04457711E+02      5.05260654E+02      3.81865620E+02
      9.34315672E+02     -7.71288798E+02     -9.77427670E+02
     -6.10158433E+02      3.20983262E+02      1.70537624E+03
      3.78628157E+02     -2.94914022E+02     -1.08906628E+02
      4.35643458E+02     -4.36248212E+02      8.07275494E+02
      1.33247323E+03      4.52916234E+02      2.68563823E+01
     -6.49787174E+02      4.37325540E+02     -6.67269155E+02
      5.11033759E+02     -4.63728728E+02      1.13138157E+03
      3.03920422E+02     -5.72057894E+01      2.98992262E+02
     -1.70119783E+02      7.40069641E+01      8.84467905E+02
     -1.03142600E+03      7.29729751E+02     -6.33111573E+02
      1.49653846E+03      2.34017605E+03      3.05513889E+03
      1.19851435E+02      7.50139965E+01     -2.20002777E+01
      3.33738494E+02     -2.01233767E+02     -1.51224262E+03
     -1.49717494E+03      1.65882360E+03     -2.89604992E+02
      2.55913093E+02      1.82076553E+02      1.14921194E+00
     -5.23710222E+01      1.33346828E+02     -4.05809606E+02
      1.74780588E+02     -3.53936619E+02     -3.64413571E+03
     -2.93128733E+01     -9.61026304E+01     -3.14146903E+01
     -5.69298808E+02     -2.58151996E+02      1.48346261E+03
      2.76111804E+03      1.45819787E+02     -2.17759374E+03
      6.74058006E+02     -2.72016524E+02     -4.70573637E+01
      3.58724508E+02     -2.24219030E+03     -5.96376350E+02
     -4.30775316E+02     -8.57558990E+02      1.31707263E+03
     -8.21024436E+02      1.39402128E+03     -2.29029021E+03
     -2.39128328E+02     -7.03060120E+02     -3.48576883E+02
      1.64279228E+03     -2.69554016E+03     -2.81093121E+02
     -2.96100506E+02     -1.59859029E+03      1.49617397E+03
     -2.21924881E+02      1.51951669E+03      3.06699067E+03
      2.03484752E+02      1.29222264E+02     -3.61216953E+02
     -2.35269945E+02      2.26598680E+03      1.90610092E+03
     -1.72164289E+03     -7.76945389E+02      1.22792987E+03
      2.61013200E+02      2.51119216E+02     -4.56606443E+02
     -1.89082170E+03      4.38723839E+02     -7.72128527E+02
      7.56197348E+02     -1.42781658E+02      9.04165090E+02
     -3.32945388E+01      2.09183747E+02      5.39858132E+02
     -5.75703018E+02     -4.18522830E+02     -1.71236643E+03
     -6.48013907E+02     -1.62198622E+03     -3.94596403E+02
     -4.29920227E+02      2.93225665E+02      3.95672119E+02
      1.45949004E+03      1.67377851E+03     -3.03102980E+03
      1.53611502E+03      3.13225252E+02     -8.99682240E+02
     -8.62189771E+01     -1.90627291E+02     -4.93415577E+01
     -1.53556580E+03      9.38905977E+02     -1.60885140E+03
      1.69145366E+02      1.24569828E+03     -3.50774705E+02
      1.62363248E+02     -1.99757846E+02      2.75446647E+01
      3.73394742E+02      1.42148263E+03      2.05786206E+03
      9.40029430E+02      2.17331338E+03      1.54444080E+03
     -1.02805610E+03      9.97664067E+02      6.93619578E+02
      2.58541357E+03     -2.21520157E+03      2.39428522E+02
     -1.89300177E+02      9.87005261E+02      5.58358752E+02
     -5.90726206E+02     -6.16378892E+00     -6.66301233E+02
      1.48182669E+03      1.83625716E+03      1.72449823E+03
      1.23005390E+03     -9.07604370E+02     -3.52501090E+02
      3.51488239E+01     -3.05316435E+02      2.68481073E+02
     -1.62106849E+03      5.68052518E+02     -1.99137049E+03
      1.68262273E+03     -1.13410853E+03     -1.15300219E+03
      1.20059083E+03      2.39956884E+03     -1.31923236E+03
      1.07444181E+03     -1.41107488E+02      4.30002946E+02
     -6.55937091E+02     -1.98555991E+02      1.13426184E+03
     -1.36803561E+03     -1.43236294E+03      1.65701255E+03
     -2.00717288E+03      1.00650784E+03     -1.37702840E+03
     -5.48162564E+02      1.41042170E+03     -9.11217290E+02
     -8.20392520E+02      1.56198608E+03     -8.58479687E+02
      7.09824547E+02      1.49928076E+03     -1.21599212E+03
      6.06764104E+02     -4.31471350E+02     -2.12380332E+02
      2.62498756E+02     -1.75645409E+03      3.59721961E+02
      1.94143880E+03      4.85665281E+02     -8.54741349E+02
     -5.29424097E+02     -2.62599525E+02      4.61508332E+01
      5.59464702E+02      9.34610982E+02     -1.55614491E+03
      6.45086369E+02     -4.58964068E+00      2.97713803E+02
     -5.86459951E+03     -1.60412040E+04     -5.12025844E+03
     -2.05245489E+03     -1.90864479E+03     -2.68631448E+03
      6.27184401E+01      1.92309434E+03     -6.65154780E+02
      5.10749796E+01      3.15078161E+02     -2.29385824E+02
      5.89819742E+01      1.49939576E+03     -1.16439167E+02
     -2.01142578E+02      2.04311215E+03      1.82781358E+03
      8.73293562E+02      5.12723721E+02      3.66279468E+02
      1.56160369E+03      1.55650853E+03     -1.55309385E+03
      8.73992714E+02     -5.63100593E+01     -3.91975109E+03
     -1.95556114E+02     -3.44760419E+02     -2.41272304E+02
      4.35421195E+02      2.65123773E+03      1.17823102E+02
      6.80752924E+02      3.57506025E+02      2.40550094E+03
      3.15426675E+02      2.05701225E+01     -7.93302660E+01
      9.21130634E+02      2.63258740E+03     -8.38449754E+02
     -1.64604568E+03      2.49613441E+03     -1.30159046E+03
     -4.05405206E+02     -4.27876083E+01     -4.40535822E+02
      2.90191242E+03      8.00093717E+02     -1.09128251E+03
     -1.52005984E+02      1.41521390E+03      2.82681329E+03
     -7.18327353E+02      4.39264384E+02      3.46717377E+03
     -4.66554551E+02     -1.65610255E+02     -2.54215893E+02
      1.15109021E+03     -2.16034337E+03      3.41032808E+03
      3.58540912E+03      7.44897862E+02      7.71188467E+01
      1.53997149E+03     -3.68895226E+02     -2.95233073E+03
      8.49307670E+02      4.54891773E+02      4.00050978E+02
      5.26002769E+02     -1.08258582E+03      1.28381505E+03
     -9.01308129E+02      1.60398546E+02      6.38095887E+02
      2.42704268E+02     -1.13283345E+02      3.42180584E+02
     -1.91198746E+03     -7.69613780E+02     -2.86849414E+03
      1.86538447E+03     -5.15901101E+02      1.87269236E+03
     -3.89915531E+02     -8.27903212E+02      3.24821161E+02
      2.70319807E+02     -1.93490893E+03      1.28347561E+03
     -8.19614482E+01      9.78589215E+02     -4.54086582E+03
     -4.88510066E+01      3.57342401E+01      2.73992051E+02
     -1.75510333E+03      3.42679822E+02     -1.12093392E+03
      3.73607126E+02      3.78414753E+02      8.02208119E+02
     -4.74328507E+02     -2.22663583E+02     -5.43626660E+01
      1.50880081E+03     -2.00958779E+03      2.73697067E+03
      1.80285204E+03      1.12629178E+02     -1.09064225E+03
      7.33765900E+02     -3.90007127E+01     -2.41578827E+02
      4.59181876E+00     -9.80629696E+02      2.58855244E+03
      2.03462879E+02     -1.33379642E+03     -1.94686349E+03
      3.53110719E+02     -2.23427597E+02     -2.58091295E+02
      9.95980764E+02      1.51953869E+03     -1.42749876E+03
     -6.36439902E+01      7.66685518E+01      1.48986581E+03
      4.92114579E+02      1.69744738E+02      2.05960235E+02
      8.95927609E+01      7.83614605E+02     -1.04559633E+03
      1.61315027E+03     -5.73903846E+02      3.23164839E+02
      1.87082834E+02      4.63680321E+02      3.97542958E+02
      1.73079308E+03     -7.28489482E+02      1.27744312E+02
     -1.45993512E+03      6.81054595E+01     -6.75896223E+02
      1.08449324E+03     -8.59042743E+02     -4.85091409E+02
      2.18214890E+02     -9.62092155E+01     -6.96152863E+01
      8.51215472E+02     -1.51967127E+03      1.36955968E+03
     -2.44552313E+03      1.61384383E+03      1.41929819E+03
     -8.20355460E+01      2.27785279E+03     -7.96273711E+02
      1.28499475E+02      6.30648567E+01     -8.08204701E+01
      1.32468575E+03     -2.74696072E+02      1.25703871E+03
      3.97944354E+02      6.64620857E+02      3.19836083E+03
      7.24020467E+02      4.68060819E+02     -2.59189573E+02
      2.69499700E+02     -1.93044490E+03     -3.46674379E+03
     -7.84886547E+02      9.67692417E+02     -1.04844582E+03
     -1.45372318E+02      1.56361764E+02      1.65620802E+02
     -2.90956795E+02     -1.66116513E+02     -1.44975386E+03
     -4.03571249E+03      7.16141918E+02      1.34693015E+03
     -3.57031971E+02      6.89364343E+02     -1.77488284E+02
     -2.70250438E+02     -8.26817509E+01     -3.01183054E+02
     -2.79186358E+03      1.70526902E+03      2.92287662E+03
      7.79039790E+02     -4.22386342E+02      1.34286570E+02
     -1.93752991E+03     -4.97304064E+02      7.00328041E+01
      1.16410554E+03      4.43433410E+02     -1.86692041E+03
      2.72488412E+02      2.17491972E+02      1.04169446E+02
      1.83904497E+03      5.36001665E+02      2.27748922E+02
      6.18970803E+02      1.15767453E+03     -2.88259340E+03
      7.01635669E+02     -2.06011609E+02      9.12736052E+02
     -1.17680591E+02     -1.01412220E+03     -4.52391754E+02
     -1.59934808E+03     -6.80624819E+02     -3.58701719E+01
     -6.94956469E+02      7.15994627E+01      4.60941445E+02
      3.48605938E+01      3.52683088E+03      1.73375575E+03
     -3.22638306E+02      1.08535977E+03     -1.30949150E+03
      1.66052225E+02      6.00817514E+02      1.11114035E+03
      1.06437054E+02     -2.39686608E+03     -2.43088087E+02
      3.74431355E+02     -1.43388499E+03      1.69436780E+03
      1.29246073E+03      1.41268052E+03      9.57805348E+02
     -3.28333765E+02     -9.70099319E+02      6.94901971E+01
      1.36616028E+03      1.69150348E+03      6.53204483E+02
     -2.30774056E+03     -3.14504346E+03     -7.07454421E+02
     -1.58813616E+02      1.20008966E+03      2.57313736E+03
     -2.44505633E+02      1.99055153E+02     -6.75253334E+02
     -2.55835108E+02     -3.08923133E+03     -5.08083037E+02
      4.15214272E+02     -8.56512068E+02     -1.01569020E+03
     -3.34253828E+02     -1.13268908E+02     -3.64224816E+02
      1.14150108E+03     -7.28318495E+01     -1.23016153E+03
     -1.09626359E+03      1.10111074E+03      1.27724103E+03
      4.07521509E+01     -8.62709018E+00     -4.60478404E+02
      1.83203607E+03     -1.13704610E+03      2.44592071E+03
      3.01747270E+03     -1.18212458E+03      2.27177605E+01
     -4.49623079E+02      1.91532207E+02      1.24762873E+02
      3.31181798E+02      3.10137124E+02     -2.24756125E+03
      3.06050129E+03      1.16956324E+03      1.47133564E+03
     -2.12808185E+02      5.42942759E+02      6.56551229E+02
      4.14982873E+02      2.46876406E+03     -2.57719760E+02
      4.16912434E+02     -1.06399963E+03     -9.69257131E+02
     -2.20932957E+01      7.81090517E+02      8.14213665E+02
     -6.42512178E+01      3.20155823E+02      2.93040353E+02
     -1.57949553E+03     -1.39276457E+02      7.24838764E+02
      2.82989653E+02      1.69753315E+02     -6.65358158E+02
     -2.75314817E+02      2.45516406E+03     -2.96644966E+03
     -9.29969029E+02     -1.21248064E+03     -4.32387285E+02
      1.42046819E+02      2.02041874E+01     -1.15708326E+02
      7.78671601E+02     -2.50617536E+03     -2.43488760E+03
     -1.87627316E+03     -1.41461793E+03      1.07667587E+02
     -7.86200656E+02      3.11403915E+01     -4.68323318E+02
     -2.05313024E+03      1.68322753E+02      1.83879717E+03
      9.00188837E+02      1.35620539E+02      3.19151556E+02
     -2.20998659E+02      1.69840006E+03     -2.48719006E+03
      4.68463233E+02     -1.28721650E+02      3.49722571E+02
     -1.85332316E+03      7.23517076E+02     -1.80424267E+03
      2.52335936E+03     -4.95237887E+01     -2.49690152E+03
      9.06564002E+02      2.18151605E+03     -9.01263693E+02
      4.44565029E+02      2.14802351E+02     -2.86906286E+02
     -5.01367509E+02     -1.68850577E+03     -2.02958688E+03
     -1.02390629E+03      7.07411016E+02      1.03317673E+03
      9.52689018E+01     -1.60734876E+02      2.99892388E+01
      3.05583852E+03      8.38254492E+02      1.98879536E+03
      2.10585887E+03      2.12507074E+03      2.20533431E+03
     -5.13228665E+02     -9.11092575E+02      4.68252331E+02
      1.18382699E+03     -4.15973574E+03      4.55712686E+02
     -4.93532900E+01      3.15742676E+02     -1.02334969E+03
     -4.89582117E+01     -9.69082163E+01     -2.85234566E+02
      4.33828557E+02     -1.70428093E+03      4.95776706E+02
     -8.18128941E+01     -6.69686675E+02     -9.53994578E+02
      1.82308350E+02      3.33671671E+02      5.01173303E+02
     -1.51317479E+03     -2.92801716E+03      1.60897335E+03
      2.04420874E+02     -7.04395885E+02      4.19964089E+03
      5.11392538E+02      6.24996489E+01      3.56748361E+01
      7.35235303E+02     -1.32437599E+03     -1.10797337E+03
      3.59848524E+02     -3.80882196E+03     -1.95193896E+03
      9.83597348E+01      5.50456534E+02     -3.75947451E+02
     -1.93494370E+03      1.08276316E+03     -6.95750165E+01
     -1.66650111E+03     -1.31657440E+03      1.57599568E+03
     -3.41264557E+02      1.79564888E+02      2.17946685E+02
      5.23528069E+02      1.48892661E+03      4.64383276E+02
     -7.22777437E+02      2.39590844E+03      2.54530401E+03
      8.14740722E+02      3.12653576E+02      5.78327823E+02
     -1.92922147E+02      3.15184268E+03      5.61216532E+02
     -4.57486314E+02      8.46317411E+02     -1.13405771E+03
     -4.37766906E+02     -2.20723142E+03     -1.42526490E+03
      5.22976894E+02      5.86892045E+02      5.32314059E+02
     -2.58885696E+03     -8.36046748E+01     -5.05769252E+02
      9.81859045E+00     -1.64521387E+03      3.13694244E+02
      3.31211510E+03      9.75405183E+02      1.23705071E+03
     -2.39179910E+02      6.37987013E+02      4.58070004E+02
      1.90656862E+03     -2.23086282E+02      7.19458142E+02
     -2.20289148E+03     -4.56696628E+02      8.76623863E+02
      3.64430963E+02     -4.06827665E+02     -5.25690512E+02
      2.76154021E+03      1.05258408E+03      1.30952867E+03
     -5.20811454E+01     -1.05203027E+03      5.10791799E+00
      1.75130847E+02      4.76681924E+02      7.23333814E+02
      5.06174155E+01     -1.45569000E+03      2.12609758E+02
      1.76013205E+03     -6.71502012E+02      5.30358235E+01
      1.22363780E+03      5.73390593E+02      1.28799416E+01
      5.41927622E+02      1.36758793E+03      1.53450021E+03
      1.32162121E+02     -5.76801569E+01      1.52986394E+03
     -3.77343967E+01      2.15590626E+02      5.34455074E+02
      9.42690634E+02     -1.15276507E+03      1.67872510E+03
      2.35049874E+03     -5.48758176E+02      1.17930084E+03
     -2.06784451E+01      4.37502023E+02      7.15031612E+02
      6.37175923E+02     -2.13439926E+02      5.39103663E+02
      6.82434633E+01      1.20338265E+03      1.49095937E+03
     -7.40126876E+01     -5.22063853E+02      1.26280822E+02
     -3.36224599E+02      1.06585444E+03     -2.05762703E+02
      6.42145372E+02      1.64582217E+03     -2.03677254E+03
     -7.11809814E+02      1.15172734E+03     -5.98301294E+02
      8.12601293E+02     -6.94026788E+01     -3.08221717E+01
     -1.68732742E+02      5.39961738E+02     -1.40659603E+03
     -6.27837390E+02      5.32769964E+02      1.02085423E+02
      6.53154781E+02      2.67162622E+03     -1.25537214E+03
      1.58679662E+03      3.45422012E+02     -1.21621821E+03
     -2.94382429E+03      2.33588523E+03      1.12729315E+03
     -1.79966851E+02      1.03762869E+03      6.75561485E+02
      8.08968870E+02     -1.19351389E+03     -3.23629270E+03
      4.53141526E+02     -2.84303557E+03     -4.95980729E+02
     -2.36822766E+03     -5.87884561E+02     -1.44877310E+03
      1.12788400E+03      5.30966400E+02     -8.51125821E+02
      7.12077908E+02     -2.01676546E+03      6.75861658E+02
     -1.91172585E+03     -1.23415837E+03     -2.46553591E+02
     -4.23496054E+02     -7.91235170E+01      2.20456065E+02
     -2.70100391E+03      2.52853624E+02      3.69616858E+03
     -1.65634404E+01      1.12070479E+03     -1.25239109E+03
     -1.91840560E+02      9.15172952E+02      3.90794344E+02
      8.60401221E+02      2.24209633E+01      4.52492161E+02
     -1.83986197E+03     -1.02029317E+03     -1.58517547E+03
     -1.07540959E+03     -4.12988957E+02      1.13822492E+03
     -1.97180315E+03      1.39691495E+03     -6.03088808E+02
      8.12368845E+02     -9.89334143E+02     -1.03889833E+02
      4.95993128E+02      1.15104473E+02     -2.95867850E+02
      7.35445039E+02      2.03054397E+03      1.96467924E+02
     -2.67940652E+03      8.01506120E+02      2.28430705E+03
      2.71885540E+02     -3.67965550E+02     -3.04831915E+02
      2.40473138E+03      1.79746011E+03     -2.18683632E+03
      2.03026465E+03     -8.29797045E+02      6.61120947E+02
      1.60659944E+02      1.91495430E+02     -2.47331949E+02
      1.54678223E+03      9.37502453E+02     -3.69287460E+01
      1.15551658E+03      1.26192177E+03      2.31864180E+03
      2.69506586E+01      5.13367424E+02     -2.38052585E+02
      4.79166783E+02     -1.36984671E+03     -1.03797363E+03
      2.53709947E+03      7.16860802E+02      1.48213782E+03
     -7.46459233E+02      1.62102882E+02      1.53648782E+02
     -1.08657693E+03     -8.43356621E+02     -9.99599635E+02
     -1.45238750E+03      2.93266172E+03     -3.01901621E+03
     -9.71288349E+02     -1.33891885E+02     -1.95026440E+02
     -3.98921738E+02      2.78274263E+01     -2.41898265E+02
     -3.04772146E+03      1.78088289E+03      2.61175908E+02
      3.48079341E+03      2.48400065E+03      1.03433818E+03
      9.21118958E+02     -2.94608455E+02      4.62383748E+02
      1.95809538E+02      3.58650783E+02      8.39552712E+02
      1.39429008E+03      1.33554306E+03      3.06070674E+01
     -6.27655390E+02     -4.76832045E+02      1.58884944E+03
     -8.61922428E+01      1.77835983E+02      3.55992416E+02
      4.95352529E+02     -1.97713604E+02     -1.19249114E+03
      1.59715490E+03     -1.09836498E+02      5.51128070E+02
     -1.21478678E+02      5.16349428E+02     -9.93550956E+02
     -1.79160373E+03     -2.53831015E+03      3.08641703E+02
     -9.31421430E+02      9.60921793E+02     -4.89616403E+02
      1.42999276E+02     -4.94539849E+02      2.44273794E+02
     -2.67737210E+03      1.87256400E+03     -3.84336406E+03
     -1.71917663E+03     -1.59935715E+02     -9.23797377E+02
      1.21391395E+02      2.46984899E+02      3.28661634E+02
      2.10082265E+03      1.42126578E+03      2.78501283E+03
     -2.13069554E+03     -1.79267082E+03     -2.58385503E+03
     -3.67177701E+02      5.07919769E+02      6.41043374E+02
     -4.66000396E+03     -2.10589592E+03      1.10392049E+03
      4.03959964E+02      1.88089316E+03     -2.55928668E+02
      5.23920425E+02      1.10490037E+02     -9.10901946E+02
      7.85250027E+02     -1.24625591E+03      1.81866484E+03
     -1.92604570E+03      2.07573537E+03      4.58583410E+03
      4.48339097E+02     -1.76043678E+02     -4.12567480E+02
      4.75723295E+02     -9.46007266E+02     -4.21475969E+02
      2.00140700E+03     -7.33494659E+02     -3.64704396E+03
      9.09172634E+01     -8.13264177E+02      4.68229319E+02
      1.55243538E+03     -1.52425588E+02      8.24042616E+01
     -6.24993305E+02     -1.47130732E+02     -8.40288282E+02
     -2.11063636E+03      8.46023953E+02     -1.00164080E+03
     -4.90182547E+02      5.45838319E+02     -5.30926814E+02
     -1.95675987E+03     -5.53539018E+02     -4.07484168E+03
      2.14296220E+03      1.39969380E+03      9.82669026E+02
     -2.06293602E+03      2.33787296E+03      1.08518253E+03
  }
}

Hamiltonian = DFTB {
  SCC = Yes
  SCCTolerance = 1e-6
  MaxSCCIterations = 200
  ForceEvaluation = Dynamics
  MaxAngularMomentum = {
    C = "p"
    H = "s"
  }
  Charge = 0.0
  SpinPolarisation = {}
  Eigensolver = Standard {}
  Filling = Fermi {
    Temperature [Kelvin] = 300.0
  }
  SlaterKosterFiles = Type2FileNames {
    Prefix = "../../pbc-0-3/"
    Separator = "-"
    Suffix = ".skf"
    LowerCaseTypeName = No
  }
  KPointsAndWeights = {
    0.0000000000000 0.0000000000000 0.0000000000000 1.00000000000000
  }
  Dispersion = LennardJones { 
    Parameters = UFFParameters {}
  }
}

ParserOptions = {
  ParserVersion = 3
}
