Geometry = GenFormat {
<<< "system.gen"
}

Driver = VelocityVerlet{
  Steps = 50000
  TimeStep [fs] = 0.2
  MDRestartFrequency = 25
  Thermostat = None {
    #InitialTemperature [Kelvin] = 300.0
  }
  Xlbomd{ 
    IntegrationSteps = 6 
    MinSccIterations = 2
    MaxSccIterations = 200
    SccTolerance = 1e-6 
  }
  Velocities [m/s] {
      1.26119630E+02     -8.07540645E+02      9.08136756E+02
     -1.68234645E+03      4.26794406E+02     -8.49137982E+01
     -5.01624698E+02     -6.38881272E+02      8.21305227E+02
     -3.21661625E+02     -3.89132410E+02      7.72576001E+01
     -9.35087603E+02      1.38112372E+03     -6.93902023E+02
     -2.13291728E+03     -4.01521218E+02      1.77238375E+03
      1.94815841E+02     -4.18278322E+02      9.11752702E+02
      5.77677071E+02      8.76561551E+02     -1.45107879E+03
      8.00657951E+02     -1.66151548E+02      9.91969351E+02
      9.85601027E+01     -5.88972512E+02      1.55788042E+02
     -2.04379120E+02     -3.42130341E+02     -1.49574466E+03
      2.87803843E+02      1.99267367E+03      2.35802809E+03
     -4.11787145E+02     -1.60495405E+02     -5.27346644E+02
      2.98982107E+03     -9.09338844E+02     -1.47653418E+03
     -1.76283770E+03     -1.64650661E+03      1.10833957E+03
      2.35256276E+02     -9.53052270E+02     -4.57602376E+02
     -1.90468383E+03      6.67276295E+02      1.65998608E+03
      2.45417227E+03      2.94913467E+03     -1.79582823E+03
      7.52423847E+02      1.11167353E+03      3.34283356E+02
      2.46905521E+03      1.93485354E+02     -1.39457591E+02
     -2.21928600E+03      1.52733094E+03      2.05612966E+03
     -1.35354098E+02     -2.09756006E+02     -1.26055059E+02
      2.87167772E+03      3.60069329E+02      1.10748641E+03
     -2.62809420E+03     -1.28150629E+02      2.72934050E+03
      3.95337724E+02     -3.59277406E+02      1.55223613E+03
      1.14909773E+03     -6.56514006E+02      1.04106266E+03
     -3.70201439E+03     -1.83259174E+03      6.01560305E+02
      2.06929431E+03     -2.04915947E+03      2.41687653E+03
      1.71887699E+02      6.43318190E+02      4.73286270E+02
     -2.25438802E+03     -2.22024672E+03      5.18382759E+01
     -2.09113361E+03     -2.24122416E+03     -2.26043890E+03
     -8.49775101E+02     -1.77038402E+03      9.96099145E+02
      3.73493276E+02     -6.06308506E+02     -6.33610123E+02
     -1.01827570E+03      1.15349870E+01     -1.60463478E+03
      2.17102624E+03      2.95371825E+03     -1.44120195E+03
     -5.73581982E+01     -1.80627753E+02     -9.55301628E+02
     -1.46322550E+03      1.37455641E+03     -7.29144972E+02
     -8.11499046E+02      3.94719344E+02     -7.29241189E+02
      3.14099562E+02     -7.34582947E+02      5.65872150E+01
      2.07005588E+03      5.46364138E+02      2.70724090E+03
     -1.47338868E+03     -2.69367855E+03      1.31782598E+03
     -1.50316753E+02     -2.74195434E+02      2.06339283E+02
     -5.74860270E+02      1.90133693E+03     -1.29185665E+03
     -1.60441219E+03     -1.07194690E+02     -1.16711655E+03
     -1.32967715E+02     -2.91554606E+02      6.93436212E+02
      9.28601356E+01     -7.87320546E+02      3.52989134E+02
     -6.05762904E+02     -3.49219550E+02      2.43169748E+02
     -7.50891024E+03      1.99525949E+04     -4.40475302E+03
      3.03178983E+03      1.44242302E+03     -4.60855762E+02
      8.15071006E+02     -9.72959236E+02     -3.63985424E+03
      5.53852230E+02     -5.01162629E+02      5.41905193E+02
     -7.99226801E+02     -4.03429839E+03      2.36138287E+03
      1.38616274E+03      6.08083864E+02     -6.79880486E+02
     -1.46903638E+01     -4.46517602E+02     -7.65580297E+02
     -3.05305604E+02     -1.44692981E+03     -9.54353761E+02
     -1.43926475E+03      9.40155159E+02     -9.68470067E+02
      2.79971517E+02     -8.69420077E+02      1.04079071E+03
     -1.09594350E+03      1.22401390E+03     -3.18592975E+03
      1.23777719E+03      1.28460911E+03      2.46777435E+03
     -1.65123701E+03     -1.44623308E+03     -6.49666233E+02
     -6.73568004E+01     -3.68325003E+02     -1.14897990E+03
     -6.22072645E+02      1.23511899E+03      8.42666160E+02
      1.18394398E+03     -3.15767382E+03      1.47123416E+03
      1.35316543E+03     -3.08143990E+03      4.74981975E+02
      8.83110488E+02      1.61702400E+02      6.35661237E+02
     -1.96112500E+03      9.14690251E+01      8.28041262E+02
      1.79625109E+03     -8.68003018E+01      5.73154090E+01
     -4.31292483E+02     -4.09431483E+02     -8.67600942E+02
      2.11582214E+03     -1.93799877E+02     -8.55380377E+01
      3.38792815E+03      2.14094840E+03      5.85159148E+02
     -8.93455193E+02      3.73602437E+02      6.64264047E+02
     -2.18255300E+03      1.41888101E+03      1.62565645E+03
     -5.60493715E+02      4.34906983E+02      1.51154454E+03
      8.33943198E+01      4.74826421E+02     -3.83358113E+02
     -1.98741230E+02     -1.00393842E+03      9.04914038E+02
     -2.03872386E+03     -1.63513877E+02     -3.15561782E+02
     -8.77257606E+01      5.78754255E+02      1.18771407E+02
      1.75274759E+03     -1.73996539E+03     -3.57014250E+03
      5.40790740E+02      1.06059264E+03      3.32103645E+02
     -1.08634859E+02     -9.45156112E+02     -5.62103177E+02
     -1.07539978E+03      1.93769303E+03     -5.56596283E+02
     -7.14402430E+01      6.53882055E+02     -1.06741166E+03
     -3.10116716E+02      7.14461568E+01     -7.20814757E+01
      1.84049131E+03     -1.40621517E+03     -4.18258159E+02
     -1.03651110E+03     -2.72302957E+03      3.42013337E+03
      2.78580234E+02     -5.43410450E+02     -4.03135265E+02
     -1.51343828E+03     -7.23480928E+02      6.44657323E+02
     -2.40008354E+03     -5.96679743E+02      1.89805563E+03
     -1.70539568E+02     -7.59462474E+01     -6.58229004E+02
     -5.11618748E+02     -9.17692155E+02      7.37590855E+02
      7.02212131E+02     -4.00677701E+02     -5.08079541E+01
      1.11790199E+03      3.81258539E+02      9.32398064E+02
     -5.47282036E+02     -1.45371132E+02     -1.44052246E+02
      1.75841001E+03      5.78560457E+02      3.31895176E+03
      9.19755215E+02      1.03580638E+03     -2.81759293E+03
      5.96624703E+02      5.05162494E+02     -6.20494132E+02
     -2.24964569E+02      1.12293379E+02     -8.95485892E+01
      1.60803257E+03     -3.01203024E+03      4.60055685E+02
     -2.14325188E+03     -2.71450400E+03     -1.03318174E+03
      4.94376550E+01     -6.14919698E+02      5.90729927E+02
      1.46139099E+03     -5.88824200E+02      7.06622481E+02
     -3.33391513E+02     -2.01905462E+03      7.95953533E+02
     -1.92907587E+02      2.31308967E+02      1.12134203E+02
     -2.02225057E+03      3.67736758E+03      3.90917362E+03
      5.66517454E+02      1.29026045E+02     -4.18885114E+02
      2.83445716E+02     -5.77183720E+02     -3.47607811E+02
      2.68108098E+02      8.96709112E+02     -5.39124700E+02
     -4.35250212E+01     -1.15691827E+03     -2.17303499E+03
     -3.84332941E+01      2.88481706E+02     -4.94126435E+02
      1.41775953E+03     -2.05182915E+03     -7.74148826E+01
      1.81216436E+03     -1.47948804E+03      2.20474386E+03
      7.61395648E+02      6.37109950E+01     -7.33748874E+01
     -2.65728601E+03      3.10002022E+03      3.43472811E+03
     -1.82075718E+02     -1.94876749E+03      1.01809808E+03
      2.38463017E+02      6.38228426E+02      1.76332199E+02
     -3.26703127E+02      2.07587708E+02      1.11654100E+03
      1.47668059E+03     -2.45401785E+02      5.32287968E+02
     -6.87909944E+01      6.87321120E+02     -2.05798069E+02
      2.08044930E+03      7.18709215E+01      2.13883107E+03
      1.45363690E+03      4.85130963E+02     -1.80994077E+03
     -3.09306624E+02     -3.13872244E+02     -3.98062142E+02
      2.49265935E+03      5.37461346E+02     -4.71552202E+02
     -1.44620004E+03     -1.45646301E+03     -8.69782651E+02
     -3.40953673E+03      1.61238769E+03      5.17843430E+02
      1.52736421E+02     -2.90067188E+02     -5.87392176E+01
     -8.09041730E+02     -1.87062842E+03      3.33781043E+02
     -2.07396761E+03     -3.17283966E+03      8.60366535E+02
      4.87554238E+02      8.24510257E+02      1.27165282E+03
      6.00616571E+02     -1.71292449E+02     -3.08569694E+02
     -8.33212721E+02     -2.52693032E+03     -9.60428315E+02
     -2.47619963E+03      1.40042582E+03     -3.69628150E+02
      2.05730048E+02     -4.59284892E+02      5.45292346E+02
     -3.92062949E+03     -1.34557690E+03     -2.17890554E+03
     -9.24783069E+01     -1.82701045E+03      3.38930653E+03
     -6.97084464E+02      6.57959189E+01      1.96411967E+02
     -3.03707496E+02     -7.85873519E+01     -1.48554078E+03
      5.12941082E+02      1.04402030E+02      1.80722408E+03
     -1.55221823E+02     -5.88492269E+02      1.90844653E+01
     -1.50629446E+03      3.99055842E+03      4.31481640E+01
     -2.28663809E+03     -4.63815477E+02     -6.10863809E+02
     -1.83540083E+02      2.71671527E+02     -5.06888898E+02
     -3.10529046E+03     -9.75077712E+02     -2.31240059E+02
     -1.56018608E+02      4.20900940E+02      1.10498264E+03
     -4.74960823E+02      2.60048661E+02     -8.85330655E+01
      1.00374718E+03      1.45949342E+03     -5.19083472E+02
      2.59950704E+02     -3.35559946E+03      2.75480074E+03
      1.36030290E+03      5.80282642E+02      5.98742100E+02
      2.20936445E+03     -1.20272664E+03     -1.30883102E+03
      4.91794219E+03     -3.72627282E+03      2.05859178E+03
      7.96951277E+02     -4.11907430E+02     -9.30592466E+02
     -2.34501314E+03     -1.37676397E+03      1.81625300E+03
     -2.24985369E+02      3.71114383E+03     -2.15816673E+03
      1.31321644E+02     -8.49367826E+02     -2.41308154E+02
      1.02828737E+02     -2.32173122E+03      2.63193824E+02
     -3.29304853E+01      1.78398685E+03      8.49441593E+02
      6.93190167E+02      1.08739371E+03      1.87480669E+02
     -2.67449445E+01     -6.42292726E+02     -3.00058649E+02
     -6.28975136E+02     -2.80575626E+03      7.24450632E+02
     -2.53529338E+03     -1.07677162E+02     -7.00021897E+02
     -8.73136351E+02     -7.56454543E+01      3.49793581E+03
      7.29318107E+02     -4.92697095E+01      6.43731533E+02
      1.98945722E+03      2.67067869E+01     -2.89577331E+03
      1.79457751E+03     -1.37540790E+03      1.66045371E+03
      4.56422857E+02      6.19422468E+02     -7.45151546E+02
      1.30869905E+03     -3.21700729E+03     -3.86717080E+03
     -1.69918466E+02      7.85468883E+02      1.94852045E+03
      2.83677215E+02      2.94867020E+02      5.52668633E+02
      1.74920879E+02      1.14438779E+03     -1.67322723E+03
     -3.70170478E+01     -2.99094331E+03     -7.97640074E+02
      4.13606893E+02      3.80249719E+01      1.58809309E+02
      4.52826706E+02     -3.41825654E+02     -1.16318209E+03
      1.78871735E+03     -1.92044299E+02      2.45417775E+03
     -7.90570282E+01      4.30940503E+02      4.80649691E+02
      5.14278686E+02      1.37309086E+03     -1.69941335E+03
     -4.11537209E+03      8.26696663E+02     -2.69705473E+03
     -1.38283714E+02     -5.23800149E+02      1.21762151E+01
      3.24318635E+03     -8.25282395E+02      7.68171385E+02
     -6.37251029E+02      5.57884145E+02      1.87879902E+03
      2.20669967E+00      1.36985949E+02     -4.63314281E+02
     -1.37341780E+03     -6.26664150E+02     -1.40430063E+02
     -2.95840377E+03      2.44129631E+03      1.18909479E+03
      4.46330555E+02     -1.68419399E+02     -4.19966673E+01
      2.57555535E+03      2.64077080E+03      2.25094185E+03
      9.88612959E+02     -2.09831256E+03     -4.22981742E+03
     -1.61206891E+01     -1.77845282E+02      3.71667009E+02
     -3.03730358E+00      6.49527945E+02      4.88538750E+02
     -1.47846241E+03     -8.99686294E+02      1.29650891E+02
     -3.36292706E+01     -1.43836779E+03      1.28119163E+03
     -2.39617974E+02     -6.53748708E+01      4.69888297E+02
     -1.05868409E+03      1.67220866E+03     -4.45980234E+01
     -3.83218213E+02      2.33682758E+03     -1.27410717E+03
      6.43886514E+02      7.61764611E+01     -6.84043934E+02
     -2.65009174E+02     -7.23084963E+02      2.93969520E+02
      1.04494475E+03      2.00572428E+03     -1.06373375E+03
      2.16338279E+03     -2.44117751E+03     -2.11885019E+03
     -5.00495395E+02     -2.88010243E+02      6.03730592E+02
      3.36426609E+03     -1.85308880E+03      1.31595290E+03
      7.11450238E+02     -3.90858696E+03     -1.43757094E+02
      9.45455632E+02     -3.51080583E+02     -2.27964937E+02
     -4.43121266E+02     -3.39259226E+03     -3.14587267E+03
      3.70596029E+03      8.95103745E+02     -5.39119542E+02
     -2.11492057E+01      5.74053281E+01      6.61731603E+01
      2.11399957E+03     -1.32249367E+02     -7.34142216E+02
      1.99784088E+03     -9.24957215E+02     -2.10657444E+03
      4.15944758E+02     -5.79503851E+02      6.99983972E+02
      2.13950625E+03     -6.06050741E+02      2.54306969E+02
     -1.48651542E+02     -2.29774527E+02      2.05825481E+02
     -3.03892576E+01      1.71427028E+01     -3.51984596E+02
     -6.93027219E+02     -8.04178224E+02     -2.78490169E+03
      3.15012045E+02     -5.37908270E+02      5.12286626E+02
      2.15265976E+02     -8.19019720E+01     -6.47226148E+02
      8.58116299E+02     -1.62288719E+02      3.43705664E+02
      1.37088173E+03     -1.96374704E+03     -5.10609781E+02
      1.15659415E+02      2.62945898E+02      1.00038403E+02
      2.72774103E+03      8.23959021E+02     -1.40482100E+02
     -9.44199836E+02     -6.13608637E+02     -2.33249812E+03
     -1.51564944E+02     -8.15537558E+02      2.17132254E+02
      1.72761691E+03      1.23308805E+03      2.79960989E+03
      6.18483270E+02     -1.68469240E+02     -1.20391577E+03
      2.66943044E+03     -9.96626223E+02     -3.53916149E+02
      3.68476626E+01      4.26892410E+02      6.51575324E+02
      1.40636812E+03      1.46008259E+03      1.46281803E+03
     -4.23490302E+02      7.36102901E+02      5.24220871E+02
      3.98712987E+02     -7.66226363E+02      2.36093769E+02
     -4.16339405E+02      3.54360595E+02     -1.07469683E+03
      2.35515610E+02     -3.46454039E+01      1.10926606E+02
     -1.78925365E+02      2.79310697E+03     -3.89763473E+03
      1.97331704E+02      5.94917408E+02      1.31323978E+03
      1.82152067E+03     -2.08045264E+03      4.09758989E+03
      2.52502350E+03     -1.46172955E+03      1.16135102E+03
      2.62067084E+02     -6.88019138E+02      3.26297936E+02
      1.22954331E+03      1.56131584E+02      2.70776022E+03
     -1.28855222E+03      2.02811697E+02      2.29992225E+02
      2.25329040E+02      7.08682785E+02     -6.02584224E+02
     -3.52664750E+03     -1.66353958E+03     -3.08363378E+01
     -2.93194385E+03     -2.37704065E+03     -1.90973086E+02
      5.33522294E+02      1.67086280E+02      6.60633248E+02
     -1.28928078E+03     -3.22015349E+01     -1.83916201E+03
     -2.92664284E+03      8.55344553E+02      4.84017895E+02
     -8.10449073E+02      2.60779296E+02     -5.19042743E+02
      2.41884147E+03     -3.65712532E+03      2.51532963E+02
     -8.65908038E+02     -1.54297090E+03      1.03286906E+03
      3.72530653E+02      2.71358410E+02      3.42780617E+02
     -9.56972433E+02     -8.56994660E+01     -2.98829568E+02
      1.38235216E+03     -3.25859806E+02     -9.08652593E+02
      5.35278329E+01     -2.62994648E+02     -1.75840093E+02
     -4.78212446E+02     -2.55790171E+03      3.29769976E+02
      9.20386491E+02      1.48661981E+03     -3.91607734E+02
     -2.99792357E+02     -2.00015876E+02      9.53441462E+02
      3.63113196E+02      9.46578829E+02     -3.78844277E+03
      9.43859305E+02     -1.39719747E+02     -2.50046446E+03
      1.77062785E+03     -3.23267542E+02      2.06383076E+03
      1.70406414E+02      4.55863538E+01      3.59534725E+02
      9.53259664E+02     -1.85093166E+03     -4.23073866E+01
      4.93985590E+02     -2.13616378E+02     -2.18043386E+03
      7.53594085E+00     -2.63473080E+03      2.75922768E+03
     -5.23028794E+02      1.95584989E+02      2.32580306E+02
      1.00297605E+03     -1.97951081E+03      1.78522696E+03
      1.44939206E+03      6.26934788E+02     -1.17021663E+02
     -5.59585505E+02      2.05019622E+02      8.04254050E+00
     -2.74325179E+02     -1.53429384E+03     -3.59390168E+02
     -2.63778305E+03      8.03211911E+02     -1.05567895E+03
      2.46088105E+02      1.76516681E+02     -6.32008982E+02
      2.83138084E+03     -2.25581497E+02      1.03874243E+03
     -8.65095461E+02     -7.40783170E+02      2.54001454E+02
      4.56058095E+02     -7.47922629E+02     -3.26263351E+02
     -1.97159611E+02     -2.24587943E+03     -6.86403072E+02
     -5.32312686E+02     -1.30304950E+03     -3.09941730E+03
      4.43441238E+02     -4.00885341E+02     -1.91730747E+02
     -2.07422889E+03      1.03258238E+03     -2.09612609E+03
     -4.81775691E+02     -2.08716217E+03      1.35695308E+03
      5.23540582E+01     -4.31950921E+02      1.34926997E+02
      7.58189702E+02      2.40636675E+03      2.66176236E+03
     -1.44897413E+03      2.14992706E+02     -8.36025339E+02
     -5.17161256E+02      1.32146973E+02      3.91092337E+02
     -9.67025583E+02     -9.39757616E+02      1.39799812E+03
      2.14575185E+03     -7.38784433E+01     -1.26919638E+03
      1.01165073E+02      6.32491814E+02     -4.97788468E+02
     -1.46844058E+02     -5.26853634E+02     -3.37320493E+03
      1.55146438E+03     -6.09544837E+02     -1.20133318E+03
     -6.03627358E+01     -9.83396296E+01      2.94577379E+02
     -3.17590510E+02      1.16659458E+02      6.27344469E+02
     -4.95848174E+02      9.86698008E+02      1.77052581E+02
     -2.50681192E+03     -3.67442458E+03      6.89587219E+02
     -1.16021728E+02     -2.28441451E+02     -5.02935406E+02
     -1.54039928E+03     -1.22829165E+03      1.20408981E+03
      8.47511262E+02      2.30063822E+03     -2.65986152E+02
      1.05181015E+03      3.60735711E+03      1.88860688E+03
      3.71517495E+02      1.98286046E+02      1.56592200E+02
     -1.19338637E+03     -2.22449570E+03     -3.10930844E+02
      1.90868897E+03      3.01404790E+02     -1.63649900E+03
     -3.55358115E+02     -3.32745708E+02      2.18852262E+02
      7.88695379E+02      1.43015355E+03      1.43471711E+03
      1.48956861E+03     -4.54460232E+02      1.56675319E+02
      1.33465781E+02     -1.02702897E+03     -6.79878652E+02
      2.91944620E+03      1.25089192E+03      1.19718763E+03
      3.48039197E+03     -1.07176507E+03     -3.92286447E+02
     -4.14243710E+01      8.60953230E+01      4.79541523E+02
      6.30184152E+02     -2.98432061E+03      3.81373846E+03
     -2.65557022E+03      2.57778059E+02     -1.20225379E+03
     -5.28897744E+02     -7.92710037E+02      3.04273439E+01
      4.10611257E+02     -1.45733824E+03      9.88097803E+02
      1.68409310E+03      2.19177522E+02      1.83634138E+03
      4.95432582E+01     -6.38008064E+01      5.53967581E+02
     -1.06422116E+03     -2.53360228E+03      1.32131954E+03
      8.03881423E+02      1.09014787E+02     -4.65682559E+01
     -1.74785298E+01     -4.15517314E+01     -5.50678068E+02
     -1.26709158E+03     -1.32423942E+03     -6.05175750E+02
     -2.12060840E+03      6.33932315E+02      6.43151323E+00
      1.26788075E+02     -3.65571975E+02      4.41557643E+02
     -6.01444875E+02      1.37895698E+03     -2.34404161E+03
     -1.06979363E+03      1.96329595E+03      1.84039697E+03
      5.40490603E+01      1.25194941E+01     -6.45037000E+01
      8.25860732E+02      2.10827312E+02     -4.88576508E+02
      1.08211116E+03      3.21161759E+03      1.41441785E+02
     -1.72610792E+03     -2.81840098E+03      1.80974976E+03
      1.80042521E+02     -1.60908585E+02     -1.03127145E+02
     -2.57515185E+01     -2.03626411E+02      1.08203465E+03
     -1.46452663E+03      3.52291147E+02     -2.19238728E+03
     -2.14679689E+03     -6.68231216E+02     -1.12470514E+03
      1.79291694E+02     -2.72816285E+02      1.07823343E+02
     -2.77514818E+03      1.94775573E+03      1.65067750E+03
      1.99826522E+03     -9.99847115E+02      3.50680041E+02
      5.45769236E+02     -3.77831851E+02      2.67324494E+02
     -2.03939933E+03      2.26855658E+03     -1.31224472E+02
     -7.69964979E+02     -3.13733131E+03      7.23881087E+00
      3.20350583E+02     -1.13761616E+03      2.20289731E+01
      2.72829873E+03     -1.24662528E+03      1.41508533E+03
     -2.00125693E+03      8.95783221E+02      1.01011313E+03
      6.18388044E+02     -5.78366303E+02      1.54582297E+02
     -1.18600196E+03      2.12015483E+03     -2.22336116E+03
      1.10824309E+03      1.06486652E+03     -1.22966173E+02
     -4.56352249E+02     -9.41645092E+02      4.71887176E+02
      2.15245813E+00      4.77517869E+02      1.88736125E+03
     -6.00959301E+02      2.34444066E+03     -2.49390170E+03
     -5.06611630E+02      4.63503347E+02      1.53194710E+02
     -1.84235660E+03      7.95635297E+02     -2.20126242E+03
      1.21757349E+03     -1.56585028E+03      1.35006588E+03
     -2.11949215E+02     -5.63319414E+01     -1.31652582E+02
     -4.29819520E+02     -9.89204226E+02      1.39996254E+02
      4.30750521E+02     -1.12635852E+03     -1.48341110E+03
     -5.52094665E+01      5.25540318E+02      1.44834251E+02
      1.12805430E+03     -9.45112655E+02     -3.96925424E+02
      1.40322524E+03     -2.70156145E+02      2.36001027E+01
     -1.61847011E+01     -4.64496302E+02     -2.06774638E+02
     -1.30185712E+03      8.56194208E+02     -5.56922803E+02
      7.58307207E+02     -2.24185903E+03     -9.80537186E+02
      1.02333724E+03     -5.94100176E+02     -3.38265216E+02
      6.38134154E+02     -1.11026420E+01     -4.99409937E+02
      7.28073881E+02      3.19458175E+02      1.05638728E+03
      1.65446039E+02     -1.61730402E+02     -2.87548583E+02
     -6.02419296E+02      1.25012692E+03     -1.67025755E+03
  }
}

Hamiltonian = DFTB {
  SCC = Yes
  SCCTolerance = 1e-6
  MaxSCCIterations = 200
  ForceEvaluation = Dynamics
  MaxAngularMomentum = {
    C = "p"
    H = "s"
  }
  Charge = 0.0
  SpinPolarisation = {}
  Eigensolver = Standard {}
  Filling = Fermi {
    Temperature [Kelvin] = 300.0
  }
  SlaterKosterFiles = Type2FileNames {
    Prefix = "../../pbc-0-3/"
    Separator = "-"
    Suffix = ".skf"
    LowerCaseTypeName = No
  }
  KPointsAndWeights = {
    0.0000000000000 0.0000000000000 0.0000000000000 1.00000000000000
  }
  Dispersion = LennardJones { 
    Parameters = UFFParameters {}
  }
}

ParserOptions = {
  ParserVersion = 3
}
