Geometry = GenFormat {
<<< "system.gen"
}

Driver = VelocityVerlet{
  Steps = 100000
  TimeStep [fs] = 0.2
  MDRestartFrequency = 5
  Thermostat = None {
    #InitialTemperature [Kelvin] = 300.0
  }
  Xlbomd{ 
    IntegrationSteps = 6 
    MinSccIterations = 2
    MaxSccIterations = 200
    SccTolerance = 1e-6 
  }
  Velocities [m/s] {
      1.56066105E+02     -3.07168690E+02     -1.69618124E+01
      2.28273859E+03      9.77981241E+02     -2.02178828E+03
      2.57484826E+02      8.24067885E+01     -2.52239788E+03
     -4.66660434E+02     -1.65833393E+02      3.29005995E+02
     -4.12627727E+03     -1.67952792E+03      2.03007505E+03
      5.05403618E+02      2.78055798E+03     -2.88984447E+03
     -2.06826349E+02      6.44157965E+00     -9.10478000E+01
     -5.89603642E+02      1.66385111E+03      2.75634893E+03
     -1.50045175E+03      1.36866613E+02     -1.86062206E+03
     -5.38200081E+01      2.61754491E+02      3.21990079E+02
     -5.95696711E+02      1.11216679E+02     -1.96476948E+03
      4.01665035E+01     -8.96881364E+02      5.07094366E+03
     -4.77287606E+01     -5.97830833E+02     -3.78673032E+01
      2.80953964E+03     -5.24025591E+02      2.03585230E+03
      1.10029184E+03     -8.34572346E+02      1.19640815E+03
      4.33872162E+02      3.56871694E+02     -6.11076394E+02
     -1.19200653E+03      1.19880635E+03      1.23674983E+02
      2.23519233E+02      6.84923189E+01     -6.17851134E+02
      6.44483029E+02     -5.82573051E+01      3.43460939E+02
     -6.41971059E+02      1.17092101E+03     -4.10008902E+02
     -4.62027853E+02     -1.32104309E+03      1.98275762E+03
      8.71499811E+02     -1.29182556E+02     -1.59470192E+02
     -1.89191440E+01      6.55627947E+02     -9.53284076E+02
      1.77193967E+03     -8.91835353E+02     -1.99201261E+03
      6.90472440E+02      5.00625440E+02      5.88784072E+02
      6.67382287E+02     -1.38455895E+03     -8.75632918E+01
      9.49448428E+02     -3.76872757E+02     -5.27375827E+02
     -2.39983549E+02      6.52912964E+02      8.41003476E+02
      7.92549872E+02      6.30138954E+01     -8.71457355E+02
      1.92935872E+02     -1.42529458E+02     -1.56521776E+02
      3.92196382E+01     -1.48176645E+03     -3.02370916E+03
     -5.28017624E+02     -1.96169902E+03     -2.63074791E+03
     -7.52692003E+02      2.89731738E+02      6.93813275E+02
     -3.12581916E+02      3.28475328E+01      9.30630565E+02
     -3.55130779E+01     -1.49185804E+03      4.71547128E+02
      9.08932299E+01      5.83171023E+02     -3.37469577E+02
      3.60781225E+03     -4.17463629E+02     -4.99129754E+02
     -1.39109930E+03      1.14287559E+03      4.00470216E+02
      6.77206840E+01     -1.07018830E+03      2.72765289E+02
      4.61589607E+03      1.67270570E+03     -1.92118983E+03
      6.82539354E+02      1.15866065E+03     -8.95411527E+02
      1.00029592E+03     -3.43979732E+02      5.40489911E+01
     -2.48622578E+03     -1.27659017E+03      3.62081619E+02
      2.55437551E+03     -1.90224393E+03      1.37537414E+03
     -3.22251436E+01     -7.41630394E+01      4.12878876E+02
      6.87389561E+02      9.85666782E+02     -1.52782876E+02
     -1.87680263E+03      3.16364049E+03      1.35509953E+03
     -2.16587725E+01     -2.53414625E+02      6.42369534E+01
      9.45642510E+02     -1.21399893E+03      7.37389901E+02
     -7.18835800E+02     -1.75294926E+03      1.77708207E+03
      3.13430355E+02      2.05496282E+02      2.12444756E+02
     -4.61131727E+02     -2.29759723E+02     -1.16017400E+03
     -1.14006446E+03     -3.01151789E+02     -3.75994161E+02
      1.01436081E+03     -3.48399379E+02      6.25820156E+02
     -1.55815677E+02      2.21049814E+03      1.25607188E+03
      1.69223212E+03      4.50867597E+02     -1.39703494E+03
      6.57280141E+02     -5.77501858E+02     -1.30660029E+02
     -1.43066974E+02     -9.54762613E+02     -2.26213681E+03
     -6.91424909E+02     -2.23873058E+02     -6.52748808E+02
      1.78853755E+02      2.93408812E+03      2.25291516E+03
      7.98720932E+02     -7.49321062E+02     -2.14706995E+02
      2.71696237E+03     -8.81276197E+02     -5.22975704E+02
      1.93204919E+03     -5.08972267E+02     -2.45554723E+02
      3.64770154E+02      2.90649967E+03      8.95803742E+02
      5.76844709E+02     -2.12331416E+02      6.71954616E+02
     -6.73050576E+02     -7.95858395E+00      2.08517739E+03
     -1.87243523E+02     -1.73413271E+03      6.28269074E+02
     -8.61566179E+01      6.99423116E+02     -3.70123653E+02
     -1.83457508E+03     -8.23009855E+02      1.42791430E+03
      1.29992984E+03     -1.60419183E+03      1.19963705E+03
      7.73126457E+02      1.21208836E+02     -5.18891945E+02
      4.66804073E+02      1.90640184E+03      7.88160468E+02
     -5.00214780E+02     -4.13462842E+02     -6.98722439E+02
     -2.31673064E+02      2.36428146E+02      7.74417455E+02
      1.58091605E+03      9.89028391E+02     -3.68158116E+02
      3.01360835E+03      3.20076604E+03     -2.46213071E+03
      4.44295379E+02     -4.14627013E+02     -1.12898000E+02
      5.99442776E+02      4.07885135E+01     -5.44277458E+02
      2.46924096E+03      3.08886462E+03     -8.62604446E+02
      7.51234030E+02      7.77430413E+02      5.51979109E+02
     -1.08701943E+03      8.41140927E+02     -2.99262091E+03
      1.77221331E+03      2.43362867E+02      3.15222432E+02
     -1.82560589E+02      5.73848821E+02      3.81278061E+02
      1.46584677E+03     -2.58091097E+03     -5.38109029E+03
     -1.63689242E+03     -1.33380583E+02      9.60852260E+02
     -1.99574418E+02     -5.75846389E+01      1.52004892E+02
      3.20346129E+03      6.67405474E+02     -4.67843330E+01
     -2.04426652E+03      2.10085953E+02     -8.59722166E+02
      4.45208388E+02      3.67591326E+02      3.74608970E+00
     -1.22980217E+03      1.45634742E+03      1.74145997E+03
      1.98320518E+03     -2.11403513E+03      2.01823128E+03
     -2.05134869E+03      9.97000502E+02     -5.17990991E+02
     -6.37775087E+02     -9.46773628E+02     -4.29246399E+02
      2.59885829E+02     -1.27442085E+02     -1.31462927E+03
      2.67738359E+03     -1.15093137E+03      5.15380080E+02
     -9.12169549E+02     -2.53556277E+02     -3.44996474E+02
      7.59052778E+02     -7.67837108E+02     -4.50505703E+02
     -6.80434386E+02      4.20000952E+03     -5.54771824E+02
     -6.86701887E+02     -6.29032050E+02     -7.04832774E+02
      5.99980539E+02     -4.13550182E+02      2.09172567E+02
      9.50920777E+02     -2.56261151E+03      9.26386164E+02
     -1.07428633E+03     -2.64104125E+02      5.53396989E+02
      8.13145790E+02     -3.01959753E+02      7.44387941E+02
     -1.73920842E+03      5.37104779E+02     -6.29607817E+02
     -1.34672287E+03     -1.24456527E+02     -3.11467684E+03
     -3.65394380E+01     -1.63482099E+02      2.74847732E+02
      1.60547793E+03      2.61759945E+02      1.02462972E+03
     -6.75950424E+01     -3.76149187E+03      1.13532962E+02
      8.99199385E+02      1.09613914E+02      3.39911077E+02
      2.50279485E+02      3.01223556E+02      4.28740740E+03
     -4.66656764E+02     -7.54648800E+02      1.02356104E+03
     -6.33199652E+02     -8.15768582E+02     -1.94629255E+01
      5.24976959E+02      2.48769139E+03      4.25881065E+02
     -2.51653919E+03     -1.00309355E+03     -5.62945108E+02
     -7.73637299E+01      2.82504797E+02     -4.31267186E+02
      3.93201728E+03      4.47819885E+02      2.41400333E+03
      1.02647358E+03     -5.75549382E+02     -2.93726104E+03
      2.56416129E+02     -5.36821104E+02      3.07464231E+02
     -9.47184486E+02      6.35086410E+02     -6.79950935E+02
      1.16649550E+03      1.15273819E+02      7.10567466E+02
     -1.54879149E+02     -7.23904768E+02     -4.58704740E+01
     -1.22035642E+02     -1.11546393E+03      2.66982131E+03
     -2.16948986E+03     -1.48050482E+03     -4.59726530E+02
      1.33649737E+03      6.87854186E+02      2.17669981E+03
     -1.10487836E+03     -3.99361079E+01     -4.28574594E+01
      5.14355109E+02     -1.28633834E+03     -1.42331389E+03
      1.36266698E+03     -6.11881022E+02     -5.45024326E+02
     -1.12789196E+03      3.80471113E+02     -5.69808273E+02
     -1.21449227E+02     -1.57003662E+02      4.21968826E+02
      6.61315401E+02      2.08611904E+02     -6.58633518E+02
      4.47466608E+02     -2.97867847E+02     -1.30745528E+03
     -6.77475398E+01     -1.58463310E+02     -2.16539235E+02
      1.07471718E+03      1.11783061E+03      1.27754490E+03
      1.46359343E+03      1.58757860E+03     -7.33975110E+02
      4.10863533E+02     -1.59119280E+02     -1.20675844E+02
      1.62682009E+03     -8.59139662E+02      7.05732925E+02
     -6.09930739E+02     -1.46384602E+03      1.16631892E+03
      9.49879340E+02      3.72176913E+02      6.16235775E+02
      9.23537405E+02     -1.76574598E+03      3.65997352E+03
     -1.06269052E+03     -4.83084424E+03      1.36343398E+03
      1.22026309E+02      5.41597319E+02     -1.26002585E+02
      3.45651882E+02     -1.12717221E+03     -7.98769334E+00
     -1.87317468E+03      6.01835182E+02     -9.66735831E+02
      8.46640516E+02      2.78866067E+02     -1.34475304E+02
      2.71482555E+02      6.56165593E+01      8.59208943E+01
      7.49016736E+02      1.49004537E+03      7.30664713E+02
      3.17591914E+02     -8.92758509E+00     -4.27751162E+02
      1.48695371E+03      9.47219549E+02      3.30266561E+03
      9.76929184E+02      1.97655148E+03     -1.50885106E+03
      3.61432723E+02     -5.78305278E+02      1.31242148E+02
      3.48756052E+03      4.16379582E+02     -2.86878049E+02
     -2.46314552E+03      1.27058417E+03     -7.28161835E+02
      1.83203541E+02     -1.39775410E+01      2.42001372E+01
      1.31472281E+03     -1.48442433E+03     -1.35208449E+03
      5.45428290E+01     -4.38455797E+03     -1.58345602E+03
      2.41127377E+03     -1.18739179E+03     -1.04199435E+03
      1.13929747E+03      4.43264606E+01      2.26942136E+02
     -1.81517941E+03     -2.84273886E+03      2.49198076E+02
     -2.21186246E+03      3.79386635E+03     -2.86475776E+01
      4.02395327E+01      3.08394373E+03      1.66423430E+03
      6.57893824E+02      2.89405630E+02     -7.40689538E+02
     -2.30553265E+02      2.04576257E+03     -1.69855584E+03
      5.03226914E+02      1.36523065E+03      8.41386947E+02
      3.90354968E+02     -2.00515776E+02      6.06016946E+02
      6.30365952E+02      1.32497367E+02      2.08879550E+03
     -1.48357810E+03     -2.10440585E+03      1.30435929E+03
     -5.71169310E+01     -1.35543053E+02      4.46613897E+01
      2.55403412E+03      4.83938760E+02     -4.81384681E+02
      2.21682610E+02      2.20919405E+03     -6.31526136E+02
      9.42607262E+02     -2.85617925E+02     -6.26473919E+02
      4.03761777E+02      7.94555863E+02     -2.83940149E+03
      7.23892519E+02      1.07476131E+02     -2.10605826E+03
     -3.12160656E+02     -1.95920942E+02      1.89401286E+02
     -8.29116425E+02      2.71764544E+03      1.10548772E+03
     -8.60497076E+02      2.19938516E+03     -6.49873281E+02
     -2.69791907E+02     -2.23115581E+02      3.24319711E+02
      2.24451710E+03      3.98467197E+01     -3.75333257E+01
     -1.49160183E+03     -3.38189362E+03     -2.36085474E+03
      5.05297784E+02     -4.70319843E+02     -1.93604301E+02
     -1.14321653E+03      1.35405207E+03      5.18304834E+02
      2.64282133E+03     -7.16300194E+03      4.10498230E+00
      3.99644019E+02     -2.08426820E+02     -2.08231066E+02
      3.23892280E+03     -1.63627630E+03     -2.11398127E+03
      2.41952466E+02     -1.87027368E+03      3.25324062E+03
      2.88857310E+02      2.64423775E+02     -1.42167253E+03
     -8.52529285E+02      6.88329957E+02     -1.35593722E+01
      1.20882756E+03     -6.12583617E+02     -1.58553767E+03
     -1.13974706E+02      4.96503435E+02      3.87869906E+02
     -2.68443996E+04      6.11241315E+03     -5.68151596E+03
      5.00568977E+01     -1.26375619E+03     -3.36358811E+02
      2.89290846E+02      1.78043752E+02     -6.14675290E+02
      2.30180233E+03      1.91050282E+03     -2.83404393E+03
     -1.82698397E+02      2.41082334E+01      4.56214947E+01
      2.63820491E+03     -3.05377588E+03      8.72477387E+02
      2.29891539E+02     -6.09632934E+02     -2.04791608E+02
     -2.65177430E+02     -2.19272962E+02      9.68315243E+02
     -8.79394113E+00      3.19864743E+02      2.09706683E+03
      4.96802700E+02     -6.57445253E+02      5.31482299E+02
      2.28801489E+02     -1.79073353E+02     -6.88946598E+02
     -4.74987445E+02      7.52478982E+02      5.15642122E+02
      5.64466277E+02      2.34759322E+03      1.49588262E+03
      2.32464480E+02      1.65163581E+02      3.91906869E+02
      3.49331662E+02     -6.07529800E+02     -1.21307560E+03
     -7.34960712E+02      5.72398670E+02      3.00892359E+03
     -1.97673955E+02      1.38139069E+02     -5.19752139E+02
      3.99661011E+03     -2.02650767E+03     -4.40615107E+03
     -2.03480956E+03      1.55071881E+02     -1.00102670E+03
     -6.58161305E+02     -2.48809513E+02      1.34553112E+02
     -3.32482087E+03     -4.22143706E+02     -7.76755836E+02
     -1.50459479E+03     -1.36940025E+02      2.30174053E+02
      6.16410834E+02     -3.76224785E+02      5.36497060E+02
      3.83661045E+03     -4.49781223E+02      2.03658717E+03
      9.73561426E+02     -9.25180693E+02      2.25361159E+03
      5.03997674E+02      1.08333613E+02      4.57677466E+01
      1.45471311E+03      4.34681139E+02      3.04850224E+02
     -1.52819112E+03     -5.37484017E+02      1.82027953E+03
      1.99122660E+02     -2.14456390E+01      5.92777063E+02
      4.57052683E+01     -1.07931658E+03      9.87200214E+02
      4.15361031E+03      1.59939050E+01      1.23802687E+03
      1.20941333E+03      5.14956672E+02     -8.99860906E+02
     -6.90732628E+02     -5.12766183E+02     -3.27843514E+02
      1.34774819E+00      1.60992800E+02     -3.25336298E+03
      8.64732782E+02     -1.86472763E+03      1.58037582E+03
     -1.04677351E+03     -7.60715885E+02      1.75304331E+03
      2.01766769E+02      5.45156131E+02      2.15842300E+02
     -2.31181513E+03      7.84977757E+02      5.50659301E+01
     -1.25432515E+03     -1.40068621E+03      1.81255485E+02
     -3.02300749E+00     -4.82511450E+02     -2.30715466E+02
      7.23831546E+02      5.74984457E+02     -3.77216257E+03
      8.22544081E+02     -1.29981079E+03      9.31481160E+02
     -8.38444650E+01      6.49222634E+02     -1.03608210E+02
      9.16239111E+02      4.40456968E+02     -1.62223504E+03
      1.23786480E+03      2.00427624E+03     -7.56083012E+02
     -3.23725595E+02     -2.47855941E+02      6.38852040E+02
     -2.52736863E+03      6.59333153E+02      1.56102770E+03
     -8.31927111E+02     -2.51189957E+03      5.99567029E+02
      6.59819367E+02     -3.13619286E+02      8.48627106E+02
     -1.42943206E+03     -1.42901556E+03     -1.60524994E+03
      7.89906450E+02      1.67803780E+02     -1.64675794E+03
     -7.69049391E+02      7.11259514E+01      1.41291273E+02
     -9.62041370E+02     -6.95816433E+02      3.65716493E+02
      7.95955583E+02      1.54256702E+02     -3.81270878E+02
      1.12444394E+02      3.79848698E+02      9.33909160E+02
      1.10741359E+03     -1.63875357E+03      1.06333644E+03
      3.60535522E+03     -2.36871229E+03     -7.46113624E+02
     -2.11695194E+02      6.85641554E+01      2.57755744E+02
      3.05615933E+03     -3.31368049E+03      5.34198752E+02
     -1.39258499E+03     -8.55292806E+02     -9.39366364E+02
     -3.63158152E+02      3.06635655E+01     -4.53318465E+02
      3.37504088E+03      1.06684962E+03      1.95222585E+03
      1.01788544E+03      4.84259429E+02     -9.76004277E+02
      1.48521806E+03     -7.69964667E+02     -9.32772666E+02
      5.94280754E+02     -7.15325417E+01      4.26055385E+01
     -5.96294144E+02      4.93548006E+02      6.15413633E+02
     -2.30776931E+03     -2.90292769E+02      2.60643264E+03
     -2.25742186E+02      4.70307755E+02      5.86853045E+02
      1.96342202E+02     -5.59598196E+01      9.82257512E+02
     -1.43763540E+03     -1.79667628E+02      2.64619599E+02
     -8.27553515E+02      2.58299552E+03     -2.50000630E+03
      4.81899473E+02     -2.33351199E+02      7.53597653E+02
      1.45410464E+03      1.48367446E+03     -4.81209516E+02
     -3.55549194E+02      8.72804866E+02     -1.72355857E+02
      1.91363362E+02      6.57191755E+02     -7.25215490E+02
      3.62268904E+02     -8.38367065E+02      1.63315261E+03
      1.39206615E+03      1.85181327E+02      6.53881713E+02
     -2.80347724E+02      1.11973442E+02      2.79086269E+01
      3.76274649E+02      1.74384054E+03     -6.25537195E+02
      8.33037803E+02      4.42532876E+02     -3.04685809E+02
     -4.80527376E+02     -2.13506024E+02     -2.81306010E+02
      4.23632395E+03      2.24827706E+03     -1.38688550E+03
     -1.51995759E+03     -3.83544166E+02      1.18635797E+03
      5.53702632E+02     -2.93142401E+01      2.18909738E+02
     -1.74944433E+02     -4.65728694E+02     -2.79853157E+03
     -1.37463593E+03     -8.02213904E+02      1.53404641E+03
      5.20864591E+02      5.70446709E+01      4.73672104E+01
      1.14287960E+03      6.15486267E+02     -2.72913388E+02
      1.12132614E+03      6.33838018E+02      6.07177044E+02
     -4.88456216E+02     -3.37084334E+02     -3.50196598E+02
     -1.98797687E+03      4.73710986E+02     -1.67677965E+03
      1.52935730E+03     -1.89667043E+03     -4.70547772E+02
      3.05030206E+02      5.91406685E+02      1.84777754E+02
      8.98450822E+02     -2.65298923E+03     -5.19808957E+02
      1.09810077E+02     -1.28179640E+03     -3.57640356E+02
     -8.24061605E+02     -1.97281882E+02      1.85245579E+03
      3.96949894E+02     -1.98489237E+01     -4.80093199E+02
      4.45053028E+02      4.36583405E+02      3.00014195E+03
      7.03606924E+02     -1.04139200E+03     -2.10080574E+03
      1.08180914E+03      2.36232304E+02      3.61826479E+02
     -9.13284004E+01      6.34182863E+02      1.08693766E+02
     -2.60725807E+03      5.96959393E+01     -2.60746663E+03
     -1.12137455E+03      1.25672872E+01     -1.18702473E+03
     -3.47748220E+02     -5.45619711E+02      4.60090899E+02
     -1.27254094E+03      3.96346547E+03      2.17612793E+03
      2.63962261E+02      4.01448534E+03     -6.36101344E+02
     -3.65845830E+02     -5.32168310E+02      5.16917777E+02
     -2.37218701E+02      9.93246564E+02      1.94461317E+02
      2.23526128E+02     -7.28943625E+02     -3.69591557E+03
      1.49094164E+03     -5.80377610E+01     -1.12596372E+02
      3.63904588E+03     -1.15851779E+03      1.40883260E+03
      1.65280807E+03      1.38049292E+03      7.13493947E+02
      4.78608875E+01      2.93597873E+02     -1.97295624E+02
      1.34486925E+03      1.08814789E+03      2.32085249E+03
     -2.52971900E+01     -2.38086146E+03      5.09531511E+02
      5.40012468E+02     -6.08465642E+02      1.48194702E+02
     -4.07904929E+02      1.74943142E+03      4.12809526E+03
     -1.12257518E+03     -4.92624440E+02      2.56881524E+03
      2.12605765E+02     -1.02308518E+02      1.22190938E+02
      2.21736596E+03     -1.84196583E+03      1.66847285E+03
      1.34391463E+03     -2.34257796E+03     -3.64565328E+03
      1.52254702E+02      6.39103274E+02      1.90895831E+02
     -8.14219147E+02      1.79099725E+03     -1.10748521E+03
      2.56426644E+03      1.61390269E+03      3.32124561E+03
     -2.74072791E+02     -3.04442867E+02     -9.36077454E+00
     -6.94172061E+02     -3.66792480E+02      2.34369487E+02
      1.41929509E+03      1.95257667E+03     -1.32762330E+03
      3.75312855E+03      2.23620558E+03      1.08650730E+01
      2.40820089E+02     -5.03698269E+02     -1.60505650E+02
      1.44710071E+03     -3.37254257E+03     -6.38043105E+02
     -3.90527263E+02      6.94516325E+01     -2.94281633E+01
      2.30027313E+03      1.03779072E+03      1.27544645E+03
      2.10374660E+02     -3.31924025E+02     -6.25035664E+01
     -9.29987603E+02      8.42360689E+01     -7.86534385E+02
      2.34669844E+03     -8.50277574E+02      6.13256431E+02
     -2.30479569E+02      1.14228513E+02      3.76310990E+02
     -8.82184983E+02      5.34185922E+02     -9.27499232E+02
      7.78435136E+01      3.03546875E+03     -2.14956057E+03
     -1.51292523E+02     -1.97359916E+02      9.32740210E+02
     -1.72561346E+03      2.03815663E+03      9.50473969E+02
      1.11199221E+03     -4.09678653E+02     -1.02706101E+03
     -1.26004076E+02     -1.27037559E+02      1.53816081E+01
     -8.53605440E+02      1.05309801E+03     -3.88733494E+03
     -6.59777760E+02      3.06287136E+03     -1.70641493E+03
     -1.67455233E+02      3.79378834E+02      2.00860869E+02
      1.66061243E+03      8.09531120E+02      1.57176204E+03
     -1.70244784E+03      2.98119849E+02      1.55122956E+03
      1.02003664E+03     -3.76288015E+02      1.96718537E+02
      8.78771184E+02      9.69645859E+02     -2.95363101E+03
      2.06279749E+02      1.52100302E+03     -2.15906265E+02
     -9.61456176E+00      5.12752955E+02     -5.95676975E+02
     -1.90928635E+03     -2.78434439E+03     -8.61106529E+02
      1.52055238E+03      3.84415096E+03      1.27839096E+03
      3.94872609E+02      2.58941029E+02     -2.89783600E+02
      1.90587036E+03     -6.30038162E+02     -1.71232088E+03
     -9.08682859E+02     -3.15204078E+03      7.02354599E+01
      4.69006789E+02      4.24994454E+02      1.29120029E+02
      1.20823605E+03      5.23358416E+02     -3.64813344E+02
     -4.21554204E+02      4.21050791E+02     -1.50840051E+03
      5.09890319E+02     -1.06787266E+03     -6.29358797E+02
      7.22345086E+02     -2.64838746E+02     -7.50313797E+02
      6.68256880E+01     -2.62428683E+02     -2.52616536E+03
      1.88643281E+03     -2.60824023E+02     -3.05101984E+02
      7.25613849E+02      1.97729449E+03      8.28853838E+02
  }
}

Hamiltonian = DFTB {
  SCC = Yes
  SCCTolerance = 1e-6
  MaxSCCIterations = 200
  ForceEvaluation = Dynamics
  MaxAngularMomentum = {
    C = "p"
    H = "s"
  }
  Charge = 0.0
  SpinPolarisation = {}
  Eigensolver = Standard {}
  Filling = Fermi {
    Temperature [Kelvin] = 300.0
  }
  SlaterKosterFiles = Type2FileNames {
    Prefix = "../../pbc-0-3/"
    Separator = "-"
    Suffix = ".skf"
    LowerCaseTypeName = No
  }
  KPointsAndWeights = {
    0.0000000000000 0.0000000000000 0.0000000000000 1.00000000000000
  }
  Dispersion = LennardJones { 
    Parameters = UFFParameters {}
  }
}

ParserOptions = {
  ParserVersion = 3
}
