Geometry = GenFormat {
<<< "system.gen"
}

Driver = VelocityVerlet{
  Steps = 50000
  TimeStep [fs] = 0.2
  MDRestartFrequency = 25
  Thermostat = None {
    #InitialTemperature [Kelvin] = 300.0
  }
  Xlbomd{ 
    IntegrationSteps = 6 
    MinSccIterations = 2
    MaxSccIterations = 200
    SccTolerance = 1e-6 
  }
  Velocities [m/s] {
      8.60635840E+02      4.42016527E+01     -1.48364311E+02
      2.33262751E+01      8.20584977E+02     -1.56246358E+03
     -4.59976138E+01      5.10746048E+01     -1.83157100E+03
      1.89103833E+02     -8.49672481E+02      1.97154281E+01
     -3.68752629E+02     -1.86559221E+02     -5.56748353E+00
      1.64306488E+03      1.24700085E+02     -9.82801753E+02
     -1.25303557E+02     -2.56751337E+02     -2.95016288E+02
      3.27864971E+03      1.95947558E+03     -1.67971136E+03
     -2.78936418E+03     -1.34790422E+03     -4.58396890E+01
     -4.37871115E+00      1.10578593E+03      3.46644060E+02
      6.06709685E+02      3.75394596E+01      3.28895663E+02
     -2.45156382E+03      5.10051738E+02      1.66860223E+02
      3.53868878E+02     -2.72530123E+02     -1.54102138E+01
     -1.25128718E+03     -4.84724113E+02      5.21431520E+01
     -1.19810147E+03     -1.51350061E+03     -1.01394516E+03
     -4.80588745E+02     -4.92486670E+02      9.18504080E+02
      1.74360912E+02     -1.29488162E+03      3.48291246E+02
      5.13768916E+02     -5.13256743E+01     -2.04516047E+03
      1.54970504E+02      6.63262524E+02      1.91538550E+02
      4.08524540E+02      1.88936207E+03     -3.04013659E+02
     -2.01029590E+03      4.26519691E+03     -1.08803203E+03
      3.01918368E+02     -1.89482534E+02      2.22549420E+02
     -7.43365644E+02     -4.14066797E+02     -1.62734909E+03
     -5.04509818E+02     -1.89679502E+03      1.57464359E+02
      4.07984192E+02      2.05143510E+02     -1.73117414E+02
     -2.84690571E+02      1.21214158E+03     -1.82801390E+01
     -1.32234247E+03     -4.27423104E+02     -8.83754964E+02
     -2.45939871E+03      1.11068585E+02      1.21112899E+03
     -4.27373525E+02      5.35156073E+01     -8.10454208E+02
     -3.18959680E+02     -2.82221848E+02     -1.61287034E+02
     -6.95978691E+02      5.86159371E+02     -3.12668950E+03
      1.01648200E+03     -1.82408148E+03      4.04627643E+01
     -9.71935268E+02      3.81104052E+02      5.26219730E+02
      3.42369037E+03     -2.69970548E+03      3.12056103E+02
      1.79360381E+03     -7.27188928E+02      4.05365085E+02
      4.86306182E+02     -2.98691553E+02      2.33308556E+02
     -4.24238807E+03     -2.60087370E+03      2.70425285E+02
      2.22632568E+03      4.38267437E+02      3.49953045E+03
     -1.71823144E+02      5.71261681E+01      7.43394838E+02
      1.57886657E+03     -2.27517962E+01      1.52384997E+03
     -3.70059690E+02     -2.25692394E+03     -1.56913707E+03
      5.76187342E+02     -3.79527343E+02      1.22532015E+02
      2.70671846E+02      2.03258893E+03      4.19876670E+02
     -2.81471658E+01      5.24187009E+02     -4.36377390E+03
      4.73988897E+01      3.25923643E+01      5.90038635E+01
      1.15375292E+03     -2.03381127E+02     -9.85419231E+02
     -9.99686946E+02      1.29565378E+03     -1.67948028E+03
      6.20142901E+02      2.25445321E+01      1.42420579E+02
     -3.07289383E+03     -7.98866740E+02     -9.91180343E+02
     -1.83002502E+03      1.66644169E+03     -7.78341851E+02
      2.98180613E+02     -7.81781711E+02     -3.47309666E+02
     -3.77606119E+03      5.23896671E+01     -1.17221366E+03
      1.16536772E+02     -1.26156981E+02      1.13875740E+03
      6.93540490E+02     -3.06278677E+02      1.09662232E+03
     -2.69956322E+03      4.96236309E+02     -1.29377306E+03
      1.43279269E+03     -1.87506809E+02     -2.33563082E+03
     -7.29940559E+02     -3.33900487E+02      2.00793531E+02
     -4.86535148E+02     -5.51167241E+02     -7.50321591E+02
      3.21440238E+03      1.40100790E+03      9.71678933E+02
     -4.75158594E+01     -1.87308224E+03      4.80670393E+02
      1.64359794E+02     -9.21097153E+01      8.14114104E+00
     -1.34527863E+03     -6.29504699E+02     -2.11489297E+02
     -1.72404171E+03      2.26617250E+02      2.95786184E+03
      3.07176805E+03      1.67368204E+03     -3.17208762E+02
     -4.08060725E+02     -6.58590453E+02     -3.65578785E+02
     -6.65204069E+02     -7.43145317E+02     -3.28157879E+02
      1.11300300E+03     -3.37341233E+03     -6.61961775E+02
      5.58060398E+02     -8.86684078E+02      4.10928926E+02
      3.64447056E+03     -2.44548362E+02      1.67809530E+02
      8.43556229E+02     -1.17352712E+03     -9.25587737E+02
      2.83526959E+02     -9.55121391E+02      1.51990190E+02
      2.22705119E+03      1.06364642E+03     -2.02501370E+02
     -1.51930650E+03      3.97169390E+02      2.40156286E+03
      3.40091036E+02      8.58554432E+01      2.86794349E+02
     -1.35614425E+03     -2.92534720E+03     -5.62050700E+02
     -2.75562109E+03      2.57919168E+02     -3.20176285E+03
     -4.25689591E+02      2.36147526E+02     -2.61038754E+02
     -1.37670087E+03     -1.23289978E+03     -1.87348947E+03
     -7.53845771E+01     -1.55144878E+03     -1.53502957E+03
     -8.35902138E+02     -8.20194063E+00      2.07124939E+02
      2.34420850E+03     -3.30813316E+02      3.01749242E+02
     -1.20539002E+03      1.91129321E+03     -1.27386931E+03
     -6.29708364E+02     -2.30611771E+02     -1.78487784E+02
     -8.02272672E+02      1.20446196E+03     -1.25454838E+03
     -2.25104627E+03      3.68102006E+02      3.89001349E+02
     -6.53796208E+01      2.28203409E+02      1.08999896E+02
      3.53601429E+02     -1.93155275E+03      1.99234472E+03
      2.19878542E+02     -1.03423218E+03      1.00383069E+03
     -6.61761845E+02     -2.16085412E+01     -6.74929877E+01
     -1.74385845E+03     -2.05013797E+03     -8.30106745E+02
      2.96062573E+03      1.41322322E+02      3.44212787E+03
     -2.23264676E+03     -6.15837330E+02     -1.59187526E+03
      1.90379829E+02     -4.48768658E+02      2.89080033E+02
     -1.93370388E+02     -1.50448513E+03      1.20854890E+03
      9.30022661E+02      8.18863116E+02      1.29924771E+03
      1.11206560E+03      1.14980310E+03     -1.40551524E+03
      3.96792286E+02     -9.01746858E+02      7.36019774E+02
      8.91662784E+02     -2.51476098E+03      1.47004382E+03
     -2.32809871E+03      3.75289125E+02     -5.24342947E+02
     -2.69555852E+02     -5.96901402E+02     -6.79813722E+02
     -1.43056538E+03     -2.26427406E+03      1.22902954E+02
     -5.27478955E+02      2.25688694E+03      1.13377362E+03
      7.03581473E+02      1.10140958E+02     -8.14187396E+02
     -1.63654867E+03      1.27738115E+03     -1.18599581E+03
      8.37906178E+02     -2.33526094E+02     -2.25944162E+02
      9.28601001E+01     -3.00089879E+02      3.93253972E+02
      5.38284217E+02     -1.05874106E+03      2.08944693E+02
     -4.46368674E+02      2.56888462E+03      2.43075891E+03
     -3.28647030E+02     -9.71685641E+01     -9.79546745E+01
     -6.94301049E+02     -2.56831324E+03      6.38830164E+02
      1.98709680E+02     -8.43862235E+02     -8.67685967E+02
     -4.38191175E+02      3.30714572E+02     -2.09747677E+02
      7.43929160E+02      2.25483006E+02      1.27160518E+03
      2.63550139E+03      6.13460797E+02      3.50057337E+02
      1.25042280E+02     -1.91808675E+02      2.62574112E+02
     -4.62195822E+02     -4.55428983E+02      1.22231168E+01
      2.25750030E+03     -4.06882428E+02      3.74610003E+03
      1.12527520E+01     -4.97626854E+02      3.79018678E+02
     -4.82449626E+02     -1.68484291E+02      4.57292421E+02
     -1.52294432E+03      3.48101130E+02     -1.69890120E+03
     -1.99228707E+02      1.14388849E+02      4.87379150E+01
      1.09676522E+02     -3.63479066E+03     -1.39718499E+03
     -1.87275557E+03     -2.62529044E+03      6.61600041E+02
     -1.30556682E+03     -4.50258614E+01     -2.42029962E+03
      9.79412052E+01     -2.72655915E+02      6.48674063E+01
     -2.83915296E+03     -1.22953387E+03     -1.60175820E+03
     -1.61405184E+03     -6.14539788E+02      3.01052655E+03
     -1.94757726E+03     -1.65306266E+03     -9.80400983E+02
     -7.57452972E+02     -9.87333626E+02     -1.52320499E+02
      1.60417849E+03     -2.18408133E+03      2.33432473E+02
      1.72010209E+03      1.95379532E+03      1.46345337E+03
     -9.31764259E+01     -1.91291806E+02     -2.00979144E+02
      2.06452668E+03     -3.32144140E+02      1.99636275E+03
     -1.58452358E+03     -4.69080989E+02      1.98311819E+03
     -2.79492566E+02     -7.21053508E+02     -1.53186718E+02
      2.36760801E+03     -7.94088722E+02      2.14936732E+03
      1.42960334E+03     -9.89726029E+02      1.43284581E+03
     -1.91939175E+02     -2.69441592E+02      4.43606117E+02
     -8.95052377E+01     -1.11752267E+03     -1.77694741E+03
     -4.52706436E+02     -8.89534747E+02      1.29829673E+03
     -1.02246746E+02     -5.49582916E+01     -8.65331371E+02
      2.40363794E+03     -1.08287589E+03     -8.13850444E+02
      2.19780198E+03     -2.00913105E+03     -5.30762249E+02
     -1.48691438E+02     -6.70814498E+01     -2.89104158E+02
      2.36901050E+03      9.30676402E+02      2.12717409E+03
      1.60714537E+03      1.53003923E+03      2.22197951E+03
      2.11740258E+02     -1.08779728E+03     -5.51113139E+01
      2.47279365E+03     -3.98258654E+02      6.06703975E+02
     -3.42994434E+03     -3.96283877E+02      3.15562594E+03
     -2.27590787E+02     -9.34136048E+01      4.63217305E+02
      9.62649058E+02      4.38957498E+03     -1.15729207E+03
     -1.24079414E+03     -4.39052398E+03     -1.77984685E+03
     -3.81786551E+02     -5.12114216E+01      1.50881502E+02
     -2.71668718E+03      4.82099716E+03     -1.82665793E+02
     -4.18072263E+02      3.14975499E+02     -1.67599760E+03
      1.63442086E+02     -1.53139951E+03     -4.58600066E+02
      2.14897287E+02     -9.81644792E+01     -2.11219402E+02
      1.24758097E+03      2.73416992E+02      1.75851863E+03
      5.92091555E+02     -4.82015094E+02     -4.01493267E+02
      2.39749048E+03     -3.03836198E+01     -2.63607924E+03
      6.00125797E+02      5.72010360E+02     -4.67122056E+02
      1.37554742E+02     -3.06479364E+02      1.67311763E+03
      1.19986400E+03     -6.61264831E+02      1.10193874E+03
     -1.22951041E+03     -1.20827265E+02     -4.30781019E+02
     -2.85946227E+02     -1.95010306E+03     -5.33849646E+03
      2.03640383E+03      2.79584892E+02      1.26064189E+03
      9.98477320E+02     -4.62371835E+02     -9.17591598E+02
     -9.54792423E+02     -1.44793801E+03     -1.48841876E+03
     -1.92670888E+03     -2.17053651E+03      2.56551750E+03
     -1.77010908E+02      5.37905017E+02     -3.75100664E+02
     -1.88434883E+03      1.06786553E+03     -1.93958992E+02
      1.65270000E+03     -1.00810149E+03     -3.20352576E+03
      1.34623927E+02     -6.81795801E+02     -7.81171562E+01
      2.61579264E+02      2.41478232E+03      1.05170931E+03
     -1.18573629E+03     -3.58646297E+03      1.67718841E+03
     -5.56599354E+02      2.66675778E+02      7.91872495E+01
     -1.92007623E+03      1.08625147E+03      9.73221374E+01
     -1.13777170E+03      3.43877722E+01      7.40952851E+02
      3.54021920E+01      1.91180418E+02      3.09055904E+01
      7.62257018E+02     -1.85577978E+02      2.75283074E+02
     -1.68478247E+03      1.21752456E+03      2.02672876E+03
     -4.93872700E+02      6.01777511E+01     -3.45823171E+02
     -3.60301606E+02     -2.07134024E+03     -1.37343086E+03
     -2.37070460E+03     -2.05677500E+03     -1.30613200E+03
     -2.39268397E+02     -4.29397207E+02     -2.61579987E+02
     -1.24962783E+03     -1.95568136E+03      2.26109824E+03
     -2.64049551E+02      2.48909151E+02      2.88872385E+03
     -5.50399805E+02     -1.21997008E+03      4.60474069E+03
      6.46838737E+02      2.03143460E+02      7.27956235E+01
      1.59196431E+03      4.80643739E+02     -3.10855948E+02
      2.86379461E+02      1.59611073E+02      2.63006651E+03
     -1.29477383E+03      1.95618315E+03      1.41094354E+02
      6.40626949E+02     -1.04732505E+03     -3.80447893E+02
      8.33603480E+02      2.98894124E+02      4.08464381E+02
     -4.96173684E+02     -4.90578854E+02      1.41054279E+03
     -3.56047405E+01      7.56880178E+01      3.98235118E+02
     -5.21945297E+02     -1.11576428E+03     -7.56013888E+02
      9.94190848E+02      1.43270897E+03      4.99049653E+02
      9.56174635E+01     -5.82294384E+02      1.98860190E+02
      2.65664121E+03     -3.46652310E+03      4.26385896E+02
      2.39157305E+02     -1.59002562E+02      2.28352411E+03
     -1.96976428E+02     -1.78811933E+02     -7.30459856E+02
     -2.68126091E+03      5.16069401E+02      1.11298429E+03
     -1.78320401E+02      2.16029840E+03     -4.03450772E+02
      2.72232989E+02      1.64980709E+01     -1.81291245E+02
     -2.00916184E+03     -1.66497231E+03     -2.31281810E+02
     -2.16429902E+03     -1.94856049E+03     -5.77194744E+02
     -3.80803937E+02      3.56282929E+02     -1.23753477E+02
      8.92963011E+02      1.43875316E+03      1.01346738E+03
     -1.72565343E+03      1.01889911E+02      1.00604978E+03
      5.62652772E+01     -2.03228720E+02      3.51147693E+02
      2.41535449E+03      1.56362349E+03     -1.06601286E+03
     -9.32994760E+02     -6.65449224E+02     -9.31466541E+01
      2.31845891E+03      2.05719453E+04     -6.83456025E+03
     -2.63606213E+03      9.28873579E+02     -1.38098602E+03
      3.16137709E+02      3.54856564E+02      6.68205096E+02
      8.94814391E+02      2.48617122E+02      3.59329159E+02
      1.76660643E+00     -2.17617321E+03      1.55113621E+03
      2.11317606E+03     -1.10685014E+02     -1.58679185E+03
      1.49274159E+03      7.58920392E+02     -8.38321667E+02
      2.13324797E+02      6.32138300E+02      2.25755647E+02
      1.26091010E+03     -3.69884818E+02      1.04318789E+03
     -4.20460551E+02      1.80339275E+02     -6.88155983E+00
      2.07352505E+03      7.04033241E+02      1.66460288E+03
      1.86702132E+02     -5.32617146E+02     -1.75814283E+02
     -1.35128924E+03      1.65933540E+03      3.28204142E+01
     -1.14697669E+03     -4.08403747E+02      2.58405501E+03
      2.35624998E+02      1.42333013E+01      3.58064624E+02
     -5.20751433E+02      3.32950365E+03      2.02494188E+03
     -9.80264276E+02      1.13111215E+03      3.46539040E+03
     -3.36846999E+02     -3.54976503E+02      8.92348265E+02
     -1.32553906E+03      4.56635861E+02      4.11147349E+02
     -3.10106160E+03      4.70146870E+02      1.62214337E+02
     -9.16152661E+01     -1.67832331E+02     -3.38530470E+02
     -5.29910284E+02     -9.79519871E+02      4.87015595E+02
      2.02978361E+03     -2.11645145E+00     -1.61035307E+03
      1.21578656E+01     -8.41962846E+02      4.57081812E+02
      1.01376711E+03     -1.25101218E+03     -1.99958332E+03
      2.91908120E+03     -3.45879655E+02      1.63251200E+02
      1.47277422E+02      9.05565402E+02      6.25180406E+00
      4.13718881E+02      1.44436572E+03     -1.23957358E+03
     -2.58330398E+03     -2.55373950E+03     -4.97055969E+02
     -2.67204089E+02      3.79599504E+02     -4.78481701E+02
      2.78372446E+02      7.37788738E+02      1.80950866E+03
      2.98191213E+03     -9.08798155E+02      8.87116596E+02
      2.92701616E+02      1.45872673E+02     -1.54695271E+02
     -9.86465346E+02      1.12609290E+03      2.60858747E+03
     -1.61012622E+03     -4.51045186E+02      2.20635877E+03
     -2.74296012E+02      4.79097485E+02      6.06540794E+02
      1.58355810E+03     -3.15637834E+03      3.42428144E+02
      1.37633591E+02      4.16545229E+02      3.52202836E+02
     -2.21482390E+03     -1.13365311E+03      1.95978063E+03
      3.57409607E+01     -6.20379267E+02     -9.98821052E+02
      5.63071636E+02      1.65698190E+02      7.49494581E+02
      3.88168393E+03      1.86868038E+03     -1.47755563E+03
      3.47642300E+02      2.77512895E+03      3.65955886E+02
     -1.11283675E+03      3.08961064E+02     -3.32063159E+02
      1.02676102E+03      2.13629886E+02     -1.80709879E+03
      1.08438963E+03     -7.39349249E+02     -1.25411019E+03
     -4.59462076E+02      2.74339574E+02      2.67486134E+02
     -9.48099682E+02     -6.47748547E+01      3.67180061E+02
      2.59311135E+02     -1.17015276E+03      3.34047097E+03
      2.71694456E+02     -7.07752075E+02      5.00146885E+02
      1.90389141E+03      3.36752548E+02     -8.95805247E+02
      1.58115819E+03      1.15456189E+03     -2.22877408E+03
     -5.53058134E+02      6.74632705E+02      4.22959102E+02
      4.11644061E+02     -1.65342350E+03      3.83997331E+03
      3.93734272E+03     -2.96141031E-01      1.45814926E+02
      1.12172641E+00      1.99327175E+01      2.81872774E+02
     -1.24118583E+03     -2.16022834E+02     -1.74794758E+03
      2.69739043E+03     -5.04189943E+02     -1.97073006E+03
     -1.19263553E+02     -2.49121302E+01     -3.42625999E+02
     -8.30669734E+02      2.71249556E+03      2.07156456E+03
      1.64760257E+03      1.40421103E+03      1.18336968E+03
      6.38295545E+01      3.48436023E+01     -8.42795044E+01
     -1.92911420E+03     -1.30231439E+03      3.22551980E+03
     -1.86401637E+03     -6.73669372E+02     -1.78817838E+03
     -6.52244890E+02     -6.60581832E+02     -5.03280307E+02
     -2.54146491E+02     -9.49747351E+02      4.78924982E+02
      8.53270506E+02     -1.17030925E+02      1.30633257E+03
      3.63323148E+02     -4.48796792E+01      1.31993757E+02
      4.55548531E+02      1.28081338E+03      3.63874556E+03
     -2.28337777E+03      1.63432659E+03      1.16515867E+03
     -1.95669173E+01      8.91761771E+02      1.29377509E+02
      5.47206279E+02      5.50980751E+02      3.52595699E+02
     -3.80534583E+03     -6.00508060E+02      6.46228979E+02
     -6.90944207E+02      1.46422693E+03     -8.34288475E+02
      1.02930425E+03      5.70630094E+02     -2.92233471E+03
     -1.28707194E+02     -3.00440081E+02     -4.00656358E+02
      2.33632717E+03      2.58272181E+03     -7.97530820E+02
     -2.44452196E+03     -1.49545635E+03      3.06302196E+02
     -1.39825986E+02     -7.16799768E+02      4.66028000E+02
      2.89579348E+02     -9.67136221E+02     -2.06997755E+03
     -4.08147259E+02      6.49849769E+02      1.00474998E+03
     -4.42177958E+02     -9.96828290E+02     -3.62441976E+02
      7.14440203E+01     -3.57316943E+02     -3.91422001E+02
     -4.30773253E+03     -9.08964789E+02      2.10889747E+03
     -2.22957373E+02     -5.31702863E+02      7.20138012E+01
      1.31083578E+03      2.13281600E+03      3.11658939E+02
     -8.11857401E+01     -8.61289422E+02     -5.04528951E+02
     -6.70202399E+02      3.96401639E+02     -4.38257446E+02
      1.08159865E+03     -1.45268235E+03      1.59140765E+03
     -2.95287986E+03      6.01918846E+02     -1.40364696E+03
      8.98642263E+02     -6.30415499E+02      8.99442199E+01
     -2.06185960E+03     -1.55937715E+03      9.99813278E+02
      1.17330106E+03      1.04682205E+03      9.93921773E+02
      3.05133713E+02     -1.27274513E+01      8.38753644E+02
      5.18054748E+02     -1.37712634E+03      2.09178603E+01
     -1.26863007E+03     -1.96472160E+03     -3.82219435E+02
      2.00817545E+02     -3.22121272E+02      3.28754879E+02
     -1.38313653E+03      3.03414880E+01      2.75665096E+02
      1.14756001E+03     -1.62138526E+03     -6.09303162E+02
      5.33559604E+02     -6.80390173E+02      7.50804469E+02
      3.44501833E+03     -1.46871688E+03     -2.04294055E+03
      6.06534097E+02      3.25594684E+03      1.23754854E+03
      8.42998838E+02      9.01223067E+02     -1.76621044E+03
     -2.00370755E+02     -5.20298981E+02      2.88280149E+01
      1.78972445E+03     -1.17744362E+03     -1.13396281E+03
      1.90076089E+03      1.32742197E+02      4.07639653E+02
     -1.61755819E+03      7.98274307E+02     -1.08215172E+03
     -5.99706507E+02     -1.92305892E+02      6.72516983E+02
      1.51516641E+02     -2.30715864E+02     -1.04028852E+03
     -6.73508364E+02     -6.79307401E+02      1.07281608E+03
      2.45998114E+02      2.68669462E+02      5.03595811E+02
      3.53274514E+02      2.02633420E+03      5.84397421E+01
      1.25175058E+03      2.24406487E+03      1.41829419E+03
     -8.55985248E+02     -7.44767342E+02     -4.88569777E+02
     -3.30389480E+03     -1.00339208E+03      1.57434393E+03
     -4.80707443E+02      2.57546360E+03      1.25510380E+03
      8.41492138E+02     -9.11340748E+02      3.52281336E+02
     -2.48316347E+03     -2.25803184E+03      4.32088542E+02
      2.61182751E+03     -1.84196451E+03      1.18454491E+03
      4.60923590E+02     -5.62626478E+02      2.01106511E+02
     -8.78196296E+02     -5.08764695E+02      1.36970272E+03
     -1.22730089E+03     -1.92437110E+03     -6.64738510E+02
     -3.89742165E+02      4.73623061E+01     -1.94168575E+01
     -6.87705151E+02      1.29236046E+02      2.51009831E+03
      6.96377900E+02     -4.02584356E+02      1.44469707E+03
     -1.43585484E+02     -1.49778334E+02     -2.69568795E+02
     -2.62392437E+03      1.06216719E+03      2.32174744E+02
      6.18898453E+02      2.09023074E+03     -2.10372820E+03
      2.30498308E+01     -2.16068869E+02      4.62046336E+02
     -2.24746664E+03     -5.58297545E+02      9.49472177E+02
      3.11560729E+03      2.62426906E+02      2.04591500E+03
      8.91220691E+02      5.02079923E+02     -5.17807734E+02
     -6.94521108E+02     -4.61768309E+02     -1.40604022E+03
     -1.02690803E+03     -3.73139902E+02     -2.51907999E+03
     -1.39772703E+02     -1.18793889E+03      1.08374265E+03
      1.42903993E+02     -4.46297533E+02      1.67986941E+02
     -2.56532818E+02      2.94817947E+03      2.15486970E+02
      8.04670610E+02      2.67248968E+02      2.12276010E+03
     -1.11344077E+03     -1.95177035E+03      1.16304075E+03
  }
}

Hamiltonian = DFTB {
  SCC = Yes
  SCCTolerance = 1e-6
  MaxSCCIterations = 200
  ForceEvaluation = Dynamics
  MaxAngularMomentum = {
    C = "p"
    H = "s"
  }
  Charge = 0.0
  SpinPolarisation = {}
  Eigensolver = Standard {}
  Filling = Fermi {
    Temperature [Kelvin] = 300.0
  }
  SlaterKosterFiles = Type2FileNames {
    Prefix = "../../pbc-0-3/"
    Separator = "-"
    Suffix = ".skf"
    LowerCaseTypeName = No
  }
  KPointsAndWeights = {
    0.0000000000000 0.0000000000000 0.0000000000000 1.00000000000000
  }
  Dispersion = LennardJones { 
    Parameters = UFFParameters {}
  }
}

ParserOptions = {
  ParserVersion = 3
}
