Geometry = GenFormat {
352  S
C  H
1 1    0.3668898621E+02    0.2876746367E+02    0.3382122511E+02
2 2    0.3677245771E+02    0.2948110996E+02    0.3471221662E+02
3 2    0.3753244289E+02    0.2806120106E+02    0.3405254570E+02
4 1    0.3538733472E+02    0.4351126606E+02    0.3377393796E+02
5 2    0.3519621655E+02    0.4275147141E+02    0.3297973113E+02
6 2    0.1938615967E+02    0.4425610063E+02    0.3316586006E+02
7 1    0.3470943093E+02    0.4315628312E+02    0.3505937794E+02
8 2    0.2005193841E+02    0.4251055108E+02    0.3568768450E+02
9 2    0.3379437804E+02    0.4267109948E+02    0.3488571250E+02
10 1    0.1908056216E+02    0.4437597965E+02    0.3603124835E+02
11 2    0.1867020607E+02    0.4389128926E+02    0.3696376178E+02
12 2    0.1813660844E+02    0.4480273423E+02    0.3563779047E+02
13 1    0.3535596132E+02    0.4532016705E+02    0.3646714977E+02
14 2    0.3599498697E+02    0.4505384239E+02    0.3744125248E+02
15 2    0.3532046852E+02    0.4639561012E+02    0.3631183855E+02
16 1    0.3023621750E+02    0.4005371776E+02    0.4041490157E+02
17 2    0.2954095738E+02    0.4001060272E+02    0.3960656668E+02
18 2    0.3076278455E+02    0.4098419166E+02    0.4012743758E+02
19 1    0.4647847457E+02    0.3908535140E+02    0.4075379005E+02
20 2    0.4642309464E+02    0.3801838820E+02    0.4048471250E+02
21 2    0.4745858976E+02    0.3928646850E+02    0.4097587799E+02
22 1    0.3705537164E+02    0.4213200630E+02    0.4329478323E+02
23 2    0.2171546880E+02    0.4285170958E+02    0.4248156103E+02
24 2    0.2108111193E+02    0.4233316800E+02    0.4438783053E+02
25 1    0.3683861398E+02    0.2953549777E+02    0.3252192351E+02
26 2    0.3721130737E+02    0.2877308084E+02    0.3175924362E+02
27 2    0.3588978365E+02    0.2996477471E+02    0.3216888720E+02
28 2    0.3766088423E+02    0.3032167519E+02    0.3273055380E+02
29 1    0.3838403171E+02    0.4153908619E+02    0.4365773924E+02
30 2    0.3907668950E+02    0.4141149391E+02    0.4263848784E+02
31 2    0.3873721491E+02    0.4225063561E+02    0.4437723684E+02
32 2    0.3822973577E+02    0.4050395845E+02    0.4433824377E+02
33 1    0.2849288957E+02    0.3106064706E+02    0.3250176480E+02
34 2    0.2766391367E+02    0.3142090307E+02    0.3185905733E+02
35 2    0.2850498743E+02    0.3002284781E+02    0.3213163374E+02
36 1    0.2967925829E+02    0.3187634301E+02    0.3203507244E+02
37 2    0.2947017474E+02    0.3284647999E+02    0.3245890380E+02
38 2    0.2967296653E+02    0.3203422447E+02    0.3095882004E+02
39 1    0.3110061956E+02    0.3138087788E+02    0.3231257302E+02
40 2    0.3129664387E+02    0.3116556963E+02    0.3337724577E+02
41 2    0.3172590176E+02    0.3224199790E+02    0.3205344210E+02
42 1    0.3163318751E+02    0.2999522644E+02    0.3157069705E+02
43 2    0.4619215100E+02    0.2915645856E+02    0.3166961020E+02
44 2    0.3253072396E+02    0.2954184818E+02    0.3206702932E+02
45 1    0.3216979801E+02    0.3032057938E+02    0.3017879336E+02
46 2    0.3295248478E+02    0.2959459432E+02    0.2998843902E+02
47 2    0.4783394492E+02    0.3140787925E+02    0.3010841665E+02
48 1    0.4653728195E+02    0.3017609163E+02    0.2900758603E+02
49 2    0.4718402539E+02    0.3029340185E+02    0.2808907884E+02
50 2    0.4570635592E+02    0.3102751293E+02    0.2897533635E+02
51 1    0.3043532410E+02    0.2881935963E+02    0.2876197251E+02
52 2    0.3018296669E+02    0.2887619456E+02    0.2773746387E+02
53 2    0.2948854341E+02    0.2891664057E+02    0.2935873670E+02
54 1    0.4636509690E+02    0.2743473391E+02    0.4432209235E+02
55 2    0.4567128570E+02    0.2660166629E+02    0.4419551937E+02
56 2    0.4675448396E+02    0.2735859332E+02    0.4531021941E+02
57 1    0.2810912456E+02    0.3141863584E+02    0.3392179038E+02
58 2    0.2712439337E+02    0.3091264321E+02    0.3406399072E+02
59 2    0.2872361381E+02    0.3096414771E+02    0.3467777369E+02
60 2    0.2804932595E+02    0.3255595441E+02    0.3421416832E+02
61 1    0.3213725108E+02    0.2733263451E+02    0.4322988166E+02
62 2    0.3263467234E+02    0.2830373221E+02    0.4300657806E+02
63 2    0.3299322251E+02    0.2667847494E+02    0.4349680365E+02
64 2    0.3162532150E+02    0.2705586662E+02    0.4233279251E+02
65 1    0.3808108645E+02    0.3322965641E+02    0.3254544461E+02
66 2    0.3728027748E+02    0.3264660478E+02    0.3297067930E+02
67 2    0.3760389622E+02    0.3339668800E+02    0.3148156878E+02
68 1    0.3852521322E+02    0.3445755554E+02    0.3336074961E+02
69 2    0.3915843083E+02    0.3505024580E+02    0.3269899553E+02
70 2    0.3916628023E+02    0.3400489232E+02    0.3404651641E+02
71 1    0.3744030631E+02    0.3521412446E+02    0.3409457043E+02
72 2    0.3721751816E+02    0.3472953783E+02    0.3503876376E+02
73 2    0.3647051191E+02    0.3517908256E+02    0.3346050407E+02
74 1    0.3763853705E+02    0.2141916935E+02    0.3444909514E+02
75 2    0.3664141005E+02    0.2178868041E+02    0.3472673269E+02
76 2    0.3791586527E+02    0.2210861569E+02    0.3358125128E+02
77 1    0.3863519182E+02    0.2174077911E+02    0.3554889310E+02
78 2    0.3840893871E+02    0.3638044496E+02    0.3640563905E+02
79 2    0.3840399571E+02    0.3807201121E+02    0.3606565375E+02
80 1    0.4004673846E+02    0.2163516642E+02    0.3507568905E+02
81 2    0.4001222293E+02    0.2064056364E+02    0.3458946002E+02
82 2    0.4093921638E+02    0.2155581111E+02    0.3570467520E+02
83 1    0.4040293321E+02    0.2280881606E+02    0.3408969778E+02
84 2    0.4150734392E+02    0.2276327524E+02    0.3396071151E+02
85 2    0.4010823909E+02    0.2379567484E+02    0.3456242293E+02
86 1    0.3998522831E+02    0.2272746039E+02    0.3257892147E+02
87 2    0.3890614393E+02    0.2281692535E+02    0.3250301206E+02
88 2    0.4007707117E+02    0.2161617655E+02    0.3225854235E+02
89 1    0.3928493547E+02    0.3228075938E+02    0.3231761816E+02
90 2    0.4009691788E+02    0.3277740271E+02    0.3170605144E+02
91 2    0.3977102031E+02    0.3178825442E+02    0.3321729764E+02
92 2    0.3911167329E+02    0.3149398984E+02    0.3146643732E+02
93 1    0.4079170733E+02    0.2370332337E+02    0.3178651510E+02
94 2    0.4046852638E+02    0.2383222059E+02    0.3074299470E+02
95 2    0.4076430959E+02    0.2463131820E+02    0.3236629342E+02
96 2    0.4186835985E+02    0.2332877572E+02    0.3167840007E+02
97 1    0.3389646497E+02    0.3918779361E+02    0.4492145563E+02
98 2    0.2095989662E+02    0.4120268057E+02    0.4320535259E+02
99 2    0.3388699626E+02    0.3921932387E+02    0.4378158615E+02
100 1    0.3278115563E+02    0.3847952277E+02    0.4555827411E+02
101 2    0.3253373838E+02    0.3886427361E+02    0.4659339152E+02
102 2    0.3299219714E+02    0.3737722586E+02    0.4568583278E+02
103 1    0.3154993231E+02    0.3855098604E+02    0.4463685895E+02
104 2    0.3180390764E+02    0.3801759902E+02    0.4375371299E+02
105 2    0.3129729813E+02    0.3961168352E+02    0.4431555547E+02
106 1    0.3026665647E+02    0.3802498554E+02    0.2992206840E+02
107 2    0.3025533681E+02    0.3834049488E+02    0.3100898187E+02
108 2    0.3034220571E+02    0.3692310176E+02    0.2991249710E+02
109 1    0.2887378647E+02    0.3844558757E+02    0.2934500598E+02
110 2    0.2900229156E+02    0.3907042858E+02    0.2843865826E+02
111 2    0.2848384355E+02    0.3922376087E+02    0.3002779503E+02
112 1    0.2788970697E+02    0.3731238504E+02    0.2914174311E+02
113 2    0.2808327211E+02    0.3675149833E+02    0.2819691256E+02
114 2    0.2692163719E+02    0.3767263536E+02    0.2894646310E+02
115 1    0.2752848026E+02    0.3639334997E+02    0.3051890730E+02
116 2    0.2706972431E+02    0.3708151103E+02    0.3126325622E+02
117 2    0.2845392285E+02    0.3584486917E+02    0.3097133789E+02
118 1    0.2643865772E+02    0.3539865667E+02    0.3022515226E+02
119 2    0.2554405521E+02    0.3589367937E+02    0.2969099545E+02
120 2    0.2593179027E+02    0.3489308501E+02    0.3108978271E+02
121 1    0.3500545100E+02    0.3994355126E+02    0.4565391078E+02
122 2    0.3471065764E+02    0.4102519621E+02    0.4573901764E+02
123 2    0.3525677773E+02    0.3962947410E+02    0.4665629373E+02
124 2    0.3597783175E+02    0.3994131144E+02    0.4491419787E+02
125 1    0.2684670486E+02    0.3420573385E+02    0.2940380961E+02
126 2    0.2631259469E+02    0.3329462948E+02    0.2961024290E+02
127 2    0.2672216291E+02    0.3435630177E+02    0.2829820954E+02
128 2    0.2794189079E+02    0.3393025856E+02    0.2961020420E+02
129 1    0.3478896596E+02    0.3939647869E+02    0.3473876704E+02
130 2    0.3411480265E+02    0.4006050106E+02    0.3530790778E+02
131 2    0.3498833378E+02    0.3879665013E+02    0.3560073885E+02
132 1    0.3390039552E+02    0.3854461445E+02    0.3383055628E+02
133 2    0.3431084289E+02    0.3757556057E+02    0.3326795363E+02
134 2    0.3359399456E+02    0.3911701690E+02    0.3291704951E+02
135 1    0.3265502490E+02    0.3808690488E+02    0.3461286384E+02
136 2    0.3191899816E+02    0.3783889980E+02    0.3386153150E+02
137 2    0.3209653985E+02    0.3899792729E+02    0.3519273666E+02
138 1    0.3292619553E+02    0.3696533051E+02    0.3569440365E+02
139 2    0.3386843109E+02    0.3719618830E+02    0.3624369069E+02
140 2    0.3306409032E+02    0.3594932138E+02    0.3529130521E+02
141 1    0.3188588897E+02    0.3687227748E+02    0.3683184797E+02
142 2    0.3180207211E+02    0.3791154899E+02    0.3723150862E+02
143 2    0.3245247098E+02    0.3636141714E+02    0.3761855854E+02
144 1    0.3046841857E+02    0.3630662158E+02    0.3668979645E+02
145 2    0.3017871411E+02    0.3631784109E+02    0.3774712327E+02
146 2    0.3042873336E+02    0.3528265444E+02    0.3633360524E+02
147 1    0.2950227222E+02    0.3706872515E+02    0.3580699821E+02
148 2    0.2983758866E+02    0.3812947029E+02    0.3573198818E+02
149 2    0.2849892006E+02    0.3705808777E+02    0.3639615629E+02
150 1    0.2930643702E+02    0.3640670652E+02    0.3440146306E+02
151 2    0.3027245871E+02    0.3587669563E+02    0.3406554926E+02
152 2    0.2904004225E+02    0.3721677396E+02    0.3360503283E+02
153 1    0.3598165917E+02    0.4012825076E+02    0.3398252130E+02
154 2    0.3669045834E+02    0.2535011924E+02    0.3468089534E+02
155 2    0.3657199033E+02    0.3929240248E+02    0.3358334166E+02
156 2    0.3540360382E+02    0.4068974400E+02    0.3319753807E+02
157 1    0.2820352269E+02    0.3534295238E+02    0.3447107983E+02
158 2    0.2719746214E+02    0.3569430611E+02    0.3486687615E+02
159 2    0.2796247201E+02    0.3499512605E+02    0.3341891603E+02
160 2    0.2846342641E+02    0.3437705239E+02    0.3512650533E+02
161 1    0.3958176134E+02    0.2947732148E+02    0.2063418033E+02
162 2    0.3986317705E+02    0.2831572533E+02    0.2079174300E+02
163 2    0.3852558503E+02    0.2975180560E+02    0.2073919285E+02
164 1    0.4030559317E+02    0.3023156071E+02    0.2176690834E+02
165 2    0.4021888403E+02    0.3134451058E+02    0.2151556161E+02
166 2    0.4141698842E+02    0.3011535879E+02    0.2172826761E+02
167 1    0.3979245834E+02    0.3005901038E+02    0.2316146373E+02
168 2    0.3907469217E+02    0.2925484615E+02    0.2323234771E+02
169 2    0.3899182187E+02    0.3080718056E+02    0.2348428726E+02
170 1    0.4081306668E+02    0.2984099204E+02    0.2428370168E+02
171 2    0.4148544498E+02    0.3074016532E+02    0.2424608232E+02
172 2    0.4134281218E+02    0.2887134555E+02    0.2406233251E+02
173 1    0.4009621137E+02    0.4524681964E+02    0.2571805556E+02
174 2    0.3932826329E+02    0.4440644152E+02    0.2577893792E+02
175 2    0.3941856816E+02    0.3076347170E+02    0.2569070064E+02
176 1    0.4106664343E+02    0.4527260922E+02    0.2684874812E+02
177 2    0.4157798763E+02    0.4625515919E+02    0.2677631326E+02
178 2    0.4186718762E+02    0.4450232639E+02    0.2649509521E+02
179 1    0.4042870025E+02    0.4481591488E+02    0.2816654926E+02
180 2    0.3981092937E+02    0.4400829352E+02    0.2807350390E+02
181 2    0.3977776911E+02    0.4569179528E+02    0.2841323454E+02
182 1    0.4140248500E+02    0.4451137040E+02    0.2935168766E+02
183 2    0.4198559876E+02    0.4540644856E+02    0.2967117437E+02
184 2    0.4209314263E+02    0.4367460488E+02    0.2896633027E+02
185 1    0.4016402816E+02    0.2965678936E+02    0.1922346198E+02
186 2    0.4127035295E+02    0.2982471046E+02    0.1934729317E+02
187 2    0.3982881660E+02    0.2874455868E+02    0.1864028607E+02
188 2    0.3964637815E+02    0.3059888606E+02    0.3415407776E+02
189 1    0.4060084875E+02    0.4422531713E+02    0.3064887885E+02
190 2    0.3973258959E+02    0.4484447253E+02    0.3075962115E+02
191 2    0.4034214228E+02    0.4317148939E+02    0.3075811819E+02
192 2    0.4139234491E+02    0.4433950257E+02    0.3144221820E+02
193 1    0.3604886227E+02    0.3073863553E+02    0.4396668906E+02
194 2    0.3595926454E+02    0.2979804336E+02    0.4456083773E+02
195 2    0.3715130042E+02    0.4607824948E+02    0.4364931104E+02
196 1    0.3500339306E+02    0.3085216981E+02    0.4273029152E+02
197 2    0.3423644280E+02    0.3153458000E+02    0.4296682827E+02
198 2    0.3447573676E+02    0.4522283682E+02    0.4269093552E+02
199 1    0.3568154964E+02    0.3114533586E+02    0.4140913044E+02
200 2    0.3669174645E+02    0.3169407306E+02    0.4148743819E+02
201 2    0.3504780261E+02    0.3177462362E+02    0.4078664409E+02
202 1    0.3608863023E+02    0.2994476481E+02    0.4062514488E+02
203 2    0.3681872001E+02    0.2940625893E+02    0.4119650563E+02
204 2    0.3664760995E+02    0.3021290280E+02    0.3977967140E+02
205 1    0.3510655118E+02    0.2875838684E+02    0.4031830885E+02
206 2    0.3424283278E+02    0.2910012321E+02    0.3973514377E+02
207 2    0.3464214704E+02    0.2848009002E+02    0.4142212318E+02
208 1    0.3583161053E+02    0.2753479116E+02    0.3966188980E+02
209 2    0.3682579432E+02    0.2747466136E+02    0.4006658453E+02
210 2    0.3606482930E+02    0.2783652976E+02    0.3861324012E+02
211 1    0.3517118396E+02    0.4151997390E+02    0.3989827006E+02
212 2    0.3422061763E+02    0.4139302498E+02    0.3925320738E+02
213 2    0.3488601386E+02    0.4138284355E+02    0.4095264541E+02
214 1    0.3616932783E+02    0.4040576382E+02    0.3950507502E+02
215 2    0.3583270210E+02    0.3929298582E+02    0.3961584859E+02
216 2    0.3690067880E+02    0.4040558874E+02    0.4035436066E+02
217 1    0.3583112389E+02    0.3178358144E+02    0.4510461146E+02
218 2    0.3582799927E+02    0.3286428090E+02    0.2941934289E+02
219 2    0.3484750899E+02    0.3162037888E+02    0.3031097855E+02
220 2    0.3675053402E+02    0.3167658398E+02    0.4573485891E+02
221 1    0.3693949408E+02    0.4050911155E+02    0.3822438523E+02
222 2    0.3652652929E+02    0.4008541771E+02    0.3737936093E+02
223 2    0.3711420171E+02    0.4156270714E+02    0.3796328083E+02
224 2    0.3793895827E+02    0.4021686638E+02    0.3826835118E+02
225 1    0.3007322550E+02    0.4323911388E+02    0.3743735293E+02
226 2    0.3054260397E+02    0.4415210634E+02    0.3697495483E+02
227 2    0.2939408704E+02    0.4353969938E+02    0.3824233082E+02
228 1    0.2924098856E+02    0.2725032151E+02    0.3635300058E+02
229 2    0.2867475718E+02    0.2631362328E+02    0.3673597116E+02
230 2    0.2997362206E+02    0.2689996063E+02    0.3560942249E+02
231 1    0.2816505297E+02    0.4332669519E+02    0.3562568127E+02
232 2    0.2854894812E+02    0.4398057622E+02    0.3486601068E+02
233 2    0.2751747376E+02    0.4389989852E+02    0.3635044427E+02
234 1    0.2725077210E+02    0.4218329842E+02    0.3498850054E+02
235 2    0.2632502770E+02    0.4200447726E+02    0.3551735718E+02
236 2    0.2778158438E+02    0.4114255884E+02    0.3508218014E+02
237 1    0.2700359275E+02    0.4248929934E+02    0.3354848346E+02
238 2    0.2651236528E+02    0.4341011004E+02    0.3343144661E+02
239 2    0.2645358198E+02    0.2647024955E+02    0.3300442807E+02
240 1    0.2832072210E+02    0.4270516664E+02    0.3265972921E+02
241 2    0.2919225100E+02    0.2799084637E+02    0.3301405069E+02
242 2    0.2807804195E+02    0.2785332670E+02    0.3167238353E+02
243 1    0.2893684429E+02    0.4122563876E+02    0.3230664209E+02
244 2    0.2944109295E+02    0.4117771781E+02    0.3129841288E+02
245 2    0.2820854110E+02    0.4045200676E+02    0.3229237027E+02
246 1    0.3000395101E+02    0.4072253866E+02    0.3327494233E+02
247 2    0.2999763528E+02    0.3955060587E+02    0.3312977695E+02
248 2    0.2960357103E+02    0.4082220073E+02    0.3434364410E+02
249 1    0.3110540462E+02    0.2700202955E+02    0.3799570462E+02
250 2    0.3163973849E+02    0.2665770445E+02    0.3709129076E+02
251 2    0.3186404183E+02    0.2768340196E+02    0.3845423492E+02
252 2    0.3069504124E+02    0.2605155650E+02    0.3852161364E+02
253 1    0.3134501372E+02    0.4138959193E+02    0.3322271770E+02
254 2    0.3181771727E+02    0.4151756154E+02    0.3227109673E+02
255 2    0.3133133792E+02    0.4239573314E+02    0.3368989341E+02
256 2    0.3207736930E+02    0.4078417979E+02    0.4918606680E+02
257 1    0.4099131594E+02    0.3766071092E+02    0.4079826035E+02
258 2    0.4019208378E+02    0.3685104306E+02    0.4043034030E+02
259 2    0.4125293390E+02    0.3729655202E+02    0.4174281667E+02
260 1    0.4218948845E+02    0.3737340804E+02    0.3983621641E+02
261 2    0.4313330867E+02    0.3786686115E+02    0.4022345016E+02
262 2    0.4211113671E+02    0.3790325399E+02    0.3891365902E+02
263 1    0.4255936238E+02    0.3591110277E+02    0.3965609071E+02
264 2    0.4364365094E+02    0.3584606028E+02    0.3955398278E+02
265 2    0.4207707787E+02    0.3560663027E+02    0.3872022249E+02
266 1    0.4193457307E+02    0.3490055747E+02    0.4070474629E+02
267 2    0.4084607810E+02    0.3497827467E+02    0.4049372437E+02
268 2    0.4201339182E+02    0.3517613148E+02    0.4180572324E+02
269 1    0.4244583890E+02    0.3346917738E+02    0.4075864095E+02
270 2    0.4226028561E+02    0.3296671417E+02    0.3973265261E+02
271 2    0.4176082251E+02    0.3305089334E+02    0.4144303912E+02
272 1    0.4401764685E+02    0.3340619108E+02    0.4126115692E+02
273 2    0.4415458057E+02    0.3413487280E+02    0.4204244202E+02
274 2    0.4474780567E+02    0.3374979608E+02    0.4056739540E+02
275 1    0.4442833031E+02    0.3208241338E+02    0.4174619059E+02
276 2    0.4360714361E+02    0.3157929302E+02    0.4231812711E+02
277 2    0.4530169252E+02    0.3223158532E+02    0.4243474754E+02
278 1    0.4494525375E+02    0.3097261620E+02    0.4076738993E+02
279 2    0.4432240961E+02    0.3102254154E+02    0.3989639776E+02
280 2    0.4469402924E+02    0.3003060083E+02    0.4124737638E+02
281 1    0.4044654571E+02    0.3909035482E+02    0.4076487407E+02
282 2    0.3943292803E+02    0.3908039468E+02    0.4122495477E+02
283 2    0.4108736590E+02    0.3988770237E+02    0.4113726579E+02
284 2    0.4034321155E+02    0.3939430859E+02    0.3972647647E+02
285 1    0.4643382929E+02    0.3099034442E+02    0.4023930240E+02
286 2    0.4715752628E+02    0.3064267921E+02    0.4096970567E+02
287 2    0.4649236996E+02    0.3030301012E+02    0.3943421911E+02
288 2    0.4676883791E+02    0.3195609871E+02    0.3980579272E+02
289 1    0.3207420208E+02    0.3511531041E+02    0.4401751142E+02
290 2    0.3288684730E+02    0.3600686440E+02    0.4403099266E+02
291 2    0.3107464558E+02    0.3547964779E+02    0.4391383965E+02
292 1    0.3241961268E+02    0.3404495962E+02    0.4294437975E+02
293 2    0.3161497393E+02    0.3327478620E+02    0.4271575414E+02
294 2    0.3335014201E+02    0.3348209634E+02    0.4317719732E+02
295 1    0.3263263457E+02    0.3464595391E+02    0.4147719698E+02
296 2    0.3160156404E+02    0.3500782382E+02    0.4115345591E+02
297 2    0.3293870981E+02    0.3380336555E+02    0.2545057922E+02
298 1    0.3348208513E+02    0.3589990541E+02    0.2590261890E+02
299 2    0.3324508577E+02    0.3670214532E+02    0.4204073708E+02
300 2    0.3321373121E+02    0.3624000476E+02    0.2484265123E+02
301 1    0.3498790194E+02    0.3564288066E+02    0.2601397017E+02
302 2    0.3535887378E+02    0.3461501783E+02    0.2569652326E+02
303 2    0.3507120898E+02    0.3560345580E+02    0.4247787244E+02
304 1    0.3598912718E+02    0.3677317774E+02    0.2549426114E+02
305 2    0.3547630456E+02    0.3776229412E+02    0.2544159878E+02
306 2    0.3621829035E+02    0.3647890079E+02    0.2442622304E+02
307 1    0.3716209363E+02    0.3687609223E+02    0.2640597094E+02
308 2    0.3798485931E+02    0.3752789821E+02    0.2581877182E+02
309 2    0.3769999431E+02    0.3586607348E+02    0.2649386546E+02
310 1    0.3705258751E+02    0.3763533197E+02    0.2774194802E+02
311 2    0.3611670736E+02    0.3750975346E+02    0.2828188258E+02
312 2    0.3700999789E+02    0.3872353602E+02    0.2761805924E+02
313 1    0.3212073039E+02    0.3450678200E+02    0.4536489229E+02
314 2    0.3189804668E+02    0.3525958911E+02    0.4619768807E+02
315 2    0.3141023611E+02    0.3362526223E+02    0.4533809112E+02
316 2    0.3307826836E+02    0.3416163265E+02    0.4560086640E+02
317 1    0.3829697701E+02    0.3750143038E+02    0.2871642705E+02
318 2    0.3822797788E+02    0.3826519338E+02    0.2947996149E+02
319 2    0.3822589023E+02    0.3650034177E+02    0.2918485411E+02
320 2    0.3925814021E+02    0.3765379082E+02    0.2822985765E+02
321 1    0.3780160439E+02    0.3343384647E+02    0.2329025719E+02
322 2    0.3735439629E+02    0.3339755816E+02    0.2427022064E+02
323 2    0.3816614948E+02    0.3242911552E+02    0.2309322355E+02
324 1    0.3675100129E+02    0.3378084392E+02    0.3748343008E+02
325 2    0.3696381565E+02    0.3322386758E+02    0.3651845824E+02
326 2    0.3689951423E+02    0.3486683691E+02    0.3721435864E+02
327 1    0.3532408778E+02    0.3351203738E+02    0.3800145724E+02
328 2    0.3518756107E+02    0.3414350652E+02    0.3886794421E+02
329 2    0.3531889718E+02    0.3248333294E+02    0.3832685009E+02
330 1    0.3430369706E+02    0.3379433873E+02    0.3693192095E+02
331 2    0.3461338184E+02    0.3349106588E+02    0.3598072526E+02
332 2    0.3414571822E+02    0.3482825604E+02    0.3692680676E+02
333 1    0.3293873262E+02    0.3313482598E+02    0.3721406555E+02
334 2    0.3233641601E+02    0.3374402576E+02    0.3795183842E+02
335 2    0.3307953571E+02    0.3208874006E+02    0.3747422812E+02
336 1    0.3207955126E+02    0.3302845843E+02    0.3601109980E+02
337 2    0.3268694584E+02    0.3246655891E+02    0.3519615531E+02
338 2    0.3186713764E+02    0.3404949908E+02    0.3551722823E+02
339 1    0.3079975772E+02    0.3228520704E+02    0.3621583731E+02
340 2    0.3108507453E+02    0.3119798549E+02    0.3632290684E+02
341 2    0.3017534500E+02    0.3230216836E+02    0.3525719714E+02
342 1    0.2991494172E+02    0.3269230931E+02    0.3736904165E+02
343 2    0.2966505761E+02    0.3378286071E+02    0.3736228454E+02
344 2    0.3049032845E+02    0.3248487270E+02    0.3829971066E+02
345 1    0.3900237674E+02    0.3431550785E+02    0.2319026883E+02
346 2    0.3941483608E+02    0.3433037227E+02    0.2218981667E+02
347 2    0.3869791254E+02    0.3536626617E+02    0.2347182207E+02
348 2    0.3979893628E+02    0.3394809304E+02    0.2393445930E+02
349 1    0.2857100476E+02    0.3195044367E+02    0.3740734077E+02
350 2    0.2785688303E+02    0.3236232155E+02    0.3667101040E+02
351 2    0.2858886989E+02    0.3089850884E+02    0.3727116767E+02
352 2    0.2821193698E+02    0.3209499388E+02    0.3837904872E+02
0.0000000000E+00    0.0000000000E+00    0.0000000000E+00
0.1532620600E+02    0.0000000000E+00    0.0000000000E+00
0.0000000000E+00    0.1532620600E+02    0.0000000000E+00
0.0000000000E+00    0.0000000000E+00    0.1532620600E+02
}
Driver = VelocityVerlet {
  Steps = 50000
  TimeStep [fs] = 0.2
  MDRestartFrequency = 5
  Thermostat = None {}
  Xlbomd = {
    IntegrationSteps = 6
    MinSccIterations = 2
    MaxSccIterations = 200
    SccTolerance = 1e-6
    PreSteps = 0
  }
  Velocities [AA/Ps] = {
8.47736252 3.67249532 2.53063631
1.03496482 -1.38368886 -31.46640067
36.23267468 7.94415813 -41.47588441
-3.38975309 -1.93174173 -8.13309397
-39.74353057 33.53837128 1.50017696
12.73023623 17.70403274 -39.71228269
-7.66647954 -4.52260679 -4.28813349
18.89984181 -10.67376075 -32.34291750
-28.19433295 16.64891273 -14.15952886
7.88015568 14.09875797 2.69980893
26.35749184 -24.35676738 -2.06472412
-47.76372521 -45.70479798 -28.54283760
-4.16891514 -7.91189054 1.52406287
-29.97577805 -16.37728413 35.39565175
16.24046806 4.55738501 -51.52181665
9.37008342 12.51027843 7.71128825
22.05327238 40.52646144 16.30230353
4.27936448 -26.92964518 -1.27331902
-4.44861978 -6.53543081 -3.95046940
31.71353245 49.76426421 7.31329344
38.06784751 4.09469024 -38.46497725
4.21846339 10.40597361 1.26035179
2.58790787 -28.07941292 -105.82696985
-64.60826854 4.59082392 33.31162806
-2.76532766 -4.51072038 7.40463704
13.05865252 -10.22072942 22.01559997
-16.69642529 9.84445851 31.37439196
12.56162660 12.22177291 -2.04430726
5.31520808 15.29887690 2.27448177
5.58853362 -6.79428613 -37.12262437
49.05938079 9.49517215 -6.30619211
-31.58769943 -76.20536051 -22.93152355
11.76053091 4.41218853 6.92717440
-29.27995849 2.38265700 13.41742794
67.58347842 -60.05050084 -15.62439751
10.99464647 6.27550501 -0.26510099
19.97417828 10.66706042 3.01231316
-11.54288056 -18.62719532 -31.83805990
-1.26849907 -0.81188785 1.50528985
1.72558078 11.89188250 40.15289382
19.59355495 -11.81658267 -10.32989067
-7.58101117 7.27212945 3.82019988
7.71656168 -9.74856653 -12.30692492
30.38785524 7.84426170 -10.51737593
-4.28815301 1.99638512 -1.49128731
5.60308093 1.53489274 -10.35791831
11.78824195 -7.99832621 1.84523716
9.30950169 -0.27836526 1.55923100
21.06241295 2.73426002 -15.59698506
-2.32910699 -6.05100444 -2.29241349
-3.30603017 -4.45392847 6.09512274
14.92005600 11.16394587 7.75443904
-4.79446847 -4.54290967 15.20824193
-6.44411577 -8.06601750 0.57602982
-11.00680887 38.86150634 26.39147184
21.46134068 29.61723402 -38.40820163
-6.34137160 -5.15968220 -3.54088298
-17.32183718 18.30014089 -14.48605188
-2.29662333 -18.29564638 1.69902319
-28.37554175 -13.21743593 -16.91284325
0.01397458 7.47828238 -5.05427733
1.71747444 0.17168451 -36.06949275
-8.48161291 14.95133730 17.19872374
-1.76061857 -0.95300478 26.34762117
1.70769579 -0.89811703 1.04782176
1.28883869 4.29532324 -45.79280044
-23.95642612 6.73013198 -17.13395043
-7.44599116 1.53284582 -9.37958631
-12.03740452 -0.86492105 12.49991203
0.92653476 4.26602858 26.69912344
-8.55558993 1.28701280 0.36410650
-10.38287292 -0.20379539 15.53056495
15.20248230 -12.91082878 -4.92262162
6.41369694 -0.86570670 2.66140900
-23.93343887 4.93389322 -15.43601065
4.38204418 -20.31949634 7.55595100
9.57424663 -3.62072887 -4.96300155
5.17913720 16.53207224 -23.96109324
32.45041511 -16.20452128 -13.18806869
3.89995906 13.81489346 6.23162843
22.16301585 28.63748260 -11.33413490
-27.24962218 4.18990992 -21.61832320
3.73715811 3.12342821 -1.69637325
9.26384566 44.58075952 -9.47280225
-6.97262044 6.61927018 8.46411320
-3.92412778 0.95039089 -2.25384543
16.33350551 -7.57912095 21.18733248
1.55364622 19.14234381 20.15770831
7.93493950 -6.06669695 -7.97573416
12.95063289 -4.95740789 52.57723097
40.38640951 26.15578989 10.31105622
1.13128366 13.51637499 23.83640023
2.95176060 -4.73996684 -7.65068935
-6.04293588 5.74962824 -25.03440756
29.26936873 -1.62036145 -33.41370450
4.25777512 17.35073983 7.33807365
5.94209969 17.93778423 -12.14850642
-3.41523692 25.92671248 -38.59155368
4.74757771 -20.26442082 -25.86888324
-3.73902469 -0.68880405 -0.12044788
-22.53393990 -14.77358015 -55.36157257
48.85678028 -0.25889414 -17.67978752
-2.51874664 2.55120950 -0.49223324
11.01371611 5.79778000 20.59167616
0.48389735 -28.49326652 -15.27293120
-0.13419800 -0.66272430 6.22236477
-3.97410305 -57.90414039 -2.42647988
1.51184051 -19.89082506 -3.94233409
-0.00173531 -8.79796606 7.01092727
6.09272271 -33.03521472 28.60641503
6.00113662 11.08917742 7.81040216
4.31034942 -3.15092936 2.05897989
50.28491987 15.62020648 -24.50083665
33.23072391 19.22727092 -5.91486349
4.42097868 3.26212749 -3.75585719
-11.17998626 36.95129278 -1.10403152
5.26317124 -12.78699546 -7.07451014
3.85458155 3.55563345 3.43610757
-1.39502518 38.20938375 7.23964451
-5.69846521 18.53832253 35.80446771
-6.83574078 -1.49262064 10.27600365
-7.55957364 -41.24868827 -16.48725190
-13.88370278 28.90237952 38.43489961
11.82631322 -53.03284593 -19.72050672
-0.31508160 -4.96166687 0.59677079
-23.01883502 0.89672888 -36.54485568
10.98277205 30.63637361 17.39384128
10.68153825 9.55366229 39.59481886
-5.13664504 0.43710551 6.84395395
-38.86680043 4.63493391 -15.03328716
-4.63716998 -7.76371164 -11.07027362
-3.39587863 0.68119759 3.51977601
1.52383612 -0.01755946 -0.80116390
0.53611607 -8.77199204 4.68173682
0.27270548 6.86555722 -8.67052040
18.60040735 31.80980753 -8.82068149
-12.48073216 11.47338489 -19.17622122
5.59374089 8.18012513 -1.86126260
-28.15293546 3.01664037 19.00015053
-11.57657033 5.10354287 19.65557515
-6.57632399 3.37655055 -3.07101215
-28.29020920 -6.26546618 -7.21475732
-36.46449048 24.81418724 15.91413854
-11.19491833 -12.49708327 -0.00238389
35.55398611 -3.86111358 2.90973523
49.71384803 8.76137640 2.46905333
3.98914814 4.65427256 -6.85919004
-15.44632344 -18.93827542 35.74847848
24.21786398 9.55499909 11.66957492
3.88036896 -9.26181943 4.15988192
-7.63957971 31.80920665 0.56250302
3.75199573 1.73373856 2.36795108
7.45537555 -5.09531041 -10.07471764
14.46895217 -8.51337501 -33.87279694
-15.58095224 -5.85294443 31.12553190
25.80089289 -40.87263516 22.27662509
12.24948499 1.41683590 -13.91932822
3.84304929 29.07895634 29.06871978
28.03391749 1.70438223 29.02282493
19.82972088 -6.78980523 20.12253698
-8.19719653 -0.94712570 -5.08371219
1.70409639 -26.12561642 12.49520526
-28.37432803 5.25617760 -0.35220291
-2.61720624 -11.81888729 1.90533054
12.33563882 51.99962146 1.18278725
2.06907540 -3.50014970 -53.21126840
5.33718647 -1.77156195 -7.75416872
32.49430134 16.84271248 17.86348563
-25.84487453 -17.84395683 -12.00043324
1.29443445 8.02278930 -0.74412283
0.85194241 23.29818752 -4.94469714
4.95543013 -1.00649071 -8.27124755
1.47112890 -10.28009257 11.85151235
17.78894518 -23.79353071 19.60258060
-7.65857481 -1.97838441 6.16922976
-8.37429428 3.51912932 6.90155334
-23.79079191 32.94095249 -5.59289472