Geometry = GenFormat {
352  S
C  H
1 1    0.4257669752E+02    0.2530960849E+02    0.3321695275E+02
2 2    0.4259204454E+02    0.2579104366E+02    0.3425527811E+02
3 2    0.4222487062E+02    0.2622222426E+02    0.3263861067E+02
4 1    0.4397477188E+02    0.4031131906E+02    0.3301725357E+02
5 2    0.4412477911E+02    0.3997876547E+02    0.3198002639E+02
6 2    0.2901290517E+02    0.3936011452E+02    0.3363626913E+02
7 1    0.4475658730E+02    0.4157397731E+02    0.3338263447E+02
8 2    0.2927446979E+02    0.4183050547E+02    0.3444976322E+02
9 2    0.4441370076E+02    0.4245412908E+02    0.3272989011E+02
10 1    0.3099672961E+02    0.4165022442E+02    0.3339275929E+02
11 2    0.3124526958E+02    0.4274299375E+02    0.3357233427E+02
12 2    0.3153965469E+02    0.4128079073E+02    0.3246806931E+02
13 1    0.4708909804E+02    0.4095348370E+02    0.3466340006E+02
14 2    0.4672698617E+02    0.3990713315E+02    0.3460567036E+02
15 2    0.4688613450E+02    0.4150587124E+02    0.3567984238E+02
16 1    0.3330504526E+02    0.4087892245E+02    0.3442495395E+02
17 2    0.3381896619E+02    0.4076445691E+02    0.3536905264E+02
18 2    0.3373681637E+02    0.4170387535E+02    0.3392580016E+02
19 1    0.4907522287E+02    0.3966246315E+02    0.3359597459E+02
20 2    0.4858668032E+02    0.3959454314E+02    0.3261912187E+02
21 2    0.4867337443E+02    0.3882090453E+02    0.3412749214E+02
22 1    0.5061109325E+02    0.3963973580E+02    0.3351397762E+02
23 2    0.3578227191E+02    0.3994653201E+02    0.3442820929E+02
24 2    0.3555861459E+02    0.4048201461E+02    0.3277325493E+02
25 1    0.4149923287E+02    0.2424862818E+02    0.3320994465E+02
26 2    0.4099227809E+02    0.2420700598E+02    0.3218874280E+02
27 2    0.4196534769E+02    0.2327752689E+02    0.3342544463E+02
28 2    0.4077256402E+02    0.2446157168E+02    0.3392303563E+02
29 1    0.5107619252E+02    0.3837231787E+02    0.3291138309E+02
30 2    0.5130933196E+02    0.3749441532E+02    0.3362346623E+02
31 2    0.5021617976E+02    0.3800757157E+02    0.3230540980E+02
32 2    0.5193967602E+02    0.3845564205E+02    0.3232078393E+02
33 1    0.2860349834E+02    0.3352000126E+02    0.3052664413E+02
34 2    0.2849205105E+02    0.3406697515E+02    0.2953816669E+02
35 2    0.2947929493E+02    0.3284349845E+02    0.3040439994E+02
36 1    0.2868712082E+02    0.3451052293E+02    0.3161394530E+02
37 2    0.2976337794E+02    0.3465876758E+02    0.3192095166E+02
38 2    0.2830420077E+02    0.3400941111E+02    0.3254112612E+02
39 1    0.2793374634E+02    0.3587367097E+02    0.3139469564E+02
40 2    0.2782578914E+02    0.3635599686E+02    0.3241416146E+02
41 2    0.2695591279E+02    0.3572187893E+02    0.3104180902E+02
42 1    0.2869952167E+02    0.3690386079E+02    0.3042489231E+02
43 2    0.4339802346E+02    0.3785613434E+02    0.3055812386E+02
44 2    0.2865056975E+02    0.3657451756E+02    0.2944599693E+02
45 1    0.3016856669E+02    0.3712018650E+02    0.3081335992E+02
46 2    0.3017354369E+02    0.3717777251E+02    0.3193169404E+02
47 2    0.4585523441E+02    0.3814445985E+02    0.3040272635E+02
48 1    0.4658844812E+02    0.3621023480E+02    0.3033824499E+02
49 2    0.4685044917E+02    0.3652248758E+02    0.2936022309E+02
50 2    0.4620817960E+02    0.3521759261E+02    0.3012379841E+02
51 1    0.3255171112E+02    0.3622945664E+02    0.3123163686E+02
52 2    0.3256544039E+02    0.3702274429E+02    0.3199400301E+02
53 2    0.3349198680E+02    0.3658382827E+02    0.3064736147E+02
54 1    0.4829659699E+02    0.3501136367E+02    0.4747954600E+02
55 2    0.4756977908E+02    0.3486809738E+02    0.4827700950E+02
56 2    0.4914694314E+02    0.3530147243E+02    0.4808470453E+02
57 1    0.2737435708E+02    0.3268062367E+02    0.3054197465E+02
58 2    0.2745979948E+02    0.3168693937E+02    0.3103489412E+02
59 2    0.2662673527E+02    0.3319431868E+02    0.3107886480E+02
60 2    0.2695682091E+02    0.3252212030E+02    0.2956707000E+02
61 1    0.3315279956E+02    0.3356613655E+02    0.4674965767E+02
62 2    0.3259130431E+02    0.3279076118E+02    0.4732351869E+02
63 2    0.3277771914E+02    0.3359918175E+02    0.4570401561E+02
64 2    0.3418646312E+02    0.3324142471E+02    0.4682765229E+02
65 1    0.3968888491E+02    0.4244062044E+02    0.4191009118E+02
66 2    0.3946582617E+02    0.4217539434E+02    0.4301572888E+02
67 2    0.4053763362E+02    0.4174360580E+02    0.4161197248E+02
68 1    0.3851040998E+02    0.4221031406E+02    0.4095367263E+02
69 2    0.3759123272E+02    0.4276245289E+02    0.4146829664E+02
70 2    0.3826824513E+02    0.4113220415E+02    0.4085019869E+02
71 1    0.3861742298E+02    0.4277935443E+02    0.3955815529E+02
72 2    0.3917572925E+02    0.4377420915E+02    0.3954514584E+02
73 2    0.3756551995E+02    0.4303373045E+02    0.3922993386E+02
74 1    0.3926994830E+02    0.2658558965E+02    0.3855487408E+02
75 2    0.3976395094E+02    0.2568049597E+02    0.3894791399E+02
76 2    0.4020206175E+02    0.2709340913E+02    0.3822929069E+02
77 1    0.3843796726E+02    0.2612763768E+02    0.3738437391E+02
78 2    0.3921276330E+02    0.4112738327E+02    0.3671991722E+02
79 2    0.3804480456E+02    0.4232578854E+02    0.3682632173E+02
80 1    0.3736528084E+02    0.2510549847E+02    0.3766490458E+02
81 2    0.3663640532E+02    0.2520066125E+02    0.3670952475E+02
82 2    0.3680757007E+02    0.2543390361E+02    0.3854948319E+02
83 1    0.3793619243E+02    0.2371934137E+02    0.3801575496E+02
84 2    0.3906132120E+02    0.2387482400E+02    0.3815949805E+02
85 2    0.3803499033E+02    0.2304024890E+02    0.3708620858E+02
86 1    0.3718608392E+02    0.2307973185E+02    0.3916250125E+02
87 2    0.3665826412E+02    0.2215426322E+02    0.3861797034E+02
88 2    0.3633782910E+02    0.2371135115E+02    0.3969240552E+02
89 1    0.4020269720E+02    0.4400124751E+02    0.4186508185E+02
90 2    0.3934376872E+02    0.4460511724E+02    0.4197154989E+02
91 2    0.4090112008E+02    0.4420054953E+02    0.4279697282E+02
92 2    0.4090967556E+02    0.4430293843E+02    0.4099664495E+02
93 1    0.3821455189E+02    0.2246061391E+02    0.4014147975E+02
94 2    0.3886730159E+02    0.2178368494E+02    0.3961057248E+02
95 2    0.3883590215E+02    0.2323022780E+02    0.4072894180E+02
96 2    0.3775246495E+02    0.2181016210E+02    0.4099792336E+02
97 1    0.2812173392E+02    0.4035432741E+02    0.3710386348E+02
98 2    0.2774845651E+02    0.4132255116E+02    0.3725150899E+02
99 2    0.2862938915E+02    0.4041483750E+02    0.3612493175E+02
100 1    0.2895627139E+02    0.3975980857E+02    0.3827614252E+02
101 2    0.2984024482E+02    0.4050725799E+02    0.3847191833E+02
102 2    0.2940778430E+02    0.3883883618E+02    0.3800641809E+02
103 1    0.2806131845E+02    0.3972690464E+02    0.3952088591E+02
104 2    0.2715326144E+02    0.3896044096E+02    0.3933547358E+02
105 2    0.2759648528E+02    0.4067722053E+02    0.3971000959E+02
106 1    0.2879812904E+02    0.3923227744E+02    0.2546751412E+02
107 2    0.2978040932E+02    0.3970013906E+02    0.2556470977E+02
108 2    0.2888405863E+02    0.3808910256E+02    0.2548350023E+02
109 1    0.2796183635E+02    0.3964111896E+02    0.2667026227E+02
110 2    0.2766254932E+02    0.3883308145E+02    0.2738895161E+02
111 2    0.2690272291E+02    0.3981909997E+02    0.2637466805E+02
112 1    0.2845787014E+02    0.4091287505E+02    0.2746197608E+02
113 2    0.2777928657E+02    0.4120122215E+02    0.2829886407E+02
114 2    0.2850398966E+02    0.4173188782E+02    0.2673128120E+02
115 1    0.2989916461E+02    0.4070027622E+02    0.2801171127E+02
116 2    0.3060580743E+02    0.4104823634E+02    0.2724853059E+02
117 2    0.3001903790E+02    0.3963897168E+02    0.2811992748E+02
118 1    0.3017853192E+02    0.4142507782E+02    0.2936831804E+02
119 2    0.3071635121E+02    0.4079141197E+02    0.3011322744E+02
120 2    0.2922341792E+02    0.4157531372E+02    0.2988502039E+02
121 1    0.2682629711E+02    0.3964981442E+02    0.3685805258E+02
122 2    0.2697495482E+02    0.3870624586E+02    0.3629626465E+02
123 2    0.2626052336E+02    0.3936176744E+02    0.3775206208E+02
124 2    0.2615302175E+02    0.4021988512E+02    0.3612133000E+02
125 1    0.3081832519E+02    0.4281646015E+02    0.2919337331E+02
126 2    0.3082814737E+02    0.4333048406E+02    0.3021110917E+02
127 2    0.3187509374E+02    0.4275726578E+02    0.2891608724E+02
128 2    0.3036407226E+02    0.4344920498E+02    0.2834612237E+02
129 1    0.3528009275E+02    0.3616274815E+02    0.2806778310E+02
130 2    0.3498993256E+02    0.3711316592E+02    0.2848488231E+02
131 2    0.3605510914E+02    0.3650503940E+02    0.2735869508E+02
132 1    0.3583715845E+02    0.3501476263E+02    0.2888857347E+02
133 2    0.3619006271E+02    0.3430282929E+02    0.2811637733E+02
134 2    0.3493994029E+02    0.3455253393E+02    0.2946190758E+02
135 1    0.3699618216E+02    0.3545557927E+02    0.2990011006E+02
136 2    0.3640333723E+02    0.3626616342E+02    0.3039018412E+02
137 2    0.3782040854E+02    0.3598585140E+02    0.2937433074E+02
138 1    0.3745635950E+02    0.3436255674E+02    0.3088099317E+02
139 2    0.3786891683E+02    0.3351920632E+02    0.3039308578E+02
140 2    0.3670784401E+02    0.3403692976E+02    0.3157206116E+02
141 1    0.3873086758E+02    0.3480521291E+02    0.3173375609E+02
142 2    0.3829128764E+02    0.3574630855E+02    0.3224872243E+02
143 2    0.3941299906E+02    0.3499759174E+02    0.3085703799E+02
144 1    0.3943691588E+02    0.3379058205E+02    0.3257928760E+02
145 2    0.3910065899E+02    0.3364446017E+02    0.3365361004E+02
146 2    0.3953301251E+02    0.3283430678E+02    0.3211290389E+02
147 1    0.1810238086E+02    0.2560854607E+02    0.2530792507E+02
148 2    0.1832765430E+02    0.2623550995E+02    0.2613908007E+02
149 2    0.1744386084E+02    0.2628109287E+02    0.2463857112E+02
150 1    0.2398868367E+02    0.3715869767E+02    0.3406326437E+02
151 2    0.2434470767E+02    0.3696302729E+02    0.3304140921E+02
152 2    0.2290977330E+02    0.3741356031E+02    0.3398041512E+02
153 1    0.3403617372E+02    0.3583058795E+02    0.2724817701E+02
154 2    0.3366195955E+02    0.2147812737E+02    0.2696755391E+02
155 2    0.3417111256E+02    0.3511357161E+02    0.2639286535E+02
156 2    0.3337491408E+02    0.3539558563E+02    0.2797324985E+02
157 1    0.2465296869E+02    0.3697829642E+02    0.3518676491E+02
158 2    0.1902592413E+02    0.2574983441E+02    0.2462127416E+02
159 2    0.2415342118E+02    0.3689723123E+02    0.3619844587E+02
160 2    0.2575174534E+02    0.3663525321E+02    0.3524382451E+02
161 1    0.4222755637E+02    0.2805579754E+02    0.3072925368E+02
162 2    0.4272838019E+02    0.2796984449E+02    0.3167453419E+02
163 2    0.4230647058E+02    0.2703843363E+02    0.3020814615E+02
164 1    0.4076623351E+02    0.2845791368E+02    0.3091344101E+02
165 2    0.4028410602E+02    0.2894701989E+02    0.2996932111E+02
166 2    0.4079205247E+02    0.2927725003E+02    0.3167252768E+02
167 1    0.3983174370E+02    0.2734479756E+02    0.3125596224E+02
168 2    0.4028961072E+02    0.2660597339E+02    0.3196205978E+02
169 2    0.3963230791E+02    0.2668228419E+02    0.3028523327E+02
170 1    0.3838179262E+02    0.2769836482E+02    0.3171187778E+02
171 2    0.3781726769E+02    0.2681263502E+02    0.3177246055E+02
172 2    0.3791314484E+02    0.2821115034E+02    0.3082656809E+02
173 1    0.3809454489E+02    0.4386847750E+02    0.3301719584E+02
174 2    0.3856716193E+02    0.4492519654E+02    0.3292966903E+02
175 2    0.3852975108E+02    0.2797105483E+02    0.3386257140E+02
176 1    0.3650739187E+02    0.4413569794E+02    0.3320293710E+02
177 2    0.3610366607E+02    0.4364403356E+02    0.3410619130E+02
178 2    0.3585424217E+02    0.4347145460E+02    0.3251395807E+02
179 1    0.3609647653E+02    0.4559567108E+02    0.3299281670E+02
180 2    0.3671211509E+02    0.4622987316E+02    0.3372305532E+02
181 2    0.3503737008E+02    0.4573673395E+02    0.3334838325E+02
182 1    0.3631700506E+02    0.4639788327E+02    0.3170169926E+02
183 2    0.3736708519E+02    0.4643951819E+02    0.3144751275E+02
184 2    0.3612232380E+02    0.4744244342E+02    0.3206693793E+02
185 1    0.4300979920E+02    0.2909533660E+02    0.2986523586E+02
186 2    0.4398058154E+02    0.2867029023E+02    0.2969255982E+02
187 2    0.4259194057E+02    0.2914984729E+02    0.2889471804E+02
188 2    0.4299313143E+02    0.3010044363E+02    0.4559604492E+02
189 1    0.3548617568E+02    0.4599844523E+02    0.3057586226E+02
190 2    0.3556895448E+02    0.4490359645E+02    0.3040616704E+02
191 2    0.3441147008E+02    0.4623747019E+02    0.3070940872E+02
192 2    0.3568631705E+02    0.4655884384E+02    0.2969865284E+02
193 1    0.3525010813E+02    0.2601574071E+02    0.4436871453E+02
194 2    0.3511774839E+02    0.2696447732E+02    0.4495102589E+02
195 2    0.3509596249E+02    0.4173058411E+02    0.4333827497E+02
196 1    0.3664405217E+02    0.2551833999E+02    0.4477121814E+02
197 2    0.3660429766E+02    0.2547445850E+02    0.4586666583E+02
198 2    0.3731319136E+02    0.4168286593E+02    0.4444394668E+02
199 1    0.3706584347E+02    0.2427177632E+02    0.4390967111E+02
200 2    0.3712919868E+02    0.2435738289E+02    0.4276067054E+02
201 2    0.3634039036E+02    0.2345350549E+02    0.4421248365E+02
202 1    0.3845992482E+02    0.2375924534E+02    0.4436634613E+02
203 2    0.3817802507E+02    0.2300439666E+02    0.4519424360E+02
204 2    0.3899308768E+02    0.2454474049E+02    0.4487914427E+02
205 1    0.3924994605E+02    0.2309665426E+02    0.4323215282E+02
206 2    0.3951470415E+02    0.2381586626E+02    0.4245255406E+02
207 2    0.3850100197E+02    0.2235316623E+02    0.4278205895E+02
208 1    0.4047680167E+02    0.2239457956E+02    0.4363411758E+02
209 2    0.4016714073E+02    0.2169412879E+02    0.4444131745E+02
210 2    0.4126847935E+02    0.2315348823E+02    0.4388809563E+02
211 1    0.4115999943E+02    0.3679910526E+02    0.4258134251E+02
212 2    0.4219563041E+02    0.3660447688E+02    0.4296201547E+02
213 2    0.4115323071E+02    0.3744302374E+02    0.4165548766E+02
214 1    0.4058826305E+02    0.3544118831E+02    0.4227011209E+02
215 2    0.4089165416E+02    0.3508601534E+02    0.4132848116E+02
216 2    0.3955140580E+02    0.3549085544E+02    0.4196400817E+02
217 1    0.3392196033E+02    0.2516076936E+02    0.4473684331E+02
218 2    0.3367919920E+02    0.2552104301E+02    0.3045540046E+02
219 2    0.3309210832E+02    0.2531154797E+02    0.2877371077E+02
220 2    0.3389441595E+02    0.2404696239E+02    0.4470929378E+02
221 1    0.4085029706E+02    0.3426016323E+02    0.4331975286E+02
222 2    0.4083755094E+02    0.3332375574E+02    0.4272966973E+02
223 2    0.4185885593E+02    0.3434248252E+02    0.4378021015E+02
224 2    0.4003648679E+02    0.3435999186E+02    0.4404533819E+02
225 1    0.2713556476E+02    0.5049476021E+02    0.3741388176E+02
226 2    0.2719412423E+02    0.5103543829E+02    0.3645071623E+02
227 2    0.2648824459E+02    0.4950318090E+02    0.3717659475E+02
228 1    0.2858277286E+02    0.3455540754E+02    0.3779389610E+02
229 2    0.2866757677E+02    0.3392656384E+02    0.3872747496E+02
230 2    0.2924651982E+02    0.3541115349E+02    0.3802540076E+02
231 1    0.2918064789E+02    0.4905039270E+02    0.3662825224E+02
232 2    0.2937126873E+02    0.4976714284E+02    0.3577691498E+02
233 2    0.2841896677E+02    0.4834013105E+02    0.3630794744E+02
234 1    0.3041036875E+02    0.4816015283E+02    0.3683307654E+02
235 2    0.3047561884E+02    0.4791555589E+02    0.3789690659E+02
236 2    0.3137842510E+02    0.4879496413E+02    0.3676232189E+02
237 1    0.3031879964E+02    0.4675586038E+02    0.3614825777E+02
238 2    0.2952988713E+02    0.4623472390E+02    0.3670527677E+02
239 2    0.3117935845E+02    0.3080251714E+02    0.3646390156E+02
240 1    0.3039541629E+02    0.4700348479E+02    0.3466113753E+02
241 2    0.3130315942E+02    0.3229885197E+02    0.3441912474E+02
242 2    0.2946479097E+02    0.3221403780E+02    0.3424587248E+02
243 1    0.3053903089E+02    0.4570565151E+02    0.3385274370E+02
244 2    0.2978145333E+02    0.4491289073E+02    0.3416745060E+02
245 2    0.3156501953E+02    0.4535489486E+02    0.3410054880E+02
246 1    0.3056724775E+02    0.4608704706E+02    0.3233964396E+02
247 2    0.3068029903E+02    0.4724873594E+02    0.3220871308E+02
248 2    0.2952859428E+02    0.4590034383E+02    0.3196304296E+02
249 1    0.2648292110E+02    0.3603519775E+02    0.3834520044E+02
250 2    0.2690602113E+02    0.3578387430E+02    0.3943095012E+02
251 2    0.2667983661E+02    0.3710126950E+02    0.3835738560E+02
252 2    0.2543087726E+02    0.3582366729E+02    0.3845592022E+02
253 1    0.3165712648E+02    0.4526201491E+02    0.3171561153E+02
254 2    0.3266012038E+02    0.4554440649E+02    0.3204311612E+02
255 2    0.3153967680E+02    0.4421651754E+02    0.3194036276E+02
256 2    0.3156440125E+02    0.4542274359E+02    0.4602426240E+02
257 1    0.3701854258E+02    0.3264176987E+02    0.4150985747E+02
258 2    0.3768763416E+02    0.3355028071E+02    0.4143002649E+02
259 2    0.3603536931E+02    0.3313138344E+02    0.4124859112E+02
260 1    0.3755314381E+02    0.3165106766E+02    0.4041523423E+02
261 2    0.3681532179E+02    0.3136942977E+02    0.3967510981E+02
262 2    0.3773872757E+02    0.3072691341E+02    0.4091020979E+02
263 1    0.3894709949E+02    0.3192998346E+02    0.3965684156E+02
264 2    0.3954433701E+02    0.3097354368E+02    0.3953484514E+02
265 2    0.3961220352E+02    0.3254668353E+02    0.4023502184E+02
266 1    0.3880954713E+02    0.3256514052E+02    0.3829567485E+02
267 2    0.3983004915E+02    0.3297496138E+02    0.3796698614E+02
268 2    0.3806563453E+02    0.3330128729E+02    0.3825475730E+02
269 1    0.3827984619E+02    0.3176089076E+02    0.3703302624E+02
270 2    0.3803331368E+02    0.3255587058E+02    0.3627238301E+02
271 2    0.3725714191E+02    0.3131830868E+02    0.3736837809E+02
272 1    0.3921431818E+02    0.3062904373E+02    0.3660084884E+02
273 2    0.3869767230E+02    0.2988565182E+02    0.3606261657E+02
274 2    0.3947025562E+02    0.3020848658E+02    0.3752642061E+02
275 1    0.4046868520E+02    0.3113787388E+02    0.3585153150E+02
276 2    0.4130648122E+02    0.3140820210E+02    0.3665940508E+02
277 2    0.4019452136E+02    0.3194388245E+02    0.3512118351E+02
278 1    0.4107857466E+02    0.2986715910E+02    0.3519773381E+02
279 2    0.4030456988E+02    0.2918452834E+02    0.3489639667E+02
280 2    0.4151506090E+02    0.2926968003E+02    0.3610150413E+02
281 1    0.3712447775E+02    0.3206220307E+02    0.4293839041E+02
282 2    0.3712087574E+02    0.3105912536E+02    0.4275784798E+02
283 2    0.3799228113E+02    0.3237154619E+02    0.4349161250E+02
284 2    0.3630746858E+02    0.3245661127E+02    0.4351504037E+02
285 1    0.4210454084E+02    0.3000207502E+02    0.3413181553E+02
286 2    0.4205267360E+02    0.2904100056E+02    0.3368167642E+02
287 2    0.4179914269E+02    0.3071481405E+02    0.3335090457E+02
288 2    0.4310011727E+02    0.3019296176E+02    0.3456019779E+02
289 1    0.2850971741E+02    0.3119234013E+02    0.4094836126E+02
290 2    0.2946081455E+02    0.3162380326E+02    0.4034999371E+02
291 2    0.2871646588E+02    0.3011238453E+02    0.4099309830E+02
292 1    0.2829473340E+02    0.3173343315E+02    0.4232039299E+02
293 2    0.2738376119E+02    0.3149242329E+02    0.4288051136E+02
294 2    0.2836330609E+02    0.3282292550E+02    0.4224981901E+02
295 1    0.2950513899E+02    0.3136517444E+02    0.4324573068E+02
296 2    0.2991393964E+02    0.3033196154E+02    0.4300747825E+02
297 2    0.2911572656E+02    0.3132400894E+02    0.2901200209E+02
298 1    0.3061616835E+02    0.3242872481E+02    0.2789611264E+02
299 2    0.3038778559E+02    0.3342940628E+02    0.4358228722E+02
300 2    0.3284583921E+02    0.2483310451E+02    0.2504405336E+02
301 1    0.3186774030E+02    0.3219652796E+02    0.2712823047E+02
302 2    0.3271085504E+02    0.3248324150E+02    0.2782458697E+02
303 2    0.3199253324E+02    0.3300796788E+02    0.4167863716E+02
304 1    0.3202404943E+02    0.3085449381E+02    0.2632059885E+02
305 2    0.3146218395E+02    0.3095537558E+02    0.2537941779E+02
306 2    0.3159818217E+02    0.3000360026E+02    0.2695389683E+02
307 1    0.3351443518E+02    0.3039657030E+02    0.2600502368E+02
308 2    0.3420418901E+02    0.3041023775E+02    0.2695859791E+02
309 2    0.3401005083E+02    0.3106316664E+02    0.2532670055E+02
310 1    0.3350788071E+02    0.2890269433E+02    0.2552387217E+02
311 2    0.3286850690E+02    0.2871697888E+02    0.2462298944E+02
312 2    0.3311714691E+02    0.2824146811E+02    0.2642925841E+02
313 1    0.2739016697E+02    0.3159751309E+02    0.3997024871E+02
314 2    0.2663628784E+02    0.3081163653E+02    0.4021116293E+02
315 2    0.2716369501E+02    0.3259858203E+02    0.4039915222E+02
316 2    0.2781943647E+02    0.3171523440E+02    0.3887821209E+02
317 1    0.3492048973E+02    0.2846442131E+02    0.2530210546E+02
318 2    0.3549203563E+02    0.2935117769E+02    0.2498651904E+02
319 2    0.3531356545E+02    0.2801882874E+02    0.2624926978E+02
320 2    0.3505061371E+02    0.2776878355E+02    0.2450214591E+02
321 1    0.3264711698E+02    0.3830650090E+02    0.2220298923E+02
322 2    0.3219752277E+02    0.3932722658E+02    0.2235177186E+02
323 2    0.3374035223E+02    0.3830188750E+02    0.2188829018E+02
324 1    0.3245985282E+02    0.3769222887E+02    0.3893926309E+02
325 2    0.3152490487E+02    0.3793250572E+02    0.3946228623E+02
326 2    0.3327254812E+02    0.3813466453E+02    0.3958738086E+02
327 1    0.3273904382E+02    0.3600494735E+02    0.3910420799E+02
328 2    0.3200783579E+02    0.3546763986E+02    0.3852849005E+02
329 2    0.3252622214E+02    0.3572448370E+02    0.4015159770E+02
330 1    0.3415301396E+02    0.3544089655E+02    0.3875800593E+02
331 2    0.3454715900E+02    0.3488033344E+02    0.3967497170E+02
332 2    0.3481325406E+02    0.3633076220E+02    0.3869945876E+02
333 1    0.3412730777E+02    0.3465172932E+02    0.3742260902E+02
334 2    0.3495306014E+02    0.3499735888E+02    0.3674501214E+02
335 2    0.3318647119E+02    0.3493226384E+02    0.3687672129E+02
336 1    0.3409942514E+02    0.3302472790E+02    0.3747330611E+02
337 2    0.3307100751E+02    0.3265021519E+02    0.3790975113E+02
338 2    0.3479896997E+02    0.3265691675E+02    0.3835038055E+02
339 1    0.3433256205E+02    0.3215559111E+02    0.3620418018E+02
340 2    0.3523239925E+02    0.3255701064E+02    0.3558908479E+02
341 2    0.3349970156E+02    0.3226215296E+02    0.3550296953E+02
342 1    0.3453064136E+02    0.3066537762E+02    0.3618887998E+02
343 2    0.3554677864E+02    0.3046178903E+02    0.3591959771E+02
344 2    0.3399056835E+02    0.3012846843E+02    0.3539052020E+02
345 1    0.3197888910E+02    0.3762466206E+02    0.2105858327E+02
346 2    0.3171760540E+02    0.3838106456E+02    0.2024915829E+02
347 2    0.3269920299E+02    0.3683654747E+02    0.2063343442E+02
348 2    0.3119745878E+02    0.3702482608E+02    0.2142907854E+02
349 1    0.3420693098E+02    0.2995490603E+02    0.3743894675E+02
350 2    0.3497435975E+02    0.3022563368E+02    0.3819908048E+02
351 2    0.3318358600E+02    0.3005742905E+02    0.3795447663E+02
352 2    0.3426029200E+02    0.2883852791E+02    0.3737904586E+02
0.0000000000E+00    0.0000000000E+00    0.0000000000E+00
0.1532620600E+02    0.0000000000E+00    0.0000000000E+00
0.0000000000E+00    0.1532620600E+02    0.0000000000E+00
0.0000000000E+00    0.0000000000E+00    0.1532620600E+02
}
Driver = VelocityVerlet {
  Steps = 50000
  TimeStep [fs] = 0.2
  MDRestartFrequency = 25
  Thermostat = None {}
  Xlbomd = {
    IntegrationSteps = 6
    MinSccIterations = 2
    MaxSccIterations = 200
    SccTolerance = 1e-6
    PreSteps = 0
  }
  Velocities [AA/Ps] = {
4.72159942 7.86722665 7.92725119
-0.79339243 -0.56784485 0.88923488
-10.64475284 -10.15296338 0.71282840
-0.09409804 -7.23251536 4.46402797
-25.05542209 18.50193614 5.44041351
2.72214516 11.92377828 -50.16696543
-3.11393743 3.74833100 5.14869029
-32.39839689 -11.74278745 -19.20670706
13.59372574 2.87523687 35.16132516
-0.19289995 6.91182990 4.12626060
-17.81210517 3.17329838 -2.83840229
4.50600056 -20.75278308 17.90451950
8.02670459 1.73319571 9.07465337
15.55032810 23.97601403 -13.83292810
-7.54785610 -36.77691230 50.34621761
-6.13242859 3.64463923 6.18579374
-6.98752068 -17.15128319 27.66881670
25.22460806 15.72275445 10.28358237
-1.74317981 5.37401683 2.86931763
40.44711150 -17.51857165 5.86078789
7.00555945 7.61641132 -19.08539242
-4.05339565 2.57398517 2.11755290
3.23357250 -29.35299558 -3.39429480
25.88958143 23.42231947 -24.70266491
-4.47671218 5.06528541 6.05141165
7.20372448 -7.33990197 -49.65916208
1.87420241 14.60682112 -10.82575511
8.57447310 19.14084637 -34.05897180
6.34717829 -6.35830096 3.58413412
-26.81442158 12.15817278 9.73667829
-7.96525979 -16.27780481 -10.27758278
17.63761928 -3.19098825 -23.45660558
6.00795465 11.00660538 -2.35243204
-15.48542801 3.58285718 31.72882425
-16.45537942 -16.86100085 18.00423413
-6.70679590 -3.75220996 -7.21846182
15.16031887 -27.87897039 -30.61436294
6.10152241 -23.53901308 25.94778633
-4.65588585 -12.36473000 -1.82546358
-41.52629484 -25.55744565 -0.31080591
-7.35384153 17.44682522 12.45629654
2.13872545 -7.58533439 10.00655156
19.33055382 17.52168000 3.75668377
-7.93042256 1.95580850 -0.94545732
-3.93399112 -4.34205800 4.73381444
-1.14805016 -14.67256752 -6.58169565
1.36176414 10.62813926 16.95430174
-0.81944615 -3.35659832 -2.47353570
0.38804139 -22.51352306 -27.26203411
-19.72162339 -36.79812265 -38.50275634
-5.09003338 -12.51319615 -1.38512016
50.92128783 0.61147301 30.84059502
29.06191188 4.67532558 -52.41920853
3.08039770 -2.34993346 -4.00204409
18.47563316 3.65161851 -17.59369139
-0.52963414 -33.54663222 8.68382043
-6.07936133 2.83053285 5.99744451
9.22747200 22.19242973 15.25967097
-14.54034192 12.59834952 -6.93512608
-28.27970340 16.89321943 -18.29816244
-0.02081134 -14.45973829 -1.84875322
-19.18805609 -19.01041863 -34.16106298
29.13392744 3.67207302 6.16467542
29.15033492 1.30222524 7.02522295
2.77798020 -0.32674302 -4.36375505
7.40109361 -65.27180958 -9.74118549
1.32437885 1.33721147 26.67291357
-7.67977217 5.24546321 -0.56922898
28.92912116 -14.73013021 28.11929490
2.67017799 -8.35955729 43.92352091
6.77878130 7.70670143 1.32802526
-10.41076241 -5.34852648 24.26947397
-30.26266270 6.53445384 -2.74868260
2.33657899 -16.66321440 3.65319235
2.49589229 51.16858020 7.66681320
34.07930255 -18.39325341 -6.79827398
3.17717085 -6.09445940 -1.34801676
33.75309908 -26.74090968 -3.28324559
8.97055070 -0.43877380 48.12661396
6.45104319 2.83542873 -3.47889838
-11.99847471 -35.28685793 10.28238109
16.44639491 -10.20239127 -8.35771541
4.27564162 11.22660504 4.29557694
3.32945568 6.96320819 -3.29387016
-24.46538821 14.93139833 -7.55877060
-11.28634733 -0.31434165 -6.61110262
30.60572728 -5.27612738 -10.35440589
1.72003563 2.04994604 -14.83966123
6.52492888 -17.39338165 0.68731615
-5.08203302 9.31182239 -33.44185780
37.78752060 8.40298911 5.59224401
-12.16448619 8.82488980 1.09637767
14.85071377 8.47343525 2.98479809
-3.14133402 6.25360241 4.88704776
-4.85035354 47.68752062 -47.34530252
29.44588419 36.07091313 -7.31126344
-14.02775452 3.11215191 -0.97748087
-41.21554716 2.07235331 9.71157997
-5.59015971 -7.63652499 -7.60179074
1.22047967 3.66284852 -4.61563903
19.97872146 19.00276021 12.50531428
-12.75030235 -10.32429261 -15.64423055
-0.58873886 -0.65521145 4.71408260
-1.43744617 24.70258264 5.56717371
-23.46425348 11.33390039 -1.11612490
-1.42612689 2.08168022 3.83459325
-16.80112416 4.78333173 -28.18344647
15.67816631 12.19464770 -18.91484843
12.12776003 16.89480166 -5.16091807
9.07564730 -26.28151503 -0.55603660
-22.25554795 -31.56308757 -30.24015214
-4.50384343 7.63864521 9.48862936
-1.25709427 -20.43792653 14.46510882
14.78141198 31.31290943 -25.72675584
-14.77774044 -6.02618124 1.11641430
-48.42705118 -25.91731882 29.56901324
-3.11410363 10.78816824 -35.68122951
5.28124329 5.02220076 -6.16320985
15.89602141 6.21068641 -16.73345506
-1.13279719 18.34417332 35.20162619
-2.29532335 -9.85500160 12.47864685
11.38748988 -10.69210884 -22.43484386
-23.81659553 3.99792030 12.45835575
20.87807013 31.60782785 -6.28583826
1.51813505 -3.08148071 -4.65589991
54.43083671 18.64119016 11.70128597
7.79734308 26.71209273 -36.29407296
-34.15764185 21.97459468 19.20989988
-1.78825728 1.83507851 -5.16780085
18.24206366 -3.92769285 34.11937256
-25.15399909 19.41336490 21.80730087
7.81161454 -0.91048943 -2.11201671
-2.86501989 3.02618113 7.20920756
-15.26938739 6.59475368 22.66015647
2.62632100 2.32134748 2.18182846
-25.51368322 -22.66444725 15.23089356
2.35934724 -17.82185572 -1.89488605
7.46201945 -2.67414139 -6.76707515
31.11200977 -18.33993557 -15.92669482
9.20955100 -16.11010067 21.03243915
-7.32933936 -4.70136438 -0.46613856
-48.40088073 -3.23568957 10.31878243
-17.15964018 11.14494353 1.14762467
0.41185939 -1.21406307 1.74741400
20.54032172 12.97073312 -23.73205480
-29.08734609 -35.79954672 34.17369921
8.05750974 -1.97819875 3.77468162
-28.09176719 -37.58588386 -67.65584790
-3.49827617 60.11250406 10.98395804
-10.54076098 -6.99681616 -1.44064655
7.07661020 -5.85365961 -23.54666461
18.70398507 0.12521970 1.05478283
4.79430634 -0.40576294 -3.51010517
-14.65646152 5.89377330 1.33387113
-46.94877726 18.83932020 -14.11560695
11.07857795 -24.91283983 -29.34309455
3.98942559 3.08206890 4.59105819
-39.75732093 -1.65396382 24.00475165
-15.78347591 -13.01757676 -25.17939021
7.41330851 7.40586772 -30.52941400
2.09533207 -0.61054570 3.07321349
6.54772295 2.74771032 -7.27335372
-8.98747218 -23.88739955 -7.06718612
-4.15043253 6.23452837 -3.05655125
-25.78486130 4.00937376 19.63703725
-3.36340810 -18.24924274 10.95469248
-3.75649895 -6.06029631 9.28919276
-2.90070214 19.00338116 -15.77419971
-1.09051899 -25.87754386 8.82657682
-1.30138886 7.95150328 -12.81958042
9.06657416 -17.15452674 -0.48719541
-8.49948049 -19.68341815 3.71308546
0.40951073 7.71975592 0.11718391
-14.53561273 -7.38540558 -18.39474081
0.90127548 15.51635302 -13.10460873
-4.42761180 3.98525606 2.81939169