Geometry = GenFormat {
<<< "system.gen"
}

Driver = VelocityVerlet{
  Steps = 50000
  TimeStep [fs] = 0.2
  MDRestartFrequency = 5
  Thermostat = None {
    #InitialTemperature [Kelvin] = 300.0
  }
  Xlbomd{ 
    IntegrationSteps = 6 
    MinSccIterations = 2
    MaxSccIterations = 200
    SccTolerance = 1e-6 
  }
  Velocities [m/s] {
     -3.86861681E+02      2.22746294E+02     -4.68851103E+02
      2.34548446E+03      9.80015500E+02     -7.15214042E+02
     -1.40511246E+03     -2.90866215E+01      1.51897915E+03
     -8.79681885E+02     -5.04148625E+02      5.54526978E+02
     -1.47080672E+03      7.32067155E+02     -4.35730282E+02
     -4.57946016E+03     -3.79332238E+03      6.47895135E+02
     -3.35733933E+02      5.23415203E+02     -9.00637421E+01
     -1.02430306E+03      1.30690945E+03      5.80867329E+02
     -1.47237753E+03      5.69750345E+01     -1.22346423E+03
      3.71068112E+02      1.53966530E+02      9.35675062E+02
     -5.74867681E+02      1.87465864E+03      4.14059280E+02
      2.93535113E+03     -1.49237483E+03      1.10557909E+03
      1.67779309E+02     -2.50871265E+02      2.25052788E+02
      2.30788429E+03     -1.24499698E+03     -6.82572206E+02
      2.77480325E+02     -1.68119029E+03     -2.54702088E+02
     -4.75354163E+02     -2.19474002E+02     -9.34544732E+00
      1.46368305E+02      1.00162479E+03     -8.11003202E+02
     -3.10811735E+03      1.67790967E+03     -1.45906330E+01
     -1.72473431E+02     -6.75026883E+02     -1.65650174E+02
     -1.35752248E+03     -6.63223120E+02     -1.94104253E+03
     -2.23058848E+03     -1.45578029E+03     -8.56681545E+02
     -1.99754266E+02      5.82926254E+02     -4.98711745E+01
      2.08598485E+02     -2.07503555E+03      2.10324074E+03
     -3.04865460E+03      6.58974170E+00     -6.63177641E+02
     -3.76098784E+02      1.26959075E+02     -3.26790791E+02
     -2.78635005E+03      2.41241991E+03     -1.01056639E+03
     -8.89125873E+02      1.42783566E+03      5.90711203E+02
     -2.89118828E+02     -4.44281812E+02     -6.17762285E+01
     -1.21527068E+02     -1.93149045E+02      1.38683043E+02
      3.87066221E+03     -1.05653852E+03      3.23116294E+03
     -2.45011197E+03      1.84010365E+03      7.77507906E+01
      8.08565012E+02      2.98640024E+02     -1.03415925E+03
     -1.41517206E+01      6.64456197E+01     -1.96588614E+02
     -3.58166107E+03     -9.44992274E+02     -3.08130431E+03
      7.18114355E+02      1.44901482E+03      2.86555621E+03
     -4.86797041E+02      3.30376031E+02     -8.46177599E+01
     -4.07103348E+03      4.17483658E+02     -4.28336552E+02
     -2.85164786E+02      6.67759197E+02      1.95330044E+03
     -4.41455114E+02      3.05750841E+02      5.63738728E+02
     -2.92561628E+02     -1.22910853E+03      1.67253307E+03
     -1.93862456E+03     -1.77506438E+03     -2.00690407E+03
     -2.71415930E+02     -3.47280042E+02     -2.02357645E+02
      3.71255078E+03      1.11320149E+03     -1.29617379E+03
      1.35625128E+02     -2.19357245E+03     -4.53693885E+03
      5.69112504E+02     -1.49084227E+02      9.30074117E+02
     -4.30948045E+02     -2.27148282E+03      5.32393447E+02
     -1.66745862E+03      8.78262203E+01     -3.29624020E+03
     -1.86600158E+01     -1.07399496E+02      2.71319912E+02
      1.23420137E+03     -1.73908317E+03      6.09039181E+02
     -7.93011615E+01     -3.64710228E+02      1.49218959E+03
     -8.02723601E+02     -1.78399382E+02      1.14339356E+02
      2.37968050E+03      2.95558291E+01     -1.71042767E+03
     -1.30692391E+03      3.13662879E+03     -7.88224580E+01
      3.46685719E+02     -8.28169024E+02      5.15198039E+02
     -1.65706169E+03     -2.34291825E+03     -1.11945544E+03
     -1.22451011E+03      6.23996428E+02      1.56568688E+03
     -1.70363866E+02      5.10528981E+02     -3.57584152E+02
      1.81941236E+03      1.23130122E+03      2.76697020E+01
      2.70529854E+02      2.81960000E+02      1.13679053E+03
      2.84172225E+02      2.32581331E+02      1.24585029E+03
      1.25760269E+02     -3.51645137E+02     -6.67948182E+02
      9.57772913E+02      1.52680893E+02      2.18228296E+03
      9.36179580E+02     -2.86280749E+03     -4.16717035E+03
      1.97059607E+03     -3.52622222E+02     -2.25995074E+03
     -1.62826068E+02      2.91546891E+01     -4.14688545E+02
      2.74084717E+02     -2.65866013E+02      7.64071655E+02
      6.06748293E+02      1.31025010E+03      2.79357264E+03
      4.71568804E+02     -7.56194425E+02     -1.08733050E+03
     -2.14778765E+03     -1.00790644E+03     -3.10062304E+03
      1.49962148E+03     -4.98169842E+02     -3.65356828E+02
      8.73467662E+02     -6.08107165E+02      1.54961373E+02
      7.09158878E+02     -4.51843969E+03     -2.60911263E+03
      1.65998501E+03      1.23972129E+03     -2.79861092E+03
     -2.49142362E+02     -4.18549832E+02      3.99430012E+02
     -2.57655059E+03      3.28549087E+02     -8.67731893E+02
      3.89164967E+01     -1.60340792E+03     -6.38398085E+02
      7.47354836E+01      1.82440436E+02      4.08076174E+02
      9.81530443E+02     -2.01093233E+03      9.95301718E+02
      4.05489237E+03     -3.60793959E+03     -2.57000654E+03
      1.51640651E+02     -4.26909974E+02      5.51225378E+02
     -3.72860840E+03      2.37153543E+03      1.51380044E+03
     -2.85075310E+03      1.12166593E+03     -2.73824719E+02
      6.88244081E+02     -9.13575561E+01     -6.36077678E+02
     -8.76889323E+02     -1.19060228E+03     -6.57098582E+01
      1.42468317E+03      1.27675375E+02      3.03430739E+02
     -6.90861585E+02      3.51984423E+02      4.97983358E+02
     -2.86251135E+02      1.34429427E+02      2.10532606E+03
     -4.83070553E+02      8.55178150E+02      9.27544232E+02
      3.60381134E+02     -1.14451321E+02      4.71009252E+02
     -1.86482488E+03     -1.06186679E+03     -8.01219245E+02
      1.46737479E+01     -5.35686680E+02     -5.92686808E+02
      1.01408937E+03     -1.80969009E+03     -1.95936362E+03
      3.82071721E+02     -9.75685328E+01      6.16160316E+01
     -1.51661907E+03     -2.08128557E+02     -7.08429412E+02
     -2.09803358E+03     -2.90838936E+02      1.32579707E+02
     -2.32250291E+03     -2.96429457E+03      1.50585493E+03
     -5.17408461E+02     -6.41498455E+02     -6.63247280E+02
     -1.01881300E+03      1.99324877E+03     -2.67402241E+03
     -2.10583463E+03     -1.69456202E+01      2.80276376E+03
     -7.45876893E+02      3.86383876E+02      2.48023675E+02
     -1.24396288E+03     -1.63235269E+03      1.08226944E+03
     -1.81553127E+02     -3.73040360E+02      1.52985339E+03
      1.13194051E+02     -4.13949410E+02      1.11902190E+02
      1.78319336E+03      1.08806446E+02      3.24685056E+03
      6.51954724E+02     -4.20788835E+02     -7.40406695E+02
     -3.17198311E+02     -1.96184897E+02      1.91053149E+02
      2.10440042E+03      1.05216215E+03     -2.50018471E+01
     -2.34896516E+03     -3.13523050E+03     -3.72918328E+02
     -1.00874524E+03     -4.02549677E+02     -1.76963296E+02
     -3.18376107E+03      1.94330583E+03     -1.28042471E+03
     -9.73910840E+02     -6.12981419E+02     -4.85062778E+02
     -3.30651799E+02     -1.21548050E+03      6.39543439E+02
     -1.71930713E+03     -1.01332250E+03      1.80617681E+03
      5.32554269E+01      1.32676839E+03      6.96079191E+02
     -1.05020158E+03     -1.56644471E+02      7.91538220E+02
     -2.06172896E+02      1.26070665E+03      2.22790913E+03
     -4.92419604E+02      1.32070123E+03     -2.67601180E+03
      2.70501444E+02     -4.33297542E+02      4.68329938E+02
     -1.55310557E+02      4.95427522E+01     -7.12416191E+02
      2.93856565E+03      2.79073823E+03      9.50778774E+02
     -7.06787257E+02      3.05181992E+02      3.79776571E+01
     -6.20374342E+02     -2.81358287E+03      2.91766223E+03
     -4.00955384E+02     -3.97105603E+02      1.17236514E+03
     -2.79698953E+03      2.00807205E+03      1.22359856E+03
     -7.57521976E+01     -1.46207482E+02     -4.88650457E+02
      1.94475810E+03      1.97111769E+03      1.67045782E+02
     -1.08744683E+03     -6.80833332E+01     -7.66006952E+02
      1.51704844E+03     -6.66214107E+02     -1.14039303E+02
     -1.61892606E+02      3.81645001E+02     -6.77660291E+02
      2.77699236E+03      1.06232182E+03      1.82936163E+02
     -6.87327394E+02      7.62468428E+02      1.94708125E+03
     -5.00319339E+02     -8.27522298E+02      3.75935615E+02
      1.79091865E+03      2.69298999E+03      2.76097973E+03
      1.91941727E+02     -3.42221311E+03     -8.97359385E+02
      8.31201767E+02     -4.77981734E+01     -7.14800217E+02
      7.72288912E+02      1.46466394E+03      6.70311985E+02
     -2.16264958E+03     -4.04315818E+01     -1.52273474E+02
     -4.05694765E+02      1.17985228E+03      8.04156600E+02
     -4.64502489E+02     -1.76019485E+03     -3.62029763E+03
     -1.60371010E+03     -1.57881362E+03      3.22616931E+02
      4.90537396E+02     -2.85368878E+01      5.22440897E+01
      1.73915740E+03     -5.63964636E+02     -2.63272232E+02
     -3.25630950E+03      1.63038045E+03     -9.12228023E+01
     -1.62193127E+02     -1.18963006E+02      3.80343089E+02
      3.09958447E+03      1.62849042E+03     -1.16047736E+03
     -3.55657935E+02     -1.31428066E+03     -2.75924629E+03
     -3.85930088E+02      5.86402750E+02      5.70933749E+02
     -1.45352117E+03     -1.69752528E+03     -5.71500525E+02
      7.31353318E+02      1.83048949E+03      6.74536762E+02
      2.98087309E+02      2.95337496E+02      2.21534935E+02
      2.13199286E+03      1.03092536E+03     -1.03272460E+03
      1.67934820E+02     -2.25467795E+03      3.13651024E+02
      7.44007274E+02      8.32479135E+01     -7.53332130E+01
     -8.55967679E+02      1.13684119E+03      1.38799386E+03
      1.75808901E+03     -2.39137674E+03     -1.11455514E+03
     -2.87792994E+03      2.76431212E+02      1.07211338E+03
      7.51576162E+01     -5.38056389E+02      3.46510666E+02
      1.33640499E+02     -1.15504772E+03     -1.18836968E+03
     -8.42388245E+02     -8.80194927E+02     -2.30712336E+03
     -1.02414920E+03      6.57806313E+02      1.96968886E+03
      1.98042774E+02     -9.24328922E+01      4.44631541E+02
     -1.79288855E+03     -1.68415753E+03     -1.07353798E+03
      1.12763919E+03     -3.33221757E+02     -1.01954145E+03
      1.34177460E+01     -7.54343567E+02      5.00389730E+02
     -1.59121420E+03     -4.94595478E+02      6.02903830E+02
     -2.62132579E+03     -1.03845316E+03     -1.64349215E+03
      4.81680126E+02      8.82623967E+02      3.32762627E+02
     -1.38165874E+03     -1.75436268E+03     -1.39499894E+03
      1.16327428E+03      2.10592049E+02     -4.67627536E+02
     -3.82465607E+02      6.39947220E+02      1.39888271E+02
      1.30377943E+03     -1.42456375E+02      1.05589589E+03
      2.13024370E+03     -2.14106344E+03     -9.34354114E+02
      2.03269438E+02     -1.29351005E+02      7.29044199E+02
     -1.06833020E+03     -1.80922618E+03      8.20339789E+02
      3.25710938E+03     -1.50515782E+03      3.51313888E+01
      4.88070951E+01     -4.01445596E+02     -1.75583743E+02
      4.96833079E+02      6.02327406E+02      7.45811727E+02
     -9.37029653E+01     -5.43998273E+02     -8.20318012E+02
      2.53835339E+02     -5.76969977E+02     -1.19759781E+02
      8.58166482E+02     -1.72460003E+03     -8.23524989E+02
      8.19462236E+02     -4.72958378E+02     -2.54300573E+03
      1.65666223E+02     -1.16074092E+02      6.58756677E+02
      1.86987636E+03      1.27859856E+02      1.91465479E+03
      2.61719331E+01     -1.47638271E+03      1.08999867E+03
     -3.28624984E+02     -5.93303846E+02     -4.59169120E+02
      3.07797239E+02     -1.79396946E+03     -1.84424361E+02
      1.87293278E+03     -2.91130741E+03     -1.95717906E+03
      1.93036500E+03     -8.70264601E+02      6.95153054E+02
     -1.61858827E+02      9.86869128E+02     -4.11149420E+02
      1.55704136E+03     -2.34288492E+03      1.34344395E+03
     -1.72048698E+03     -7.01363983E+02      9.23906796E+02
      2.17158502E+02     -9.31306110E+02      1.26784738E+03
     -4.31137626E+02     -4.46618887E+02      3.38525632E+02
     -2.08481364E+03     -9.51847042E+02     -8.62323988E+02
      3.38781267E+02     -1.14162655E+03     -2.72660833E+02
      7.98097269E+03      1.89053576E+04     -7.36381936E+03
      2.32637077E+03      1.72640968E+03     -1.56459215E+03
     -3.45601240E+02     -2.64334322E+02     -1.75698735E+03
      1.94660067E+02     -4.01357004E+02     -1.63705581E+02
     -2.28425758E+02     -2.34553805E+03     -1.46201669E+03
     -4.95973872E+02     -2.45112796E+03     -1.70282164E+03
     -1.20200738E+02      3.85236100E+02     -1.12210197E+02
     -1.31987744E+03     -1.05178345E+03     -2.12788403E+03
     -1.85684575E+03      7.14745391E+02     -1.00026359E+03
      4.09979639E+02     -2.33674877E+02     -1.65418159E+02
     -4.79882593E+02      1.84190302E+03     -6.98664163E+02
      2.27298384E+03      7.05503644E+02      1.02619664E+03
     -7.15728332E+02     -7.71929321E+02      3.94971010E+02
     -2.10690569E+03     -7.14974563E+01      1.04007413E+03
     -2.38038731E+02     -2.50581898E+02     -1.20825800E+03
      3.45711658E+01     -7.11573910E+01     -3.62158765E+02
      1.51755478E+03      5.43875489E+02     -6.24049010E+02
     -5.82533724E+02      1.01381303E+02     -3.84626888E+02
     -9.33939972E+01      6.14822022E+01     -4.67131651E+02
      1.87349423E+02     -4.48029009E+02     -1.67631830E+03
      1.88800195E+02     -1.55565345E+03      2.50599547E+03
     -6.96690211E+02      1.35281173E+01     -3.71282418E+02
      2.45429105E+03      1.36997255E+03     -5.39858030E+02
     -3.42079524E+03     -1.94090297E+02      2.68486871E+02
      1.17110108E+03      2.63377947E+02     -3.69493785E+02
      6.25894271E+01      4.40462912E+02     -1.18172140E+02
      6.00307139E+02      1.08356892E+03      2.63504385E+02
      8.93711319E+02      7.00732107E+02     -1.35683979E+02
      5.21070702E+02     -8.57774362E+02      2.46267100E+03
     -5.38379861E+02     -2.48923335E+02     -2.76455900E+02
     -1.38530330E+03     -7.90097254E+02     -1.10461390E+03
     -4.69326460E+03     -1.68311081E+03     -9.40395675E+02
      6.76506341E+02     -1.47593389E+02      2.38619003E+02
     -7.59326342E+02      5.68892052E+02     -4.07990795E+02
     -2.35738901E+03      8.92420608E+02      1.39294879E+03
     -4.80337802E+02      2.42775170E+02     -2.53821664E+01
      1.79443909E+03     -3.28436736E+02     -2.18144384E+03
      7.14064914E+02      6.98419695E+02     -1.69314822E+03
      5.14973681E+01     -9.77566954E+00     -8.57129718E+02
      4.66648348E+02     -1.33855423E+03      3.21812539E+02
     -2.25467657E+03     -1.66959956E+03      3.39721219E+02
     -7.15742446E+02      1.84361902E+02      1.04285705E+03
      1.02203777E+03      1.22769118E+03     -2.17850833E+03
     -2.44686114E+03      1.02890748E+03      7.19130852E+01
      9.24355048E+01     -7.35365798E+02      3.09059265E+02
     -2.88845112E+02     -1.29274690E+03      6.96284473E+02
      9.63625845E+02      1.31879297E+03      2.80043778E+03
     -3.47607636E+02      4.12867373E+02     -3.36925363E+01
      4.89839101E+02      1.17538268E+03      6.26167978E+02
      1.64818280E+02     -2.99907749E+03     -1.95334944E+02
      5.37705319E+02     -3.91875517E+02     -2.91182299E+02
      8.92719165E+02     -1.68418648E+02      2.65924864E+03
      1.06013304E+03     -2.69090849E+03     -5.58324728E+02
     -9.12044464E+02     -1.14661168E+02      9.90045164E+02
      7.08966870E+02     -4.29335307E+03      2.70659192E+02
      1.37047859E+02      1.93947416E+03      1.02149826E+03
      1.37222914E+03      1.53317595E+03     -1.74485274E+01
     -1.39587593E+03      4.68114611E+01     -1.52947571E+02
     -5.29994851E+02     -3.00932291E+03      1.25345927E+03
     -3.31956350E+03      4.00495256E+03      2.35287882E+03
     -4.53357054E+02      1.83140829E+03      5.77231765E+02
     -2.34425087E+02     -4.45132267E+02      3.18964850E+02
     -2.06173176E+03      1.03255413E+03     -1.71670015E+02
      1.79638323E+03     -2.51587402E+03      1.43977467E+03
      6.95503342E+02      7.00159549E+02     -5.05634824E+02
      4.89145603E+03     -2.08110306E+02      1.91748049E+03
      1.00551272E+03     -2.57037798E+03      7.94114615E+02
      2.59724229E+02     -2.62587950E+02      4.30225343E+01
      1.47688184E+03     -1.70496200E+02      5.59684884E+02
      3.59090577E+02     -1.10419253E+02      4.05482890E+02
     -4.10555332E+02      3.25874786E+02     -1.12419276E+02
     -1.54127375E+03     -8.12511139E+02     -5.03477253E+02
     -3.17177994E+03      9.83749373E+02     -7.86448341E+01
      2.17020913E+02     -1.59005320E+02      7.28814955E+01
      5.20822669E+02     -1.30241367E+03      4.40229247E+02
      1.32712571E+03     -8.91735791E+02     -1.60286118E+03
     -1.93166527E+02     -1.78723030E+02      1.98938627E+02
      9.18182454E+02      6.93840608E+02     -3.62866007E+02
      7.50116758E+02     -1.87463218E+03      3.06461145E+03
      5.24650377E+02      5.26611766E+01      1.24641981E+02
      3.74327461E+03      1.89443507E+03     -4.17768818E+00
      8.09656440E+02     -1.57193303E+03      1.93134728E+03
     -1.67283656E+02     -5.15414912E+02      1.72964913E+02
     -1.35420713E+03     -2.40695589E+03      2.24358872E+03
      2.45363070E+03     -6.84034390E+02      2.85425404E+03
     -6.98217043E+02      4.06292279E+02     -6.52656575E+01
      2.16343755E+03     -2.78361142E+03     -6.78042532E+02
     -1.15687141E+03      2.05498156E+03     -1.21213887E+03
     -1.84531060E+03      7.78098243E+02     -5.44200755E+01
      6.38574278E+02      9.99349919E+01     -7.16023060E+02
      1.11383770E+02      2.91223271E+02      6.87156590E+02
      4.41120876E+01      4.38302503E+02     -1.83286408E+03
      5.67679840E+02     -1.48249366E+03      3.30446517E+03
      3.12547299E+02      5.38864505E+02      1.82168092E+02
      9.58438714E+02     -2.58408803E+03     -3.49523531E+02
      7.10700171E+02     -2.60155382E+02      1.89108346E+03
     -2.89293738E+02      4.80830247E+02     -4.67343266E+02
      2.57445615E+03     -2.60669002E+03     -3.86078890E+03
     -2.57743207E+02      8.46287653E+02      1.97164411E+03
      1.99512865E+02      4.04786313E+02      2.12663830E+02
     -2.74195747E+02     -1.54899030E+03      2.23284101E+03
     -3.25348032E+02     -1.21262154E+03     -2.89398540E+03
     -2.01677272E+02     -3.33394273E+02      2.29851753E+02
     -7.65117375E+02     -1.87537686E+03     -3.24547363E+02
     -3.35208057E+02     -1.84498890E+03      3.62076806E+02
     -4.32354930E+01      8.64743477E+00      8.69605851E+01
      4.40935147E+02     -4.00892151E+02      1.25602169E+03
     -2.21251745E+03     -7.87925622E+02     -8.27723713E+02
      5.46268823E+02     -2.24579702E+02     -1.93416847E+01
      1.78512299E+02     -1.19360192E+03      6.29237879E+02
      1.61795289E+03      2.02354647E+03      4.14510583E+02
      2.55593223E+02     -4.53605972E+02      2.86795138E+02
      9.58249051E+02     -4.60961772E+03     -9.91250365E+02
      1.06014066E+02      1.39377387E+02      2.80600681E+03
     -2.24965923E+02     -4.17466458E+02     -3.36393236E+01
      1.43827805E+03      8.03603673E+02     -1.06621153E+03
      1.50221885E+02     -1.07945544E+03      3.01159784E+03
      7.74477358E+02     -3.66646262E+02     -2.50271517E+02
     -8.89247830E+02     -2.10662906E+03     -7.82379547E+02
     -1.23376146E+03      1.89458912E+03      1.49080349E+03
     -8.28441535E+02     -4.79822084E+03      3.42940432E+03
      7.02276923E+02     -9.03309222E+02     -9.51248180E+02
     -1.98049294E+02     -3.30374540E+02     -1.45117686E+03
      1.43809246E+03      5.88773514E+02      1.44880318E+03
      6.81280704E+02      8.79812168E+02      9.17984611E+01
     -6.26289365E+01     -2.89121758E+02     -1.73412541E+02
      1.70553371E+03     -1.99804147E+03      4.31938334E+02
     -2.52110365E+02     -1.38218040E+03     -1.40626959E+03
     -5.88806027E+01     -5.22221199E+02      4.20556659E+00
      6.57727596E+02      5.36621640E+02      1.26032460E+03
     -3.44905909E+02      8.75199954E+02      1.03797530E+03
     -2.68589040E+02     -7.70784231E+02      3.46192952E+02
     -4.90725698E+02     -3.47998441E+02      1.36669646E+03
     -1.84824366E+03      7.66324094E+02     -1.30350515E+03
      2.76145850E+02      4.21876759E+02      5.17332276E+01
      8.82982440E+02     -3.10929467E+03     -1.38279056E+03
      3.38918199E+03      1.23456140E+03      1.12182878E+03
     -5.62199356E+02     -8.22423338E+02      2.53176330E+02
      5.05961619E+02     -1.04730357E+03     -1.78453118E+03
      8.46480246E+02      2.11171707E+03      9.64907361E+01
     -1.77841607E+02     -5.88783894E+02      5.73660197E+02
      1.27276150E+03      9.71081754E+02     -1.03057683E+03
      2.80025053E+03     -1.38150763E+03     -1.48153867E+02
      2.34694066E+02     -3.84947735E+02      7.18147673E+02
      1.62101778E+03      6.58044439E+02      1.47611097E+03
     -2.24312665E+03      2.48357552E+03     -7.80271069E+02
     -1.95495697E+02     -1.00829396E+03      1.01058266E+02
     -1.74556952E+03     -6.58887770E+01     -3.27052202E+03
     -6.31206577E+02      3.93940510E+02     -6.29439593E+02
     -3.48119678E+02      9.85477148E+01      8.72991186E+01
      2.43184757E+03     -7.38287103E+01     -1.92512043E+02
      1.71769501E+03     -2.16046959E+03     -1.09928221E+03
     -1.93141701E+03     -1.31200370E+03     -9.09104908E+02
      6.42244457E+02      2.78054774E+02      4.05535002E+02
     -1.84384291E+03     -8.98020885E+02      8.24479319E+02
     -4.43661133E+02     -1.45826594E+03     -5.77449393E+02
     -8.90318010E+02     -4.06809636E+02      1.48227602E+03
  }
}

Hamiltonian = DFTB {
  SCC = Yes
  SCCTolerance = 1e-6
  MaxSCCIterations = 200
  ForceEvaluation = Dynamics
  MaxAngularMomentum = {
    C = "p"
    H = "s"
  }
  Charge = 0.0
  SpinPolarisation = {}
  Eigensolver = Standard {}
  Filling = Fermi {
    Temperature [Kelvin] = 300.0
  }
  SlaterKosterFiles = Type2FileNames {
    Prefix = "../../pbc-0-3/"
    Separator = "-"
    Suffix = ".skf"
    LowerCaseTypeName = No
  }
  KPointsAndWeights = {
    0.0000000000000 0.0000000000000 0.0000000000000 1.00000000000000
  }
  Dispersion = LennardJones { 
    Parameters = UFFParameters {}
  }
}

ParserOptions = {
  ParserVersion = 3
}
