Geometry = GenFormat {
<<< "system.gen"
}

Driver = VelocityVerlet{
  Steps = 100000
  TimeStep [fs] = 0.2
  MDRestartFrequency = 5
  Thermostat = None {
    #InitialTemperature [Kelvin] = 300.0
  }
  Xlbomd{ 
    IntegrationSteps = 6 
    MinSccIterations = 2
    MaxSccIterations = 200
    SccTolerance = 1e-6 
  }
  Velocities [m/s] {
      1.65974347E+02     -2.81487277E+02     -5.40463018E+01
      7.49687021E+02     -9.52323810E+02     -2.53213426E+03
      4.45708907E+03      1.10009108E+03     -5.54036183E+02
     -4.40678372E+02      3.74288218E+02     -2.19370029E+02
      1.10616699E+03     -1.18747258E+03     -2.97123436E+02
      1.85470388E+03      1.13551291E+03     -1.52080369E+03
     -4.81579739E+02      2.34797052E+02      1.70004438E+02
      2.99661027E+02      1.87692526E+03      2.19654010E+03
     -1.05797987E+03     -1.44829938E+03     -2.07914613E+03
     -3.33155036E+02     -1.17861948E+00     -1.40021489E+03
     -4.11301921E+02      3.70954554E+02     -2.73857236E+03
      1.81744183E+03     -9.46497567E+01     -3.92954522E+03
      1.62990449E+02     -3.15479548E+00     -3.12370865E+02
     -2.34190943E+02      1.28083272E+03     -1.08938103E+03
     -6.40172878E+02     -3.12472990E+03      9.31216053E+01
      1.09130706E+03     -4.64822144E+02     -1.75502548E+02
      2.16218488E+03     -6.41831890E+02      1.12940949E+03
      3.34387968E+02     -1.07551516E+03     -1.16060099E+03
      5.27607009E+02      3.41730315E+02     -2.20077316E+01
      3.69034559E+03     -1.64873390E+03     -1.47976744E+03
     -2.29927062E+03     -1.37100601E+03     -1.36942818E+03
      3.91445374E+02     -1.07624403E+03     -1.85327888E+02
      5.92103806E+02     -1.25762597E+02     -1.97613715E+03
     -1.83228364E+02     -8.17470405E+02     -1.46526853E+03
     -1.55563000E+02      2.27558880E+02     -4.10785584E+02
      3.92223596E+02     -2.78814700E+02      3.37116287E+03
     -3.09448008E+01      1.45811128E+03     -3.30988199E+01
     -1.62756698E+03      9.83234537E+02      1.39136247E+03
     -3.91899658E+01      3.22149396E+02      1.04808746E+03
      1.36024471E+03     -2.24813919E+03      4.32984354E+03
      3.28722226E+03      2.29661174E+03      2.65714588E+03
      3.81972660E+03      8.91093856E+02     -1.03905100E+03
      1.54478753E+02      3.93750958E+02     -2.52603337E+02
      2.73919608E+02      1.23105549E+03      2.54774777E+03
      2.70625185E+03     -1.67847272E+03      2.64254788E+02
     -1.75939948E+02     -3.04011173E+02      2.66989559E+02
      2.70904044E+02     -2.67169114E+03      2.62153552E+03
      2.05708135E+03      2.04357389E+03     -1.01333329E+03
      2.66141130E+00     -8.77338562E+02      3.62308164E+02
      9.68399740E+02      3.42059907E+03      5.61487011E+01
      7.72630035E+01      1.51862069E+03      1.05219721E+03
      2.50980058E+02      4.67331989E+01      1.24850596E+02
      6.06780798E+02      9.26894276E+02      1.58291646E+03
      1.02955740E+03      7.39601060E+02     -9.08371263E+02
     -2.50734511E+02      7.19025851E+01     -9.59338328E+00
      3.54180593E+03      2.09544286E+02     -5.66662502E+02
     -3.76016235E+02     -2.33060716E+02     -3.55447565E+02
     -3.13190658E+02     -3.33852305E+00      2.65998204E+02
      2.70916132E+03     -5.28841307E+02     -3.14476157E+00
     -4.41907303E+01     -1.04721458E+03     -6.24084936E+02
      4.34833320E+02     -1.96012796E+02      6.41223791E+02
      8.78675576E+02     -9.77641548E+02      2.41277287E+02
      4.62984673E+02      6.64490138E+02      4.81885193E+02
     -3.67605616E+01      7.04511673E+01     -4.53388280E+01
     -1.19064264E+03     -4.02437287E+02     -8.99106674E+01
      1.59874645E+03      1.11326921E+03      2.08928812E+03
     -2.74622818E+02     -2.42066159E+01      8.96839858E+02
     -9.01642437E+02      1.82335510E+03     -3.84212279E+02
     -5.81910972E+02     -1.43656065E+03      2.08716167E+02
      4.69260609E+02      7.67736600E+02     -4.68615779E+03
      6.57361859E+00      4.63615138E+02     -7.62231043E+02
     -2.34961257E+03     -4.34880666E+02      4.51925766E+03
      2.99111657E+03      7.12977156E+02      2.61504619E+02
      1.66023159E+02      3.72688372E+02     -1.42456443E+03
     -4.80324281E+02     -6.19761586E+02     -1.17557744E+02
     -5.79175313E+02      2.20039989E+03     -3.42885543E+03
     -6.81561698E+01     -1.39055537E+03      5.85907334E+02
     -5.33069434E+02     -2.71756215E+01     -1.88655196E+02
     -1.15910627E+03     -5.75448218E+02      6.32377732E+02
      2.39269242E+03     -3.20417114E+02     -3.39209562E+02
      2.18596677E+02     -8.87573333E+02      1.15840140E+02
     -1.45638427E+03     -1.64734862E+03      9.80653478E+02
      3.47932971E+03      4.35190220E+02     -8.45840806E+02
     -2.74182688E+02     -2.89704311E+02     -3.66581460E+02
      1.96749119E+03     -4.28822511E+02     -7.26380283E+00
      1.28810819E+03     -1.13493706E+03     -2.77387188E+02
      7.16155260E+02     -2.56520806E+02      2.09688467E+02
     -1.20526142E+03     -1.15277702E+01      6.61362903E+02
      4.82037876E+02      8.29001610E+02      4.83037300E+02
      5.08124567E+02     -2.08486077E+02      1.22725996E+03
     -3.77393851E+02     -1.40580478E+02      1.58260226E+03
     -7.70717648E+02     -3.51674631E+03     -2.81655328E+03
      2.34581392E+02      1.26575277E+02     -3.29415637E+02
     -1.61580592E+02     -2.03196001E+03      1.52336693E+03
      1.20875597E+03     -4.92065166E+02      1.84263010E+03
     -2.48003065E+02      2.65413534E+02      5.05169758E+02
     -1.30494817E+03     -1.81188712E+03     -1.25822730E+03
      2.36699528E+02     -4.96287462E+02     -1.33851969E+03
      9.12616223E+02     -2.55821239E+02     -1.09162797E+01
      2.69795329E+02     -3.44792035E+02     -2.58374323E+03
      1.53469909E+02      2.22915766E+03     -1.31249880E+03
     -2.14206252E+02      1.98438418E+03      9.33472115E+02
      4.12632518E+02     -5.07084890E+02     -3.35149742E+02
      6.29204036E+02      8.56993613E+02     -1.13084291E+03
     -1.86092594E+02      1.56615195E+03     -1.10390261E+03
      1.37962869E+03     -2.48435004E+03      3.56127499E+03
      3.71191326E+02      3.27906060E+02      4.88672173E+02
      4.84660937E+02     -1.19486752E+03      3.53878302E+02
     -3.41446475E+02     -4.52006566E+02     -1.27737732E+03
     -4.07036212E+02     -2.25469206E+02     -5.53469654E+02
     -3.58260342E+02      1.11978171E+02      3.46093958E+02
      1.41737039E+03     -1.36601063E+03     -1.38902972E+03
      3.23567945E+02     -6.93802063E+02     -3.30852640E+02
     -6.72199979E+01     -2.34239226E+03     -3.84829054E+03
     -2.62550751E+03      1.36946533E+03     -6.65639510E+02
      3.72877857E+02     -2.09995769E+01      1.05582071E+01
      1.50580931E+03      1.86120189E+03      6.77734943E+02
      2.41773851E+02      1.75185895E+03      5.51735490E+02
      8.86314408E+02      4.61926520E+02     -3.27140266E+02
      5.42235337E+02      2.90838416E+02      2.21079045E+03
     -1.89149738E+03     -1.85853331E+03     -1.21775039E+03
     -5.76125107E+01      8.51890464E+02     -1.29232365E+02
      2.42193129E+01     -3.10908467E+03     -3.39783685E+02
     -8.49178525E+02     -2.58350400E+03     -3.18204788E+03
      1.65243780E+01      3.31480381E+01      4.49601440E+02
      1.26407288E+02     -2.35552439E+02      3.23513121E+01
      6.63462188E+02      1.30360612E+03     -2.05643133E+03
      3.99337833E+02      9.11408970E+01      1.17007731E+03
      2.66868598E+03      2.61249216E+02     -1.89897857E+03
     -4.04773622E+02     -3.07867651E+03      7.19788444E+02
     -7.94923040E+02      3.43780046E+02     -1.13543289E+01
     -1.12450402E+03     -3.02350904E+03      1.18677871E+03
     -5.30235412E+02     -5.37262680E+02     -8.72715552E+02
     -2.91449857E+03      2.61936399E+03      1.75570638E+03
      5.00559919E+02     -8.22520822E+01      1.01834468E+03
      1.87984737E+03      3.14533640E+02     -7.04953250E+01
      8.50730765E+02     -5.78275213E+02      1.38868860E+03
      2.92565731E+02     -1.76284966E+03      3.02047755E+02
      1.31609197E+02      6.19746130E+01      4.19251001E+02
     -3.38727282E+02     -1.91688413E+03     -1.12577250E+03
     -1.98266213E+03     -5.92856395E+02      9.61103750E+02
      4.51573639E+01      5.13547987E+02      1.64139367E+02
      7.80153474E+02     -5.49835145E+02      1.84891041E+03
      1.70997033E+03     -2.61313287E+03     -1.01795859E+03
      2.28662407E+02      3.23625127E+01     -2.83699555E+02
      1.04164028E+03     -6.88368624E+00      1.28714249E+03
     -2.82480253E+03     -8.55517693E+02      8.17304902E+02
      8.08945181E+02     -3.22223331E+02      2.17520972E+02
      1.86727709E+03     -1.44977660E+03     -8.77262773E+02
      3.78012462E+01     -1.45630395E+03     -3.09457236E+01
     -1.15329749E+02      8.13658879E+00      5.20228989E+02
      1.21745554E+03      3.42242122E+01     -1.81226706E+03
     -1.53093590E+03      1.12556063E+03     -8.41830676E+02
     -6.71448813E+02     -3.95078249E+02      6.38369523E+02
     -2.42135530E+00     -8.65093674E+02     -2.65938837E+02
      1.66699215E+02     -9.31826232E+02      3.22748726E+02
     -2.75757889E+02     -2.19154893E+02      9.72757126E+01
     -1.54268474E+03     -1.51802791E+03     -4.13676745E+02
     -1.00591322E+03      1.07725061E+03      2.45636301E+03
      1.92480253E+02      7.29286074E-01      1.37515518E+02
      2.40058757E+03     -2.55000521E+03      2.13239638E+03
      8.39266747E+02     -6.42127961E+02     -2.99231578E+03
     -1.87716194E+02     -1.10476329E+02     -4.28542120E+02
     -3.98519038E+02      5.41068400E+02     -3.98790143E+03
      6.60613382E+02      6.89568945E+02      1.98569605E+03
     -2.13659358E+02      1.40718771E+03     -1.57018161E+03
      5.47143990E+02      8.27673376E+02      9.46963823E+02
      7.08578650E+02     -1.18826261E+00      1.06077401E+03
     -2.23593991E+00      2.88923085E+03     -2.88782698E+03
      1.70300254E+03      5.89069471E+02     -2.03507537E+03
     -5.52470315E+02      2.40605561E+02     -2.65599736E+02
      2.45085810E+03     -4.91412881E+02      2.69754029E+03
     -1.41499015E+03      7.39540582E+02      9.38875896E+02
     -1.07328685E+03      2.36909199E+02     -1.02291949E+02
     -2.01609706E+03      4.00705461E+02      3.03022808E+03
     -2.53534750E+03      7.47406584E+02     -3.07462387E+03
      1.01686037E+02      2.15306932E+02     -1.05775206E+03
     -4.49569495E+02      9.31735507E+02     -2.05383331E+03
      9.81819298E+02      8.40026198E+01      4.62212770E+02
      4.48005111E+02     -7.32834181E+02     -1.84322305E+02
     -2.07393031E+03     -6.69044602E+01      1.86100937E+03
      3.39384300E+02      2.47672135E+02     -1.15194052E+03
     -3.09925792E+02      1.87372085E+02     -5.71408720E+01
     -1.18291538E+02      3.72118440E+02     -2.53434281E+02
      7.93167275E+02      1.71644311E+03      1.38102960E+03
      1.16799906E+02      1.50737279E+02     -4.48822635E+02
      4.46065546E+01      6.21025365E+02      4.33006409E+01
     -1.98634651E+02     -2.84707624E+01      1.06852216E+03
     -3.29919894E+00     -4.32655285E+02      7.28716561E+01
      4.10690417E+02     -1.01335631E+03      5.76152003E+02
      1.72622144E+02      4.06648860E+02     -1.01182323E+03
     -4.37633624E+02     -2.15197293E+02     -4.07436871E+02
     -1.02777186E+03     -8.65088556E+02     -2.38885709E+03
      4.10384845E+03     -1.16716920E+03     -6.39623897E+00
     -9.07383461E+02     -1.78065031E+02     -1.17952605E+02
     -7.46550635E+02      1.07610675E+03     -1.86941831E+03
      1.75521768E+03      2.39841159E+03      1.67435500E+03
     -1.38993011E+03     -1.80263388E+03      2.56642303E+02
      5.74368410E+02      3.12989003E+02      3.80213528E+02
     -2.35623807E+03     -7.12933896E+01     -1.29459870E+03
     -2.14185640E+01     -2.30752115E+03      1.18817706E+03
     -6.32170308E+02     -9.08807310E+01     -1.02298828E+03
     -9.27734183E+00     -4.97241182E+02      2.38600892E+02
      8.47203342E+02      1.43383450E+03      1.05975017E+03
     -2.50622876E+03     -3.22208492E+03      2.23145287E+03
     -3.67223344E+02     -2.79504010E+02     -5.54105317E+02
      1.53071070E+03      2.51207774E+02     -2.76953161E+02
      1.48130166E+02      9.39224619E+02      1.25451102E+03
     -8.47383776E+01     -5.46329567E+01      1.78548862E+02
     -3.10360174E+02      5.29835397E+02      2.98405217E+02
      1.88371411E+03      8.08996049E+02     -1.53362844E+02
     -2.84008958E+02     -6.91102502E+00      1.59713913E+02
      2.59289284E+03     -1.18993233E+03      8.46643651E+02
      2.01724906E+03      1.64928383E+03      2.72866486E+03
     -6.05388666E+02     -7.64392893E+01      7.53709094E+01
      5.02755054E+02      1.28294426E+03      2.50376204E+03
      2.05602899E+02      4.04445396E+02     -1.89520504E+03
      4.25454774E+02     -3.90287697E+02     -4.69427850E+02
     -6.34575320E+02     -6.47016387E+02     -1.50873960E+03
      2.89283765E+03     -5.89695408E+02      1.04917049E+03
      6.10035242E+02      1.52189405E+02      3.29191061E+02
     -3.27136839E+03     -4.37896451E+02     -3.92016231E+02
      8.44166674E+02     -4.08773000E+02      2.02088986E+03
      7.06705048E+01     -1.20512948E+02     -1.90989404E+02
     -1.85399803E+03      1.38311622E+03      2.41138178E+03
      1.09554589E+03      3.45525670E+02     -4.54520630E+02
      5.42363484E+02     -7.38322471E+01      2.63243908E+02
      9.28735402E+02     -9.46249532E+02     -2.01640748E+03
      5.58138946E+02     -1.22095219E+01     -1.80884430E+03
      2.08865882E+03     -2.16131899E+03     -1.25635163E+03
      1.26515445E+03     -1.80227635E+02     -3.44762709E+02
      1.09768176E+03     -4.16005209E+02     -7.42287538E+02
      5.65608713E+02      3.19132037E+03      3.77767095E+02
     -9.91618522E+02     -2.42818045E+02      1.13238279E+03
      9.98237984E+01      1.91317872E+01     -7.59380123E+01
     -3.87594174E+02      1.07603330E+03      9.58468941E+02
     -2.68031849E+02      1.62698419E+03     -8.94933246E+02
      3.84455107E+02     -1.06856262E+02      4.43375009E+02
      8.48431439E+02      6.73941444E+02     -1.55141004E+03
      4.21998172E+02     -1.21339486E+03     -1.26164051E+03
     -2.22394318E+02      4.90223716E+02      1.41486255E+03
     -1.14037390E+03      1.82565176E+03     -1.32407456E+03
      9.01913316E+02      1.22845794E+02      1.75046418E+03
     -8.24667319E+02      6.12685770E+02      8.87222859E+02
     -1.77444785E+03     -1.81905400E+03     -1.57451634E+03
     -1.91447191E+03     -1.68912691E+02     -1.78424499E+03
      3.87948994E+02     -1.79896476E+02     -2.77597107E+02
      1.98525071E+02     -1.86989076E+02     -1.51003230E+03
      2.07972686E+03      2.52637018E+02      2.34257610E+03
      4.42948171E+02     -1.97284490E+02     -2.11028839E+02
      1.74593707E+03      3.49483138E+03      1.48589827E+03
     -1.55881176E+03     -1.33364519E+03     -4.87795201E+01
     -1.09430384E+04      5.63019791E+03     -2.48982861E+03
     -2.34826605E+03      1.34131452E+03      1.07036417E+03
     -4.87680412E+02      5.54235551E+02      9.27963801E+02
      4.61306201E+02      2.83776985E+02      3.10327628E+01
      1.14853920E+03     -1.92631841E+03     -1.41234370E+03
      3.16094074E+03     -9.63763175E+02     -4.32950493E+02
      6.04825447E+02     -7.79886053E+02     -7.07475364E+02
     -8.47931527E+01      5.17111161E+02     -1.74304413E+03
     -1.05243254E+03      1.66371590E+03     -2.00862083E+03
      1.80473421E+03      8.23162470E+02      1.88119293E+03
     -1.04768278E+02     -2.70261618E+02     -2.83220329E+02
      1.01992092E+03      1.23799089E+02      2.44593014E+03
     -1.50891783E+02     -1.72962691E+03     -3.42533390E+03
      9.66456190E+02      1.23787057E+03      1.42840636E+03
     -1.42032672E+02     -3.77403886E+02      4.25641469E+02
      4.75016005E+02     -1.23912158E+03     -3.01641165E+03
     -1.71935256E+03     -1.53154592E+03      9.88645686E+01
      2.39686087E+02      1.00386783E+02     -4.13834877E+02
      9.51939342E+02      5.43600577E+02      5.57687457E+02
     -1.41837741E+03      1.08106513E+03      1.81326629E+03
      2.88479842E+02      6.86794921E+02     -8.07591144E+02
     -3.08239965E+02     -2.58815042E+03     -2.10635318E+03
      6.75134839E+02     -1.50786414E+03      9.46162998E+02
      3.10078297E+01     -5.84289896E+02     -3.74550058E+02
      8.47626981E+02      8.25080229E+02     -8.49275502E+02
      4.86458106E+02      6.39763178E+02      6.93722141E+02
      8.24315850E+02      3.30898755E+01     -2.46865222E+02
     -2.92067915E+02      1.44290957E+02      6.05876330E+02
      1.06212189E+02      7.77050466E+02     -1.76504662E+02
      3.32719251E+02      1.03302258E+02      5.43728015E+02
      1.39054599E+03      4.66865618E+02      1.07730322E+03
      1.68023343E+03      1.94444472E+03     -1.93132865E+03
     -1.10305494E+02      9.12696623E+02      2.89922954E+02
      1.89971577E+03     -1.22183976E+02      1.65419151E+03
     -1.61094934E+03     -8.76378610E+02      5.70023372E+02
      6.36393426E+02     -6.74607305E+02      2.46574394E+02
     -8.79549229E+02      1.29563998E+03     -2.52292167E+03
      1.54350175E+03      9.00905019E+00      6.17692649E+02
     -9.55004749E+02      1.59391514E+02      4.31877248E+02
      5.72691273E+01      1.95141764E+03     -4.45795240E+02
     -1.04496611E+03      1.48529075E+03      9.06961687E+01
      7.77022246E+02      6.79054035E+02      8.26904050E+02
     -1.27096323E+02      1.09414426E+03      1.00203726E+03
     -1.05961910E+03     -1.42675323E+03      6.29752792E+02
      6.22101571E+02      5.78346975E+01     -2.20471618E+03
      1.15664790E+03     -1.05071840E+03     -1.28056189E+03
     -5.76435617E+02      1.91978275E+02      3.97309849E+02
      5.09235627E+02      3.19117520E+03     -5.23139287E+02
     -1.89918050E+03      5.33593199E+02     -1.49023601E+03
      1.78831502E+02     -7.85587238E+02     -2.69274488E+02
      1.22368328E+03     -1.60857773E+03     -1.14806970E+03
      2.58310519E+03     -7.12717209E+02      2.95072244E+02
      4.26019776E+02      7.32001835E+02     -3.22173809E+02
      3.41570622E+03     -3.24130707E+03     -1.28446103E+03
      2.45321924E+03     -4.30758237E+02      5.21843079E+02
     -4.11436830E+02      7.12212880E+02      8.50877956E+02
      6.65364718E+02      8.59086926E+02     -2.07902753E+03
     -1.81858524E+03     -1.24856471E+03      3.38461569E+02
      2.54674169E+02      6.49134164E+02     -3.28941102E+01
     -1.11869007E+03      2.97053480E+03      1.86328047E+03
     -1.77567260E+03     -1.11587695E+03     -4.21937336E+02
      6.39419191E+01     -7.39113727E+01     -3.90451657E+01
     -8.05603345E+02      2.73721697E+03      1.45206548E+03
     -1.39996619E+02     -6.54459079E+02     -3.11390675E+02
     -2.59064090E+02     -5.42015274E+02     -4.85326531E+02
      4.65692065E+02     -2.46625186E+03     -1.14610120E+03
      1.62264880E+03     -1.76638599E+03     -3.26321345E+03
      6.19255432E+02     -6.56030528E+02      7.04189437E+02
     -2.42621176E+03      6.78756825E+02     -2.67365936E+03
     -9.61441032E+02      3.59943860E+02     -2.04738538E+03
      1.82394721E+02     -5.45304184E+02      7.80273948E+02
      8.91525717E+01      7.76107637E+01     -8.95253677E+02
      1.65242014E+03     -1.66548692E+03      1.20630964E+03
     -1.31236830E+03      3.15326103E+03      1.74642910E+03
     -1.22315579E+02     -9.20268156E+02      6.53490954E+02
     -1.43730990E+03     -1.40871878E+03     -1.47463615E+03
      1.14025546E+03     -8.40008290E+02     -4.32935738E+02
      6.62333682E+02     -1.39126393E+03     -7.86656440E+02
     -3.17321587E+02      1.03831818E+02      3.85943600E+01
      1.97801259E+02      1.17046788E+03     -2.27732714E+03
      1.26925618E+02      3.01645958E+03      1.66585955E+03
     -2.83875649E+02     -7.96057667E+01     -3.29538258E+02
      1.69688687E+02      7.36639014E+02      1.28865168E+03
      5.83918276E+02     -5.68878183E+02      1.37921771E+02
     -2.56898544E+02     -2.90762693E+02     -4.87159879E+02
      2.86613197E+03      8.15819815E+02      5.50146838E+02
      2.18032192E+03     -4.26696226E+02      4.85488003E+02
      2.50657597E+00     -1.12138006E+02     -2.47779261E+02
      3.43290981E+02     -6.13079015E+02      1.21466485E+03
      4.64769095E+03     -1.95177883E+03      2.31899898E+03
     -4.60806072E+02     -2.30201824E+02     -1.07731212E+03
     -2.23376572E+02      6.79971964E+02     -5.05424122E+02
      9.47411839E+02      4.97899318E+02      1.19751953E+03
     -3.80379965E+02      1.94686947E+02     -6.76588568E+02
     -1.99001269E+03     -8.11526997E+02      1.73922816E+02
      1.83825720E+03      1.92574824E+02      3.54303564E+03
     -2.77748619E+02     -4.60133690E+02     -5.90424266E+01
     -9.30891559E+02      8.33740686E+02      5.02631945E+02
     -6.58104190E+02     -8.34137928E+02     -1.74366966E+03
      6.90659206E+01      3.80406476E+02      2.92099169E+02
     -5.50768684E+02     -1.02306384E+03      9.63564060E+02
     -1.47556463E+02     -1.42130596E+03      7.50163091E+02
      3.07221612E+01     -2.19254173E+01      5.41911291E+02
      2.46710636E+02     -6.27596217E+02      3.73114668E+02
      6.44755229E+02      4.26593579E+01      9.46794700E+01
      2.06770540E+03      1.66426104E+01     -8.39500986E+02
     -1.12049620E+02     -4.83574722E+02     -3.84094181E+02
      3.31636541E+02      8.95412553E+02      7.15328800E+02
      2.28274247E+03      2.14640199E+03     -1.53156449E+03
      3.02548130E+02      6.42912404E+02      7.92359923E+01
  }
}

Hamiltonian = DFTB {
  SCC = Yes
  SCCTolerance = 1e-6
  MaxSCCIterations = 200
  ForceEvaluation = Dynamics
  MaxAngularMomentum = {
    C = "p"
    H = "s"
  }
  Charge = 0.0
  SpinPolarisation = {}
  Eigensolver = Standard {}
  Filling = Fermi {
    Temperature [Kelvin] = 300.0
  }
  SlaterKosterFiles = Type2FileNames {
    Prefix = "../../pbc-0-3/"
    Separator = "-"
    Suffix = ".skf"
    LowerCaseTypeName = No
  }
  KPointsAndWeights = {
    0.0000000000000 0.0000000000000 0.0000000000000 1.00000000000000
  }
  Dispersion = LennardJones { 
    Parameters = UFFParameters {}
  }
}

ParserOptions = {
  ParserVersion = 3
}
