Geometry = GenFormat {
<<< "system.gen"
}

Driver = VelocityVerlet{
  Steps = 50000
  TimeStep [fs] = 0.2
  MDRestartFrequency = 25
  Thermostat = None {
    #InitialTemperature [Kelvin] = 300.0
  }
  Xlbomd{ 
    IntegrationSteps = 6 
    MinSccIterations = 2
    MaxSccIterations = 200
    SccTolerance = 1e-6 
  }
  Velocities [m/s] {
      8.49982903E+02     -1.85062676E+02      5.49782272E+02
      7.47278696E+02     -4.80407323E+02      4.31245975E+02
     -1.05022364E+03      7.72536981E+02      1.53655373E+03
      4.90168324E+02      1.60291855E+02      1.63535891E+02
     -4.41905413E+01      1.68582902E+03      1.06228641E+03
      1.58433501E+03     -8.00359451E+02      1.15583406E+03
     -3.88339540E+02     -5.04725517E+02     -6.21741491E+02
      1.24677335E+03      4.65907451E+02     -1.01649368E+03
      2.05468508E+02     -1.12751738E+03     -8.69043601E+02
      9.09513718E+02     -2.36711208E+02     -1.05311010E+02
      6.47619771E+02      1.87547615E+03     -4.98734041E+02
      9.26496044E+02      4.18782918E+03      3.81334228E+02
      1.40482239E+02      4.75424586E+02      3.61414922E+02
     -4.62568028E+02     -2.34264707E+03      1.06533614E+03
     -4.54268451E+02      7.03749756E+02     -1.35099461E+03
      1.08151851E+02     -5.27774286E+02     -6.39678695E+02
     -1.22358790E+03      2.89052835E+02      1.52343670E+03
     -9.96084141E+02      1.41711227E+03     -6.55120922E+02
      3.46048878E+02      1.35950046E+02     -4.09127642E+02
     -1.40104519E+03      9.28844105E+02     -1.71035576E+03
      3.63242565E+02      8.58497969E+02      1.63715552E+03
      7.84402930E+01      5.85296479E+02     -1.95717183E+02
     -1.20529058E+03     -2.91462755E+03     -1.78342823E+03
      5.92355039E+02     -2.46134248E+02      2.41127155E+03
      2.19725052E+02      1.40206413E+03     -7.44161633E+02
     -9.38363435E+02      3.27707886E+02     -4.74122132E+02
      2.89201333E+03      1.57671898E+03     -1.70822481E+03
      3.15883396E+02     -2.10206338E+03      7.39613119E+02
     -7.21539690E+02      3.28892439E+01      1.48853156E+02
     -1.35407060E+03      7.49827007E+01      1.68579224E+03
      1.36134150E+03     -1.02364122E+03     -1.59592365E+03
      2.36511724E+02      4.05435277E+02      2.83162761E+02
     -6.02908761E+02      3.13581793E+00      3.51638204E+02
     -5.05603577E+02     -1.47336356E+02     -2.16891150E+03
      5.73273757E+02     -2.27828255E+03      9.20068338E+02
     -6.87234565E+02      4.83380308E+02      1.26035243E+03
     -1.77923673E+03     -1.19025879E+03     -5.43632734E+02
      2.49429947E+03     -1.45313124E+03      1.59522034E+03
     -3.18093921E+02     -1.08402137E+03     -2.65210110E+02
      4.43023263E+02      1.05310430E+03     -2.73327230E+02
     -9.45746136E+02      5.78802838E+02     -1.11144541E+02
      2.21271458E+02      5.77382566E+02      1.93221792E+02
     -3.78046425E+03     -5.16903087E+02     -2.26988903E+03
     -1.03224831E+03     -1.14636742E+03      4.03228199E+03
      3.40344823E+02      7.35100804E+02      3.52286878E+02
      3.36756960E+03     -2.69200204E+03     -1.10639092E+03
      5.48681544E+02     -1.79875763E+03     -1.28884878E+02
      2.35308257E+02     -1.55985387E+02     -4.29178427E+02
     -7.55099566E+01      1.22516942E+03      1.60238196E+03
     -1.46657320E+03     -6.50687993E+02     -7.67133057E+02
     -3.01501507E+02      5.00431157E+01      6.42377986E+02
     -2.25129630E+02      1.65044583E+03      2.62240349E+03
      1.88571334E+03      8.71534416E+02      2.63342688E+03
     -8.49696252E+02      3.48069769E+02      3.66621609E+02
      1.97429687E+02     -5.51799424E+02      2.12166996E+03
     -1.64898208E+03     -2.83482062E+03      4.49496744E+03
     -1.45347047E+01      4.78336530E+02     -2.69762783E+02
      5.47284630E+02      1.30132358E+03     -8.20904236E+02
      3.10279194E+03     -2.39827700E+03      6.28896533E+02
      1.07562022E+03     -2.93282236E+03      1.39001798E+03
      1.88389790E+02      1.60935426E+02      5.06142927E+01
     -7.84109153E+01     -3.00098482E+03      1.73870469E+03
      3.25409333E+03      1.34219551E+03     -1.76601291E+03
     -8.04016410E+01     -2.17000683E+03      6.18561355E+02
      9.41816978E+02     -3.02500779E+02      5.08488492E+02
     -2.35095772E+03      1.38341677E+03      8.92365271E+02
      1.78448375E+03     -1.72568330E+03      1.54747584E+03
      4.80422170E+02     -5.91104480E+02      1.27072892E+02
     -1.59944307E+02     -5.27819154E+02      1.00650755E+03
     -2.04078466E+02     -1.29295705E+03      8.71434938E+02
     -6.05010286E+02      2.08904020E+02      7.21743718E+02
     -4.08625817E+03      4.35492578E+02     -4.36078524E+02
     -2.15223717E+02      2.91913594E+03      2.25826208E+03
      4.72309811E+02      4.77261780E+02      6.74573363E+02
     -1.16730128E+03     -6.62621542E+02      1.16749812E+03
      4.81664960E+02      1.25494280E+03      1.63989775E+03
      2.78481146E+02     -2.41445036E+02      1.21651970E+02
      2.52706892E+03      1.62365137E+03      5.70310192E+02
     -3.22484375E+03      6.00769564E+02     -6.49592454E+02
      5.67300245E+00     -8.15700856E+01     -8.43067323E+02
     -2.08089993E+03      6.00892790E+01     -2.93331474E+03
     -1.53997995E+03      1.15107028E+03      1.81923337E+03
      3.60620123E+02     -3.55808007E+02     -2.19186181E+01
      2.64246916E+03     -9.15192312E+02      1.42831048E+03
      1.70199899E+03     -5.72687620E+02     -2.61728901E+03
     -2.95129714E+02     -1.62156274E+02     -6.96651063E+02
     -2.93386753E+03      1.37552005E+02     -9.81865533E+02
     -7.08165868E+02      5.01141081E+02      2.87473241E+02
      6.25185349E+02      2.07516667E+02     -2.02200270E+02
     -1.36728942E+03      7.20899522E+01      2.06180432E+03
      2.27651041E+03     -3.78223103E+02      1.00915044E+03
      9.33842984E+02      1.69248778E+03     -1.28992391E+03
      9.90098202E+02      1.05421407E+02     -9.28949614E+02
     -6.86775813E+02      1.09473824E+03      1.47559382E+03
     -3.17707684E+02     -1.07005072E+03      2.17593218E+03
     -5.34443308E+02     -1.99881797E+03      2.45547621E+02
      3.52681615E+02      3.52159896E+02      3.30610425E+02
     -2.29796550E+03      1.62446671E+03      7.65841145E+02
      4.69978452E+02     -1.05082107E+03      1.97724080E+02
     -2.46162382E+02     -8.80245813E+02      5.46776192E+01
     -1.51623990E+03     -4.70801038E+02     -4.97942417E+01
     -2.52579974E+02      2.01010611E+03     -1.91097752E+03
      3.22667943E+02     -5.14108295E+02      1.32386562E+02
      8.32421811E+02     -5.24915267E+02      5.53536099E+02
     -3.46342925E+02      1.29947618E+03     -1.70342351E+03
     -1.70222467E+02      4.26508677E+02      2.45906351E+02
     -2.05506267E+02     -5.78550002E+02      1.30048935E+03
      1.31629081E+02     -2.15627529E+03      1.77492569E+03
      3.87930162E+02      2.74880020E+02     -2.07210032E+02
     -1.32258205E+03     -4.35300493E+02      1.25573383E+03
     -1.07570575E+02      8.50387610E+02      3.45225416E+02
      6.44814757E+02     -5.09732431E+02     -3.03265475E+02
     -7.81729237E+02      2.24990070E+03      2.41336918E+03
     -2.03324520E+02     -1.79306810E+03     -2.54782057E+02
      1.52845412E+02     -3.92819767E+02      2.46677751E+01
     -1.71985358E+03     -3.59964325E+03      2.83528335E+02
     -8.65868925E+02     -1.61540093E+03     -3.03340576E+03
      5.82869474E+02     -3.70480065E+02     -3.01693300E+02
      1.93524556E+03     -1.36201109E+03     -7.14918988E+01
     -8.23591975E+01     -7.74089859E+02      4.77973007E+02
     -2.92229067E+02      3.55367391E+02      3.56262918E+02
      1.62626066E+02      2.28507494E+03      1.35326689E+03
      9.56742009E+02     -1.07952650E+00     -5.77704162E+02
     -7.36322301E+01     -1.40324169E+03     -3.45608017E+02
      1.00150156E+02     -1.01160730E+02      3.38661600E+01
     -2.77476395E+02      6.78451081E+02      1.33177159E+03
      1.57769773E+02      2.85017822E+03     -1.33808026E+03
      2.34995520E+03      1.24566441E+03     -1.35294641E+03
      4.50241969E+02      3.14998661E+02      4.79813717E+02
     -2.82400612E+02     -1.76437752E+03     -1.75187314E+03
      1.41228772E+03     -6.86976978E+02     -4.42282292E+02
     -1.64577556E+02     -1.37178464E+02      6.19147485E+02
     -6.48531300E+02      2.43582746E+03     -4.59061487E+02
     -8.86055219E+02      7.01489440E+00     -9.54356166E+02
      3.24469872E+02      9.10426369E+00     -1.29339189E+02
      1.34392243E+03      1.07990448E+03     -7.15503543E+02
     -2.84218822E+02     -8.64274206E+01      1.42252045E+03
      1.93103190E+02      1.95341631E+01      6.74249493E+02
     -3.41026529E+02     -2.94792342E+03      2.73792495E+03
      2.96513258E+03     -2.96109980E+02      1.45429309E+03
      3.81518035E+01      7.05578601E+01      1.75580149E+02
      4.92487570E+02     -4.29559813E+02     -1.59301131E+02
      1.73928809E+03     -9.92116431E+02      3.04908107E+02
      1.72998900E+02     -5.03610904E+02      5.00969714E+02
     -1.50369676E+03      1.20561154E+03      2.08961908E+03
      1.43781642E+03     -2.63443356E+02      9.10800848E+02
     -1.95172111E+04     -8.37121921E+03     -4.96902490E+03
      7.02160715E+02      1.97314909E+03     -1.88601226E+02
      7.34122856E+02     -7.78532868E+02      1.76250914E+03
      5.58316912E+02      3.85662731E+02      4.41481535E+02
      9.68453413E+02      4.79742719E+02      1.54918837E+03
     -4.39794632E+01      2.35834754E+03     -4.94517892E+02
      1.35641041E+02      7.61823078E+02      7.06960893E+02
      1.14640990E+03      1.00768323E+03     -1.88019334E+01
     -1.46060915E+02      2.92751615E+01     -2.67818291E+02
      1.33931856E+03      5.48621297E+02      9.63615879E+02
      5.06424723E+02     -2.97602420E+02      1.87129563E+02
     -1.07712626E+03     -7.08605458E+02      2.05043218E+03
      9.44553076E+01     -4.51800375E+02      1.66391529E+03
     -1.16412605E+03      6.66488151E+02     -1.21319464E+02
     -5.74265718E+00     -5.08465658E+01      2.95777407E+02
      2.08186568E+03     -8.37451694E+02     -1.06613193E+03
     -2.29562015E+02      3.18168676E+02      1.32556481E+03
      1.90610132E+02     -1.14557998E+01      7.24417786E+02
      4.48719411E+02      5.56342155E+02     -1.30116619E+03
      1.44519726E+03      2.39176884E+03     -1.09274725E+02
     -7.13636038E+02     -9.64028912E+01      3.35610412E+01
     -1.32398233E+03     -1.21381349E+03     -3.77013397E+02
      1.36297854E+03     -3.58226034E+02      7.89016511E+02
      2.57281487E+01      5.46857699E+02     -1.36929611E+02
     -2.44281718E+03      1.40884179E+03     -6.97742052E+02
     -1.05969225E+03     -1.14899722E+03      1.26799491E+03
      3.37083826E+02     -2.28182586E+02     -3.24177350E+02
     -8.78099829E+02     -1.36857977E+02     -3.47290927E+03
     -3.15869092E+02     -6.89435281E+02     -8.84463203E+02
      8.40262274E+02     -2.44045612E+02      3.43258248E+02
      1.33638823E+03      8.22895407E+02     -2.14965159E+03
      2.38326902E+02     -5.78305986E+02     -1.38268750E+03
     -2.49472928E+02     -1.38760464E+02     -4.78445059E+01
     -1.73467886E+03      5.01221986E+03      9.40564996E+02
      1.59234587E+03     -1.97826433E+02     -1.30926890E+03
     -2.29263732E+02      3.91679286E+02     -7.94834250E+01
     -4.10846465E+02     -3.00899241E+02      3.77942905E+02
     -8.69899258E+02      9.15384996E+02     -5.03297528E+02
      6.66130235E+02      1.02487936E+03      4.58356589E+02
     -1.08806380E+03      3.14723701E+03     -2.30800739E+02
     -2.07618018E+02      7.35862380E+02      1.72906019E+03
      3.69734958E+03      1.38890914E+03     -7.82657730E+02
      2.56020922E+02     -3.26647734E+02     -6.12335273E+02
      5.67859567E+00     -1.99797388E+03     -2.94362432E+02
      2.86614154E+03      5.37810115E+02     -2.60017195E+02
      2.35541569E+03      8.94825622E+02      1.94993811E+03
     -4.54874089E+01      2.13054500E+02      3.66570379E+02
      4.41036249E+02     -4.99284100E+02      9.37616116E+02
      8.37707639E+02     -1.60448704E+03      6.28841434E+02
      4.58875291E+02     -2.35807906E+02     -2.54137697E+02
     -2.06120375E+03      2.82585504E+03     -3.01150225E+03
     -1.84065371E+03      3.98328579E+02      3.69632753E+03
     -7.43842786E+02     -8.88017054E+02      3.55634384E+02
      6.36853078E+02     -2.08026779E+03     -1.42319937E+03
      1.58533988E+03     -9.23345645E+02     -1.98481308E+03
     -2.48561726E+02     -4.04536714E+02     -1.36326205E+02
      1.01363295E+03     -1.33162192E+03     -1.25550823E+02
      4.60786092E+02     -7.32536487E+02     -1.22889186E+02
      2.71109526E+02     -5.89739648E+02     -4.05149525E+02
     -1.93066613E+03     -1.79189568E+03     -1.93025704E+02
     -1.45737390E+03     -1.42128741E+02     -3.12356793E+03
     -1.64135394E+02      4.64089720E+02      5.74785563E+02
      3.47434597E+03     -2.10742504E+03     -3.56578799E+03
      1.64555485E+03      4.74041039E+02      2.35491542E+02
     -9.88379864E+01      1.82576080E+02      3.16726654E+02
      1.26875121E+03     -2.43555929E+02     -1.43951547E+03
      2.36553327E+03      2.33872816E+03     -3.03187304E+02
      3.21112128E+02     -2.83248588E+02     -8.70473162E+02
      1.04669650E+03      1.76779520E+03     -4.36578561E+02
     -2.32968328E+02      4.35875286E+02     -9.62242135E+02
      3.94581918E+01      2.09478221E+02      5.98834379E+02
     -8.98670228E+02      6.75083986E+02     -8.04530578E+02
      6.08905409E+02      2.98657904E+01     -7.30544558E+00
     -3.13015168E+01      2.33705441E+03      3.83866312E+03
      3.31757278E+02      4.38656234E+01      1.33648598E+02
     -2.15366725E+03     -2.44807305E+03     -3.41024441E+03
     -1.25445665E+03      1.60135644E+03      1.55059831E+03
      7.86510559E+02      4.08872007E+02     -4.99452588E+02
     -3.01128121E+02     -3.32441479E+02      8.70340971E+01
      6.52492613E+02      8.92705093E+02     -7.29453584E+02
     -4.64069291E+02     -3.03230361E+02     -1.08379918E+03
     -3.35768743E+02      7.46874824E+00      6.23015382E+01
      8.11113516E+02      4.05649230E+02     -1.68459778E+03
      1.43024031E+03     -8.00561044E+02      8.26986408E+02
      1.05706500E+03     -5.08800868E+02      1.34522167E+02
      4.26445779E+02      2.57400408E+03     -7.10883122E+02
     -2.75866536E+02      1.84098686E+02     -2.06241296E+03
      1.85550546E+02     -2.24444721E+02     -2.92968732E+02
     -1.26058770E+03     -1.37043319E+03     -6.88387693E+02
     -4.31607779E+02     -1.26029630E+03     -9.53343305E+02
      4.33481870E+02      3.55579978E+02      7.13423263E+02
     -7.64058946E+02      1.79538450E+03      1.21291106E+03
     -8.54644914E+02     -5.11184012E+02      7.58052480E+02
      4.61989947E+02      5.59019103E+02     -4.18718170E+02
      7.40976202E+02     -5.43095409E+02      1.51989853E+03
     -1.42275271E+03     -4.53271183E+03      1.01916139E+02
      6.83557766E+02      3.85056722E+02     -1.38054524E+02
      1.58050966E+03      1.00549360E+03      1.50820725E+03
      8.52233698E+02     -4.23044423E+02     -1.65252333E+03
     -4.54343159E+02      1.98420030E+02     -6.07071081E+02
     -8.08566084E+02      1.86974338E+03      1.92735889E+03
     -2.76929193E+03     -1.06040882E+03      3.33600429E+03
      1.12815877E+02     -4.69582791E+02     -7.60474469E+02
      2.11051232E+03      1.90163197E+03     -2.66639922E+03
      2.39629908E+03     -2.78625488E+03      9.93873381E+01
      1.20723217E+03     -6.59732663E+01      2.58987823E+03
     -2.92466365E+01      2.15460731E+01     -3.12179591E+02
      6.26952530E+02      1.43123759E+03      6.91713070E+01
      1.41202784E+03     -8.15186021E+02     -2.10916985E+03
      1.05191657E+03      2.94406548E+03     -1.13681576E+03
      3.62300613E+02      2.08188930E+02     -3.81517184E+02
      2.22344520E+03     -3.07756082E+02      2.22966007E+02
     -7.42719136E+02     -1.33299224E+02      3.41987569E+02
      3.04276336E+02      2.37655903E+02      3.64039707E+02
     -3.92577405E+02     -4.17738212E+02      8.55572474E+02
     -1.72242005E+03     -7.19405714E+02      1.10829509E+03
     -3.43822062E+02      4.17046880E+02     -3.45819102E+02
     -8.59791647E+02     -8.17117688E+02     -2.87458323E+03
     -5.58388471E+02      2.83170454E+02      5.32503811E+02
      5.18642105E+02      6.51040516E+01     -3.17814782E+02
     -9.26186759E+01     -8.39845409E+01      3.15102877E+03
     -6.91914371E+02      4.66142132E+02      8.74739746E+02
      4.66358920E+01     -2.97081546E+02      5.18183279E+01
      9.18567675E+02     -2.08340801E+03     -6.43011939E+02
      5.63590330E+02      5.36263923E+02     -2.73142326E+03
      2.38746005E+02     -7.83483602E+01      4.38691526E+02
     -1.05482483E+03     -3.09753227E+02     -4.16934496E+01
      6.79651006E+02      4.16419424E+02     -3.18616503E+03
     -5.16588617E+02      8.23293918E-01      9.08392843E+01
      1.42141087E+03      3.55854316E+02      3.07343064E+02
     -1.12628279E+03      2.62342418E+03      8.21665151E+02
      2.79628520E+02      1.15854919E+03      1.40061625E+02
      8.31577420E+02      2.52899605E+03      1.67630742E+03
      4.45380058E+03     -2.37811608E+03     -4.38912467E+02
      1.13213946E+02     -1.08733003E+02      3.59007501E+01
      6.94968677E+02     -6.76235972E+02      1.85623686E+03
      1.89413233E+03      6.46919478E+02     -7.45995103E+01
      1.70707565E+03     -5.85277718E+02     -1.08911400E+03
      3.39773028E+02      4.53554052E+02     -2.13802950E+01
      1.51768805E+03     -1.05206199E+03     -2.61089774E+03
     -2.95089054E+02      2.78393105E+03      3.06097659E+02
      1.44745478E+03     -1.57652101E+03     -3.93712375E+02
      4.07447563E+01      4.97859382E+02      1.98189416E+02
      8.61275290E+02      9.46509882E+02     -1.38102287E+03
     -3.84309460E+03      6.96549410E+02      7.41661842E+02
      5.34855082E+01     -4.22445051E+02     -5.96640431E+02
     -1.34225632E+03     -4.19509755E+02      1.05036159E+03
      6.84254179E+02      2.42620447E+02     -1.71790949E+03
      4.28367405E+02     -5.34205118E+02      2.19955636E+01
      2.61320551E+03      1.94896525E+03     -6.42643962E+02
      6.03902871E+02      1.25284800E+03     -3.36293499E+02
      5.16225147E+02      2.12553615E+02     -5.52042202E+02
      1.67632506E+03      4.20504239E+02      1.97236834E+03
     -1.48895657E+03      1.41645619E+03      7.93728402E+02
      2.93036627E+02     -1.53621138E+01     -3.60579581E+02
     -1.74881865E+03      3.97457586E+03     -7.49976835E+02
     -1.57299813E+02     -3.12672139E+03      6.05883295E+02
     -1.94024431E+02      3.52304663E+02      4.31014986E+01
      1.83147101E+03     -7.62392352E+02     -1.07901512E+03
      1.58533751E+03     -3.21036784E+02     -1.04874852E+03
     -2.58753235E+02      5.44686179E+02     -1.62529652E+02
     -1.09678200E+03     -3.36506040E+02      6.45601015E+02
      5.00478655E+02      3.94016814E+03      2.20948606E+03
      1.44036309E+01      7.49006986E+02      4.07591429E+02
      3.80309752E+01     -2.69788999E+03      1.99860467E+03
      1.16009784E+03     -6.81151635E+01      1.21852187E+03
      4.34158476E+02      3.27722619E+02      3.11194062E+02
      3.05578189E+02     -9.70517274E+02      1.57056565E+03
     -1.94415942E+03     -9.13924993E+02     -2.73062029E+02
      4.80038226E+02     -4.95461248E+02     -3.16355437E+03
      7.41084643E+02      8.76912335E+02      5.65536414E+02
     -3.52482901E+03      7.33248756E+02     -1.44240057E+03
     -7.32648256E+01      1.23702839E+03     -4.93472312E+02
     -1.32824311E+03     -2.68692324E+02      2.17234509E+02
     -8.88496241E+01      3.13264741E+02     -9.88841285E+02
     -1.05877800E+03     -1.53903991E+03      8.30932640E+02
     -8.60453193E+02      2.22448477E+03     -2.40934888E+02
     -3.79364840E+02      4.63640074E+02      1.83626432E+02
     -1.00893508E+03      1.12368768E+03      2.04950308E+03
     -1.10869924E+03      4.49615648E+03     -6.71798432E+02
      4.51200869E+02      3.69167018E+02      3.13379836E+02
     -1.02710920E+03      6.64596259E+02     -1.63939099E+03
      2.17797791E+03     -2.54278508E+02      2.04598497E+02
     -2.31802887E+01      9.49585844E+01      4.23886768E+02
      2.47017417E+03     -1.39059658E+03     -1.98098005E+03
      1.92595389E+02      2.23268050E+02     -1.90048829E+02
      5.75586465E+02      4.35821940E+02      3.75480563E+02
      3.95308178E+03     -3.26991244E+03     -1.93609271E+02
     -2.81685129E+02      5.53008513E+02     -1.29767754E+03
      8.73808790E+01      1.47818017E+02     -2.45845977E+02
      5.83573890E+02     -5.60329255E+02      9.05377490E+02
      1.21495504E+02     -1.98831860E+03     -3.78822410E+01
      8.44668544E+02     -8.52652621E+02     -4.62677003E+02
      1.79659650E+03     -3.43878023E+02     -9.42263264E+02
      3.13393025E+03     -1.01515396E+02     -9.23885582E+01
      4.14889712E+02      4.65402352E+02     -1.94539640E+01
      9.14837969E+02     -1.76212536E+03      1.94576063E+03
     -2.19114241E+02     -2.89692485E+03     -3.07143240E+03
     -1.51860928E+02      6.59540673E+02     -3.63533203E+02
      1.88384743E+03     -4.84662565E+02     -3.74906071E+02
     -5.32691061E+02     -9.63679060E+02     -3.43555972E+02
     -5.30066715E+02     -2.31213473E+02      2.10998872E+02
      4.93992965E+02      4.82295870E+02      5.04140868E+02
      1.02739412E+03     -1.19835010E+03      1.82484855E+03
     -1.80663250E+02      1.26382649E+03     -2.49521166E+03
      2.42586300E+01     -1.02202353E+03     -4.06871745E+02
  }
}

Hamiltonian = DFTB {
  SCC = Yes
  SCCTolerance = 1e-6
  MaxSCCIterations = 200
  ForceEvaluation = Dynamics
  MaxAngularMomentum = {
    C = "p"
    H = "s"
  }
  Charge = 0.0
  SpinPolarisation = {}
  Eigensolver = Standard {}
  Filling = Fermi {
    Temperature [Kelvin] = 300.0
  }
  SlaterKosterFiles = Type2FileNames {
    Prefix = "../../pbc-0-3/"
    Separator = "-"
    Suffix = ".skf"
    LowerCaseTypeName = No
  }
  KPointsAndWeights = {
    0.0000000000000 0.0000000000000 0.0000000000000 1.00000000000000
  }
  Dispersion = LennardJones { 
    Parameters = UFFParameters {}
  }
}

ParserOptions = {
  ParserVersion = 3
}
