Geometry = GenFormat {
352 S
C  H
1   1         36.08213000         30.66476100         38.44072200
2   2         36.23292500         31.73516400         38.67989300
3   2         36.19970500         30.61059500         37.32830200
4   1         37.17715000         45.10564300         39.05015600
5   2         37.14680100         44.11676000         38.56673000
6   2         21.66702200         44.91428600         40.17693600
7   1         38.49786000         45.87993600         38.92810700
8   2         23.24325800         46.70333500         39.69085400
9   2         38.49453400         46.30492700         37.84056500
10   1         24.36828300         44.99299500         39.29701200
11   2         24.08622600         44.35088100         40.20259300
12   2         25.24772700         45.60467600         39.59838300
13   1         40.12775900         44.09493100         38.12385200
14   2         40.38569100         44.69208300         37.22952200
15   2         39.26244600         43.49163500         37.65985000
16   1         25.85086000         43.04044800         38.43948100
17   2         25.46797000         42.34767300         39.14490200
18   2         26.78374400         43.51065500         38.91590100
19   1         41.59703900         42.36388700         37.14462000
20   2         42.20667800         42.99386000         36.62561500
21   2         40.77961000         42.08903500         36.51756200
22   1         42.30801000         41.02273800         37.44019700
23   2         26.27341300         40.32185300         38.07996900
24   2         27.85762900         41.11843000         38.15802700
25   1         34.74227000         30.26920200         38.81094800
26   2         33.97940100         30.89994600         38.25652600
27   2         34.57664600         29.20590500         38.50580500
28   2         34.56327600         30.34568700         39.88786200
29   1         42.86392800         40.21397500         36.25805300
30   2         42.19149700         40.05092900         35.43715500
31   2         43.73741700         40.69449400         35.80481800
32   2         43.30244500         39.30194500         36.53950300
33   1         27.61183400         32.79611800         35.95537400
34   2         26.57762500         32.50005400         36.29409700
35   2         28.22014700         32.76841900         36.88704300
36   1         28.23017100         31.68964800         35.02040100
37   2         28.13435900         30.76973000         35.52314700
38   2         29.33169500         31.80652300         34.96112500
39   1         27.61508100         31.66147100         33.60479900
40   2         28.01895700         32.56013700         33.04868200
41   2         26.53061900         31.67678400         33.62593100
42   1         28.18742300         30.41020700         32.76042000
43   2         42.93428000         29.53485500         33.16510900
44   2         29.24884800         30.25538300         33.13846600
45   1         28.09159300         30.72038500         31.29053800
46   2         28.57649800         31.66222800         31.10067200
47   2         42.33703000         30.95692100         31.06478200
48   1         43.97599900         29.58868300         30.40280800
49   2         43.41329300         28.60460300         30.55909100
50   2         45.03736300         29.31374300         30.54788200
51   1         28.50752000         29.95600900         28.84477800
52   2         28.83618800         31.04440700         28.74219200
53   2         27.44156600         29.90295100         28.52946300
54   1         44.56614900         28.99850600         43.25956200
55   2         44.07981300         27.97116100         43.32274400
56   2         45.53393800         28.71975700         43.76065900
57   1         27.46451300         34.16172600         35.30957800
58   2         27.39422200         34.99262000         36.04739800
59   2         28.29454100         34.43649100         34.64643800
60   2         26.56993700         34.13115200         34.62446200
61   1         29.58267900         29.57739200         41.91988100
62   2         29.64028700         28.86646200         41.07086700
63   2         28.87256400         30.37507100         41.64553000
64   2         30.59104200         30.07024900         41.99992600
65   1         37.30234000         39.10815300         37.05803800
66   2         37.13112400         39.14227500         38.16906800
67   2         36.61859700         38.43257400         36.68863900
68   1         37.06206200         40.55340900         36.43863900
69   2         37.52254000         40.45438900         35.46587800
70   2         37.68273900         41.23044400         36.99999200
71   1         35.58283600         40.92459500         36.41998900
72   2         35.17687900         40.69823900         37.44575400
73   2         34.97235100         40.27490800         35.73692500
74   1         35.35613100         27.09914800         36.15401300
75   2         35.77475200         27.71029100         36.99304900
76   2         34.33124300         27.31219200         36.40888000
77   1         35.91616700         27.68615200         34.79336200
78   2         35.67986400         42.25592700         34.06191700
79   2         36.95098300         43.11376200         34.96540200
80   1         35.35930800         29.12709600         34.43483400
81   2         35.55682600         29.83610700         35.30439200
82   2         34.26319800         29.05939800         34.48222000
83   1         35.85224000         29.73556400         33.16196700
84   2         36.99065400         29.78432900         33.27996300
85   2         35.55438100         30.80289400         33.13132300
86   1         35.39502800         29.15431600         31.85274800
87   2         34.24728000         28.90122400         31.84262900
88   2         35.90810400         28.14382300         31.73746400
89   1         38.66860900         38.46496500         36.82576100
90   2         39.06063500         38.45286600         35.76307900
91   2         39.43189400         39.03783100         37.45967100
92   2         38.65535200         37.35467800         37.09247900
93   1         35.84847700         30.05202000         30.71279200
94   2         36.98194600         29.95322300         30.63279400
95   2         35.40579300         29.91071400         29.72300500
96   2         35.65425000         31.07462100         31.00928300
97   1         31.44358200         39.35624400         39.92929900
98   2         30.43282300         39.09166400         40.43098100
99   2         31.93300900         40.05021800         40.63032200
100   1         32.26017900         38.07538400         39.71614800
101   2         33.23845600         38.44781500         39.24998200
102   2         31.73903800         37.45114200         39.05327600
103   1         32.56825700         37.23998300         40.96651200
104   2         32.91575400         36.22559300         40.65431600
105   2         31.68494900         37.04362100         41.64793100
106   1         33.50196700         37.86657300         26.66122000
107   2         33.14843900         38.87300900         26.96172200
108   2         34.54354500         38.00643300         26.26761900
109   1         33.70478600         36.98667400         27.97576800
110   2         34.54475000         37.44583200         28.43522000
111   2         34.16161800         36.01110100         27.63200900
112   1         32.46099800         36.74208900         28.81178100
113   2         31.93926000         35.95419100         28.20260500
114   2         31.71884800         37.65818300         28.87255500
115   1         32.70758800         36.14551200         30.21384600
116   2         33.17181400         36.90460200         30.86131800
117   2         33.36832700         35.23240300         30.18083100
118   1         31.46951200         35.66373000         31.00685000
119   2         30.71290100         36.50668500         31.21762800
120   2         31.79305200         35.32881200         32.02982700
121   1         31.06651500         40.04046300         38.57036300
122   2         30.09186300         39.63215000         38.30262600
123   2         30.89374000         41.13162200         38.60116300
124   2         31.75196200         39.86042500         37.72456700
125   1         30.66869500         34.59028200         30.33938000
126   2         30.20953300         34.89152500         29.35496100
127   2         31.13312500         33.67559800         30.04065500
128   2         29.80029200         34.29105600         30.91264300
129   1         35.27975700         39.69620600         30.34279400
130   2         35.02418900         38.81672800         29.77446600
131   2         34.39482300         39.81456600         31.05517100
132   1         36.47960500         39.39729300         31.19814800
133   2         36.73055100         40.34985800         31.65280600
134   2         37.35377600         39.22246300         30.53956600
135   1         36.30523800         38.28458000         32.23518400
136   2         37.31449200         38.06444100         32.72311900
137   2         36.04919600         37.32312200         31.69176200
138   1         35.22138400         38.56386200         33.26817500
139   2         34.45104000         39.15727500         32.73723400
140   2         35.50465900         39.25374900         34.09366600
141   1         34.74343800         37.26515000         33.85208200
142   2         35.61352300         36.78238000         34.42224200
143   2         34.47394800         36.47430100         33.06736800
144   1         33.48521300         37.42994400         34.84220600
145   2         33.57464500         38.29059000         35.50469400
146   2         33.42944700         36.45912800         35.39104500
147   1         32.16806400         37.45954300         34.05950300
148   2         32.08535900         36.44612200         33.68101700
149   2         32.18782500         38.22834900         33.22422800
150   1         30.98461200         37.72306800         34.99323800
151   2         31.10843400         38.78974700         35.36602800
152   2         31.09205100         37.10849600         35.87589600
153   1         35.48344400         41.00126100         29.58195800
154   2         35.08421000         26.57867400         30.16758300
155   2         36.57951800         41.18901800         29.46432500
156   2         35.04282600         40.98666200         28.58377700
157   1         29.71580500         37.56471100         34.16611300
158   2         29.81246300         36.90935100         33.29810500
159   2         28.94340800         37.07042300         34.74494700
160   2         29.44513700         38.52802700         33.84877200
161   1         40.22093300         28.29129900         29.71647200
162   2         40.52182700         29.32954200         30.11719100
163   2         41.12405400         27.57993300         29.79646200
164   1         39.19075900         27.64480200         30.66693500
165   2         38.85205100         26.61280400         30.25004100
166   2         38.22526500         28.25086400         30.70140100
167   1         39.81090500         27.52129800         32.02451300
168   2         39.04934200         27.39221800         32.85314400
169   2         40.44411600         28.45059700         32.25536200
170   1         40.73118300         26.29150900         32.24687300
171   2         41.59203800         26.55130800         32.85484300
172   2         41.17396200         25.82340300         31.31601600
173   1         39.93771400         40.52796900         32.95849400
174   2         38.90641700         40.52205200         32.53232700
175   2         39.86624400         25.52344600         34.01701200
176   1         40.51998600         39.13947000         32.86181600
177   2         40.01172800         38.36727800         33.54696200
178   2         41.61541500         39.19841900         33.11211300
179   1         40.41650200         38.48982400         31.43079000
180   2         40.54715400         39.25312800         30.63770300
181   2         39.36001100         38.12332800         31.28873300
182   1         41.38450400         37.31131400         31.22019200
183   2         41.21317500         36.50955600         31.99265400
184   2         42.45668700         37.66835000         31.50647800
185   1         39.76694300         28.45734800         28.28515800
186   2         39.44567200         27.48917500         27.82662200
187   2         38.94583900         29.21569300         28.12322200
188   2         40.62397800         28.74570100         43.02195500
189   1         41.39624000         36.69129400         29.79172700
190   2         41.79374800         35.65255000         29.76777200
191   2         40.33874900         36.77411100         29.39062000
192   2         42.05062600         37.29926200         29.19649100
193   1         33.58676100         27.97593300         41.61191800
194   2         33.78484600         29.04119600         41.98520500
195   2         32.96506700         43.47659200         40.72765300
196   1         34.96388900         27.42021900         41.22230200
197   2         35.61570600         27.33010300         42.10394300
198   2         35.43940100         43.40129500         40.47475800
199   1         34.84628500         26.09124700         40.53553000
200   2         34.25847200         26.06994900         39.54294200
201   2         34.37684300         25.36491700         41.16311100
202   1         36.22482300         25.50294700         40.25629500
203   2         36.74621200         26.18831600         39.59766600
204   2         36.03829800         24.53605500         39.86019900
205   1         37.10821100         25.24054000         41.50637800
206   2         36.57373900         24.53285400         42.13616100
207   2         37.25187600         26.14040600         42.11798000
208   1         38.54643100         24.71361800         41.13406500
209   2         38.92362800         25.46685300         40.42976400
210   2         38.51309400         23.72302300         40.59225600
211   1         39.34994300         39.74561700         42.34949800
212   2         38.92612000         38.87671200         42.88439700
213   2         39.32971300         40.53711200         43.08032600
214   1         40.85001000         39.45002300         41.99859600
215   2         40.83609100         38.92578400         41.02749600
216   2         41.23213600         38.62687600         42.72220300
217   1         32.78886700         27.21007400         42.71346300
218   2         31.84103000         27.82535300         27.57306100
219   2         32.62995500         26.19162500         27.12467600
220   2         33.48264400         27.30743100         43.56337600
221   1         41.75069200         40.75330400         41.87582500
222   2         42.04529600         40.99161400         42.92765500
223   2         42.65840000         40.36708300         41.39592700
224   2         41.27843200         41.57957000         41.34715000
225   1         30.41765800         44.05091800         37.57549300
226   2         29.39224600         43.53175700         37.48526500
227   2         31.01352200         43.43682400         38.33869500
228   1         31.21535900         28.91357100         36.24846900
229   2         32.08215000         29.57401300         36.45664200
230   2         30.55408000         29.57928500         35.57752900
231   1         31.63220300         42.88951800         35.67694300
232   2         31.07564800         42.09350900         36.21498200
233   2         32.68529100         42.62685500         36.09243700
234   1         31.61357700         42.82217300         34.11390100
235   2         31.98716100         43.80197300         33.78405900
236   2         30.48154800         42.89886800         33.88832400
237   1         32.17839900         41.56617800         33.47393100
238   2         31.75309100         40.66800800         34.04012700
239   2         33.25888700         26.30712400         33.69070100
240   1         32.06929600         41.43862200         31.96967300
241   2         32.74466100         25.27373000         31.67192300
242   2         32.47648300         27.06382000         31.48943200
243   1         30.60460800         41.20341200         31.49754000
244   2         29.97362100         42.13053500         31.66638500
245   2         30.06742600         40.52773300         32.13884100
246   1         30.62578400         40.81161200         29.92325000
247   2         31.32768900         40.02133500         29.80895000
248   2         30.92197600         41.69104000         29.33369000
249   1         30.10251200         30.00734800         38.29431200
250   2         29.57468700         29.91030200         39.22041700
251   2         31.00586000         30.68314100         38.42460000
252   2         29.44260400         30.77543000         37.71397800
253   1         29.27529100         40.31694900         29.35041800
254   2         28.74713300         39.55653800         29.96943400
255   2         28.59402900         41.14248100         29.30810700
256   2         29.44544300         39.88760600         43.67245900
257   1         41.73941500         34.54195600         41.55406500
258   2         40.84623900         34.74327000         42.23747300
259   2         41.71822700         33.50749900         41.21818600
260   1         41.49048300         35.51547700         40.48034100
261   2         42.24028400         35.54275700         39.61440900
262   2         41.49634000         36.51004800         40.92785700
263   1         40.12618600         35.32412300         39.90400200
264   2         39.91486400         36.18526800         39.18145700
265   2         39.28262900         35.34894200         40.62237100
266   1         39.92779000         34.10621400         39.00874500
267   2         39.69505500         33.25273500         39.58741900
268   2         40.90878100         33.82516200         38.63649300
269   1         38.78768500         34.22387500         38.00953500
270   2         37.90824700         34.89922300         38.21659700
271   2         38.32389000         33.20400300         37.77638000
272   1         39.26878800         34.67898700         36.59746400
273   2         40.02764400         33.92830200         36.28638900
274   2         39.85387300         35.61888100         36.56286200
275   1         38.13525200         34.84237700         35.51299200
276   2         38.69102000         35.37083400         34.68484300
277   2         37.35491800         35.54868700         35.78353200
278   1         37.48549500         33.51124900         35.09645500
279   2         36.84939800         33.80705000         34.20666500
280   2         36.67364700         33.14431800         35.81268200
281   1         43.09846200         34.72317300         42.29381000
282   2         42.87895600         34.84535200         43.33487400
283   2         43.68089600         33.81970700         42.28750800
284   2         43.81101700         35.57048900         42.05025900
285   1         38.43205600         32.38842100         34.69257700
286   2         37.98382000         31.62138900         34.03064200
287   2         39.48169200         32.73120100         34.44217600
288   2         38.66236100         31.77496100         35.59012200
289   1         30.88881000         32.88504400         41.32351300
290   2         30.19575100         32.12325000         41.70731100
291   2         30.82645300         33.78581700         41.96543200
292   1         32.32082500         32.48493100         41.41117700
293   2         32.95048900         33.34555500         40.91363800
294   2         32.65645800         31.53379300         40.92253400
295   1         32.83782600         32.50275500         42.83823400
296   2         32.18282700         31.79614900         43.49565400
297   2         32.66222500         33.55659900         27.76903800
298   1         34.26374600         32.06003600         27.62894600
299   2         34.43477100         31.00939700         42.60747300
300   2         34.52349200         31.87777200         28.71539700
301   1         35.29641900         32.92088900         26.94642600
302   2         34.90945300         33.93736600         26.95260000
303   2         35.29206300         32.68169200         41.21067000
304   1         36.71169000         32.92250500         27.49500400
305   2         37.37384500         33.39851700         26.72148800
306   2         36.96553400         31.85932700         27.69915200
307   1         36.94951400         33.81938300         28.70472000
308   2         37.76000900         33.47803500         29.37527200
309   2         36.09645400         33.79695900         29.42847500
310   1         37.28649500         35.27523200         28.29742800
311   2         36.50860200         35.59540400         27.60146200
312   2         38.25937400         35.21262000         27.81085400
313   1         30.39178500         33.22829800         39.95944800
314   2         31.08198900         33.88654300         39.44960600
315   2         30.43929200         32.34454000         39.36338500
316   2         29.40138800         33.73668200         39.98209800
317   1         37.52277500         36.20619700         29.44663000
318   2         38.31660100         35.88444400         30.08894300
319   2         37.79701300         37.25542500         29.19416500
320   2         36.66405300         36.21640300         30.06198600
321   1         35.76706300         36.49787500         23.54982900
322   2         36.40676900         36.54520400         22.64099600
323   2         35.10792400         37.33878300         23.41624000
324   1         34.82628200         35.23908800         38.79358700
325   2         33.96134900         35.27678000         39.49881300
326   2         35.49544400         34.32654400         39.00151500
327   1         34.24671200         34.95367300         37.39419700
328   2         35.11645900         35.13173600         36.62784700
329   2         33.38461800         35.55917600         37.16613300
330   1         33.72301300         33.52226800         37.23784800
331   2         33.39107000         33.13303000         38.22222200
332   2         34.60732300         32.83772900         36.98102600
333   1         32.69461700         33.15992600         36.14414800
334   2         31.77659000         33.84589100         36.13846600
335   2         32.22640500         32.19222900         36.31952200
336   1         33.28588600         33.08977800         34.78221600
337   2         34.19861700         32.56774600         34.74856500
338   2         33.50194800         34.13912800         34.42396900
339   1         32.33301600         32.41853000         33.78370200
340   2         31.34254900         32.91933800         33.75904800
341   2         32.12358000         31.34924500         34.17018400
342   1         32.96899900         32.24145600         32.40071100
343   2         33.85214100         31.55359100         32.50080700
344   2         33.23246600         33.23773000         31.87279500
345   1         36.51685900         36.47740700         24.85359100
346   2         37.26686400         35.67610400         24.92590900
347   2         37.05860300         37.44847800         24.96751000
348   2         35.76937000         36.25350300         25.66207600
349   1         32.13270300         31.37959700         31.40797800
350   2         32.10298300         30.33130500         31.82092200
351   2         30.99896200         31.57588500         31.31551400
352   2         32.60253200         31.43575500         30.43756800
0.00000000          0.00000000          0.00000000
15.32620600          0.00000000          0.00000000
0.00000000         15.32620600          0.00000000
0.00000000          0.00000000         15.32620600
}
Driver = VelocityVerlet {
  Steps = 100000
  TimeStep [fs] = 0.2
  MDRestartFrequency = 5
  Thermostat = None {}
  Xlbomd = {
    IntegrationSteps = 6
    MinSccIterations = 2
    MaxSccIterations = 200
    SccTolerance = 1e-6
    PreSteps = 0
  }
  Velocities [m/s] = {
-3.50842223E+02     -3.59210397E+01      2.40988514E+02
-1.05019365E+03      3.18118785E+02      2.32066824E+03
-2.12380263E+03     -2.88180919E+03      3.98665622E+03
-7.99317234E+02     -5.03254368E+02     -3.06639673E+02
-1.58534941E+03      2.42313908E+03     -4.40289240E+02
-3.59345849E+03      2.04977600E+03      7.78999711E+02
-1.70223156E+02     -1.07069338E+03     -2.05541071E+02
-1.92563328E+03      2.60468262E+03     -1.94874390E+03
1.87722436E+03      3.59642818E+03      1.20869787E+03
-4.43325093E+02      3.33801900E+02     -4.38924170E+02
-6.61767151E+02      2.37100447E+03     -1.54765712E+03
2.29714989E+02      4.60116319E+02      7.96590707E+02
3.17840875E+02      4.99523744E+02      4.84501086E+01
6.81957324E+02      1.90890460E+03      2.04280315E+01
1.66946667E+03      8.21811155E+02      9.98639103E+01
7.17742410E+02      1.12342031E+02      2.56472865E+02
5.03376527E+02      1.00054880E+03      3.06960407E+03
-1.19244150E+03      9.81944747E+02      6.08786131E+01
5.67979671E+02     -2.10744284E+02     -6.92681929E+02
6.63434312E+02     -2.59927695E+03      2.75066802E+03
6.62178949E+02      1.67207795E+03      1.13495407E+03
2.56033886E+02     -1.21282773E+02     -6.86810645E+02
-2.06493659E+02      3.73444149E+03      2.44667251E+03
2.36496850E+03     -3.17259068E+03      1.52724415E+03
-4.25591745E+02     -1.08531220E+01     -2.10004922E+02
7.80604886E+02     -1.72977994E+03      1.22885273E+03
-7.84220829E+01      6.26938149E+02      9.28475622E+02
-3.37221609E+02      4.29391080E+02     -1.36945530E+03
-2.74287157E+02     -1.98883456E+02      3.36128422E+02
-3.21170037E+03      1.21852185E+03     -5.62316909E+02
7.81534059E+02      6.59424755E+02      1.14957482E+03
-1.23465351E+03      9.58014346E+02     -1.38465912E+03
-4.23193648E+02      4.27729880E+02     -2.95522684E+02
-1.75289131E+03      6.15582489E+01      4.21826212E+02
-4.39456155E+02      6.32424491E+02     -1.73132264E+03
-5.62578581E+02      2.10362315E+02      5.81696315E+02
-3.48790483E+03     -3.71639303E+02     -9.33486016E-01
2.26989843E+03      1.33995770E+03     -9.74385767E+02
4.39525224E+02      4.37027411E+01     -1.61742048E+02
7.71766980E+02      1.51292537E+02     -1.09824154E+03
5.27987148E+02     -1.03486074E+03     -1.40226738E+03
6.48271785E+02      1.02102692E+03     -4.96338226E+02
2.23651770E+03      7.09891388E+02      1.84350238E+03
3.30013048E+01      4.11206395E+03      1.47518432E+03
-3.94135904E+01      5.53902799E+02      3.39022156E+02
-6.61343796E+02     -1.39758646E+03      5.51945338E+02
-1.21275850E+03      2.07951399E+03     -2.59113428E+02
-1.03198984E+02     -1.44431863E+02     -9.34622259E+02
7.90164663E+02      9.28437688E+02     -2.92965416E+02
-2.65020423E+03      2.34517563E+02      3.15511145E+03
-1.36150286E+02     -1.17640520E+01      6.87927460E+02
2.50111936E+02      1.23400982E+01     -7.85925677E+02
1.52284060E+03     -5.27454910E+03     -4.56828183E+02
-6.11590442E+02      5.21754257E+01      7.20082291E+00
1.10786960E+03      6.44940279E+02     -7.77615328E+02
-1.02928532E+03     -7.36281303E+02     -7.02959781E+02
2.10418275E+02      6.06917102E+02      2.55575032E+02
2.20240516E+02      1.07443471E+03     -7.44178224E+02
-3.49432258E+03     -1.33329753E+03      5.39486969E+02
9.71094542E+02     -9.36955098E+02     -4.39135049E+02
1.39184529E+03      1.31468327E+01     -1.09894401E+02
1.03492420E+03     -5.05143439E+02     -2.14524052E+03
3.30914121E+03     -1.07342600E+03     -2.61310840E+03
4.66007266E+02      2.81661300E+03      3.47237924E+03
-5.73324239E+02     -1.50496568E+02     -1.84120044E+02
4.81752368E+01     -1.62323028E+03      1.94079988E+03
1.33453076E+03      3.04177694E+03      4.33368250E+02
5.21507431E+02      5.72206864E+02      2.34256371E+01
-1.35268007E+02     -1.95064115E+03     -6.57926131E+02
-6.11890696E+02     -1.15525186E+03      8.21476641E+02
5.81141299E+01      9.54284415E+02      5.93623533E+02
7.81997620E+02     -2.46400283E+03      8.91998088E+02
1.46224239E+03     -7.68121754E+01     -1.81676529E+03
-7.29384019E+02      1.34172123E+01     -3.00961544E+02
-7.36227490E+02      2.33187090E+03     -2.15783955E+03
2.44909308E+02     -3.97075194E-01     -4.79819034E+03
1.08932681E+03     -6.26851560E+02     -5.18330170E+02
4.41640213E+02      3.18082181E+02     -4.02696042E+03
-1.19474376E+03     -3.15082525E+02      2.48841991E+03
-4.13412805E+02      1.61924824E+02      6.84519286E+02
1.10365812E+03      1.95412566E+03     -9.25871331E+02
-5.77567494E+02     -2.21600520E+03      1.47983813E+03
4.25496445E+02     -4.17687039E+02     -2.17706781E+02
-1.10511566E+02      1.57287275E+03     -2.53765800E+03
-4.84256804E+02      1.70251991E+03     -1.08059200E+03
3.24006499E+02     -2.08830901E+02     -2.49930555E+02
1.76464700E+03      8.08287757E+02      9.50221860E+01
1.00262226E+03      2.07143142E+03      1.02058890E+03
3.23232478E+02      3.35041939E+02     -2.31649159E+02
-1.96613770E+03     -1.80887595E+03      5.15727811E+02
-3.23011657E+03     -6.29746253E+02      9.69541757E+02
6.67458076E+02     -8.86662892E+02      1.42806483E+03
-1.95817708E+02     -3.85945405E+02      4.97014584E+02
9.05509023E+02      1.12746459E+03     -1.98897179E+02
3.04967856E+02      6.26731826E+02     -7.36559725E+02
2.05722904E+03     -2.88101309E+03      3.04852087E+03
-3.43911047E+02      1.76858273E+02     -7.13208885E+02
1.82650364E+02     -1.48407164E+02      1.01743714E+02
1.26198375E+03     -4.55465992E+02     -3.90981543E+03
3.16798972E+02     -2.08673382E+02     -4.15228406E+02
-8.65478856E+02      1.02943518E+03     -2.85891360E+02
2.50135069E+03      1.11024969E+03     -8.66856914E+02