Geometry = GenFormat {
<<< "system.gen"
}

Driver = VelocityVerlet{
  Steps = 50000
  TimeStep [fs] = 0.2
  MDRestartFrequency = 25
  Thermostat = None {
    #InitialTemperature [Kelvin] = 300.0
  }
  Xlbomd{ 
    IntegrationSteps = 6 
    MinSccIterations = 2
    MaxSccIterations = 200
    SccTolerance = 1e-6 
  }
  Velocities [m/s] {
      8.82818621E+02      4.45730406E+02      9.39807951E+01
     -8.07200295E+02      3.73771610E+02     -1.70656622E+03
     -2.10407569E+03     -1.45199219E+03      1.42550881E+03
      1.32766108E+02     -8.62466811E+02     -7.92866420E+01
      3.04694580E+03     -1.00218091E+03     -8.96729072E+01
     -8.27565414E+02     -1.97668253E+03     -1.84184211E+02
      5.26680721E+02     -1.12345695E+02     -6.69286510E+01
     -1.43541013E+03      1.46929973E+03      5.32229274E+02
     -4.79204009E+02      6.56179735E+02     -2.30206867E+03
      7.45921669E+02      4.39412233E+01      4.71152301E+02
      3.37634653E+02     -8.59095363E+02      1.65912210E+03
     -1.36357085E+03     -1.14959168E+03     -1.40063821E+02
      1.54419117E+02     -4.89494671E+02      1.39578584E+02
      1.80924133E+03      6.56571234E+02      6.22341229E+02
      1.10062137E+03     -1.15408286E+03     -4.95618528E+01
      4.29921975E+01     -9.49698351E+02     -7.40098945E+02
     -5.19142160E+02      1.65408064E+03     -2.25663216E+03
      1.63616073E+03      1.53160466E+03     -1.20563075E+03
     -3.57470799E+02     -9.22215920E+02     -8.11969007E+02
      5.90267839E+02      2.18413284E+03     -9.89308096E+02
     -1.27114767E+03      9.37558502E+02     -9.25844382E+02
     -3.11207603E+02     -3.26968354E+02     -4.91244385E+01
      6.29092261E+01      1.34446926E+03     -1.41846714E+03
      5.67835223E+02     -1.24574237E+03     -2.02339348E+03
     -7.28491003E+02      7.27585987E+02     -1.13846414E+01
      8.28552636E+01      1.93774142E+03      2.47925020E+03
     -1.15062194E+03     -5.82742109E+02     -1.54102003E+03
      1.32683894E+03      2.47777370E+02     -1.00137042E+02
     -4.24831064E+02     -3.09933176E+02     -1.90262690E+02
      2.79298509E+02      3.17070904E+01     -3.95161102E+02
     -2.90936926E+03     -1.14734656E+02     -2.81628124E+02
     -6.40713117E+02      2.47770246E+03      4.54368380E+01
      1.51810719E+02      2.28718159E+02     -8.44942869E+01
      1.38894966E+03      5.62765200E+01      2.34905157E+03
     -1.58910737E+03     -1.42663124E+03     -2.57856971E+02
     -8.30653954E+02     -5.60552356E+02     -3.48693833E+02
     -1.58246768E+03      2.48744097E+03     -1.31864770E+03
     -9.11247418E+02      3.22661930E+02     -3.55923675E+02
     -5.87861092E+02      1.94649230E+02      2.46535120E+02
      5.64184875E+02      1.34504181E+03     -1.29292768E+03
     -1.99760154E+03      7.93115442E+02      2.90502724E+03
     -9.79402188E+01      9.67036233E+02      1.33385032E+03
      2.41281688E+02      2.02435828E+02      2.13881717E+02
      1.24218692E+03      4.49027227E+01      1.10186148E+03
      9.75355099E+01     -9.87807865E+01     -3.15246064E+02
     -7.16849322E+02      2.82465222E+03     -1.17999186E+03
     -1.17436159E+03      2.97466983E+02     -2.31093970E+03
      1.26191488E+03     -2.23711732E+02      8.36683808E+00
      7.54123070E+01      9.14153948E+02      1.59208990E+02
     -5.27004909E+03     -1.15002951E+03     -1.02356301E+03
     -1.05917302E+02      1.51427677E+02     -5.83510341E+01
     -1.69461551E+03      3.77337115E+02     -6.24117841E+00
     -1.20246957E+03     -1.93121065E+03     -2.37844812E+03
      2.47903986E+02     -5.12345493E+02      2.84260506E+02
     -2.89242982E+02      2.57350290E+03     -3.11568828E+02
     -9.54983270E+02      4.45130627E+02      2.04735568E+02
      5.63136256E+02      7.19036763E+01     -5.28596294E+02
     -9.29067699E+02     -6.03773621E+01     -4.30716417E+02
      1.68272070E+02      8.30150902E+02     -7.87874135E+02
      1.08475188E+03     -1.16164593E+03      2.59063142E+03
      6.98077757E+01     -1.38326047E+03      1.44882965E+02
     -1.36303473E+03     -9.16920683E+02      2.93207894E+02
      2.04805757E+03      1.69502473E+03      5.59186482E+02
      1.22638611E+03     -2.29564473E+03     -2.62589877E+03
     -3.86554286E+02     -3.93222727E+02     -2.16196627E+02
      1.97560988E+03     -2.19926719E+03     -4.00078871E+02
      1.70323806E+03     -1.34530165E+03     -7.21460366E+02
      8.01687571E+02     -2.85739621E+02      5.58806842E+02
     -4.57335787E+02      1.69369976E+02      3.30293570E+02
      2.46350158E+03      2.30598913E+02     -3.09202357E+03
     -9.82993030E+01     -4.28638673E+02      4.58379880E+02
     -3.79799696E+02      1.00836739E+03     -1.21673032E+03
     -2.06546191E+03     -1.29907963E+03      5.99877501E+02
     -4.52133108E+02     -3.37969397E+02      2.27528314E+02
     -4.76688055E+02      1.69909025E+03     -2.61614739E+03
      2.31318082E+03     -3.57971525E+02     -6.76833323E+02
     -5.45315261E+02     -2.91689899E+02      5.79674228E+02
     -1.32549229E+03      3.21370732E+02      3.83319045E+03
     -1.00036817E+03      8.52418099E+02      1.01430261E+03
      6.17654602E+02     -8.05580168E+02      4.21072894E+01
     -2.29919980E+03      6.81515147E+02     -1.50507332E+02
     -3.21449931E+02      1.47368010E+02     -5.37818549E+02
      1.78774033E+02     -7.91041187E+02     -2.71193737E+02
     -3.10255292E+02     -8.88343071E+02     -1.30698664E+03
      1.49667157E+03      2.53647899E+03      5.50557978E+02
      3.24692643E+01      1.04530874E+02      4.11031758E+02
     -1.35442723E+03     -1.01365296E+03     -1.41365732E+03
      4.44685168E+02     -3.83599222E+03     -7.79306294E+02
     -4.08287099E+02     -3.64113551E+02      6.59481244E+02
     -1.55612790E+03      3.30399581E+03      3.19476009E+03
     -1.47285508E+03     -3.09607738E+02      1.05689386E+02
     -2.35172798E+03     -5.28130301E+02     -1.26886843E+03
      3.32129072E+02     -3.27801037E+02      1.65316825E+02
     -2.26343292E+02      1.75781748E+03      1.41377865E+03
     -1.20334949E+03      1.33847754E+02     -2.26893368E+03
     -1.55369211E+03      4.80712143E+02     -1.55050374E+02
     -5.55338472E+02      7.96778526E+02     -4.00430493E+00
      2.57914717E+03     -9.46421890E+02     -2.50471604E+03
      2.28072034E+02      3.66774950E+02     -1.51680891E+03
      9.91400371E+02     -2.42043799E+02     -3.89509537E+02
      6.54409850E+02     -3.08449142E+02      8.28131606E+02
     -2.97672913E+03     -2.62745566E+03     -1.12677749E+02
      4.24861499E+01      1.72727724E+02      4.10167521E+01
      1.00347016E+03     -2.19241651E+03     -4.15730322E+02
     -2.48679666E+03      1.21597712E+03      4.39852522E+02
     -2.71796271E+02     -1.70635746E+02     -1.04848265E+02
     -3.28239001E+02     -2.46308627E+03      2.19742852E+01
     -3.56814283E+02     -7.47675297E+02      1.44835315E+03
      5.81279840E+02     -2.31096307E+02      5.03606796E+02
      1.91274260E+02      1.12915635E+03     -1.79688465E+03
     -2.20306329E+02      1.08923527E+03     -1.67967397E+03
     -4.08489391E+02     -3.34167961E+02     -1.13620139E+02
      3.11023343E+03     -1.54406319E+03      9.19463583E+02
      2.84561847E+02      2.51102153E+01      3.47065217E+03
     -4.13491899E+02      3.10157106E+02      1.89251979E+02
     -1.39455204E+03     -2.30666376E+02     -3.97589082E+02
     -7.89475637E+02      1.43451463E+03     -5.46574847E+02
     -6.10945881E+01      2.06000663E+02      9.12590559E+01
     -6.88947854E+02     -2.22668857E+03      5.06524250E+02
     -1.05051089E+03     -8.66897471E+02      6.54427335E+02
      2.88190015E+00     -1.19165239E+02      3.52422350E+02
      7.45601126E+02      2.41413614E+02     -4.56697084E+02
      2.31845694E+03      5.62350063E+02      2.21988832E+03
      7.21711340E+02      1.67596845E+03      9.82325078E+02
     -2.79344108E+02     -8.49202329E+02     -3.90179701E+02
     -7.15724328E+01      3.57944968E+02     -1.28205478E+03
      1.02252898E+03     -7.16191049E+02      5.08996147E+02
     -2.65788628E+03     -4.13759882E+01      8.02506826E+02
     -1.16885602E+02     -2.15212662E+02      1.29860499E+02
      1.08971504E+03     -1.19285805E+02      9.79244239E+02
     -2.11317565E+03     -1.19050323E+03     -1.27924154E+03
     -3.81076139E+02     -2.25235266E+02     -1.23244627E+03
      1.72749405E+03     -8.16034041E+01     -2.02594244E+03
     -1.90910244E+02      2.18693372E+03      5.61741586E+02
     -1.47314123E+02     -4.34666473E+02     -1.62793708E+02
      1.12254678E+03      2.75802727E+02     -4.09252356E+02
     -7.30665702E+02     -1.28168722E+03      1.32092748E+03
     -5.58129849E+02     -4.70732186E+02      1.74069414E+01
     -2.40924860E+03      1.13623332E+02     -7.23923024E+02
     -1.37893081E+03      1.90187875E+03      1.66435265E+03
      1.06356350E+02     -1.24194808E+03      6.18287326E+02
      6.10058878E+02     -2.53479635E+03      5.25439328E+02
     -1.16166187E+02      5.72518054E+02     -2.86129435E+02
     -6.97959426E+02     -2.52420312E+02      9.12125234E+02
      3.63562308E+02     -1.80608246E+03      5.26905850E+02
     -1.72756855E+02     -2.05703348E+02     -6.33764332E+01
     -2.69818124E+02     -8.81722643E+02      4.02606153E+02
     -2.74315371E+02     -2.85077083E+02      1.15327665E+03
     -1.32322663E+03      9.47484287E+02      2.40646861E+02
     -9.32120886E+02      1.01102608E+03      2.11596949E+01
     -3.66920730E+02     -2.05654688E+03     -3.73402045E+02
     -2.57763074E+02      3.02897173E+02      2.18630401E+02
     -3.95210683E+02     -1.52830297E+02     -7.86649723E+02
      8.12381476E+02      1.20882580E+03      4.82254412E+02
     -2.02252818E+03      6.50386061E+02      1.21103145E+03
     -3.04100412E+01     -3.10987541E+03      8.63396937E+02
      3.45266271E+02      7.53009418E+02     -8.08906694E+02
     -2.08057482E+02      1.20764907E+03      1.81327416E+02
     -3.79057315E+03      1.82168920E+03      1.36458365E+02
     -2.30508954E+03     -3.89301048E+03     -6.85622609E+02
     -7.70744139E+02     -5.94319615E+02     -2.10206034E+02
     -2.95182844E+02     -1.01914876E+03      2.27275898E+03
     -1.44546545E+03     -2.05013203E+02      3.23174338E+03
     -3.09591516E+02      8.48495137E+02     -2.15295787E+02
     -1.77201622E+03     -2.54107509E+03     -4.71814414E+03
      2.46459036E+03     -1.25537631E+03     -3.19688768E+02
     -2.38767706E+02     -3.14247380E+02      6.83146044E+01
     -2.23126695E+03     -1.12907816E+02     -6.18228804E+02
     -1.47260566E+03      1.05870142E+03     -6.51314374E+02
      5.30201757E+02      6.29973799E+02      9.99014836E+02
     -1.26404693E+03     -2.16952421E+03      8.45438352E+02
      6.95785133E+02      1.76665761E+03     -1.02389917E+03
     -2.37605202E+02     -9.70224588E+02     -7.53326636E+02
      1.47641506E+03      9.59858765E+02     -1.64259471E+03
      2.05461890E+03     -2.06657035E+03      1.77994383E+03
     -2.60659755E+01      3.24751064E+02     -1.12459431E+02
      2.44526376E+02      3.91905999E+03     -1.48932426E+02
      9.54594192E+01     -9.79424754E+02     -1.80939197E+03
     -5.51893576E+02     -6.84845703E+02      3.99258222E+02
     -4.99944498E+02      4.18671269E+02     -4.11277188E+01
      3.68300527E+02      2.70433463E+02     -3.24848336E+03
     -1.47922921E+02     -1.17368309E+01      1.77911640E+02
      1.91227472E+03     -2.17987051E+02      2.51529203E+03
      2.48538743E+03      9.62625053E+02      5.50664295E+01
     -2.77318206E+02     -2.21834377E+02      2.68922032E+02
     -2.14474406E+03      1.92655243E+02      6.61246311E+02
      5.19733186E+01      1.33496564E+03     -9.33076379E+02
      1.78489482E+03     -1.58082800E+02      2.00515956E+03
     -4.79704325E+02      6.57006311E+01     -8.51443801E+01
      6.47583443E+02      3.47142156E+03     -4.21178973E+02
      1.39163807E+02      3.72707901E+02      5.40711132E+02
      1.70805472E+03     -7.69008006E+02     -2.49890879E+03
     -5.45917766E+02      3.58853381E+02     -4.88318226E+02
      1.81567604E+03     -6.38872464E+02      1.29076201E+03
      6.57595619E+02      1.63052858E+02      4.18503446E+02
      2.11548756E+02      3.05450531E+02     -3.80900175E+02
     -7.53441056E+02      3.12358762E+03      3.36450104E+03
     -2.74924273E+03      1.92352888E+03      1.82053548E+03
     -6.76013867E+02     -2.97506799E+02     -4.81705252E+02
     -1.80410730E+03     -1.25917805E+03      7.04757351E+02
      1.71628357E+03      8.15241900E+01     -2.35463273E+02
     -9.59217883E+02      1.90907152E+02      1.48974241E+02
      4.67134322E+02      2.09048358E+03     -1.26857671E+03
     -8.30529136E+02      8.47265243E+02      1.74952388E+03
     -1.92298387E+02     -7.18147486E+02     -2.76249000E+02
     -2.04777767E+03      8.21290004E+02     -2.67087251E+02
     -9.71376970E+02      8.01288717E+01     -2.39093470E+03
     -9.52183503E+00      2.07464273E+02     -1.91194642E+02
     -1.22459003E+03     -2.43897072E+03      1.53207133E+03
     -3.89223389E+02      2.85403102E+03      2.35007404E+03
      4.91954285E+01     -5.37219184E+02     -2.29177740E+02
      2.12658303E+03      2.17313904E+03     -7.37095605E+02
     -2.51704215E+03     -6.88982756E+02     -1.39427855E+03
      2.93935590E+02     -1.19507573E+02      4.49351134E+02
     -8.65635578E+02      1.01370151E+03      1.82915959E+03
     -1.41942281E+03      1.66056364E+03     -7.26020284E+02
      1.44195939E+02     -2.32035427E+02      1.00040256E+03
      8.89715766E+02      1.06933001E+03      6.53120166E+02
     -2.73069783E+03     -2.01028576E+02      1.08353524E+03
     -1.44338376E+03      4.57019098E+02     -4.41429813E+02
     -1.76846583E+02     -5.43548858E+02      3.83062513E+02
     -1.44666538E+03     -9.21537930E+02      2.92666503E+03
      1.54918074E+03      7.94862914E+02     -3.73092464E+02
      2.00329283E+03      8.32259352E+02      1.90375876E+03
     -3.20155629E+02     -2.78013546E+02      3.13564321E+02
     -1.14423464E+03     -3.06258518E+03     -4.47216430E+02
     -3.28122967E+03      1.17647745E+03     -2.09155715E+02
     -9.13586009E+02     -6.25901167E+02      3.16277399E+02
      3.76953633E+02     -1.01147294E+02     -6.32283494E+02
      5.38920071E+02     -9.55079102E+02     -2.73405304E+02
     -7.04434400E+01     -4.06636918E+01      6.23002926E+02
     -1.20163146E+03      8.20742783E+02      1.12941611E+03
     -1.60314877E+03      3.06999280E+03     -3.12990986E+03
     -1.24743854E+02      5.97823531E+02     -1.87925414E+02
     -1.62025262E+03      2.81907515E+03     -9.09967095E+02
     -1.22714516E+03     -1.61997426E+02     -1.16097238E+03
     -1.51016734E+02      3.57087220E+02     -6.39155358E+02
     -2.95242471E+03      1.49586218E+03      5.36576602E+02
     -6.55313264E+02      1.28292885E+03     -7.64635589E+02
      1.15842895E+02      2.09977938E+02     -8.34274239E+02
      2.70815520E+02     -5.73159343E+02     -3.09287128E+03
      2.50280582E+03     -1.08237505E+03     -2.80938737E+03
     -5.89336193E+02     -1.01531415E+03      5.36271474E+01
     -1.70120374E+03      4.56776730E+02      1.60861435E+03
      4.47696324E+02     -2.58114162E+03     -2.05600041E+03
      7.11680705E+02     -5.09285981E+02      3.93704211E+02
      1.19563917E+03      1.34696215E+03     -2.97137166E+03
     -3.93537085E+03     -3.55638212E+01     -1.30896065E+03
     -7.92387564E+01     -1.49639946E+02      6.90419995E+02
     -1.14894863E+03     -4.23580756E+03     -1.38347760E+03
      2.82467126E+02     -1.05312290E+03      1.69909242E+03
      2.62351936E+03      2.02260811E+03      2.74358544E+03
     -5.18064391E+02      3.28450561E+02     -4.40172741E+02
     -9.39752788E+02      1.53996697E+03      9.60324203E+02
      5.01753237E+02      8.93964755E+01     -4.57683093E+02
      2.19108913E+03     -2.74978635E+02      3.46319802E+03
      1.14435815E+02     -2.21025945E+02      6.34573660E+00
      4.88711682E+02      1.30524203E+02      1.16149956E+03
      1.18416100E+02      4.44208107E+03     -7.45352331E+02
      1.39604029E+02     -3.65418702E+02     -6.58639545E+02
     -6.26913001E+02     -1.17724484E+03     -1.39741674E+03
     -2.68521723E+03     -2.64246640E+03      4.13063937E+03
      2.03660495E+02      4.34680835E+02     -1.28403781E+02
      5.36778244E+02     -1.43646171E+03      3.12668750E+03
      2.04764769E+02     -7.50561265E+01      1.21380404E+03
     -1.99922184E+02      5.21389324E+02     -1.85842520E+01
      3.13544982E+03     -1.39105801E+03      8.00046538E+02
     -7.62354891E+01     -1.84077558E+03      3.90476301E+03
     -1.13723064E+03     -3.02892283E+02      1.07026491E+01
     -8.67602589E+02     -1.41169534E+03     -2.12284586E+02
     -1.83269922E+03     -3.73009841E+03      9.86851977E+02
     -6.24343348E+02      6.62488703E+02     -9.60470414E+01
     -1.76646913E+03     -1.27297854E+03     -4.47939008E+02
      3.49660353E+03     -1.69110691E+03     -1.16572312E+03
     -1.44621681E+02     -1.03070189E+02     -5.77193833E+02
     -2.10690134E+02      9.85861709E+02      5.03627947E+02
     -3.13312098E+03      1.03644394E+03      2.17489646E+03
     -3.34364923E+02     -2.00310731E+02      9.54284829E+02
     -1.66120504E+03     -2.58012634E+03     -2.60913149E+03
      1.02359057E+03     -1.79451224E+03      2.16632125E+03
     -1.30193611E+03      3.55438398E+02      2.57592445E+01
     -5.76674253E+02     -1.16422444E+03     -8.61773284E+02
      8.00380245E+02      7.79117988E+00      1.20144562E+03
     -1.45967737E+02     -3.37619031E+01     -1.10745987E+03
     -8.32120234E+01     -2.42087851E+01      4.00054870E+02
     -6.51289020E+02      4.29896360E+02     -1.65376938E+03
      1.56438714E+03      1.26060350E+02     -1.92611676E+03
      2.81760512E+02     -9.79221902E+02      6.97673174E+02
     -5.99677185E+02     -1.81761447E+02     -3.62748662E+02
     -4.10888348E+02     -1.89983672E+03     -5.52344141E+02
     -1.27384741E+02     -4.26107133E+03      9.83224972E+02
      3.80297878E+02      1.68786815E+02      2.43001976E+02
      7.46325450E+02     -1.07567455E+03     -1.67620233E+03
     -6.60497065E+02     -3.35830651E+03     -3.47501636E+02
     -2.43101731E+01     -9.51155304E+01     -9.60802366E+00
      1.20327988E+03     -1.23319963E+03      2.15684458E+02
     -5.77196235E+01      9.94895674E+02     -4.90556781E+02
      3.56722402E+02     -3.39500712E+01      6.38098941E+02
     -9.49938413E+01      3.10238315E+00     -4.49070391E+02
     -1.62792297E+02     -6.26697596E+02     -4.35136467E+02
     -4.55643598E+02      2.30225000E+01     -6.14374446E+02
      2.01878589E+02      2.97821550E+03     -9.99946199E+02
     -1.67421049E+02      2.64481881E+03     -1.50948235E+03
      5.11437210E+02     -1.33043248E+02     -3.17558604E+02
     -1.45467548E+03     -1.31290248E+03     -7.99543384E+02
     -1.57930820E+03     -2.74193272E+01      2.31160019E+03
      3.83248874E+02      3.52782782E+02      1.11142789E+02
     -8.43162387E+02     -2.26403211E+03      2.27485636E+03
     -1.90378402E+03     -7.61133501E+02      2.47259324E+03
     -9.45838716E+01      3.79199489E+02      6.13954314E+02
      4.94600777E+02      6.01270207E+01     -2.16212279E+03
      2.41513442E+03      5.79210373E+02     -1.91657309E+03
      3.19634861E+02     -4.37576996E+02      5.27267200E+02
      1.32664144E+03      8.89042214E+02      1.68393894E+03
      5.44643068E+02     -3.43021037E+02     -5.08423234E+02
     -6.53678142E+02      6.94046395E+02      2.74734224E+02
      1.80451654E+02     -1.84940818E+02      7.34451272E+01
     -1.65576714E+03      2.40587417E+02      1.15212952E+03
      2.17917429E+03      4.32068018E+02     -4.69434670E+02
     -7.13605236E+02      2.81752894E+03      2.05093533E+03
      3.11592337E+02      1.89725307E+02      1.75929091E+02
      2.18623314E+03     -1.14372822E+01     -2.24690811E+03
      4.89585418E+02      5.35103093E+02     -1.49340013E+03
     -3.78071970E+01     -5.20816379E+02      5.99990037E+02
     -1.29534265E+03     -3.59654479E+02      4.15407521E+03
      1.98475746E+03     -2.23745943E+03     -4.02576563E+02
     -9.50114238E+02     -5.59036227E+02      6.73499859E+01
      6.38914064E+02      7.54993542E+02      1.92643045E+03
      3.53940866E+03     -1.85298346E+03     -5.58470005E+01
     -8.64762012E+02      5.31768046E+00      3.14723465E+02
      2.41727171E+03      1.45849121E+03      2.62661425E+02
      9.70047372E+02     -3.43203441E+03     -1.84791193E+03
      6.33528142E+00     -4.38501464E+02      9.44886844E+02
      3.47249240E+02     -4.41430390E+02      8.61819385E+01
     -6.99877312E+02     -6.72455036E+02      2.70287959E+03
      7.80982180E+02     -3.48754011E+01      7.10148837E+02
     -2.21610285E+03      2.90529033E+03     -1.37403125E+03
      7.50315921E+02     -7.26427480E+02     -1.18788956E+03
      4.21707766E+02     -2.91819465E+02      1.02309542E+02
      1.93736120E+03     -1.18405602E+03     -1.14431500E+03
      5.62926283E+02      1.54414387E+03     -6.48226527E+02
      1.34552675E+04      1.60397339E+04     -5.66118802E+03
      2.52779854E+03     -8.81328331E+02     -1.44624481E+03
     -6.76757343E+02     -7.64369718E+02     -5.85173872E+02
      4.83452793E+02      1.43237403E+02     -1.06600243E+02
     -1.24919036E+03     -2.57251083E+03      7.40197887E+02
     -3.19794653E+03      2.66213345E+03     -1.65193772E+03
     -3.17848101E+03     -1.81979633E+03     -8.93324350E+02
      7.53707863E+02     -3.45144637E+02      1.94078747E+02
      1.24367372E+03     -2.32495047E+03      1.57349853E+02
     -4.91872236E+02     -1.03900838E+03      2.64600655E+03
      2.77628178E+03     -6.32671314E+02     -2.47565685E+01
  }
}

Hamiltonian = DFTB {
  SCC = Yes
  SCCTolerance = 1e-6
  MaxSCCIterations = 200
  ForceEvaluation = Dynamics
  MaxAngularMomentum = {
    C = "p"
    H = "s"
  }
  Charge = 0.0
  SpinPolarisation = {}
  Eigensolver = Standard {}
  Filling = Fermi {
    Temperature [Kelvin] = 300.0
  }
  SlaterKosterFiles = Type2FileNames {
    Prefix = "../../pbc-0-3/"
    Separator = "-"
    Suffix = ".skf"
    LowerCaseTypeName = No
  }
  KPointsAndWeights = {
    0.0000000000000 0.0000000000000 0.0000000000000 1.00000000000000
  }
  Dispersion = LennardJones { 
    Parameters = UFFParameters {}
  }
}

ParserOptions = {
  ParserVersion = 3
}
