Geometry = GenFormat {
<<< "system.gen"
}

Driver = VelocityVerlet{
  Steps = 50000
  TimeStep [fs] = 0.2
  MDRestartFrequency = 5
  Thermostat = None {
    #InitialTemperature [Kelvin] = 300.0
  }
  Xlbomd{ 
    IntegrationSteps = 6 
    MinSccIterations = 2
    MaxSccIterations = 200
    SccTolerance = 1e-6 
  }
  Velocities [m/s] {
     -6.03565272E+02     -3.79004175E+01      5.63582234E+02
      2.91732979E+03      3.47729675E+03     -2.27103483E+03
      6.51321821E+00      1.11723946E+03     -1.77046609E+03
      2.86095095E+02      2.39722732E+02     -5.56415785E+01
      3.00667593E+03      7.91091965E+02      1.46452157E+03
      3.82065175E+03      1.14716692E+03      2.52576529E+02
     -8.92785108E+02     -6.80220136E+02      8.77252642E+01
     -2.41748439E+03     -1.42624203E+02      3.09272461E+02
     -8.20374026E+02     -1.40682118E+03      1.31748074E+03
     -5.61795768E+02     -1.21388628E+02     -3.11793543E+02
     -8.54948002E+02      3.29527525E+03      1.50883289E+00
      2.98761957E+03      4.02538146E+02      2.90859898E+02
     -1.72882190E+02      5.36021951E+02      2.50906570E+02
      6.25923662E+02      1.82353494E+03      1.24143934E+03
      2.87759864E+03      8.28916712E+02      9.26886981E+02
     -3.29796192E+02      1.30596703E+02     -2.30840495E+02
     -1.52426639E+03      1.26056259E+03      1.72679759E+03
     -2.71660385E+01     -1.54825292E+03      7.61046082E+02
     -8.89816413E+01     -6.55508974E+02     -3.79381609E+02
     -4.01583825E+02      2.46150946E+03      1.14382940E+03
      9.08397184E+02      4.83199344E+02      1.96355579E+03
      1.71351256E+02     -7.14629182E+02      2.88243396E+01
      1.95709642E+03      8.19223514E+02     -3.87884490E+02
      1.09734956E+03      2.87550223E+02     -5.98849183E+02
      1.39813726E+03      2.17026073E+02     -1.16290997E+02
     -1.60824532E+03     -1.81375706E+02     -1.42390840E+03
      4.58084062E+02      1.11113883E+03     -1.73775236E+03
     -6.45319568E+01      2.92318078E+02      5.15626527E+02
     -1.90325432E+04     -1.04123977E+04      1.57643986E+03
     -8.80453702E+02     -1.70300917E+02     -2.11683534E+03
     -3.08502810E+03     -1.53871789E+02     -5.61151959E+01
     -1.43642013E+02      7.14098749E+02     -2.20775650E+03
     -8.91780192E+02      4.38037853E+02      3.88652830E+02
      1.10718200E+03     -1.98534173E+03     -1.46204629E+03
      2.91253565E+03      3.24277869E+03     -4.85699204E+02
     -1.83407218E+02     -5.41910232E+01      6.03423514E+02
      1.64870496E+03      2.63956231E+02     -3.42852275E+02
     -6.38271074E+02     -3.12659821E+02      4.49639323E+02
     -4.17223718E+02     -4.19728011E+02      2.62661765E+02
      1.67503919E+03      2.93172448E+03      4.28007211E+02
      5.46975063E+02      3.71390994E+02      8.90179225E+02
      7.21480387E+02     -6.69759372E+01     -5.31435566E+02
      9.67939791E+02      7.11971859E+01     -2.35245103E+03
      6.54015146E+02      1.04284297E+03     -4.17145099E+03
      1.11534472E+02      2.93621304E+01      5.61567313E+02
     -2.27100236E+03     -1.66211323E+03      4.97866814E+01
      1.18754935E+03      2.24861542E+03      5.11777815E+02
     -5.59271582E+02      9.37382886E+02     -1.52980955E+02
      5.04903599E+02     -9.41381335E+02      3.14095064E+03
     -2.20809371E+02     -1.49864295E+03      9.50968231E+01
      6.89286956E+02     -6.29279054E+02     -7.77686550E+02
     -9.47315760E+02      8.35740806E+02      7.85069093E+02
      1.64560143E+03      2.15890087E+02     -1.42625205E+03
      3.75164042E+02      6.19197861E+02     -4.90593777E+02
      5.51710790E+02     -1.43805817E+02      1.02118725E+03
      3.22686399E+03     -4.61878584E+02      2.14578029E+03
     -2.17805348E+01      3.06760259E+02      4.01058012E+02
      7.72212843E+02      1.29569645E+03     -1.05319645E+03
      9.13317002E+02      7.55854647E+02      1.47803589E+03
     -8.34868367E+02     -2.29649104E+03     -6.44167025E+02
     -3.96847665E+02      1.79509456E+02      1.92885449E+02
      4.25829573E+03      1.16334975E+01      8.42887785E+02
      8.61716279E+02      3.90975413E+02     -6.71024824E+01
      2.17620549E+03     -1.71358673E+03      3.01398800E+02
      4.43561560E+02     -1.49714566E+02      3.02250483E+02
     -3.95817268E+02      1.10496414E+03      4.52968873E+02
     -1.10732310E+03     -2.46648551E+02      5.82348911E+02
     -1.79601487E+02      5.78649958E+01     -3.78951376E+02
      1.25108518E+03      5.05712982E+02      1.09011216E+02
      1.16476911E+03      6.62524441E+02     -2.58524713E+03
      2.48217444E+02     -4.42115598E+02      3.01459221E+02
     -2.58070489E+03      1.38128843E+03     -2.33068306E+03
      1.04223149E+03      1.48578045E+00     -1.64871199E+03
     -2.53358012E+02      2.82633568E+02     -1.55585221E+01
      3.43039100E+03      1.00547271E+03      1.11512294E+03
      2.20732297E+03     -3.43813612E+02      1.91188169E+03
      5.09716777E+00     -9.45790370E+01      1.44504166E+02
      1.27523985E+03      1.49228350E+03      2.37862375E+03
      1.47644827E+03      1.32578019E+02      1.87297066E+03
      7.08329622E+02      4.35211064E+01     -3.87297513E+02
      1.31110387E+02     -2.36199785E+03     -2.24171330E+02
      3.69951341E+03      1.79845189E+03     -1.59284463E+03
      2.30827563E+02     -4.98617581E+02      1.77194651E+02
      1.00250044E+03      5.14906832E+03      1.26179728E+03
     -1.69244865E+03      1.54459080E+03     -1.03582794E+03
      5.04223094E+02      3.36018433E+02      1.48359650E+02
     -1.36405559E+03     -6.41689213E+02     -5.51014691E+02
      2.53447878E+03     -1.80568597E+03      2.54086188E+03
      1.57978474E+02     -2.39163636E+02     -9.26322003E+02
     -1.17981291E+03      2.06211019E+02      6.50858436E+02
      1.50803319E+03      3.27527961E+02     -2.17987609E+03
      3.58324140E+03      1.99791016E+03     -3.21982448E+02
     -6.41113419E+01     -3.80303185E+02     -2.11000520E+02
     -6.76359286E+02     -1.08713272E+03     -1.33606854E+03
      1.71982367E+03     -2.50241292E+02     -1.86696620E+03
     -1.03839775E+03      2.64789456E+03      3.21185240E+03
      6.35262411E+02     -3.89354308E+02      2.57388051E+02
     -1.91906916E+03      1.60651187E+03      1.60115855E+03
     -3.10526618E+02     -1.67205525E+03      4.83049480E+03
      2.83669619E+02      6.41955656E+02     -5.97126062E+02
     -3.80321000E+02      6.30586537E+02      2.01139103E+03
     -3.97562762E+02     -2.36314764E+03     -1.49706474E+03
      9.50415513E+01     -4.67351051E+01      5.12204208E+02
      8.08903781E+02      2.16692831E+03      1.00339897E+03
      2.09080583E+02     -9.72384450E+02      2.45872391E+03
      2.27245421E+02     -3.78601252E+01     -3.67275007E+02
     -2.54334043E+02     -6.55567283E+02     -7.00055530E+02
     -1.82220534E+02     -8.81019049E+02     -1.56588405E+02
      8.90184872E+01      5.19187412E+02      5.20902262E+02
     -9.15763195E+01     -1.64150521E+03     -7.83126708E+02
      6.63823092E+02      1.06012404E+03     -5.21286541E+02
      9.20757590E+01      6.16690638E+00     -5.75420702E+02
     -1.19417108E+03      1.29085013E+03      3.45410291E+03
      2.87558951E+03     -1.15800079E+03     -2.45039268E+03
     -1.42520674E+02      2.05525514E+02      1.60366372E+02
      2.35769838E+02     -8.47029256E+02     -1.14282453E+03
     -3.23375832E+02      1.13888283E+03     -7.27178882E+02
      7.68060690E+02      1.04146074E+02      1.89524539E+01
     -1.05136974E+03      4.05582454E+03      1.42619130E+03
      4.67308047E+02      3.06900837E+03     -5.22575335E+02
      5.35362583E+02     -1.64502588E+02      2.84061559E+02
      1.44820996E+03      7.97555277E+02     -1.27751913E+03
      4.61891872E+02     -6.06301932E+02     -6.00396223E+01
      2.95909394E+03      9.53797346E+01     -1.85593677E+03
      7.09431106E+02     -4.86508365E+02     -1.86346104E+02
      6.72098151E+02     -8.98100516E+02      1.03711551E+03
     -1.36695781E+03      1.48745511E+03     -2.96990272E+03
     -2.18081006E+03     -1.54532694E+03      2.22067303E+03
     -1.53166269E+02     -1.68853673E+02     -7.95589581E+02
      1.38457922E+02     -8.85759938E+02     -9.94176877E+02
     -1.64292685E+02      2.71232314E+02     -3.97929740E+02
      9.20175361E+02      2.21478586E+02      2.51515606E+01
     -1.18503394E+03      3.76743516E+02     -1.57769384E+03
     -1.21396898E+03      3.81411204E+02      2.38781152E+03
     -4.45267990E+02      1.67509733E+02     -4.68538529E+02
     -1.24603443E+03      1.78235921E+03     -2.57766344E+03
     -6.18725634E+02     -6.82456873E+02     -4.00204894E+02
     -1.70713715E+02     -3.25814974E+01     -5.39226378E+02
      3.60936135E+03      1.55411167E+03      4.70562847E+02
      2.39509961E+03      7.34929618E+02     -3.29035187E+02
     -8.82965571E+02      3.44351509E+02     -7.80428835E+02
     -5.57712595E+02      1.03028618E+03      7.60598125E+02
     -1.12608836E+03      2.02914399E+03     -9.92598245E+02
      3.31003853E+01      2.69526727E+02     -2.13477299E+02
      7.77968433E+02     -3.04203579E+03     -1.83891017E+02
     -1.74111552E+03      9.35427623E+02      4.32218515E+02
     -4.96890083E+02     -3.08899393E+02     -4.95617947E+02
      4.12724780E+03     -1.92098931E+03     -1.13142051E+03
      1.51120115E+02     -9.81722263E+02     -1.74011671E+03
     -3.05577278E+02      1.26144566E+02      2.45819730E+02
      3.21629210E+03     -1.22205567E+03     -9.91256554E+02
      3.86821778E+03      1.48155937E+03     -1.84084458E+03
      3.48321993E+02      3.83462539E+02      4.60926400E+01
     -1.38858139E+03      1.01233627E+03     -2.61074617E+03
      1.75348860E+03      1.20769728E+03      1.80156238E+03
      2.30855373E+03     -1.21184798E+03      1.67656731E+02
      1.54187208E+02      8.86814549E+02      8.23567359E+01
      2.79094816E+03      1.88522227E+03      7.53727834E+02
      1.36184335E+03      2.40450957E+03     -2.69471897E+03
      2.12989651E+02     -1.79264577E+03     -6.66516566E+02
      4.60635761E+01      3.10114470E+02      4.20428155E+02
     -2.06070698E+03      9.92269250E+02      1.04551231E+03
      2.17886519E+03      8.08327041E+01      2.17170359E+02
      2.45199917E+02     -5.51640732E+02      4.72556510E+02
     -7.41734181E+02      5.60563625E+02     -9.09687775E+02
      1.24525722E+03      7.78174310E+02     -7.07133192E+01
      1.54031241E+02      3.40795026E+02      6.30713113E+02
     -1.26724215E+03     -1.92974075E+03      3.41951346E+03
      2.84807848E+03      3.00769524E+02     -5.29323132E+02
     -2.64675747E+02     -6.18817064E+01     -2.65358602E+02
     -4.29948600E+03      2.30590982E+03     -8.67015974E+02
      1.39172914E+03      2.56472327E+03     -3.76970291E+02
      7.31475802E+02     -5.28275110E+02      2.23384009E+02
      2.02973349E+03     -3.56576084E+03      2.07977470E+03
      6.34163713E+02     -7.63811547E+01     -1.44463489E+03
     -6.06677082E+02     -3.53360516E+02      1.67065584E+02
     -1.30390635E+03      1.31773859E+03      4.98961285E+02
     -7.57569610E+02     -1.98751414E+03      3.56513179E+03
      1.83623102E+02     -1.03106311E+03     -7.79682500E+01
      4.97187038E+02     -1.40300013E+03      9.91122786E+02
      9.15843063E+02      1.64043008E+03     -1.69921963E+02
      2.13437925E+02     -2.88018980E+02      9.13451999E+02
     -2.01439347E+03      3.08792472E+03      1.59664771E+03
     -6.35787871E+02     -1.60098291E+03      2.34391092E+03
      9.23920806E+02      4.48548562E+02      2.34547294E+02
     -3.10492583E+03     -1.02195298E+03     -4.07284435E+03
     -1.24998370E+03      2.49493051E+02      2.69318314E+03
     -5.94018497E+02      2.10058797E+03     -1.52528953E+02
      1.23554319E+03      3.30697041E+02     -7.12733554E+02
     -1.76880488E+03     -1.22217024E+03      9.80469629E+02
      3.37060518E+03     -5.98486667E+02      2.34206236E+03
      9.49397522E+02      9.80630901E+02      4.57575901E+02
      9.28225273E+02     -5.33926273E+02     -1.62198751E+01
     -8.81068044E+02      1.86024741E+03     -4.45237365E+02
      3.77349390E+02     -1.10262480E+03     -4.45952247E+03
     -6.24856521E+02      6.09118942E+02     -3.57354534E+02
      3.07241864E+03     -1.66321307E+02      4.38904933E+02
      2.21766392E+03      8.28459656E+01      5.69390327E+02
     -3.82401818E+02     -3.46564712E+02     -1.99427091E+02
     -7.49273777E+01      1.20127501E+03     -5.31313043E+02
     -1.70084951E+03      5.32875384E+02      9.92103470E+02
      1.68592788E+01     -4.47685978E+02     -2.50792149E+02
      2.27104173E+02      1.22738526E+03     -4.44238824E+01
      2.91677813E+03     -2.81479702E+03     -2.76653821E+02
      1.67870073E+01     -1.41341503E+02      3.70755409E+02
      6.54465623E+01      1.68114870E+03     -1.75235979E+03
      7.58212238E+02      2.27001171E+03      3.12623013E+03
      5.77823976E+02      5.03970014E+02     -9.40129482E+02
      4.80928944E+02      1.98180049E+03     -1.71336502E+03
      9.90055458E+01     -5.66867334E+02      2.82238388E+02
     -2.53119329E+02      2.11100841E+02      2.68151934E+02
      9.84977153E+02      2.21801979E+03     -1.45897733E+03
     -8.95165019E+02      9.17107314E+02     -1.38673330E+03
      1.61048166E+02      3.60294139E+02     -6.76751918E+02
      8.55086181E+02      2.11093582E+03     -1.72484537E+03
     -2.17352032E+01      1.61076011E+02      8.27899935E+01
      4.91969154E+02      9.78510454E+01      3.40052700E+02
      1.86709094E+03      1.19267328E+02      9.05159735E+02
      9.01483361E+01      1.75914526E+02     -1.86138151E+03
     -4.54076139E+02      4.52042880E+02     -2.70098161E+03
      4.42328465E+02      1.07176827E+03      2.82805533E+02
     -3.10085889E+02      2.24358272E+03      2.79154553E+03
      7.15372459E+02      1.02309452E+03      2.04169646E+02
      4.27191988E+03     -2.47182363E+03      5.46296256E+02
      4.02320540E+02      1.79958268E+01     -5.01828126E+02
     -3.61503295E+03      1.48639197E+03      1.43280648E+03
      1.16062041E+03      1.69636372E+03     -7.75028058E+02
      4.36512082E+02     -1.66044332E+02      1.91777614E+02
     -3.01336292E+03      1.49988547E+03     -4.76735076E+02
     -3.72718256E+03      2.63212515E+01      2.84318676E+03
     -1.28797844E+02      6.55757832E+02      2.54403990E+02
     -2.02532321E+03     -8.77380842E+02      1.88494318E+03
     -3.27638113E+03     -1.12768773E+03      2.55743607E+03
      1.22088882E+02      2.62911042E+02     -3.26552570E+02
     -1.69819051E+03      7.47462686E+02      8.55712664E+02
     -9.75819266E+02     -1.06219379E+03      2.74865997E+03
     -3.60985409E+02      2.79740099E+02     -1.98185206E+02
      1.28881820E+03      1.83258789E+03      1.67111669E+03
      2.07575766E+03      3.58774103E+02      5.57912734E+02
      8.51586281E+01     -7.61621658E+02      6.44085165E+01
     -2.33675422E+02      1.46265894E+03     -1.65511798E+02
     -1.23701364E+02     -7.42428812E+02      2.98861988E+02
      5.45433040E+02      3.88223197E+02     -8.09251198E+01
      8.65263311E+02      8.27529286E+01      1.86402389E+03
      1.15897332E+03      3.07152719E+03     -3.38184541E+03
      1.97406407E+02      2.43351502E+01      2.52053072E+02
      1.27069931E+03      1.07224200E+03      5.15963447E+02
     -5.13943961E+02      1.11688260E+03     -2.28313089E+03
      4.29527147E+02     -1.32884694E+02      1.03587514E+03
      7.91328390E+02      4.62987179E+02     -1.86626051E+03
     -1.67274266E+03     -6.26848543E+01      2.12693196E+02
      1.71976823E+03      2.59744001E+03     -9.52912198E+02
     -2.58444828E+02      6.84580393E+01     -5.82373121E+02
      2.73230466E+03     -1.38909598E+03     -3.16862650E+03
     -9.05220611E+02      1.11300749E+03     -4.08142091E+03
      1.03887589E+03     -3.96747352E+02      1.26600759E+02
     -1.22927911E+03      3.74836835E+02      4.52280082E+02
     -1.69935578E+03     -1.95095034E+03      1.35161141E+03
      2.67857210E+03     -1.30515800E+03      1.05214073E+02
      1.98244379E+02      5.05817537E+02     -2.64309505E+02
      9.35537207E+02     -2.78625566E+02     -4.99688849E+02
     -1.18870641E+02      4.10746016E+02      3.02511320E+03
      8.40298944E+02     -2.82131750E+02      8.42575234E+02
      8.19180157E+02     -3.18917974E+02      2.93920633E+03
      1.43154030E+03      7.30093251E+02      1.08758713E+03
      1.47339938E+02     -6.12406152E+02     -2.51698295E+02
     -1.52879754E+03      9.94940081E+02      3.92077995E+02
     -1.70268357E+02      7.26986404E+02     -1.22686643E+03
     -3.35604021E+02      1.49860932E+02     -1.31089337E+02
      6.71564234E+02     -8.88901358E+02      2.48110225E+03
     -4.72994491E+02     -4.77244608E+02     -1.16932899E+03
     -2.39977200E+02      3.93249322E+02     -7.74078820E+01
      5.32292484E+02     -1.76029641E+03      1.66964921E+02
      4.42041232E+03      4.41479044E+02      9.55053528E+02
     -1.25637960E+02      3.36620028E+02     -3.27988188E+02
      2.57511622E+03      1.07295201E+03      1.91454259E+03
     -4.35167242E+03      1.42658126E+02     -1.48970724E+03
      4.65515757E+01     -8.27740265E+02     -9.61148063E+01
      3.45046807E+03     -1.85188490E+03      1.60323554E+03
     -1.91080214E+01      4.12644402E+01      1.84026531E+03
      7.12147533E+02      5.67922261E+02     -2.21372323E+02
      2.39057679E+03      1.01974307E+03      5.73976319E+02
      2.05249452E+03      3.93268726E+02      1.24305696E+03
     -1.75264776E+03      2.35541297E+03      7.92144698E+02
      1.16156999E+02      2.84909318E+02      4.13749938E+02
     -1.30318965E+03      6.12589117E+00      2.51185999E+03
      6.24143200E+02      1.42836408E+03     -1.25021309E+03
      4.36530305E+02      9.52335143E+02     -2.38928455E+03
      5.86955496E+02      8.89587098E+01      4.30776681E+00
      2.61862580E+01     -1.91539842E+03      1.82999265E+03
      1.81981631E+03      2.55878416E+03      4.27101377E+01
     -2.24450352E+02     -5.03216395E+02     -9.77620419E+02
     -2.77804376E+03      9.33020278E+02     -1.50621796E+03
     -1.98625024E+03     -1.77018019E+03     -8.67786348E+02
     -1.55305394E+02      2.59363203E+02     -4.78744194E+02
     -2.06422307E+03     -4.46323080E+01      7.63008237E+02
     -9.93852605E+02      7.88963969E+01      1.35681944E+03
      1.68782880E+02      1.34958877E+02      2.95315489E+02
     -1.17477733E+03      1.08980147E+03     -1.90162691E+03
     -6.97418974E+02     -1.69376804E+02      8.14939904E+02
     -4.23200395E+02      3.47589372E+02      1.68041457E+02
     -1.49509709E+03      9.30051253E+02     -3.80079053E+03
      9.21614426E+02     -1.68628021E+03      3.61410578E+02
      2.57289043E+02     -8.74708212E+02     -1.43713991E+02
      1.73510158E+03     -3.70503786E+02     -3.88203039E+02
     -4.55871550E+02      3.82489030E+02      4.50394280E+02
     -7.07207349E+02      1.69939535E+02      2.22330570E+02
     -3.79388076E+02     -2.63746452E+03     -3.54459817E+02
      6.54213201E+02      4.48107513E+02      9.00527608E+02
      5.20128428E+02      5.98310118E+02      2.86234786E+02
     -6.35955451E+02      1.57906206E+03     -1.67613020E+03
      1.32339836E+03      9.50231597E+02      1.02757614E+02
      4.07121442E+02     -6.04528538E+01      5.00163315E+02
      1.10972435E+03     -3.94413731E+03     -3.19297382E+01
      2.65329353E+02     -2.74062284E+03      1.10979142E+03
      1.65512177E+03     -6.19313279E+02     -1.79150325E+02
      3.61502134E+01     -1.52863761E+02      2.54709178E+01
      3.50295928E+02     -3.37688050E+02     -1.84227526E+03
      4.93325496E+03     -2.01047717E+03     -1.44891389E+03
     -1.39230949E+02      2.82970391E+03     -4.05088589E+02
      2.96417682E+02      6.37935061E+02     -9.96117489E+02
      7.89086348E+02     -5.07364644E+02     -8.78903655E+02
      1.14928313E+03      1.10565130E+03     -5.47775348E+02
     -3.67837695E+01      4.28295077E+02     -5.79556974E+00
     -1.27955822E+03      3.76479449E+03      5.72481251E+02
     -6.93769153E+02      3.43438122E+03     -6.37657283E+02
      3.52766163E+02      3.48684420E+02     -1.68470761E+02
      6.95095827E+02      1.22106491E+03      2.40890646E+03
     -1.62910715E+03     -1.57325959E+03      8.24775273E+02
      4.94203195E+02      2.46973112E+02     -1.73810411E+02
      5.26703381E+02     -6.82490422E+02      9.39312815E+02
     -1.78196255E+01     -1.62145281E+03      7.87851370E+02
     -9.76063891E+01     -7.08838580E+02      4.63795561E+02
      6.48144835E+02     -2.15290365E+02      3.14445937E+03
      1.73707202E+03     -7.16849290E+01     -7.43189078E+02
     -5.38092770E+01      1.06782294E+02      1.07089145E+02
     -1.23220470E+03      1.87512423E+02      1.85942167E+02
     -2.94130702E+03     -1.53296295E+03     -2.06066011E+03
      6.73323557E+01     -3.53663676E+02     -1.16629611E+02
      1.06377089E+03      3.16423552E+02      1.06876006E+03
      6.94813972E+02      2.31853094E+03      1.11697814E+03
      4.87314919E+02      2.29608798E+02      6.76550182E+02
     -1.72325844E+02     -1.42140166E+03      2.21202755E+03
      1.31192031E+03      5.33498253E+02      5.68502674E+02
      7.55572038E+02      8.16869814E+02     -7.23840309E+02
      8.27227570E+02     -9.77919368E+02      2.55505642E+03
     -6.50170002E+02     -1.45440328E+03      2.50231459E+03
      1.88408769E+03      1.34398951E+02      9.08704300E+02
      3.41012098E+02     -2.92295205E+02     -2.12047981E+02
      2.94678192E+03     -4.12707079E+02     -2.21647542E+03
     -9.86622496E+02      3.40519451E+03      1.56303290E+03
      2.46622878E+03     -1.55978056E+03      4.86662101E+02
  }
}

Hamiltonian = DFTB {
  SCC = Yes
  SCCTolerance = 1e-6
  MaxSCCIterations = 200
  ForceEvaluation = Dynamics
  MaxAngularMomentum = {
    C = "p"
    H = "s"
  }
  Charge = 0.0
  SpinPolarisation = {}
  Eigensolver = Standard {}
  Filling = Fermi {
    Temperature [Kelvin] = 300.0
  }
  SlaterKosterFiles = Type2FileNames {
    Prefix = "../../pbc-0-3/"
    Separator = "-"
    Suffix = ".skf"
    LowerCaseTypeName = No
  }
  KPointsAndWeights = {
    0.0000000000000 0.0000000000000 0.0000000000000 1.00000000000000
  }
  Dispersion = LennardJones { 
    Parameters = UFFParameters {}
  }
}

ParserOptions = {
  ParserVersion = 3
}
