Geometry = GenFormat {
<<< "system.gen"
}

Driver = VelocityVerlet{
  Steps = 100000
  TimeStep [fs] = 0.2
  MDRestartFrequency = 5
  Thermostat = None {
    #InitialTemperature [Kelvin] = 300.0
  }
  Xlbomd{ 
    IntegrationSteps = 6 
    MinSccIterations = 2
    MaxSccIterations = 200
    SccTolerance = 1e-6 
  }
  Velocities [m/s] {
      2.36637952E+01     -1.49475674E+02      7.69133712E+02
     -1.01575093E+03     -1.86515533E+03     -9.82985088E+02
     -2.98620644E+03     -1.77394071E+03      1.14934222E+03
     -1.20766857E+03      1.86861358E+01      2.65824184E+02
     -6.22595292E+02      1.02128736E+03      1.10669469E+02
      1.71432367E+03     -6.18793235E+01      1.51083494E+03
     -1.84908910E+02     -2.87125113E+02      3.01338245E+02
      1.63040732E+03      1.50848646E+03      1.46882878E+03
      2.47746691E+03      2.10708237E+03     -1.44316744E+03
      5.47095849E+02     -2.50648165E+02      2.48905543E+02
      2.83491470E+03      1.35099933E+03      1.50305092E+03
      2.71227955E+03     -1.75958795E+03     -1.65939981E+03
     -7.62330176E+02      4.72583803E+02     -4.18983451E+01
      2.68793017E+03     -1.00701734E+03     -2.38884837E+03
     -3.95334647E+02      1.94657716E+03     -3.96947751E+01
     -3.26060279E+02      7.19747913E+02      5.15408621E+02
      1.00406615E+03      1.00589640E+02     -7.18393224E+02
      1.86588503E+02     -2.38112063E+01      1.03711569E+03
     -1.45627250E+02      5.39318645E+02      8.52206497E+01
      6.12230844E+02     -3.21978202E+02     -1.05081732E+03
      2.68573648E+03      1.96412617E+03     -4.65263983E+02
     -2.05753899E+02      5.39383459E+02     -3.10598066E+01
     -7.43029006E+02     -6.31572678E+02     -9.25282323E+02
      1.19701609E+03      1.70444248E+03      2.21709550E+03
      7.66047382E+02     -3.04354698E+02      8.74066460E+02
     -1.77012189E+03      2.81864602E+02      1.72196951E+03
     -5.43704086E+02      1.75966974E+03      3.42722507E+03
      6.44835007E+02     -4.80789637E+01     -1.13822812E+03
      3.55144249E+02      3.65858683E+02      5.40094103E+01
     -1.97791707E+03     -8.71154288E+01      2.32806919E+03
     -2.13251726E+03     -1.00561845E+03     -2.64054564E+03
      2.25049048E+03     -2.12060949E+03      2.52950337E+02
     -6.08024348E+02     -9.31796359E+02      3.91684990E+02
      1.33682165E+03      1.23462078E+03      1.75252159E+03
     -6.80090051E+02     -5.50831012E+02      3.71224633E+02
      6.38043895E+01      1.35074010E+02     -4.38587766E+02
     -2.08929700E+01      8.42866989E+02     -1.09989472E+03
     -9.08265689E+02     -8.59121608E+02      2.45345152E+01
      1.39410290E+02      3.66996224E+02      1.53489982E+02
      2.43089903E+03     -1.07190738E+03      1.08892051E+03
     -1.03933979E+03      5.93266537E+02     -9.39053226E+02
     -6.10645995E+02     -2.25417802E+01      9.32707597E+01
     -2.07972491E+03      5.00520413E+02      7.48971544E+02
      1.27334706E+01     -1.79217604E+03      1.20929240E+03
      2.33597691E+02     -7.85909554E+01      2.86041849E+02
      1.09363621E+03      1.83922750E+03      2.31518759E+03
     -3.90052408E+02     -4.36959020E+02     -1.32826092E+03
      2.42439348E+02      2.32479442E+02      1.09969680E+02
      1.92342796E+02     -1.37307301E+03     -6.75817003E+02
     -7.66373025E+02     -6.96666570E+02      2.01863006E+03
     -4.68513646E+02      1.63605399E+02     -6.06504613E+02
      3.31125677E+03      1.38867004E+03     -2.00301249E+03
      8.18398427E+02      6.52042386E+02      1.21664899E+03
      6.72982758E+03     -6.20705994E+03     -8.61285672E+03
      6.96742517E+02     -2.49788393E+03      1.25492762E+03
     -2.44522581E+02     -1.85510796E+02      1.66686918E+03
      1.67911608E+02     -1.38974593E+01      4.96843686E+02
      3.37403689E+02      1.27725120E+02     -1.66924326E+03
      4.20417795E+02     -8.25921215E+02      1.15116795E+03
      1.81241193E+03     -2.12150805E+03      1.54615239E+02
     -1.31749819E+02      4.45149444E+02      9.18692341E+01
     -6.19735842E+02     -1.63674472E+02      1.74802680E+03
      1.07039969E+03     -2.00539475E+03     -2.49009725E+03
      8.11754572E+02      1.07033330E+03      1.28201034E+03
     -8.97711852E+02     -6.08038035E+02      9.44315258E+02
     -9.34429389E+02     -2.36424822E+03     -8.12027288E+02
     -1.50781195E+03      2.74211404E+03     -6.83721180E+02
     -3.05577529E+01     -1.61216859E+01     -2.06920445E+02
     -1.79600360E+02      8.42399921E+02      1.65380361E+03
      6.36050779E+02      3.17900056E+01     -2.15146769E+02
     -2.51230437E+02      6.60948105E+02     -1.19031286E+02
     -8.06359327E+02     -2.86942343E+03      1.31658152E+02
      1.94246697E+03     -6.63718198E+02     -1.74872987E+03
      7.00525276E+02     -7.41436827E+02     -8.44941812E+02
      8.27530050E+02      3.58176643E+03     -1.89789078E+03
      1.87197308E+03     -1.18142410E+03     -2.40516478E+03
      3.77299347E+02      6.93402778E+02     -1.14072116E+02
      1.49194145E+03     -2.21217234E+03      1.95448397E+03
      8.71255900E+02      1.18526619E+03     -2.26134494E+03
     -4.14240982E+02     -2.51093541E+02      6.96773804E+01
      7.11510461E+02      6.49588428E+02     -2.45946393E+03
     -2.45782593E+03      2.96470431E+03     -3.03779698E+03
      4.23047857E+02     -3.69077315E+02     -1.31121456E+02
      1.54280492E+03     -9.34809791E+02     -1.29041580E+03
     -1.34543478E+03     -4.14951313E+02     -1.32592493E+03
     -4.97046807E+02     -3.62360679E+01      4.97352881E+02
     -2.29097368E+02      2.64855995E+03      1.03571094E+02
     -6.73995581E+02      2.52753808E+03     -1.89304846E+03
      1.56045367E+02      5.86482780E+02     -1.97083331E+01
      9.98018582E+02      1.08742242E+03      1.13829408E+03
     -1.12316436E+03     -7.46673067E+01      2.07992818E+03
     -2.93513127E+02     -2.14176126E+03     -1.77126582E+03
     -4.50405158E+02      9.86512219E+02     -7.08711827E+01
      3.00374504E+02     -1.90069227E+03     -1.15017684E+03
     -1.74944377E+03      9.13898295E+02     -3.95850101E+02
     -8.74868593E+02      2.18384123E+03     -9.84402391E+02
     -2.07943340E+01      2.55774396E+02     -2.07828278E+02
      6.73520473E+02      2.14264663E+03      8.71549000E+01
      1.20967990E+03     -2.13309701E+03      1.24353702E+01
      1.92638265E+02      5.67373733E+01     -6.92213924E+01
      2.15247194E+02      5.01234455E+00      9.37276875E+00
     -5.96974904E+02      1.68031833E+03      2.65527218E+02
     -1.22390269E+03     -4.50070847E+02     -1.99668737E+01
     -1.46753430E+03      3.30098309E+02      5.10452019E+02
     -2.27179511E+03      6.80786596E+02      1.03519759E+03
     -1.46434380E+02     -3.54874800E+02     -8.38501664E+02
      7.14679702E+02     -2.06232264E+02     -7.80846713E+02
     -8.44081528E+02      2.39962127E+03     -1.71474373E+03
      6.67110196E+01      7.35663363E+02     -6.44238973E+02
      9.55850291E+01     -8.51329634E+02      5.14754857E+02
     -2.65096181E+03      8.92060179E+02     -1.35545514E+03
      4.74150078E+02      3.18607246E+01     -3.82124350E+02
      1.11964242E+03      7.09196901E+02      6.60818805E+02
     -7.91634136E+02     -1.83688734E+03      6.89928520E+02
      7.90551502E+02     -2.45065799E+02      8.45887136E+02
      6.32393133E+02     -6.30024837E+02      2.17831429E+03
      1.05397458E+03     -1.96452697E+02     -1.97369758E+03
      7.30638219E+01     -1.58074105E+02      1.53774665E+02
     -7.52332197E+01      6.25074679E+02      9.65023338E+02
      5.27856966E+02     -4.15673736E+03      1.57835207E+03
     -2.96088646E+02      4.78595334E+02     -1.41990176E+02
     -2.73969666E+03      2.30441751E+03     -6.74199540E+02
      1.08294986E+03     -1.45058871E+02      3.20488952E+03
     -2.80282184E+03      2.35443921E+03      1.10880781E+03
     -3.65775190E+02      1.08431130E+03     -7.50740976E+02
     -7.23999485E+02      4.32840560E+02      8.81976546E+02
      2.94018752E+03     -2.22287568E+02      1.66460992E+03
     -2.86913534E+02      6.25608835E+02      9.35940532E+02
      2.41577003E+02      6.00316363E+02     -5.52228396E+01
      1.72211059E+03      9.17137311E+02      1.25093139E+03
      4.15014852E+02      3.90057011E+03     -1.88193705E+03
      2.88485520E+02      1.22848709E+02      3.57982132E+01
     -2.88011922E+03      1.20407833E+03     -8.80357533E+02
     -1.88311775E+03      3.10584646E+02     -1.17728127E+03
      9.75830327E+02     -2.59104953E+02     -4.61325591E+02
     -8.79968583E+02      2.07737481E+03     -2.19929708E+03
     -1.49420258E+03     -7.08110007E+02     -2.15679122E+03
     -1.49739297E+02     -1.14884314E+02      2.08817539E+02
     -1.56075812E+03      4.60238104E+02     -5.90424127E+02
      1.49570398E+03     -3.61512719E+02      4.57349779E+03
      1.61190624E+02     -3.17326683E+01     -3.60629742E+02
      4.94434482E+02     -3.08328752E+03     -7.19434252E+02
      2.19741199E+03     -1.79607041E+03     -1.31197281E+03
      8.17661071E+02      1.35712648E+02     -2.30676581E+02
     -5.36812025E+02      1.92576019E+03      2.31113641E+03
      8.11970140E+02     -2.08613810E+03      1.09143329E+03
     -9.53428238E+00      2.47662152E+02      3.09024249E+02
     -4.98394334E+02     -2.28269463E+03     -2.89825693E+01
      2.15898068E+03     -1.95695795E+03     -1.34536317E+02
     -1.06561618E+03      1.56911744E+02      3.17556066E+02
      7.01436834E+01     -8.66616439E+02      8.68401711E+02
      8.20927133E+02     -1.50909071E+03     -1.80855637E+03
     -4.09975975E+02      1.55026030E+02      9.99961141E+02
      2.63322319E+00      1.26316379E+03      4.91085124E+02
     -1.86235407E+03      1.05600119E+02      2.82776771E+03
      2.88128940E+02      1.67884483E+03     -3.13430896E+02
      1.39033571E+01     -3.99015446E+02      4.86125208E+02
      4.83881304E+02     -1.88833925E+02     -8.22314049E+01
     -1.17215807E+03      8.09167899E+02     -6.05309265E+02
     -1.84653771E+02     -1.24255832E+03      1.81756853E+03
     -5.99911718E+02     -1.28857472E+03      2.52120105E+02
     -1.55501094E+03      2.73429245E+02      1.10689700E+03
      1.29270791E+03      1.77804388E+03      4.16321699E+02
      4.28163417E+02     -5.59449585E+02     -2.52857146E+02
      4.87125504E+02      1.61967340E+02      1.35623015E+03
      1.04556398E+03     -1.97174212E+03      3.76435080E+02
      2.39579605E+02     -1.41369888E+02     -6.40741368E+01
     -2.73674275E+03      1.45008955E+03      1.83296842E+02
      9.29990765E+02     -2.81065415E+03      1.34913708E+03
     -4.23834322E+02     -1.77108956E+02      1.68310031E+02
      1.98089379E+03      5.06047836E+02      3.85609036E+03
      2.36482763E+03     -3.54839030E+02     -4.41981875E+02
      2.49476189E+02      4.83549220E+02     -7.81866866E+01
     -3.07387675E+02     -1.32443531E+03     -8.60910599E+02
      2.06301789E+03      1.38340828E+03     -4.09844981E+02
     -3.37957248E+02      3.09506666E+02      9.58121400E+01
     -1.48883042E+03     -1.06977030E+03     -1.54311043E+03
     -3.74764831E+02      1.07911350E+02     -2.99847555E+03
     -5.61514323E+02      1.04176015E+02     -8.65366084E+01
      1.22684020E+03     -2.24748408E+03     -1.24391926E+03
     -2.55788103E+02     -4.91313998E+03      3.57817579E+03
     -5.48586221E+02      5.83034820E+02     -7.91041713E+02
     -1.84522181E+03     -2.04775522E+02      2.36046609E+03
     -1.38547178E+03      1.09053972E+03     -2.67444264E+03
     -4.89426456E+02      5.96340803E+02      5.89044478E+02
      1.02561532E+02      5.80244711E+02      1.43373865E+03
     -1.64084921E+03      4.52416107E+02      7.46752696E+02
     -2.51503459E+02      1.79525730E+03     -2.22021415E+03
     -5.89416713E+02     -9.50210618E+01     -3.76828556E+02
      3.12621469E+03      7.65112511E+02     -7.66652881E+02
      7.24828036E+02      1.65509058E+03     -1.36512383E+03
     -9.88194408E+02      4.10571939E+02      4.57170601E+02
      1.50962724E+03      1.29977087E+02     -3.84673422E+02
      2.44272231E+03     -2.04959207E+02     -2.94147603E+03
      3.16226802E+02      1.89168417E+03      2.90403796E+02
     -5.70611103E+02      2.57487930E+02      3.95024772E+02
      1.89563335E+03      8.14414091E+02      1.02008255E+03
      3.34073031E+03      1.85363209E+03     -2.75455295E+03
     -3.39073677E+01      2.16411453E+02      3.72841463E+02
      1.71773509E+02     -1.24708675E+03      1.32653775E+03
     -1.70627270E+03     -3.54585513E+02      5.26506692E+02
     -1.34110646E+02     -6.48645467E+01     -1.41248978E+02
     -2.21414618E+03      2.25680287E+03     -1.72027869E+03
     -1.37387973E+03      7.45356573E+02     -5.64254538E+02
     -1.17924267E+03     -2.72753188E+02      1.91423156E+02
      3.10710959E+02      8.59423030E+01     -6.74190823E+01
      5.83957194E+02     -1.06678527E+03     -7.16224954E+02
     -3.68081566E+02      7.08020222E+02      3.49326526E+02
      2.78628728E+03      9.80877194E+02     -5.52082240E+02
      1.71007957E+03     -4.85820315E+02     -1.82282864E+03
     -3.72883708E+02     -6.33805201E+02     -6.33382365E+02
      8.50057020E+02     -2.88732394E+03      3.68200918E+03
      2.27028886E+03     -2.29390104E+03      1.61978358E+02
      1.77472647E+02     -5.58637537E+00      7.05278413E+02
     -4.65527735E+02      3.01794441E+03      2.83854541E+02
      3.79699796E+02     -4.19770185E+02      1.56081605E+03
      6.83303798E+00     -6.77384148E+01      2.38773159E+02
     -1.51605941E+03      2.29930328E+03      1.32395499E+03
      2.40268015E+03      2.97607384E+01     -6.55848823E+02
     -6.02715798E+02     -2.01972163E+03     -6.17664789E+02
      1.01355871E+01     -1.46871954E+02      6.52491216E+02
      6.44986702E+02     -1.68442959E+03     -8.32986969E+02
     -1.88876821E+03      2.15433037E+03     -1.02300230E+03
     -6.46280715E+02     -2.09009656E+03     -1.74973466E+03
      3.82323882E+02     -1.19423913E+03      1.90417861E+02
      3.68416917E+03     -2.86256206E+03      6.89472231E+02
     -3.39835323E+02     -3.13750358E+03      2.16798177E+03
      3.37267985E+02     -1.23167254E+02      7.41453189E+02
      5.46892301E+02     -2.69713793E+02      1.26546109E+03
      1.30507527E+03      4.77809649E+01     -1.20289544E+02
      1.00334486E+02      6.06376597E+02     -2.56925452E+02
      8.97464490E+02     -5.10993489E+02      1.04523271E+03
      1.53281291E+03      1.63842665E+03     -6.39513471E+02
      5.50534537E+02      9.40224226E+01      2.92403665E+02
     -1.50768562E+03     -3.55009517E+01     -2.74136516E+03
     -2.33285689E+03      1.58618804E+02      1.28830634E+03
     -2.08231801E+02      3.11648790E+02     -3.06768227E+02
     -8.33303514E+02     -3.53566775E+02     -2.11881632E+02
     -3.53395369E+03      1.89450960E+02      1.12459020E+01
     -1.08238285E+03     -1.84479649E+02     -1.53166164E+02
      2.58522424E+03     -2.87948662E+03      1.14488191E+03
      9.10493281E+01      1.77241077E+03     -1.34262684E+03
     -7.99223417E+02      7.86511082E+02      4.46848450E+01
     -6.68799536E+02      1.63422780E+03      1.09837366E+03
      1.32434110E+03      2.01343878E+03     -2.66630154E+03
     -1.37627274E+02      1.51396008E+02     -1.88048109E+02
      1.20548599E+03      2.59757881E+03      2.80806198E+02
     -4.65330635E+01      4.62716114E+02     -2.62717086E+03
      7.45406785E+01      7.10003170E+02      6.99643340E+02
      1.48326284E+02      4.55732149E+02      1.57557953E+03
     -2.61789833E+03      1.40770833E+03      6.70815783E+01
     -4.15237920E+02      7.96124097E+02      9.65980290E+02
     -4.00961944E+02      3.64071500E+02     -2.09706579E+02
     -1.32159473E+03      8.49104295E+02      2.08580707E+02
      2.83443478E+03      2.41153615E+03     -8.21662459E+02
      2.83467452E+03     -1.48254559E+02      3.15312897E+03
      4.43363139E+02      4.28724870E+02      1.91036852E+02
      1.47028511E+02     -6.90475100E+02     -9.59682055E+02
     -1.87889339E+03     -2.54036501E+03     -6.64852409E+02
     -1.03056317E+03      2.44085561E+02     -2.92553214E+02
     -1.16645049E+03     -3.35301987E+03      7.68689563E+02
      5.41316099E+03      1.91623246E+03     -3.06608623E+03
     -3.43539249E+02     -2.19278690E+02      3.65686580E+02
      1.91806775E+03      6.49172083E+02     -7.76031441E+00
     -1.85231986E+02      1.52211767E+03     -4.11368833E+02
     -8.54863157E+02      4.10740859E+02      2.07017946E+02
      1.96601279E+03      4.63668857E+02      1.63882916E+03
     -3.97645819E+02      6.05890446E+01      1.23204572E+03
      1.12607126E+03      1.09808523E+01     -3.03957903E+02
     -7.85266425E+02      1.10394117E+03     -9.08868945E+02
     -8.52506980E+02      7.93948451E+01     -2.84062349E+03
     -5.00239023E+02     -3.41254279E+02      4.37192586E+02
     -1.52190681E+03     -2.35900852E+03     -1.21280119E+03
      2.14158890E+03      1.10803728E+03      2.48535528E+03
     -3.98375235E+02      4.37038466E+01      6.90479958E+02
      1.69109239E+03     -4.41887766E+02      4.56392531E+02
      3.44916049E+03     -1.38901339E+02      5.21819196E+02
      2.56110242E+02     -1.72070018E+01     -1.66759091E+02
      7.83866356E+02     -1.03034135E+03      9.59090709E+01
      2.67738034E+03     -1.09981860E+03     -4.77657453E+02
     -2.61421583E+02     -5.09458588E+02      2.07094649E+02
     -7.94748897E+02      1.25232827E+03     -4.82815741E+01
     -1.29455488E+03      5.28597163E+02     -4.48234523E+02
     -3.32818821E+03      3.28174237E+01      1.73771056E+03
     -5.74161325E+02     -3.46358530E+02     -2.26213330E+02
     -8.83633490E+02      4.86567677E+03     -5.03862389E+02
     -2.99918164E+03      6.95538687E+02      1.54087898E+03
     -1.31623022E+03      1.62552009E+03      2.93679185E+03
      9.64968019E+02      1.20774541E+02      5.60183983E+02
      7.48066947E+02     -1.12716853E+03      8.14975823E+02
     -5.16102282E+02     -5.73491045E+02     -8.08995409E-01
      1.32357147E+02     -4.72225293E+02     -4.53910616E+01
      4.41746360E+02      1.64660581E+03      1.30304648E+02
     -9.53261515E+02     -8.33006201E+02      4.80668767E+02
      2.75042858E+02      8.58070725E+02      1.75448127E+02
      1.55659950E+03     -4.27231473E+02     -7.20994570E+02
      7.33276625E+02     -1.39880959E+03      1.01574988E+03
     -8.03784299E+02     -3.92833632E+02      1.96951732E+02
     -4.18454769E+03     -3.75038260E+02      5.29289740E+02
     -2.27439787E+03     -1.03092293E+03     -6.66454549E+01
      9.44752738E+01     -2.83632035E+02     -4.73376257E+02
      1.75514991E+03     -1.46716473E+03      1.44211783E+02
     -2.67416930E+03     -1.04107483E+03      5.61219567E+02
     -5.05935160E+02     -2.19211913E+02     -1.89379765E+02
      2.05752472E+03      2.09178768E+03      1.22539167E+03
      1.34742920E+02     -8.36022289E+02      2.93178392E+03
     -2.50959395E+02     -3.43611421E+01      6.09790055E+01
      1.45044671E+03      2.65892583E+03      1.12859540E+03
      3.19087988E+03      2.66028085E+03     -2.30942952E+03
     -8.62425546E+01      2.95795369E+02      2.34892310E+02
      7.03801938E+02     -8.11187356E+02     -6.11601677E+02
     -2.10579105E+01      1.46976030E+03     -1.45942192E+03
      8.06559004E+01     -1.36264753E+02      3.69537482E+02
     -6.52427674E+02      4.95350630E+03     -4.25491433E+02
      1.38429925E+03      9.55895190E+02     -2.66152144E+03
     -1.37135015E+03      3.24972229E+03     -2.21712798E+03
     -3.95627293E+02     -9.54245598E+02      6.23668171E+02
     -2.04123962E+03     -2.46429974E+03     -1.73675452E+03
     -4.56911064E+03      1.12807361E+03     -7.92649536E+02
      1.23272372E+03     -2.11363752E+03      7.78652382E+02
      3.24280082E+02     -4.97100986E+01      6.44356335E+02
     -4.38174015E+02      5.72583671E+02      4.53605113E+02
      2.43595748E+03      8.48052762E+02      1.27039076E+03
      6.49727968E+02      2.10592902E+02      3.25926287E+02
      1.35336056E+02     -1.91645625E+03      6.54496020E+01
      5.78064443E+02      3.38927044E+02      8.72583260E+01
     -4.14022617E+02      7.02480287E+02     -4.92474158E+02
     -1.03967959E+03      4.28312478E+03      1.22360579E+02
     -1.04550761E+03     -2.80330106E+03      8.64517042E+02
     -4.27067507E+02     -6.24681596E+01      4.47674737E+02
     -5.71873315E+02     -9.28799619E+02      1.16562552E+02
      8.05602201E+02      5.09787032E+02     -9.98953604E+02
      6.01953223E+02     -9.84772499E+02      2.85190819E+02
     -1.26775002E+03      2.45973273E+03     -1.63364234E+02
      9.97041880E+02     -1.63498970E+03      1.67688845E+03
      1.52382340E+02     -6.13983990E+02      5.81219117E+01
      1.51980553E+03     -1.30476956E+03     -1.55637222E+03
     -2.56888759E+01      2.39012899E+03     -3.01984225E+02
      5.46277304E+02      4.65570979E+00     -2.96905717E+02
     -4.74073725E+02      6.27746533E+02      3.05750818E+03
      7.00226020E+02      4.56113558E+02     -2.44902951E+03
      3.19030269E+01     -1.70430016E+02      6.50753403E+02
     -3.02328258E+03     -1.11959046E+03     -1.09643726E+03
      9.24626766E+02      1.18820355E+03     -4.86125418E+02
      1.87188393E+02     -6.94817051E+02     -2.37514524E+02
      7.20969337E+01     -2.44277888E+03     -2.20656332E+03
     -7.32923112E+01     -6.88416545E+02     -3.71099492E+02
      8.53799730E+02      1.65788747E+03     -1.84792225E+03
     -5.72356560E+02      5.30734316E+02     -3.31407100E+02
     -3.50188215E+03      1.42082250E+03      8.64850773E+02
      8.35656174E+02      2.85209598E+03     -6.94058072E+02
      1.03203001E+03      3.69510272E+02      1.45188780E+02
  }
}

Hamiltonian = DFTB {
  SCC = Yes
  SCCTolerance = 1e-6
  MaxSCCIterations = 200
  ForceEvaluation = Dynamics
  MaxAngularMomentum = {
    C = "p"
    H = "s"
  }
  Charge = 0.0
  SpinPolarisation = {}
  Eigensolver = Standard {}
  Filling = Fermi {
    Temperature [Kelvin] = 300.0
  }
  SlaterKosterFiles = Type2FileNames {
    Prefix = "../../pbc-0-3/"
    Separator = "-"
    Suffix = ".skf"
    LowerCaseTypeName = No
  }
  KPointsAndWeights = {
    0.0000000000000 0.0000000000000 0.0000000000000 1.00000000000000
  }
  Dispersion = LennardJones { 
    Parameters = UFFParameters {}
  }
}

ParserOptions = {
  ParserVersion = 3
}
