Geometry = GenFormat {
<<< "system.gen"
}

Driver = VelocityVerlet{
  Steps = 100000
  TimeStep [fs] = 0.2
  MDRestartFrequency = 5
  Thermostat = None {
    #InitialTemperature [Kelvin] = 300.0
  }
  Xlbomd{ 
    IntegrationSteps = 6 
    MinSccIterations = 2
    MaxSccIterations = 200
    SccTolerance = 1e-6 
  }
  Velocities [m/s] {
     -8.63086955E+02      2.97274726E+02      8.76950832E+01
     -7.09599960E+02     -9.52771669E+02      1.64088554E+03
      1.33070410E+03      1.78148815E+03     -1.52204212E+03
      5.59299973E+01     -6.95921789E+02     -5.03802040E+02
      7.56732149E+02     -1.54176175E+03     -2.26032381E+03
     -2.05725414E+03     -9.90539359E+01     -2.09333386E+03
      3.01517305E+02     -7.13312745E+02     -3.94016870E+02
     -2.73768177E+03     -1.39927369E+03     -1.85414314E+02
     -1.13652585E+03     -5.11826578E+01     -9.27334226E+02
     -4.80844377E+02     -8.08660787E+02     -1.65462547E+02
      3.17915353E+02     -3.51405713E+02     -2.47009629E+03
     -8.00661654E+02      6.39179283E+02      5.28334669E+02
      6.14220446E+02      8.31410156E+02      2.02348739E+01
      2.99902297E+02      8.20317110E+02     -2.55270271E+03
     -1.69755723E+03     -5.16576720E+02     -3.22832864E+03
     -5.22468843E+02     -2.81204385E+01      1.14210557E+02
      1.29665011E+03     -3.47086066E+03      2.36537896E+01
      1.23398663E+03      3.16915754E+02      5.29591610E+02
      2.63307423E+02      3.53123119E+01      5.99364280E+02
     -3.74708453E+02      1.37283836E+03      2.83509047E+03
     -6.08629113E+02      3.24536414E+01     -5.57538691E+02
     -1.97133318E+02      3.29447939E+02      1.07869488E+02
     -1.09103825E+02     -2.48020757E+02      7.46116537E+02
     -1.15592968E+03      1.49649536E+03     -1.04609169E+03
     -4.38503635E+02      7.71057432E+02     -7.74144153E+02
      2.37981187E+03     -2.44424578E+03     -6.51281110E+02
     -1.78862481E+02      2.20460987E+03     -2.43342909E+03
      7.22087713E+02     -4.33327739E+02     -1.97579546E+03
      7.43130035E+01     -3.44983475E+02      3.21086197E+02
     -3.13669786E+03      6.04023849E+02     -4.61076999E+03
     -5.45569503E+02      7.68516099E+02      2.22667651E+03
     -2.61677880E+03     -1.14643914E+03      1.93739066E+02
     -1.53381998E+02     -4.31714408E+02     -2.20908764E+02
      3.15345939E+02     -2.62486572E+03     -2.61346697E+03
      1.36204285E+03     -1.01096268E+03     -1.96946922E+03
     -9.30180600E+02      4.48575854E+02      7.38128641E+02
     -1.40287294E+03      2.15202366E+02      2.50352480E+03
     -3.56523860E+03     -1.68795809E+03     -4.60989246E+02
     -3.52731748E+02     -5.13684616E+02      3.75753102E+02
      2.11905390E+03     -4.41887204E+02      8.34330368E+02
     -6.92727329E+02      1.20770227E+03     -5.13659933E+02
     -6.68555777E+02      4.23666462E+02     -8.13969279E+02
      1.51331929E+03     -4.96296932E+02      7.45368262E+02
     -1.14048512E+03     -5.50246072E+02      1.25191908E+03
      2.52156966E+02     -2.92459240E+02      2.45068821E+02
     -6.29172822E+02     -2.10505989E+03     -5.78172787E+02
     -2.84960220E+02     -8.60646145E+02     -1.48643961E+03
      9.56542157E+02      1.20888978E+02      3.37511473E+02
     -9.57170742E+02     -1.31035161E+03     -1.55927326E+03
     -1.04022372E+03      1.24801434E+03      2.07973045E+03
      4.93066673E+02      3.50515982E+02     -2.11003631E+02
      1.23745033E+03     -1.21997489E+02      7.87774936E+00
     -4.97802806E+02     -2.44856384E+03      1.15785861E+03
      3.64019027E+00      6.02307872E+02      3.68212574E+02
     -7.87167157E+02     -9.21937571E+02      5.37702405E+02
      4.33621956E+02      1.67132734E+03     -1.41537836E+03
     -5.31409814E+01      5.90936561E+02     -4.75466378E+01
     -4.07290569E+02     -4.93816755E+02      1.06702919E+03
      2.34936731E+03     -6.56732464E+02      1.23270957E+03
      2.81612512E+02     -2.49382785E+02      3.07818593E+03
     -7.53082009E+02      5.97900379E+02     -5.65968033E+02
     -1.12177205E+03     -6.29112896E+02      1.02198151E+03
     -6.97151391E+02      8.61114209E+02     -1.74335256E+03
     -1.46385057E+03      1.16096178E+03     -1.43570571E+03
      3.47566506E+02      3.40059440E+02     -2.03427756E+02
     -3.42342117E+02     -1.23948393E+03      2.93656725E+03
     -3.29687009E+02      9.93472672E+02     -1.88278290E+03
      4.48916496E+02     -1.60889757E+02      7.08231569E+01
      2.27676436E+03      5.42303443E+02     -1.30009131E+03
      1.35715959E+03     -1.69653875E+03      5.82667964E+02
     -7.92662174E+02      3.82187376E+02      5.33580738E+02
     -3.90406026E+02      4.70246464E+01      1.45518184E+03
     -1.99147827E+03     -1.57425726E+03      8.80578741E+02
     -4.57368263E+02      1.39141578E+02     -4.65009377E+02
      4.55225615E+01      2.03974586E+03      9.55193738E+01
     -6.62013771E+02     -1.80915693E+03     -1.02958045E+03
     -6.02392988E+01      4.58670735E+02      3.38467788E+01
      1.04370624E+03      3.57028432E+02      1.97913406E+02
      1.32852018E+03      2.35926914E+03     -5.28377859E+02
     -4.35013486E+00      5.26054604E+02      6.74943427E+02
      1.16981284E+02     -1.72623603E+03      1.26907981E+03
     -1.59614822E+03      9.77818653E+02     -3.85702389E+02
     -1.36336185E+03      9.53845394E+02     -6.76793598E+02
     -1.82361344E+02     -1.43181420E+03      2.67232678E+03
     -6.88058691E+02     -2.20363856E+03      5.29228877E+02
     -3.56446131E+02     -1.68359167E+02     -4.67688073E+02
      7.21615072E+02     -2.24169275E+03      1.15072820E+03
     -1.22363972E+03     -1.88541605E+03     -1.70519591E+03
      1.53888626E+02     -1.35043582E+02     -2.03170502E+02
     -1.12062367E+03      5.81665577E+02      9.86076955E+01
     -2.25365484E+03      1.01922799E+03     -7.39275478E+02
     -1.90225655E+03      2.44080078E+03     -3.39603913E+03
     -1.15314358E+02      8.47637086E+02     -6.22152112E+02
     -3.56179721E+02      9.47789130E+02     -1.09778951E+03
      3.24133484E+02      3.53044801E+02      3.99109489E+02
     -2.98062023E+03      4.09201737E+03     -2.37123170E+01
      1.13822501E+04     -1.05338087E+04      1.53024939E+04
      2.24639487E+02     -3.34681416E+03      2.62816448E+02
     -6.86061482E+02     -8.22239071E+02     -5.75429188E+01
      9.54885903E+02     -1.77818563E+02     -1.20475891E+02
     -2.45419229E+03     -5.67766411E+02      2.97364449E+02
      1.59837472E+03      9.91279791E+02     -8.75741336E+02
     -4.35927722E+02     -2.09086787E+02     -3.77812922E+02
     -1.61075415E+03      7.64232570E+02     -1.42794850E+03
     -5.50193728E+02     -3.87726180E+02      1.87943181E+03
      2.35999613E+02     -8.70593787E+02      1.17980630E+02
      3.92781341E+02      3.51247511E+02     -1.14986450E+03
     -1.86261435E+02     -3.19868143E+03      2.08347384E+02
     -5.49248068E+02      6.62351772E+02      2.28965043E+02
     -1.74636761E+03      4.05530991E+02     -8.57368315E+02
     -1.15232542E+02     -4.77096868E+02      3.13028434E+02
      3.97205293E+02      2.26873503E+02     -5.75240095E+02
     -1.22337076E+03     -3.99865082E+02      1.34704071E+03
     -1.42361124E+03      3.66715038E+02     -1.13024720E+03
      8.06561503E+02     -7.40737644E+02      5.46044417E+02
      1.89625104E+03     -1.51869233E+03     -8.25628704E+01
     -1.07231169E+03     -2.13783835E+02      7.39013281E+02
     -1.71939681E+02     -5.17764837E+02     -5.33428532E+02
      1.50240860E+03      3.04486653E+03     -1.12293331E+03
     -6.72741598E+02     -8.19303243E+02     -1.16122068E+03
     -1.40534746E+02     -1.66342611E+02     -1.91698454E+02
     -2.98514874E+02      1.84310137E+03      1.77141121E+03
      3.10968241E+02      1.26215819E+03      2.85105534E+02
     -6.81194065E+02      1.88414993E+03     -4.73173879E+02
     -4.65977431E+02     -2.89106090E+02     -2.67327192E+01
     -1.80789263E+03      2.57949555E+02     -8.86222983E+02
      1.99962458E+02      9.08280448E+02      9.87937741E+02
      1.84328868E+03      3.86274633E+02      6.69634183E+02
     -2.04370471E+02     -3.53681977E+02     -6.14942240E+02
      1.03149997E+03     -4.32478782E+02      4.32649101E+02
      1.80949381E+03      8.97241901E+02      8.78552763E+02
     -1.47772739E+02      1.11405187E+01      1.09490045E+02
     -4.04132897E+03      9.50865694E+02     -9.94459079E+02
     -1.44560977E+03      3.36995698E+03      9.83553574E+01
     -1.12267373E+03     -6.79618099E+01     -5.96611965E+02
      3.22259364E+02     -9.86034968E+02     -1.27267442E+03
      1.57556752E+03     -3.18647915E+03     -2.23503307E+03
      3.77314174E+02     -1.02500442E+03     -3.99579223E+02
      2.13102243E+03      1.75137585E+03     -1.62570333E+03
      8.43237321E+02      1.41361766E+03      7.96888157E+02
      1.52133181E+02     -4.63110596E+02      4.58012845E+02
     -4.02042531E+01     -2.03816513E+03      1.61210204E+03
     -2.22469427E+03      1.52828731E+03     -2.31632622E+02
      1.64579530E+02      4.22314594E+02     -7.92393578E+02
     -1.88237559E+03     -4.00611335E+02      2.37029904E+03
     -5.80936357E+02      1.27463757E+03     -1.24985798E+03
      2.82848822E+02      9.44103275E+02     -6.38503147E+01
      1.28165607E+03      2.83627928E+03      2.06792815E+03
      1.21425881E+03      2.17587579E+03      7.12676372E+00
      1.76447722E+02     -6.20606495E+02     -1.58198252E+02
     -9.61068467E+02      8.62907654E+02     -1.16051981E+03
     -2.32559987E+02      8.77036237E+02      2.07445993E+03
      2.70696233E+02      4.86196471E+02     -6.96355037E+02
     -3.25934298E+03     -5.18933047E+02     -3.26827432E+01
      8.47245902E+02      8.34876257E+02      7.31443108E+02
      1.01337097E+03      7.54290264E+02      9.21045089E+02
      3.23610430E+02     -1.58431935E+02      1.45790913E+02
      2.90673608E+02      2.95652467E+01      1.97671053E+03
      1.32565691E+03     -6.77595909E+02      2.11089544E+03
      3.65963144E+03      2.62188955E+03     -2.94932876E+03
      4.76900191E+02     -1.65335840E+02     -7.77527221E+02
     -5.62600925E+02     -3.80400795E+02      2.08568243E+02
     -2.10072335E+03     -1.40445094E+03     -5.28989635E-01
     -9.90754747E+00      5.82160495E+01     -6.67197329E+01
     -2.85562691E+03     -1.08638648E+03     -1.95243941E+03
     -1.91781521E+03      8.55328985E+02     -1.36765211E+03
     -3.56739326E+02      1.76707441E+02     -4.16197744E+02
      1.60639008E+03      1.08143819E+02     -9.83521181E+02
     -1.75289019E+03     -1.78154248E+03      2.71147160E+02
      6.11581393E+01      3.33091839E+02      1.02727527E+03
      1.28239565E+03     -2.12382229E+02      4.19079540E+02
      2.53725279E+02      1.30515098E+03      2.54957507E+03
      8.76884084E+02     -3.55790683E+02      1.11652849E+02
      2.72685331E+02      5.67242041E+01      1.15391524E+03
     -3.85758114E+01     -2.29775715E+02     -1.57004445E+02
     -3.48691239E+02     -3.82703687E+02     -3.62709805E+02
     -3.59006412E+01      1.14454526E+03     -2.69525667E+02
     -3.94578430E+02      7.67598573E+02     -1.04757045E+03
      1.18561054E+03     -5.73048480E+02      5.07098582E+02
      1.91585114E+02      6.52319033E+01     -4.31895147E+03
      1.10091337E+03      1.05291148E+01     -2.31520291E+03
      1.88573808E+01      6.42890053E+01     -4.72042463E+02
      7.04463557E+02     -7.72030618E+02     -6.42173257E+01
     -4.62916903E+02     -1.21711730E+03      1.46689455E+02
      1.30208618E+02     -6.25766543E+02      2.56108482E+02
     -1.34771402E+03      2.24920572E+00      7.28529428E+02
      5.90257939E+02     -7.62196172E+02      1.79509643E+03
      4.35489299E+02     -1.54699628E+03     -2.80027114E+03
     -3.23525106E+02     -1.94348639E+01      5.69283168E+01
      2.08472037E+03      4.22735862E+02      1.29599820E+03
      1.15797719E+03     -1.57191671E+03      6.84790037E+02
      7.30844768E+02     -1.56127916E+03     -2.29553643E+02
     -2.68060697E+01      5.92405862E+02     -8.20667319E+01
     -1.01424895E+03      1.11657266E+03     -5.21635506E+03
      9.11418402E+02     -2.47631602E+02      9.93179199E+02
     -7.28303991E+02      2.21543277E+02     -1.60950773E+02
      1.63560355E+02     -3.28857203E+03     -7.53629021E+02
      2.46858901E+02      3.61122813E+03      2.88806030E+03
     -8.48030032E+02      1.01054079E+03     -6.81051221E+02
      8.60088367E+02     -9.38364187E+02      9.86632631E+02
      4.72286077E+02      3.13330992E+03     -4.13625605E+02
     -2.05859864E+02      7.39455552E+02     -8.50277938E+01
      7.21910026E+02      2.66746788E+03      6.47772440E+00
     -1.62034641E+03      4.12737557E+03      3.06126992E+02
     -4.60404514E+02     -1.24573768E+02      1.39185351E+02
     -9.87188550E+01      6.17730387E+02      7.77236850E+02
      1.89843097E+03     -1.23580663E+03     -2.62027979E+03
      1.94476449E+01      7.28143449E+02      5.33630962E+02
      1.09567603E+03      2.73619195E+03      2.83318868E+03
      1.61013842E+03      1.54111249E+03     -6.83445722E+02
     -9.78431054E+02      8.15016236E+02     -6.14172366E+02
     -1.96167190E+03      2.05313592E+02     -1.33159406E+03
      2.27460762E+02     -4.45066121E+02      6.82666677E+02
     -2.39648268E+02      4.56399288E+02      4.44663944E+02
     -1.73770951E+03      1.77951914E+03     -8.63362430E+02
     -7.35828311E+02      2.81572985E+03     -1.28263382E+03
      1.16512753E+03      3.50145691E+02     -3.74351242E+02
      9.95127393E+02      1.79018404E+03      9.67371656E+02
      1.02531456E+03      1.02531481E+02     -1.01597087E+03
      8.32896289E+02     -1.81191059E+03     -2.23475903E+02
      1.00596020E+03      4.53540374E+02     -1.02580243E+03
     -7.10068988E+02      1.42539679E+03     -1.70888658E+03
     -8.42562280E+02     -1.38610005E+03      1.42820012E+03
     -3.42111961E+03      3.16348404E+03     -2.23407900E+03
     -9.96691662E+02     -1.28418053E+02     -8.42766439E+02
      6.72589271E+02      4.42271028E+02     -9.90870622E+02
      1.26520320E+03      2.22143286E+02      9.29113457E+02
     -6.13683697E+02      3.68636387E+01     -8.38292219E+02
     -2.63263593E+02     -8.33158711E+02     -1.04534756E+03
     -1.73663915E+02      1.17495775E+03     -2.74057902E+03
      3.40897519E+00      1.46139279E+02      4.70061670E+01
     -1.53245343E+03      7.07735329E+02     -1.43382026E+03
      9.17965715E+02     -9.49844215E+02      1.97113012E+03
     -1.49144383E+02      1.29680366E+02     -2.47525288E+02
     -1.80789371E+03     -1.64758977E+02     -1.08935731E+03
     -3.10136391E+03      1.78488254E+03     -2.38686671E+02
     -5.54220120E+02      6.24612433E+02     -1.54192527E+02
      6.62233448E+02     -2.01310365E+03     -1.42574740E+03
     -1.12500347E+03      1.99909233E+03     -3.83526358E+03
      1.21278781E+02      3.38397692E+02     -8.55300303E+02
     -1.62735457E+03     -1.36472396E+03      1.88747774E+03
     -1.90347665E+03     -7.64851018E+02      8.16621555E+02
     -1.65275411E+02      1.88195618E+02     -2.24906252E+02
      1.74883332E+03      2.76992616E+01     -1.72677469E+03
     -9.90008419E+02      1.08610616E+03     -9.57180317E+02
     -1.18177023E+02      4.66469084E+02     -2.87175476E+02
     -7.84757844E+02      5.09672810E+02      2.75911729E+02
      2.23692834E+02     -2.84540461E+03     -4.74407169E+02
     -1.53723619E+02     -1.21871279E+02      6.11635624E+02
      1.25366506E+03     -3.28728843E+03     -8.72478721E+01
     -2.34523589E+03      2.56723103E+03     -2.69034414E+03
      5.64027262E+02     -1.77498814E+02     -1.34021312E+03
     -4.21118504E+01      1.95928982E+02      4.82061909E+02
     -7.57547082E+02     -2.74600666E+02      3.12171706E+02
     -1.63945862E+03      4.65357599E+02     -1.27486245E+03
      1.19221186E+03     -6.26083586E+02      1.18391337E+02
      2.88629151E+02      2.35470541E+02      6.59748262E+02
      7.32178233E+02     -1.36506643E+02      6.81554016E+02
     -1.61518817E+02     -1.27024799E+03      1.66954108E+03
     -1.35711356E+02     -1.10278081E+01     -1.81439840E+02
      2.45301892E+02     -2.32469735E+03      1.01954058E+02
      4.05139078E+03     -3.06545718E+03     -1.40681266E+03
     -2.57329521E+02      6.08687331E+01      1.64089264E+02
      9.03719470E+02     -1.46292289E+02     -1.14465422E+02
     -8.89662813E+01      2.33124979E+03      1.01874356E+03
      1.80758962E+02     -2.09779753E+02     -1.06257786E+02
     -8.55077323E+02     -8.65220707E+02      3.41564862E+03
      1.04768592E+03     -3.29399650E+03     -9.25593153E+01
      6.28782345E+02      9.34253149E+02     -3.63993659E+02
     -1.66559666E+02      1.27291938E+03      1.51453655E+03
      1.99413345E+01      8.11049087E+02     -3.40498631E+02
     -1.93628066E+00     -4.51898171E+00      2.70469794E+02
     -1.72439447E+03     -2.40682785E+02     -2.22208515E+03
     -6.02978773E+02      1.05706751E+03      3.39564008E+02
     -3.97382548E+02      9.31421243E+02      5.01079199E+02
     -1.99681144E+02      1.15917811E+02      1.47892979E+03
     -2.55186593E+03      1.83797439E+03      1.09116807E+03
      6.74217578E+00      2.22235840E+02     -3.15504358E+02
      2.66143072E+02     -1.58517546E+03      2.05744518E+03
     -4.57577271E+01      4.64066304E+03     -1.57936162E+02
      9.20374239E+02     -6.01406536E+02      4.92910900E+01
      1.14597493E+03      2.32867045E+03     -2.46517548E+02
      1.74181998E+03      1.71149304E+02     -1.22698961E+01
      2.58110375E+03     -1.10928468E+02     -2.14803227E+03
     -3.58494138E+01      2.63558038E+02     -3.86861072E+02
     -1.31748023E+03      1.00812505E+03     -2.17117809E+02
      1.29720059E+03      1.41089236E+03      1.86970066E+03
     -9.07426462E+02      1.54864615E+03      5.48673607E+00
     -4.69330356E+02     -3.06992211E+02     -5.73705986E+02
     -7.32158914E+01     -1.24214483E+03     -7.41029220E+02
      9.82066126E+02     -1.74000908E+03     -6.13967869E+01
      3.13694809E+01     -4.33253933E+02     -7.57171387E+02
      1.65365762E+02      2.35762148E+03      2.96320855E+03
      2.43383948E+02      4.25178720E+02     -3.65596069E+03
     -6.02765357E+00     -3.88869205E+02     -5.06139838E+01
     -1.10604186E+03     -9.82434648E+02      4.98210621E+02
      2.79743826E+03     -2.27215357E+03     -1.86040574E+03
     -5.90724212E+02      2.52348799E+02     -8.68811899E+01
     -1.76800902E+02      5.28752243E+03     -3.02420194E+03
      7.13902164E+02     -2.76292923E+03      1.24649469E+01
      7.16806507E+02     -4.93918863E+02      3.58477203E+02
     -6.69261103E+02      1.28717106E+03     -8.30526476E+00
      3.63867086E+02     -9.05127567E+01      2.62491260E+03
      2.29753137E+02      7.28917881E+02      4.26643108E+01
      1.33340181E+03      1.08599388E+03     -2.99041633E+03
     -1.03400914E+03      1.15698953E+03      5.38080436E+02
     -2.62315677E+02     -8.09534757E+01      2.98031755E+00
      1.03293748E+03      4.48817746E+03      2.62111117E+03
      3.03776632E+02     -1.53750793E+02      1.49868148E+03
     -7.47661937E+02     -5.80692962E+02      3.18862277E+02
     -9.66219693E+02     -2.80731825E+02      1.30549454E+03
     -2.20313940E+03     -3.99773899E+02      7.79527906E+01
     -7.90366016E+02      6.01174326E+02     -7.88603563E+02
     -2.06880476E+02      5.13389212E+02      2.22114070E+02
     -2.19851437E+03     -1.62036268E+03      2.32556429E+02
     -1.49257541E+03      1.67763812E+03     -1.98873571E+02
      4.38241539E+01     -3.35058411E+02      3.00625364E+02
      3.72914549E+03      1.21887107E+03      2.23112773E+03
      2.10967117E+03      8.35734087E+02      1.73041112E+03
      2.83354891E+02     -2.07166591E+03     -1.14816055E+03
     -3.68152066E+01     -2.10330561E+02     -2.84974227E+02
      6.46830772E+02      1.87510887E+03     -9.88469179E+02
     -5.69826186E+02     -2.66476891E+03     -6.84397293E+02
     -2.68319788E+01      6.71184559E+02      3.77722013E+00
      9.08107038E+02     -1.10438111E+03     -8.95436755E+02
     -2.94637979E+02     -1.04886524E+02     -1.32920406E+03
     -6.94315653E+02     -2.67493890E+02     -3.56825520E+02
      1.73655546E+03      1.59867690E+03     -8.11093973E+02
      4.92785495E+02      6.15656128E+02      2.54516240E+02
     -7.37230202E+02      6.95618186E+02      1.02185594E+02
     -9.55124418E+02     -8.59501427E+02      5.91541471E+02
     -8.07673237E+02      5.33497183E+02     -1.66125746E+03
      1.47340598E+02      1.28884212E+02     -3.08391988E+02
      1.66235407E+03     -4.38716602E+02      3.71969714E+02
      3.45137154E+02      1.37401703E+03      4.07784012E+03
     -9.54485826E+00     -5.51425859E+01     -1.44385102E+02
      5.57953621E+02      1.14205826E+02     -9.03455467E+02
      2.01927411E+03      1.94860083E+02      3.65176922E+02
     -9.67016054E+01     -8.64330009E+01      8.76614203E+01
     -7.86747214E+01      1.73162970E+03     -3.81104122E+03
     -2.71439460E+03      4.19134190E+01      1.15253762E+03
     -6.66200230E+02     -3.23082538E+02     -1.49944874E+02
      2.26756847E+03     -2.15524264E+02     -1.84784815E+03
      1.79625226E+03     -1.76080160E+03     -6.36098573E+01
     -6.78087912E+02      1.05383340E+02      1.04784401E+01
     -1.34975886E+03      6.01546119E+02     -5.12575125E+02
     -2.34453548E+03     -1.66048736E+03     -3.12590457E+03
     -1.36440405E+02      9.35669302E+02     -6.01953764E+02
      2.00723624E+02     -6.30094231E+02     -8.00529819E+02
      1.35517982E+03      1.45399954E+03      1.12044630E+03
     -4.39115026E+02     -1.35150100E+03      2.94642903E+03
     -5.38843888E+02     -4.64097967E+02      1.88365375E+02
  }
}

Hamiltonian = DFTB {
  SCC = Yes
  SCCTolerance = 1e-6
  MaxSCCIterations = 200
  ForceEvaluation = Dynamics
  MaxAngularMomentum = {
    C = "p"
    H = "s"
  }
  Charge = 0.0
  SpinPolarisation = {}
  Eigensolver = Standard {}
  Filling = Fermi {
    Temperature [Kelvin] = 300.0
  }
  SlaterKosterFiles = Type2FileNames {
    Prefix = "../../pbc-0-3/"
    Separator = "-"
    Suffix = ".skf"
    LowerCaseTypeName = No
  }
  KPointsAndWeights = {
    0.0000000000000 0.0000000000000 0.0000000000000 1.00000000000000
  }
  Dispersion = LennardJones { 
    Parameters = UFFParameters {}
  }
}

ParserOptions = {
  ParserVersion = 3
}
