Geometry = GenFormat {
<<< "system.gen"
}

Driver = VelocityVerlet{
  Steps = 100000
  TimeStep [fs] = 0.2
  MDRestartFrequency = 5
  Thermostat = None {
    #InitialTemperature [Kelvin] = 300.0
  }
  Xlbomd{ 
    IntegrationSteps = 6 
    MinSccIterations = 2
    MaxSccIterations = 200
    SccTolerance = 1e-6 
  }
  Velocities [m/s] {
      1.06414713E+03      1.64509546E+02     -2.12634168E+02
      8.05728779E+02      2.63965697E+03     -4.29562627E+03
     -1.90360436E+03      5.21392116E+01     -2.74109140E+03
      8.42328797E+02      2.68779974E+02     -2.01138321E+02
     -8.81596130E+02      1.91968362E+03      1.47662981E+03
     -2.87725406E+02      6.73340574E+02      2.71693413E+03
      3.87323032E+02     -1.85287776E+02      6.97352387E+02
      8.83063097E+02      3.11604149E+03     -8.96457724E+02
     -5.72559807E+02      3.16451326E+03      1.37111954E+03
      1.78361863E+02      4.66267079E+02     -1.18275576E+02
     -2.87306566E+03     -5.98708522E+01     -1.25174935E+03
     -1.63730198E+03      3.14939733E+02      1.58781214E+03
      7.72497766E+02      1.46382730E+02     -3.93824086E+02
      4.12209922E+02     -8.88860016E+02      1.02739853E+03
     -2.34761437E+03     -1.69509038E+03      6.59008338E+02
      4.98778008E+02      1.23471104E+02     -2.73520195E+02
      4.86989706E+02     -2.61577332E+03      2.35611193E+02
     -8.01213943E+02      5.26990358E+02     -2.74140881E+03
      6.31323243E+02      6.43395929E+02      1.98602018E+02
     -1.03182223E+03      1.08622177E+03     -1.69025716E+03
     -9.31943088E+02      1.20181508E+03      3.05163689E+03
      1.39287273E+02      4.53196398E+02     -1.01893334E+02
     -1.48540724E+02      1.10257740E+03     -9.78536722E+01
      8.56330687E+02      3.75752911E+02     -3.58320894E+02
     -3.77647926E+01      6.85694140E+01      1.88125331E+02
     -1.55328948E+03      8.38040041E+02     -4.36764767E+02
      2.86262272E+03     -1.09755138E+03      1.33229446E+03
     -4.74723126E+02      9.13568764E+01     -1.21843031E+03
     -2.14182081E+02      6.10670474E+02      1.12078309E+02
     -2.01670496E+03      1.20445689E+03      7.42274345E+02
     -1.80559988E+03     -1.24019206E+03     -3.93238323E+03
     -6.59216589E+02      7.86302630E+02      3.90994382E+02
      5.61208760E+02     -4.85564524E+02     -1.16747648E+03
      1.04297395E+03      1.89128538E+03      3.89832921E+03
     -1.74033002E+01     -2.46753881E+02      3.80463540E+02
     -3.04649364E+02     -8.64279284E+02     -4.93024716E+02
      7.83458578E+02      2.05868935E+03     -3.63628229E+01
      7.41385305E+02      1.60141352E+03      1.62618244E+02
      2.17331020E+02      2.41101454E+02      3.60322209E+01
     -3.82541596E+03      1.11378501E+03      7.33125722E+02
     -1.66169942E+03     -2.13535026E+01     -9.30572300E+01
     -7.20662247E+02      2.28423233E+02      3.02057901E+02
     -5.09799133E+02      4.43641497E+02      1.57505867E+03
      3.50596174E+02     -2.75649034E+02      1.56004307E+03
     -1.13263589E+02      2.78935959E+02      1.42947991E+02
      2.74116345E+03     -4.56587039E+02      8.90442415E+02
     -1.63776244E+03      1.77175296E+02      1.45712605E+03
     -5.30953143E+01      3.34877456E+02      3.37402283E+02
      6.44378502E+02      4.39561902E+02      8.10487289E+02
      9.95406057E+01      2.48654839E+03      1.41713718E+03
     -4.10025521E+02      7.09782205E+02     -5.97421447E+02
     -8.58317854E+01     -9.60333941E+02      1.23431094E+03
      2.08752697E+03     -3.82871625E+02      1.48223985E+03
      2.66252694E+02     -3.52182597E+02      8.72813280E+02
      3.29049775E+02      1.60766735E+03      3.00187205E+03
      2.07122444E+02     -3.35888260E+02      1.30822951E+03
     -2.39330185E+01      7.79233088E+01      3.90777631E+02
     -1.78224978E+03      7.04284715E+02      2.27453507E+03
      1.84729081E+02     -1.96707036E+02     -8.16506185E+01
      2.53938878E+02     -1.44090047E+02      1.05891621E+03
     -5.19202689E+01      5.37898605E+02      7.51755532E+01
      4.70457376E+02     -6.74992272E+02     -8.76649432E+02
     -1.52481524E+03     -1.21906834E+03     -1.63891365E+03
      2.29513583E+03      1.34186090E+03      1.27760412E+03
     -3.09462134E+02     -3.09390972E+02     -2.97512783E+02
     -1.15569116E+03      6.08610217E+02      4.13786809E+02
      2.95470879E+02      5.37744031E+02     -6.78414545E+02
      9.96092512E+02     -2.01082528E+02      6.40213039E+02
      1.53644203E+03      4.66711180E+02      1.04864781E+02
      1.57114420E+03      4.20915210E+02      7.29961665E+02
     -8.27369248E+01      6.23524787E+02     -3.77847062E+02
      1.13647992E+02      1.18211246E+03      7.75379846E+02
      2.26489876E+03      5.96192733E+02     -1.67086692E+03
      6.86975755E+01      2.74090308E+02      2.64400002E+02
      1.07820693E+03     -1.19655191E+02     -1.44496678E+03
      2.76723024E+03      2.83658431E+03     -2.39062125E+03
      8.97542073E+01      7.17793588E+01      4.78742841E+01
      4.24956766E+02      1.25845860E+03      1.23324107E+03
      1.59326627E+03      1.07994295E+03      9.31935252E+02
      3.54102585E+02      1.51353622E+03     -3.93495674E+02
     -1.87084413E+03      1.10788226E+03      5.29597574E+02
      3.00788819E+01     -7.29459954E+02     -1.08330984E+03
      4.85863331E+02     -1.49318904E+02      1.62531976E+02
     -3.06478223E+02     -7.42605909E+02     -1.41497311E+03
      5.86881502E+02     -1.06940367E+02     -9.18106849E+02
     -1.08375112E+02      4.57227068E+00      2.85498834E+02
     -9.62593182E+02     -5.22730248E+02     -1.35808283E+03
     -1.36388461E+02      3.29689208E+02     -1.26752002E+03
     -1.27228432E+02      4.69884384E+02     -2.93456899E+02
     -3.17072325E+02     -4.16579079E+02     -2.64893952E+02
      2.78519441E+03     -3.46286042E+02      2.53572259E+03
      3.03083343E+03      4.03869513E+01      7.71434001E+02
     -1.20299000E+02      3.33482843E+02      4.44192256E+02
     -4.78528828E+02      1.62801642E+03      1.62309769E+03
     -1.86539332E+03     -3.66598290E+03      5.99083700E+02
     -1.27043773E+03     -3.10132314E+02      2.68817921E+03
      1.33402018E+02     -7.62181672E+02     -9.87250738E+02
     -6.78085517E+02     -3.67340400E+00      1.14532315E+02
     -2.36281800E+03      1.14832392E+03      2.39581209E+03
      9.23405031E+02     -2.66747950E+02      2.96561530E+02
     -1.16064967E+03     -2.96076408E+03     -7.60610429E+02
      1.75432785E+03      1.54165721E+03     -2.14538920E+03
      4.61383738E+02     -2.56117156E+01      1.69807050E+02
     -2.96416031E+03      2.71288393E+02      2.42159769E+03
     -1.13328357E+03     -9.04905484E+02     -2.92929990E+02
      4.60548589E+02     -3.00271522E+01      4.17144735E+02
     -3.33678793E+03     -2.08423981E+03      1.22696081E+03
      5.07458894E+01      7.84695817E+02      1.18460056E+03
      7.33955602E+02     -1.22311862E+02     -6.15833585E+01
      1.00457848E+03      2.08960780E+03      5.87508169E+02
     -3.23277686E+01     -1.73337692E+02      1.93345385E+03
      6.15226309E+01      3.98217037E+02      4.08024555E+02
     -1.70119833E+03      2.60948163E+03     -3.18581224E+03
     -5.76415824E+02      1.94658806E+03     -1.85132625E+02
     -2.23177673E+04     -1.70838721E+04     -9.08666324E+02
      3.75916626E+02      2.19468669E+03      1.54715994E+03
      2.10101137E+03      5.40990458E+02      3.47357652E+02
      2.78064014E+02      9.53964625E+02      2.46251830E+02
     -1.97712778E+03     -3.59059997E+02     -1.50519965E+03
      8.33352554E+02      9.85781785E+02     -1.60295855E+03
     -3.71565894E+02     -4.54689021E+02      2.42056761E+02
     -3.67058399E+01      2.07509384E+03      3.20443812E+02
      8.57865466E+02     -2.38104199E+03      2.31252239E+03
     -1.25415431E+03     -5.70867813E+02     -2.04278823E+03
     -5.00164855E+02      4.12098629E+02      3.77022822E+02
      7.17368448E+02      1.02733545E+02     -1.05832892E+03
     -8.27636321E+02      1.50622566E+02      1.15714848E+03
     -7.96814744E+02     -3.16911141E+02     -1.95818194E+03
      2.53158463E+02      1.90483428E+02     -1.89159541E+02
     -3.26717012E+03      1.40880862E+03      3.25938835E+02
     -8.79973107E+01      5.43921356E+02     -6.01786900E+02
      4.60008083E+02      9.15582406E+01     -3.20406047E+02
      8.52147469E+02      8.10504562E+02     -5.15625676E+02
     -9.42120509E+01     -7.08431369E+02      2.17109178E+03
      5.09928675E+02     -2.20293720E+02     -2.93555333E+01
      2.04759598E+02     -3.51126402E+02     -5.56828936E+02
     -1.24253864E+03     -9.45637288E+01      1.73053775E+03
      5.26405817E+01     -2.38681036E+02      6.10964565E+02
     -3.89184165E+02     -2.11760111E+03     -2.47815688E+02
     -3.19922830E+01      4.46828068E+02      2.51729748E+02
     -3.80389027E+02     -2.92349554E+02     -6.55750672E+02
     -1.14049315E+03      1.66157073E+03     -2.53431479E+02
      4.31138372E+01     -1.23258622E+03     -1.40726161E+03
     -1.92999394E+02     -5.07039248E+01      1.30631770E+02
      2.22491438E+03      5.67937910E+02     -1.05747854E+03
     -4.44893063E+02      2.80496842E+02     -1.53445331E+03
      3.71650037E+02      3.15283685E+02     -3.78390126E+02
     -2.95828169E+03      1.02655117E+03      1.10794771E+03
     -2.27539693E+03     -1.53963580E+03      7.89944449E+02
     -5.95560724E+02     -7.66703513E+02      1.32889892E+02
     -1.73541408E+03      2.10265096E+03     -1.51363342E+03
     -1.58978326E+03      3.24449247E+03      2.25801222E+02
      3.09092287E+02     -5.30806809E+02     -5.50299654E+02
      5.17252971E+01     -1.80550398E+03      2.42803915E+02
     -1.58845446E+03      1.81500215E+03      1.69882079E+03
      1.07543069E+03      1.74292743E+02     -7.52530119E+02
     -3.83350611E+02      1.28054456E+03      3.19020946E+02
      2.99007835E+01     -8.03129146E+02      3.25986821E+03
     -3.71816475E+02      1.43446163E+03     -7.83449012E+01
     -3.70096321E+03     -6.29956961E+02      7.43797905E+02
     -5.47577706E+02     -2.71336067E+02     -5.34756560E+02
     -5.33992156E+02      2.74982882E+03      4.18776246E+02
      2.32102715E+01     -1.69679505E+03      3.11130966E+01
      1.06180641E+02      8.35054428E+02      1.66146724E+02
     -9.45762261E+02      1.34311462E+03      7.78122362E+02
      2.03680602E+03      6.23313815E+02     -1.25803089E+03
     -1.91269135E+02     -1.38282819E+02     -7.45514501E+01
      8.66677849E+01      5.81518936E+02      6.90737975E+02
      2.52660385E+03      3.38321704E+02      2.29675267E+03
      8.36205238E+02      4.06724366E+02      7.50321574E+02
     -4.44786976E+02      5.12291790E+02      8.36656933E+02
      2.41110544E+03      2.54966983E+03     -1.80872487E+03
      1.65054738E+03     -4.32371524E+02     -7.44572119E+02
     -1.20914509E+03     -3.74293563E+03     -2.19345008E+03
      3.92195418E+02     -1.55738929E+01      6.01609727E+02
      8.38477510E+02     -8.22691803E+02     -1.11647841E+03
      4.50946151E+01     -2.13850031E+03     -1.27438632E+03
     -1.25152000E+03     -1.15186336E+02      8.49676078E+02
     -2.21399658E+02      3.95466298E+02     -3.17505726E+02
     -1.54695151E+03      3.35008879E+03     -1.32359228E+03
      2.76195765E+03      2.23399192E+03     -1.41226994E+03
      5.88945405E+02     -1.11172919E+02      3.68022965E+02
      3.69360746E+02     -2.33862114E+03      1.64896318E+03
      3.58593905E+03      3.70325538E+02     -1.58810182E+03
      4.78651732E+02      2.67556773E+02      5.44445717E+02
      2.44677751E+02      4.39029462E+00      1.98155114E+03
      1.02358021E+03     -6.14562007E+02     -4.77265459E+03
      1.50842496E+03     -1.69385583E+03     -9.15142689E+02
      4.74170853E+01     -8.15707070E+01     -3.19227015E+02
     -1.92412564E+03     -1.12241355E+03     -1.74946671E+03
     -3.57673122E+03     -1.37671131E+03      1.03873883E+02
     -1.11164478E+03      1.94614289E+03      2.44439658E+03
      9.46150042E+02      8.72081355E+02      3.34297579E+02
     -1.11070705E+03     -5.44739613E+02      5.99833928E+02
     -3.57509595E+03     -5.18439097E+02      9.06159083E+01
      4.60575097E+02      8.10666299E+02      1.72479192E+02
      3.60896947E+03      1.39232109E+03      8.91744816E+02
      9.94149427E+02     -3.14593840E+02     -9.83259115E+02
      6.11403016E+02     -3.86404281E+01      1.33334544E+02
      2.00798229E+03     -1.99421377E+02     -5.97206862E+02
      8.40852988E+02     -6.27664599E+02      1.81268183E+03
      2.45036603E+02      2.43990940E+02      6.72401965E+02
     -1.32818298E+03     -1.10204587E+03      3.01769374E+03
     -6.72505144E+02      6.70756051E+02      1.49854615E+03
      5.04581357E+02      7.26049597E+02     -9.75815368E+02
      4.82138408E+02      3.70031298E+02      1.72123309E+03
      1.05063956E+03     -1.28855129E+03      2.13780995E+02
      6.70704636E+02     -4.06253750E+02     -2.36168604E+02
     -1.52298781E+03      4.38143363E+02      1.14786741E+03
     -1.91701396E+02     -1.21448519E+02     -1.87490915E+03
      1.86288858E+02      1.21042052E+03     -7.29313551E+01
      5.78658325E+02     -2.10366858E+03      7.89657049E+02
      7.82304011E+02      9.94971091E+02     -6.95913947E+02
     -4.34303677E+02     -4.65636713E+02      9.35452042E+02
      6.35817514E+02     -1.34808425E+03      2.96827679E+02
      2.39572409E+03      1.66743068E+03      8.89862238E+02
      2.21982281E+02      4.54737238E+02      5.77564620E+02
      5.19295259E+02      6.27175657E+02     -2.37250010E+03
      2.49900118E+03      1.57245485E+02      4.76880501E+02
      2.27506933E+03     -1.52559040E+03     -1.09502055E+03
      3.17225129E+02     -3.17595000E+02      4.25789258E+02
      2.81334572E+03      7.73607209E+02     -1.90416940E+03
     -2.69879718E+03      4.95246398E+02      2.41828113E+03
      5.31839349E+02     -1.69633985E+03     -1.05325251E+03
      9.95124184E+01      1.98662029E+02     -4.61916300E+02
      5.04231687E+02      8.58134329E+02      1.09896497E+03
     -8.64044927E+02      4.31335491E+02      7.20053250E+02
      1.38579982E+02     -4.36087490E+02     -7.43914045E+02
      3.59423037E+02      3.00740629E+03      2.21696618E+03
      1.47057277E+03     -5.28762171E+02      1.33325270E+03
      2.45862093E+02      1.22031889E+02      2.07441178E+01
      3.27202217E+03      4.41811360E+02     -2.19206114E+03
     -3.05363911E+03     -7.17864328E+02     -8.74313590E+02
      8.23802904E+02     -1.29936403E+02     -5.30422789E+02
     -1.63272861E+02      1.51368201E+03     -9.79168434E+01
     -4.88735520E+01      1.52569462E+03     -3.41824057E+02
      4.09911923E+02      3.18433059E+02      7.52596402E+01
     -1.15021119E+03     -9.21261645E+02     -4.04259421E+03
     -9.86553760E+02      2.18984534E+03      6.92081526E+02
      8.64413072E+02     -5.28068549E+01     -3.08058541E+01
     -1.62098573E+01      7.89357876E+02      1.09352666E+02
      2.13506385E+03     -4.12347788E+01     -5.12216022E+02
      9.22004042E+01      5.35814838E+02      4.52147939E+02
     -6.25102177E+02     -1.84633215E+02      6.52912711E+02
      1.76619427E+03      1.47451569E+03     -2.24973152E+03
     -9.34579443E+01      7.71047510E+02     -1.60187221E+02
     -9.59753833E+02      1.10850167E+03      9.72619463E+02
      1.47598018E+03     -1.05245762E+03     -1.13986466E+03
     -1.67572124E+01      2.45667093E+02     -1.49475055E+02
      1.72304288E+02      4.57631517E+02     -2.13587301E+02
      1.19105198E+03      8.52168784E+02      1.43643388E+03
     -1.57475087E+03      1.79672252E+03     -2.25613620E+02
      1.42205871E+02      2.19974048E+02     -1.46535889E+01
      3.25439177E+03      3.26948596E+02     -1.33241005E+03
      2.60233568E+03     -3.89771619E+03     -2.73511724E+02
      1.68919027E+03     -2.95325854E+02     -2.20934005E+03
     -1.62221696E+02      4.05407025E+02     -2.80822745E+02
     -6.22534305E+02     -9.08310860E+02     -1.84473273E+03
     -2.82993873E+03     -1.07648018E+03     -6.17868921E+02
     -2.76443035E+02      2.10423481E+02      2.46465324E+02
      1.78358698E+03      1.35656105E+03      5.95447243E+02
      5.83242203E+02     -3.55034575E+02      4.06176967E+02
      1.46943317E+03      2.41415920E+00      3.00065368E+02
     -2.34057348E+03     -2.32667201E+03     -9.74109196E+02
      4.00893759E+02     -5.80239274E+02      1.33528617E+03
      2.18919304E+02      3.44656432E+02      6.94147785E+02
      1.71024649E+03     -5.95658596E+02      7.16445937E+02
      7.21662219E+02      4.20041060E+02      5.51894629E+02
      2.83001564E+02      1.45201432E+02      5.28095563E+02
      1.12803223E+03     -1.95386445E+03      4.63961683E+02
     -4.16317985E+01     -1.55593676E+03      8.10420987E+02
     -1.33404111E+02     -1.26132249E+02      4.77518828E+02
      2.98409702E+02     -1.13769467E+03      1.29438020E+03
     -1.30670293E+02     -1.31577426E+03      1.05999837E+03
      6.32147051E+02      2.14429316E+02     -5.74563676E+02
     -8.80163858E+02      8.21567085E+02     -2.35246086E+03
      2.63557883E+02      1.30868798E+03     -6.03409507E+03
     -1.05950710E+02      6.34082292E+02     -5.27392275E+02
     -1.70584804E+03     -1.13841420E+03     -2.70231051E+03
     -2.59345348E+03      2.06304868E+02     -2.18399452E+02
      7.74985378E+02     -5.96368838E+02     -6.76480604E+02
      2.29942807E+03      1.87335395E+03      1.05351716E+02
      1.16087440E+03      1.16897317E+03     -6.17393789E+02
     -1.00162256E+02      6.21769402E+02     -3.46852199E+02
     -4.49825921E+02      3.63132053E+01     -5.94704034E+01
     -4.72211684E+02      3.69953833E+02      2.25828880E+03
     -6.01238752E+02     -1.79809509E+03      9.30364661E+02
      4.23087752E+03     -4.77349355E+02      1.41374454E+03
      9.00139886E+02      2.03439596E+02     -4.16994202E+01
     -2.25628403E+03      7.75522641E+02      9.46986886E+02
     -2.86915635E+03     -1.08627383E+03      1.37373675E+03
      1.74552399E+02     -5.07840287E+02     -1.51741399E+02
      2.04584524E+03     -5.41555508E+02     -5.04151260E+02
      1.03216343E+03      2.21927824E+03      8.32845767E+02
      9.95770442E+01      1.66582802E+02     -6.73699469E+01
      3.07405213E+02     -3.06867218E+02     -2.32157647E+02
      1.54018329E+03     -3.50004259E+02      8.34690455E+02
      1.20912293E+02     -1.82560164E+02     -4.56409694E+01
     -1.91843535E+03     -2.11706481E+03     -1.46485875E+03
     -2.62766016E+03     -2.23177610E+03     -5.66251741E+02
      1.05074021E+02      3.84147586E+02      2.09635136E+02
      1.39307748E+02     -6.32048345E+02     -1.34670565E+03
      8.68881176E+01     -2.05576729E+03     -1.94623167E+03
      3.96513672E+02      3.18353294E+02     -7.95672853E+02
      9.65868779E+01      1.99955372E+03      1.18360570E+03
     -1.50338289E+02     -1.77650559E+03     -1.34832254E+03
     -1.01111201E+02     -3.98482200E+01      1.93586015E+02
     -9.65596777E+02      4.35513272E+02      1.44636425E+03
     -7.09588008E+02     -1.93372710E+01     -5.50492451E+02
     -2.38528102E+02     -1.85268057E+02     -3.97387971E+02
      9.88125143E+02      3.18021037E+02     -1.63056213E+03
     -1.57675354E+02      2.43943257E-01     -1.92337536E+03
      2.57904044E+01     -5.07163788E+02     -3.00509046E+02
      1.84252904E+03      2.01340637E+03      8.00782051E+02
      9.57784134E+02     -9.90794674E+01      8.04768445E+02
     -1.71726775E+03     -6.93583345E+01      1.10524937E+03
     -1.26117983E+02     -5.57870485E+01      4.46286263E+02
      1.00550857E+03      1.20611823E+03      1.19623519E+03
      1.23583176E+03     -6.23157218E+02      1.65758168E+03
      2.89475348E+02      1.68888910E+03      2.24182231E+03
      1.75150485E+02     -2.99301637E+02      1.26257018E+03
      3.09164051E+03     -1.28897778E+03      6.39861952E+02
     -1.97051853E+03     -1.90753242E+03     -4.08377890E+03
     -3.85045810E+02      6.19716750E+02      5.18774307E+02
      1.21802258E+03      7.05384482E+02     -5.53155853E+02
      6.66648006E+02      2.37281496E+03      3.58025282E+03
      4.85497593E+01      5.42425740E+02     -5.24055940E+02
     -6.46549741E+01     -3.16576437E+01     -1.15800302E+03
     -1.13028774E+03     -2.86877304E+03     -1.08252481E+03
      2.78901506E+02      1.31668069E+02     -1.77728568E+02
      1.39212508E+03     -5.23991418E+01     -1.52322285E+03
     -6.07753873E+02      5.70530808E+02      1.47875454E+03
      4.44342933E+02     -1.63186834E+02      4.00735170E+02
     -6.45512746E+02     -8.46475986E+02      1.33606437E+01
      1.72607725E+02      5.60119362E+02     -4.48486331E+02
      9.30169662E+02      3.74232960E+02     -1.72004401E+02
     -1.01902110E+01      1.91090233E+02      5.75665993E+02
     -4.67371394E+02     -9.27276997E+02      6.01413987E+02
      5.08962292E+01      9.81520383E+02      1.07937937E+01
      2.53766424E+03      2.63019896E+03      4.09396228E+02
      1.18554968E+03      7.97157535E+02     -1.41201032E+03
     -9.13141337E+02     -1.80660066E+02     -1.88771398E+01
      2.98226389E+03      8.64781531E+02     -1.76343352E+03
     -6.79473423E+02     -6.68798225E+02     -8.18278430E+01
      3.04110130E+02     -3.62136124E+02     -1.00209805E+01
     -1.20467905E+03     -5.52425339E+02      2.46661195E+03
     -9.55376834E+02      1.32880612E+03      7.03589186E+01
     -6.90022826E+02     -6.54566327E+01     -1.08256876E+03
      3.16104149E+02      7.68952614E+02     -1.24123869E+02
     -1.05825455E+03     -1.78144070E+03     -3.15028556E+02
      6.85097877E+02     -2.07018973E+03      3.22355105E+03
     -7.10425108E+02      3.08857279E+02     -2.40706711E+03
  }
}

Hamiltonian = DFTB {
  SCC = Yes
  SCCTolerance = 1e-6
  MaxSCCIterations = 200
  ForceEvaluation = Dynamics
  MaxAngularMomentum = {
    C = "p"
    H = "s"
  }
  Charge = 0.0
  SpinPolarisation = {}
  Eigensolver = Standard {}
  Filling = Fermi {
    Temperature [Kelvin] = 300.0
  }
  SlaterKosterFiles = Type2FileNames {
    Prefix = "../../pbc-0-3/"
    Separator = "-"
    Suffix = ".skf"
    LowerCaseTypeName = No
  }
  KPointsAndWeights = {
    0.0000000000000 0.0000000000000 0.0000000000000 1.00000000000000
  }
  Dispersion = LennardJones { 
    Parameters = UFFParameters {}
  }
}

ParserOptions = {
  ParserVersion = 3
}
