Geometry = GenFormat {
<<< "system.gen"
}

Driver = VelocityVerlet{
  Steps = 50000
  TimeStep [fs] = 0.2
  MDRestartFrequency = 5
  Thermostat = None {
    #InitialTemperature [Kelvin] = 300.0
  }
  Xlbomd{ 
    IntegrationSteps = 6 
    MinSccIterations = 2
    MaxSccIterations = 200
    SccTolerance = 1e-6 
  }
  Velocities [m/s] {
      2.69454811E+02      2.17932448E+01     -8.23207307E+01
     -2.63969891E+03      4.68048016E+01      2.62998384E+03
     -1.22860301E+03     -6.95433296E+02     -2.94826720E+03
      1.49634679E+02     -4.64352108E+02     -3.36008349E+02
      2.59452242E+02      2.83669518E+03      1.63540710E+03
      1.37248743E+03     -1.22422349E+03      1.21560882E+03
      2.55763783E+02      5.85110410E+02      2.76641391E+02
      4.45084357E+01      8.46057014E+02      1.34346236E+03
     -1.39634087E+03      2.98447339E+02      8.32817082E+02
     -5.54648118E+02     -2.14119077E+02     -1.05151818E+02
      2.67382821E+03     -1.20472509E+03      1.84756694E+03
      3.36330164E+03     -1.51573310E+02     -4.69665453E+02
     -2.43049912E+02     -4.57069814E+02     -9.56518890E+01
     -1.26183096E+03     -5.51743189E+02     -9.97309603E+02
     -1.74733606E+03      3.82320401E+03      2.16022895E+03
      1.21537729E+02      4.08025211E+01      2.85182014E+02
      1.79478333E+03     -6.03442455E+02     -2.04814703E+03
      1.77681289E+03      8.45713760E+02     -9.97775678E+00
     -8.64611080E+01     -1.15101632E+03     -3.25673008E+02
     -1.04884864E+03      1.31875941E+03      2.50706598E+03
      1.01538850E+03      3.83857678E+02     -3.03029707E+03
      4.29819725E+02     -8.81479240E+01     -1.59186038E+02
      2.83063753E+03     -4.09315703E+02     -1.15058681E+03
      6.23054649E+02      8.18460523E+02     -1.05522585E+01
      2.14691935E+02      9.60338474E+02      8.83282988E+02
     -1.20926119E+03     -7.64042001E+02     -3.50495076E+03
      1.54959089E+03      1.43661107E+03     -1.24585563E+02
     -2.78858529E+03      2.45349976E+03     -2.94224878E+02
      7.69233689E+02      2.17800562E+02      2.75552744E+02
      1.78982584E+03      2.55247550E+03     -3.09252837E+02
      1.01225420E+03      1.37511101E+03     -1.45644406E+03
      3.45587704E+02      1.32249265E+03      3.96607339E+03
      1.43041376E+02      4.19721405E+02     -3.98620011E+02
      1.63009275E+02     -3.17859525E+03      2.30643441E+02
     -2.38890971E+03      1.01349099E+03      1.51027833E+03
      6.48967102E+02      6.27157535E+02      1.60891004E+01
     -1.02179056E+03     -9.13207446E+02      1.51876187E+03
     -8.61152109E+02     -6.99956671E+02     -2.18699010E+03
     -3.94417659E+01      3.93232353E+02      1.08166499E+03
     -2.17610900E+03     -1.63567394E+03     -2.10242510E+02
      6.56945893E+02     -2.19921448E+03      1.65150661E+03
     -4.78865612E+01     -9.02105912E+01      1.29071745E+03
     -2.19046508E+03     -1.08984515E+03     -2.05302407E+01
     -1.68642133E+03      1.78512464E+03      3.46613749E+03
     -6.97649349E+02     -2.49582453E+01     -1.73973370E+02
      3.54450310E+02     -3.54938579E+03     -2.68635443E+03
     -7.80343708E+02      9.44917598E+02      3.75493964E+02
     -5.64059035E+02      5.91211942E+01     -2.70580316E+02
      7.36230208E+02     -1.22167396E+03     -4.51433152E+02
     -6.11962727E+02      1.51774140E+02     -1.09631860E+03
     -1.17022484E+04      1.05725133E+04     -1.50147586E+04
     -4.13520591E+02     -2.38035033E+03      2.44968584E+03
      2.56959033E+03      5.71069757E+02      2.32307414E+03
      8.44933728E+02     -3.09844515E+02      6.21020238E+02
     -5.19141416E+02     -8.43982193E+02     -1.78311177E+03
      4.07909227E+02     -8.29332994E+02      7.36215135E+02
      2.76544068E+02      2.12799492E+02     -6.57058878E+02
      2.44584350E+03     -1.91615352E+03      1.08217604E+03
      2.57466088E+02     -2.66513518E+03     -3.33789612E+03
     -9.36940351E+02     -2.97839785E+02     -9.22832360E+02
      6.71652457E+01     -5.04313521E+02     -3.07186163E+02
     -1.32717699E+03     -6.97790511E+02      1.46408967E+03
     -1.13704660E+03     -2.90013931E+02     -6.76966563E+02
      3.97488908E+02      1.05054245E+02     -6.34631722E+02
     -3.46386890E+02      1.20712868E+02     -4.11795429E+01
      1.67353976E+03     -2.94613782E+02      1.81216264E+03
     -2.23528164E+03     -1.16606270E+03      3.27328285E+01
      2.94061839E+02     -1.87437624E+02     -6.64686631E+02
      2.45459033E+03     -1.06870254E+03      2.32198541E+03
     -2.27050703E+03     -3.34418714E+02      1.96240768E+03
     -5.15467396E+02      2.56298570E+02      8.28255846E+02
      6.52747265E+02      3.59130028E+02      2.23345367E+03
      4.24336136E+02     -6.04125921E+02     -2.23972086E+03
      2.78554318E+02     -5.60065720E+02      3.70548343E+02
      2.61691768E+02      1.11021162E+02     -1.71039851E+02
     -2.20529411E+03     -1.51574603E+03      1.46401718E+03
     -1.71375838E+02     -1.08477377E+02      5.33817520E+02
     -1.82933226E+03     -2.66676458E+03     -7.35978185E+02
      9.46069827E+02     -1.80059684E+03      1.00712431E+03
      9.25435734E+02     -9.11965468E+01     -2.21198143E+02
     -6.82440998E+02     -1.29283967E+03      8.58141047E+02
     -8.69715048E+01     -9.13240660E+01     -7.70958700E+02
      4.49178541E+02     -5.21965770E+02     -3.52870383E+02
     -3.89722446E+03      3.07049600E+03      1.51147980E+03
     -5.12793414E+02     -4.04019263E+03     -1.36551318E+03
      1.00293187E+02     -4.54016286E+02     -5.13623082E+02
      2.18575820E+03      9.54422499E+02      5.85332704E+02
      1.99795275E+03      4.46115950E+02     -9.44652167E+01
      2.92523413E+02     -2.89137626E+02     -2.75193824E+02
     -7.69054076E+01     -3.75988116E+03     -7.87049788E+02
     -2.80440109E+03      3.12476370E+03     -1.04295448E+03
     -1.77177366E+03     -6.50539792E+02      1.89590911E+03
      6.65680026E+02      2.61662347E+02     -8.85599996E+01
      1.62871363E+03     -1.33074679E+02      1.02815675E+03
     -1.13556487E+03     -1.89748104E+03     -9.79780852E+02
     -2.25014479E+03      1.36603185E+03     -1.09763399E+03
     -5.06178431E+02      1.19663229E+02      1.82900833E+02
      7.17229523E+01     -7.06712882E+02      1.90397400E+03
      2.17443900E+02      7.46013675E+02     -1.88565602E+03
     -1.17319848E+02      3.78941879E+02      4.66446884E+02
      2.10427263E+03     -3.72613621E+02     -8.52914179E+02
     -7.22511344E+02      3.86510076E+03      1.02683675E+03
      7.73130887E+02     -3.95925613E+02      4.09734990E+02
      1.85725717E+03      2.34329636E+03     -1.18677169E+03
     -3.31638568E+02     -2.36327821E+03     -3.66399874E+03
     -2.39361357E+02      1.91948225E+02     -2.62617380E+02
      1.16331688E+03     -9.41505444E+02     -5.54499860E+02
     -1.58208663E+03     -2.16102275E+03      1.06459343E+03
     -2.63581619E+02     -4.33368923E+02     -1.74698236E+02
      2.13590676E+03      5.50813047E+01     -2.65603171E+03
     -1.60916082E+03     -1.87901468E+03      2.97378897E+03
     -1.37358747E+02      5.25940215E+01     -1.68891682E+02
     -1.97474883E+02     -3.54171777E+02     -1.64244735E+03
      9.86276944E+02     -9.28703899E+02      2.44785780E+03
      9.94208843E+00      1.67727374E+02      1.83431830E+02
      1.71115581E+03     -1.65989658E+03      7.48212679E+02
      4.91546434E+02     -8.45205884E+02      2.08261112E+02
      1.59978715E+02     -8.19922115E+02     -8.91531436E+01
     -2.13013008E+03      4.45955844E+02      6.83267027E+02
     -1.14912892E+03      1.35505271E+03     -1.67294602E+02
      2.65187589E+01      1.70664173E+02      7.77394587E+01
     -1.33719687E+03     -7.78726024E+02      1.34258996E+03
      2.55456530E+03      1.85672778E+03     -1.98801055E+02
     -3.68209304E+03     -7.72195144E+02      1.01500467E+03
      4.25136417E+02     -4.65056915E+02      1.07434409E+02
     -1.72262166E+03      1.36363882E+03      8.94853244E+02
     -4.39223246E+02     -1.89086463E+03      2.94242946E+02
      1.31186315E+02      1.67036701E+03     -2.56597693E+03
     -1.00296465E+03     -2.78157358E+02      9.94260996E+02
      2.08719207E+03     -4.50308730E+03     -3.26667876E+03
      6.38645396E+02     -1.13039459E+03     -1.48841243E+03
     -5.31123876E+02      1.91916324E+02      4.70120762E+02
     -6.05166986E+02     -3.47187361E+03     -7.82132643E+01
     -8.09235715E+02     -8.57059747E+02      1.21109745E+03
      1.92540242E+02     -3.92790145E+02      6.53060460E+02
      7.64320321E+02     -2.37772853E+03     -1.20770772E+03
     -7.06583807E+01     -2.66706469E+02     -1.51299572E+03
      4.56726544E+02     -3.02255111E+02      4.00266529E+02
     -1.32802739E+03     -1.51505924E+03     -5.51216917E+02
      1.60665107E+03     -1.33051798E+03     -1.14299622E+03
     -5.31766533E+01      5.63831089E+02     -1.06127568E+02
     -4.70760106E+02     -1.21112252E+03      3.44224870E+03
      1.82700802E+03      9.22574489E+02      2.49332606E+02
     -1.47602404E+02      1.56975115E+02      6.56050331E+02
     -3.11066655E+02      4.91734056E+02      1.34462816E+02
      1.05631462E+03     -1.67669025E+02      1.94015223E+03
      2.78981772E+02      1.38002080E+02     -3.26897427E+02
      8.60712217E+02     -4.56249670E+01      1.07264148E+03
     -1.86098912E+03     -7.38035367E+02      3.19928026E+02
     -1.03694452E+03     -4.12181158E+02      9.08132537E+01
     -4.44679326E+02     -6.92014769E+02     -1.39477425E+03
     -6.36508512E+02      1.56673064E+02     -1.11957457E+03
      1.14461650E+02      9.44709132E+01      7.74752943E+02
      1.38188532E+03     -2.63105794E+02      1.15043644E+03
     -5.55168251E+02      1.56555815E+03      6.41148062E+02
     -2.61828458E+02     -1.90961666E+03     -2.45039752E+02
     -4.36517222E+02      3.29968984E+02      2.42267723E+01
      1.32437307E+03     -3.29568149E+02      1.61853398E+02
      2.68048590E+03      9.48729222E+02     -9.43489145E+02
      1.55280704E+03     -4.61012520E+01     -1.81082734E+03
     -9.87785910E+02      1.23142031E+03      1.20281452E+03
      9.76019744E+02      2.59952034E+02     -1.83029225E+03
     -1.31089109E+02     -9.25457977E+02     -1.59436486E+03
     -3.99277771E+02      1.37034231E+02     -7.87490826E+02
      1.34895740E+03      3.88112832E+02      3.50426223E+02
     -3.93353203E+01      1.34209819E+03     -3.35408323E+02
     -4.08254317E+00     -4.77757153E+02      8.51753467E+02
     -4.33713969E+02     -4.61800352E+02      2.04624704E+03
      1.24552158E+03     -3.55201029E+02      7.98272726E+02
      7.17558579E+02      5.10686431E+02      9.67822262E+01
     -2.09274034E+03     -1.97020514E+03     -1.08514186E+02
     -2.00318439E+03      9.61885973E+02     -5.58329585E+02
      3.27527115E+02      3.79361968E+02      5.61923375E+02
      1.00828721E+03      1.28750164E+03      3.02242696E+02
     -4.23647778E+02      9.67282978E+01     -8.24443793E+02
      3.19665001E+02      3.80572351E+02     -1.13209740E+03
      1.07927530E+03      9.42356945E+01      2.58030169E+02
      1.25710980E+02      5.20386171E+02      8.64632810E+01
     -1.27338644E+02     -1.16632709E+02      3.42186881E+02
      1.14669910E+03      5.34670247E+02     -1.52019531E+03
      2.30928277E+02      2.60422569E+03     -4.07445735E+01
      4.75191464E+02     -6.44567667E+02      8.99387103E+01
     -2.38343336E+02      2.73444052E+03     -1.78036407E+03
     -1.03111117E+03      2.34037696E+03      7.24496918E+02
     -4.83195658E-01      5.57500264E+01      3.44546820E+02
      8.16389371E+02     -4.76110251E+01      7.94007771E+02
      5.28936093E+02     -2.06305593E+03      3.27856931E+02
      1.52599001E+03     -4.40991280E+03      2.58365211E+03
      6.02253694E+02      1.85309599E+02      3.63996754E+02
      3.25260785E+02     -1.64724122E+03     -2.33900454E+03
     -3.36068892E+03     -2.32342039E+03     -5.38207208E+01
     -4.50692730E+02     -7.74530144E+02     -8.99954958E+01
      4.23277387E+02     -3.20066189E+02     -6.44762022E+02
      1.49990607E+03      1.03727895E+03      1.81619151E+03
      1.47104606E+03     -2.15836153E+03      5.08896255E+02
     -8.72587785E+01     -8.75106023E+01     -4.35545323E+02
      7.16308014E+02     -3.18153847E+03      6.37366546E+02
      1.81652221E+03      3.48104440E+03     -8.67079474E+02
      1.56032671E+02      2.68086257E+01     -2.38539575E+02
      5.77825465E+02     -1.43154488E+02      4.02608459E+01
      8.94611772E+02     -1.39701970E+03     -2.93535586E+03
      4.89475586E+02     -4.09378342E+01      6.51552540E+02
     -2.46011561E+03      2.48092303E+02     -1.36350750E+03
      4.98845992E+02     -1.55881526E+03     -1.03449102E+03
     -5.84473351E+02     -1.26545525E+02     -5.76339583E+02
     -9.15337171E+02     -3.49621715E+03     -3.04843674E+02
      4.26454497E+03      1.41987227E+03      4.19343973E+02
     -2.29920391E+02      8.22587504E+02     -3.73046396E+02
     -1.70697164E+03     -1.33078549E+03     -1.39850874E+03
      1.38929301E+03      4.05658201E+02     -1.04928097E+03
      4.79802959E+01      3.55858896E+02     -2.95411160E+02
      1.17298228E+03      1.49548126E+03      3.19617054E+02
      4.76922343E+02     -1.97139933E+03     -1.30109879E+03
     -6.47497717E+02      1.34029977E+02      2.81416711E+02
      1.07708528E+03     -8.80049069E+02     -4.57998756E+02
      1.47240497E+03      8.85327572E+02      5.02246625E+02
      3.46855906E+02     -8.39848587E+02      1.01227961E+03
      8.59175031E+02     -9.95025931E+02     -1.11623428E+03
     -2.14835042E+03     -1.10165994E+02     -3.66937722E+02
      7.68502858E+02     -2.10961241E+02      1.73511067E+03
     -1.98310094E+02     -3.91881103E+02     -6.29329179E-01
     -1.65754022E+03      1.12699505E+03      3.66251805E+03
      8.05849088E+02     -1.23769291E+03      6.40703047E+02
      2.37106670E+03     -1.43527052E+03     -6.09153179E+02
      5.74105595E+02      4.22333297E+02      5.28213309E+02
      1.90583838E+03     -7.92137423E+02     -3.75438806E+02
      4.09015334E+03      1.32567581E+03      6.83261614E+02
      6.74656228E+02     -2.97578652E+02      2.81442736E+02
     -2.45662168E+02     -1.28230924E+03     -4.43546311E+03
      1.11816729E+03      1.75881804E+03     -7.03625992E+02
      5.67025376E+02      4.67078733E+02     -5.26740421E+02
     -3.54261638E+02     -1.21324692E+03      2.75162782E+03
      2.32243118E+03      1.17346035E+02      8.92045016E+02
     -4.82259402E+02     -9.88959014E+02      3.33829234E+02
     -2.27039761E+03     -8.22155993E+02      2.97214275E+02
     -2.22099590E+03      5.04310381E+02     -3.05879275E+03
      2.18239742E+02      7.57138577E+02     -6.70391349E+02
      6.20976214E+02     -2.07597801E+03     -5.70818549E+02
      1.72892316E+03     -3.37547135E+02     -1.76774566E+03
      3.77035919E+02     -1.21596452E+02      4.09631840E+02
      4.26172704E+02      8.98309502E+02     -1.16058324E+03
      1.11322780E+03     -8.06031998E+02      1.58589883E+03
      4.95387411E+02     -6.47571402E+01      8.33143167E+02
     -4.87642565E+02      8.09253785E+02      2.53009107E+01
      3.17795101E+03      1.29557576E+03     -7.84842377E+02
      3.50599215E+02      3.79710870E+02      6.60837689E+02
     -3.67609823E+02     -1.48214612E+03     -1.16041883E+03
      2.03625545E+03      6.17610141E+02     -3.03083029E+03
     -3.20906703E+02      1.77450332E+02     -3.77866856E+02
      8.78099444E+02     -3.16802433E+02      1.88327561E+03
      9.13283391E+02     -5.09968237E+02      3.20151213E+03
      1.00301727E+03      1.95061244E+03      2.20272017E+03
      5.99280035E+02      3.32964969E+02      5.84200427E+02
     -2.95772548E+02     -9.96205347E+02     -3.24525983E+03
      3.44323683E+02      2.29753264E+03      7.18202587E+02
     -4.86893771E+02     -1.12636993E+03      8.12486366E+02
      1.97909727E+02     -4.72337300E+02      4.87479715E+02
      2.19185239E+03     -1.88622912E+03      9.00155806E+02
     -1.24361493E+02      1.63360346E+03      2.62699190E+03
      3.03081694E+02      1.82273044E+02      7.75753632E+01
     -4.72695228E+03      6.36994769E+02     -1.10478409E+03
     -5.35994936E+02      3.46199673E+02     -1.48214951E+03
      5.16969521E+02     -4.18079269E+02      1.10264213E+03
     -1.24854132E+02      2.05754524E+03     -1.55568282E+02
     -7.06998093E+02      1.48704358E+02     -3.97607919E+02
     -2.08073301E+02      3.09095176E+02     -3.54218885E+02
      4.54666703E+02     -1.30607663E+02     -2.01240207E+03
     -8.83157944E+02      1.39118272E+03      1.47216579E+02
      2.78425029E+02      9.49505770E+00      8.59811411E+02
      2.30090140E+03      4.73209111E+02     -1.25444022E+03
     -2.93111148E+02     -3.12392067E+03      1.62887781E+03
      7.68234123E+02     -1.63243214E+02      3.41291906E+02
      1.82556231E+02      1.55807369E+02     -1.77662663E+03
      3.63232481E+02     -6.34455868E+02      2.62538689E+03
      5.80110907E+02      2.22236267E+02      8.96784305E+01
     -3.31696922E+02      1.50915799E+03      9.55521553E+00
      1.68566321E+03     -3.33506221E+03      6.60381089E+02
     -1.09664112E+03     -3.31195778E+02     -2.85149054E+02
      1.30035782E+03      2.33881483E+03      1.00698289E+03
      4.14642756E+02     -1.52852822E+03     -6.57539734E+02
     -1.97707618E+02      6.53557145E+02      7.81201990E+02
     -8.54182207E+02      2.45812301E+03      2.37271422E+03
      1.67690639E+03      1.49537354E+03      6.87373335E+02
      1.80130177E+03     -7.25032900E+02      1.58962275E+03
     -3.22898530E+01      5.48644247E+02      4.89673186E+00
     -7.96145853E+02      2.80816235E+02      1.29058383E+03
      1.80420440E+03     -1.86296734E+02      7.23992990E+02
     -7.32123814E+02     -1.15385199E+03     -3.54193723E+02
      4.26408754E+01      3.40054458E+02     -4.03638363E+02
      4.86444576E+02     -1.13537986E+02      1.11215303E+03
     -7.62971894E+02     -2.68056419E+02     -1.22980643E+03
      9.47581949E+02     -6.38581220E+02      2.53605524E+02
     -5.66773632E+02     -1.35580779E+02      1.74392614E+03
     -2.10619643E+03      1.84389180E+03     -9.57622239E+02
      7.64537826E+02     -4.52713316E+02      7.68306294E+01
     -5.05305893E+02      1.18880353E+03     -1.16808079E+03
     -1.34332114E+03     -7.76067416E+02     -3.96804666E+02
      3.90880076E+01     -5.92887097E+02      5.66584850E+02
      1.11514109E+02      1.07497911E+03      1.34993106E+03
      3.37815787E+03      4.27195038E+03     -2.39471123E+03
      6.24796830E+01      2.27176644E+02     -6.17092092E+02
     -3.44939975E+02     -1.39654926E+03     -3.73882401E+02
     -8.92342625E+02      2.92133690E+03      2.29194979E+02
      5.93277983E+02     -6.32640743E+02      1.91751752E+02
      8.35542892E+02     -1.62240329E+03      1.88560847E+02
      1.01157337E+03     -2.32790219E+03     -3.70587511E+02
      2.90420153E+02     -4.51162024E+02      1.18475553E+02
     -2.61817725E+03     -6.87589509E+01     -2.50792889E+03
      2.07781233E+03      2.59125950E+02     -1.06331152E+03
      3.75650844E+02     -5.46089400E+02      8.00619112E+02
     -3.28117461E+03      1.00678952E+03     -1.24472673E+03
     -2.01402024E+03     -3.13405635E+03      4.84972514E+02
      6.50940873E+01     -5.43434685E+02      5.53704890E+02
     -3.46677172E+03     -2.24267484E+03     -2.00166234E+03
     -5.92786714E+02      1.30589590E+03     -4.95117513E+02
      1.48577614E+03      4.52578770E+02     -1.88679962E+03
      7.82386873E+02     -7.16387042E+02      1.12274966E+03
     -3.75587232E+02     -1.75277803E+03     -7.27351678E+02
      7.92840327E+02     -7.26109687E+02     -1.87526630E+03
      1.08222337E+03      2.10065870E+02     -1.40694822E+03
     -4.12211669E+02     -1.00347985E+03     -1.10827796E+02
     -1.65749576E+03      8.86735918E+02     -2.03785676E+03
     -1.41554525E+03      2.36677250E+03     -6.16251776E+02
     -2.96282105E+02     -3.85986337E+02     -8.32351612E+01
      7.25109580E+02      1.23949572E+03      2.41116229E+03
     -2.36738591E+03     -1.91557628E+03      7.87217130E+02
     -1.80909567E+02     -1.16352481E+03     -1.61626750E+02
     -4.64383988E+03     -7.79929094E+01      6.49021950E+02
     -2.27075517E+01     -2.48992345E+03     -5.94273233E+02
     -3.50520005E+02     -6.88210532E+02     -5.57637667E+01
     -1.50577573E+03     -5.51286849E+02      2.60778881E+02
      2.38076143E+03     -2.19424387E+02      2.98574038E+03
     -9.74457885E+01     -1.03716904E+01      2.86072272E+02
      6.57426105E+02     -3.68861230E+03      8.43317203E+02
      1.99297534E+03      1.08904210E+02     -1.46224102E+03
      7.33350763E+01      1.91487729E+02      3.74130115E+02
     -7.29784725E+02     -1.39097216E+03     -3.69182194E+02
     -3.24036294E+03      9.81274474E+02      2.89858504E+02
     -7.13333489E+02     -1.69609585E+02      8.46204025E+02
     -1.18796410E+03     -3.44897347E+02      1.32314830E+03
      2.13301576E+03     -2.93331695E+01      8.33156337E+02
      6.40768875E+02     -4.72136516E+01     -8.86930140E+02
     -2.59381638E+03     -1.32573612E+03      2.15248170E+03
     -8.24711863E+02     -2.16282582E+03     -9.33287495E+02
      1.08876342E+03      3.32295280E+02     -4.82947962E+01
      5.58912561E+02      2.06847780E+03      2.73758050E+03
     -9.49575727E+02     -1.93829409E+03      1.61388936E+02
     -2.06979382E+02     -3.43817686E+02      1.76183163E+03
      1.85331189E+02     -9.68222434E+00      8.99478678E+01
     -2.54252311E+02      3.02985506E+03      1.63531367E+02
      1.68044167E+03     -1.68105169E+03     -1.28647614E+03
      3.33431177E+03      4.04297890E+03      4.39596511E+01
  }
}

Hamiltonian = DFTB {
  SCC = Yes
  SCCTolerance = 1e-6
  MaxSCCIterations = 200
  ForceEvaluation = Dynamics
  MaxAngularMomentum = {
    C = "p"
    H = "s"
  }
  Charge = 0.0
  SpinPolarisation = {}
  Eigensolver = Standard {}
  Filling = Fermi {
    Temperature [Kelvin] = 300.0
  }
  SlaterKosterFiles = Type2FileNames {
    Prefix = "../../pbc-0-3/"
    Separator = "-"
    Suffix = ".skf"
    LowerCaseTypeName = No
  }
  KPointsAndWeights = {
    0.0000000000000 0.0000000000000 0.0000000000000 1.00000000000000
  }
  Dispersion = LennardJones { 
    Parameters = UFFParameters {}
  }
}

ParserOptions = {
  ParserVersion = 3
}
