Geometry = GenFormat {
<<< "system.gen"
}

Driver = VelocityVerlet{
  Steps = 100000
  TimeStep [fs] = 0.2
  MDRestartFrequency = 5
  Thermostat = None {
    #InitialTemperature [Kelvin] = 300.0
  }
  Xlbomd{ 
    IntegrationSteps = 6 
    MinSccIterations = 2
    MaxSccIterations = 200
    SccTolerance = 1e-6 
  }
  Velocities [m/s] {
      1.02012242E+03      7.17164723E+02      1.62734522E+02
     -1.23975346E+02     -8.73605583E+02     -8.34799908E+02
      1.59949868E+03     -9.11607497E+01      2.85949317E+03
      1.25753130E+02     -1.25352322E+03     -1.92514450E+02
     -1.76746198E+03     -4.61175704E+02      1.99692770E+02
      2.96813001E+02      1.79974817E+03     -2.62350090E+03
     -1.24057298E+02      1.20613806E+02      1.12164696E+03
      1.22195245E+02     -1.41119595E+03      1.02633542E+03
     -3.03917730E+03     -1.28529630E+03     -2.92007377E+01
     -7.13209260E+02     -4.45306087E+02      1.75266191E+02
      1.61909671E+03     -9.10693367E+02     -2.10261005E+03
      1.42365377E+03     -4.05688186E+02      3.03056377E+03
      6.77016156E+02     -4.63926141E+01      2.45182400E+02
     -8.74867461E+01     -3.40551253E+03     -1.89732795E+01
     -1.13495684E+03      3.51386780E+03     -3.05868412E+02
      1.09300292E+02      9.03641388E+02      2.81432654E+02
     -3.87533143E+03      1.01553285E+03      6.85016711E+02
      1.01350816E+03     -6.94745580E+02     -2.19768907E+03
     -2.34163973E+02      1.18955490E+01     -1.55026380E+02
     -1.45054212E+03     -1.28443562E+03     -1.08481720E+03
      1.47948301E+03     -5.73617173E+02     -1.57782219E+03
      4.96686091E+02     -5.83021235E+01     -7.22929977E+02
     -1.36067925E+03     -1.95273946E+03     -1.07056405E+03
      5.30925973E+02     -1.71411725E+03      1.77226224E+02
      5.66206975E+02     -1.51570438E+00      3.29535426E+02
      8.80891716E+02      1.90361000E+03      4.55758566E+02
      2.28454066E+03      4.21504683E+02      1.17166925E+03
      1.58993082E+03     -1.34495915E+03      1.16941483E+03
     -5.88095071E+01     -3.02849264E+02     -2.09278265E+02
      1.55848802E+03     -1.88621356E+03      1.68113480E+03
     -1.76189021E+03     -7.17314527E+02      7.94232197E+02
      1.81776441E+03     -1.40775309E+03      1.52862591E+03
     -1.45389719E+02     -6.57782929E+02      3.92958099E+02
      1.24317706E+03      2.34210091E+03     -7.39203218E+02
     -1.32415753E+03     -3.16133117E+02      9.64651112E+01
     -4.50279662E+02      4.06029887E+02      3.20111291E+02
      7.04583506E+02     -1.87211806E+03      8.09130183E+01
     -5.15265276E+02     -1.86831855E+03     -3.23061476E+03
      5.89364170E+01     -8.56402041E+02      3.78486080E+01
      2.02513869E+03     -1.80466884E+03      1.00450293E+03
     -1.20422458E+03     -3.51556319E+02     -3.21368634E+03
     -2.60825063E+02     -8.23435354E+01      4.97838310E+02
      6.62874405E+02     -1.58904548E+03      3.64780301E+03
     -1.16867952E+03      8.03012454E+02     -5.72784360E+02
     -3.01601765E+02      9.04758232E+01     -1.33436250E+02
     -6.25775630E+02      7.55639435E+02      1.45028466E+03
      1.82994902E+01     -9.17726156E+02      5.58060171E+02
      3.25734448E+02     -2.88657394E+02      3.76985184E+02
      6.05006877E+01      2.18714192E+03      6.49182571E+02
     -2.86966741E+02      2.40225753E+02     -1.41128639E+03
      4.95417394E+01     -3.14624223E+01      4.25271749E+02
      1.64641204E+02      9.83492981E+02     -3.62735287E+02
     -2.74469760E+03     -1.62852394E+03      6.42916486E+01
     -1.27291799E+01     -1.10361223E+02     -1.99132973E+02
     -9.14490253E+02      2.27174248E+03     -1.14994731E+03
      7.88077599E+02     -1.22583255E+03      8.02251921E+02
     -2.59570279E+02     -8.44795149E+02      5.85501833E+01
     -6.82733625E+02     -1.09151916E+03      1.18471324E+03
      6.44043015E+02      1.74102350E+03     -2.47849460E+03
      1.30473135E+03      2.03219965E+02     -4.49041367E+02
     -3.71405287E+02     -5.08228751E+02      3.63571807E+02
     -2.73569402E+03     -1.46132156E+03     -2.18754645E+03
     -1.42008919E+03     -2.91617037E+01      8.81613871E+02
      5.51015839E+02     -1.50064542E+03      1.80463159E+03
     -7.11311916E+02      4.12442486E+02     -1.47788998E+02
      3.12293703E+03     -1.14986589E+03      5.51305986E+03
     -1.62680880E+03      2.17408830E+02      1.21542648E+03
      6.80303700E+01     -5.38094609E+02     -5.11894838E+01
      8.42960103E+02      1.40640928E+03     -1.85280136E+03
      1.53887686E+02     -4.91878235E+02     -1.61805777E+03
      6.68152554E+01     -7.11685281E+02     -7.18162255E+02
     -2.29315314E+03      6.17652388E+02     -6.57021299E+02
      6.70861909E+02     -3.08977247E+02     -2.23543831E+02
     -4.82194726E+02     -3.04683174E+02      3.29208520E+01
     -4.12598080E+01      6.30477178E+02      4.86493047E+02
      4.50251706E+02     -5.23957901E+03      6.52370842E+02
     -3.94497877E+02     -2.89771300E+02      2.56600776E+02
      1.50679476E+02      4.54892948E+02     -1.91723823E+03
      5.97495491E+02     -2.97599726E+02     -4.55409948E+02
     -2.65483346E+02     -2.09290862E+02      3.86852620E+02
      1.49648116E+02     -9.17468369E+02     -4.19390139E+03
      5.57994930E+02     -1.76961956E+03     -3.91393222E+02
     -3.37027163E+02     -4.87320338E+02     -4.46545634E+02
      3.48279156E+02     -8.84540988E+01     -1.77239029E+03
      2.94155673E+03     -5.29456026E+02     -3.61794079E+03
     -8.62071108E+02      1.45441132E+02      4.27842847E+02
      2.19560566E+02      1.47486465E+02      1.61629350E+03
     -8.91100273E+02      9.75627018E+02      1.92795973E+03
     -1.09263492E+03     -9.42091024E+02     -8.15668504E+02
     -1.63986863E+03      2.24524169E+03     -4.19217162E+02
      1.52457992E+03     -7.42916870E+02     -6.91282787E+02
      3.29611860E+03     -3.35649854E+02      5.50821012E+02
      2.34538146E+02     -8.73829298E+02     -6.68503108E+02
      4.18279500E+02     -2.82154855E+03      1.19196368E+03
     -7.27574336E+02     -7.68432321E+02     -1.21521872E+03
     -1.22311881E+03     -1.38626034E+03     -1.60087580E+03
      1.99817026E+02     -8.32853753E+02      5.28540201E+02
      1.96444959E+03     -7.63914478E+02     -2.21237578E+02
     -3.11174107E+03      3.57968356E+02     -1.41092019E+03
     -4.50656036E+02     -2.43002491E+02     -1.46003927E+02
     -7.61197110E+02      2.26487882E+02     -6.48735009E+02
      6.70559759E+02      1.14499694E+03     -1.48709414E+03
     -8.85486284E+02     -9.66595399E+01     -4.38388810E+02
      5.67865207E+02     -2.51058192E+03     -1.47754274E+02
     -1.66579970E+03      2.64413260E+03      5.25461646E+02
     -6.37377084E+02     -5.24326620E+02     -3.98266187E+02
     -2.32675628E+03     -3.09026636E+03     -1.33691146E+02
     -5.82884748E+02      1.35577302E+03     -1.75084473E+03
      1.00132289E+02     -8.67907653E+01     -5.81351463E+02
     -1.04339021E+03     -1.59874688E+03     -1.64611096E+03
     -5.65457109E+02     -1.88301235E+03     -1.39117678E+03
     -1.01355368E+03     -2.93636605E+02     -3.50180193E+02
      8.64242145E+02      3.80625498E+03     -3.55851672E+01
      2.00101055E+01      8.84282552E+02     -1.80237782E+03
     -5.46069951E+01     -1.11790505E+03      5.37021488E+02
     -1.86579811E+02      1.63152210E+02      1.50258710E+03
     -3.20326479E+03     -1.37402977E+03      1.16466004E+02
     -5.10258815E+02     -6.13637717E+02      2.23192718E+02
     -2.91218315E+03     -1.02169556E+03      5.24226622E+02
     -2.01567673E+03      2.31558844E+03      2.00610727E+02
     -1.43908548E+02     -5.56372614E+02      1.26584982E+02
     -3.71854328E+03     -1.20401235E+03     -3.47705586E+02
     -6.00118769E+02     -6.68134172E+01     -1.79839578E+03
     -4.13817609E+02      2.04438533E+03      2.31863459E+03
      6.62450552E+02      2.36715150E+02     -9.71551318E+02
      2.42373594E+02     -2.42788362E+03     -5.94591813E+02
     -1.44627651E+02     -2.64136181E+03     -4.68842567E+02
     -1.26824033E+03      1.57802381E+03     -5.46092402E+02
      4.59378114E+02     -5.54521827E+02     -3.83319972E+02
      2.78450137E+03     -1.33888772E+02     -5.88084202E+01
     -3.85823138E+02     -1.03469520E+03     -1.91988790E+03
      3.14459340E+02      7.24823547E+01     -1.49184075E+02
     -1.92496597E+03      1.48859675E+02      6.05228360E+02
      2.56591435E+03     -1.38101976E+03      7.18630394E+02
      2.43718665E+01     -1.21534980E+02     -5.90878908E+02
      9.63036351E+01     -2.10952707E+03     -8.08038816E+02
      8.05835791E+02     -1.09167505E+03      2.02104184E+02
      2.09780754E+01      9.38061012E+02     -2.85582094E+02
     -6.69888754E+02      8.49978306E+02     -7.95602875E+00
     -3.61907234E+03     -3.73744801E+02      8.75337337E+02
     -2.62514419E+02      1.18944869E+02     -2.97076788E+02
     -1.33955898E+02     -2.53238454E+03     -3.60581698E+02
      1.41298435E+03     -1.80649766E+03     -2.94599968E+03
      3.39410048E+02      9.30776632E+02      6.16227746E+02
     -1.36552427E+03     -1.44369467E+03      7.52300864E+02
     -1.61560650E+03      8.59361395E+01      1.63982320E+02
      2.82224084E+02     -9.33314697E+02      4.73139265E+02
      6.16909136E+02     -1.29576598E+03     -2.47627856E+03
     -3.73615416E+03      2.60198121E+02      2.93924928E+03
     -3.52449518E+02      2.52766484E+02      4.15160230E+02
     -6.50152896E+01     -1.57995265E+03     -3.87651705E+03
      1.56109114E+03      2.06444033E+03      1.31154734E+03
     -6.68268311E+01      4.00639066E+02     -1.44060850E+03
     -3.27065974E+03     -3.33151073E+03     -7.47958631E+02
     -1.15975842E+03     -3.38422522E+02     -2.83144213E+03
     -1.08643763E+02      2.87363157E+02      1.67049064E+02
      3.94000824E+02     -2.95194372E+02     -4.61563367E+02
      2.11745006E+03     -5.83751085E+02     -9.01450583E+02
     -2.35643898E+03     -2.35479966E+02     -1.12007666E+03
     -3.61673665E+02      2.85948137E+02     -2.25186555E+03
     -1.28072912E+03      2.43552729E+02      7.42274374E+01
     -4.38377212E+03      4.35727882E+02     -9.43544517E+01
      2.36239140E+03      8.47299219E+02     -2.05263355E+03
     -1.77386213E+01      2.54899917E+02      7.89821188E+01
     -1.54464310E+03      4.84632941E+02      1.89428086E+03
      1.25442497E+03     -1.66555009E+03      2.79245071E+03
      3.26330102E+02     -4.80821383E+01     -7.31309891E+02
     -1.27774879E+03     -1.49657628E+03      3.18974221E+03
     -3.35152565E+02      1.64357668E+03      5.83597283E+02
     -5.26886962E+02      1.45030537E+01     -1.39995474E+03
      2.89688964E+03     -1.63869470E+03     -4.65382178E+02
     -1.35936201E+03      2.12143886E+03      1.16816454E+02
      6.00727222E+03      2.95617447E+04      1.41082419E+04
     -1.38435184E+03     -2.43642691E+03     -4.43510662E+03
     -1.81166394E+03     -5.56404243E+02      2.47670497E+03
      4.36615998E+02      8.02061481E+01      4.36634797E+02
      7.61425838E+02     -4.82830357E+02     -5.48045455E+02
     -9.20505592E+02      1.52573592E+03     -9.47043599E+02
      2.66312682E+02     -9.29319596E+02      5.65003239E+02
     -7.80056558E+02     -3.90116054E+01     -4.82931895E+02
      2.02821896E+03      1.51248767E+03     -5.56614921E+03
      2.43154536E+02     -1.32102587E+02     -4.74016504E+02
      9.41943594E+02     -3.44762146E+03     -7.86044346E+02
     -1.35958570E+03     -2.25293653E+03     -4.51729391E+02
      1.42354426E+02     -1.00685283E+03      2.48196520E+02
     -1.76262363E+03      1.09453738E+03     -5.93068687E+02
      9.94800838E+02     -7.73650515E+02      6.11200564E+02
      1.51172170E+03     -3.61192029E+01     -2.77847863E+02
      1.87533544E+02     -5.12873138E+02     -3.04100513E+02
      1.43185423E+03     -8.23556392E+02     -2.33285257E+03
     -3.92717019E+02      1.27365108E+03      1.29933752E+03
      1.89562691E+02     -3.60768294E+02     -2.53251031E+03
      3.49244785E+02      2.95191382E+02      9.25686311E+02
      1.98771223E+03      2.21851684E+03      9.68398052E+02
     -2.85001957E+03     -1.50916872E+03     -8.62504814E+02
      7.80491919E+02     -1.33942353E+03     -4.13466801E+02
     -8.87903929E+02      1.54155592E+02      8.43453669E+02
     -2.05927811E+02      1.52253574E+03     -1.45663442E+03
      2.63743273E+02     -8.16333256E+02     -9.55167150E+02
      1.02996302E+03      3.58182266E+02     -6.53263347E+02
     -7.55563435E+01      2.20100913E+03     -2.23363354E+03
      3.15217229E+02     -1.59167777E+01     -5.24341585E+02
     -1.52745430E+03     -1.82922308E+03     -1.62887461E+03
      4.06186622E+02     -1.75648359E+03      2.91614761E+03
      2.21509062E+02     -4.43892184E+02     -3.05948560E+02
     -1.98942469E+03      1.46784929E+01     -4.03438783E+03
      2.37199972E+03      3.34208155E+02      1.06738269E+02
      4.33787345E+01     -7.45889703E+02      2.62808197E+01
      5.33351266E+03     -1.18287256E+03      7.32077373E+02
     -1.05559824E+03     -1.70633269E+02     -1.13988549E+03
      2.45604055E+02     -6.68261154E+02     -6.51188461E+01
     -2.64823669E+02      1.60100539E+03      1.55885826E+03
     -1.60006911E+03     -1.96928951E+02      3.34645978E+03
      5.87447021E+02      2.09214735E+02     -9.76272701E+01
     -2.79225841E+03     -1.44289776E+02      1.54790136E+03
      1.21941934E+03     -1.71140618E+03     -1.54032867E+02
     -2.99244609E+02      8.72914460E+01      3.44001716E+02
      7.00760587E+01     -9.61971031E+01      8.51481360E+02
     -3.16253354E+02     -1.87159861E+02      4.09024604E+02
     -2.16170629E+03     -2.26363374E+03     -7.41199863E+02
      2.69968051E+02     -6.02250668E+01     -1.88043859E+02
     -1.50852299E+02     -1.28117397E+03     -1.07059087E+03
     -1.16304128E+03     -1.75227500E+03     -1.24776529E+03
      1.87836230E+03     -1.81420395E+02      1.25512619E+03
     -4.20707650E+02      7.21308560E+02     -3.66935438E+02
      3.24856933E+02     -1.80474910E+03     -1.50362840E+03
     -2.59565360E+03      8.69876823E+02     -9.74854799E+02
      4.37649665E+02     -9.38783982E+02     -7.68477255E+01
     -1.30987253E+03     -1.45102425E+03     -3.36325267E+02
      1.16229204E+03     -3.57708689E+02      6.00544407E+02
      2.64997549E+02      5.29970079E+02     -3.25769703E+02
      1.29231190E+03      1.47241737E+03     -7.45506179E+02
     -2.76063809E+03      7.46994577E+02     -4.30531360E+03
     -3.46926782E+02      1.65771037E+02     -9.30270516E+01
     -3.12051010E+03     -1.43764876E+03     -5.22708662E+02
      1.91971000E+03      2.85729645E+03     -1.45325947E+02
     -1.76136460E+01      4.61744283E+02      1.43497391E+02
     -2.66802498E+03     -8.07785937E+01     -7.39432950E+02
     -5.87627588E+01     -2.28484194E+03     -3.93715889E+03
     -4.97271011E+02      8.77747819E+01      2.88065397E+02
     -3.85607858E+02     -2.14619822E+03      4.87708258E+02
      3.13075593E+02     -1.79796131E+03     -5.48854226E+02
     -5.67608337E+01     -6.78325818E+02     -5.55272589E+02
      2.32158338E+03     -1.18588938E+03     -2.00358503E+03
      3.58750980E+03     -2.18847071E+03      1.38109695E+03
      7.92626491E+02     -3.66284236E+02      5.13226292E+02
     -7.54603953E+01     -1.07518345E+03      1.73100160E+02
     -7.84185138E+02      2.45786076E+03      8.71298238E+02
      7.10146931E+02     -8.91164272E+01      7.16252841E+02
     -4.62680189E+02      6.36624803E+02     -6.84427707E+02
      3.16117727E+02      6.41608748E+02     -1.64744354E+03
     -8.64432605E+02      1.80189617E+03     -5.43699806E+02
      3.88631568E+02     -1.09273601E+03      2.85569789E+02
     -2.76324562E+03      5.38299741E+02      4.83311735E+02
      3.57257762E+03     -1.12156950E+03      1.00774093E+03
     -5.68134544E+02      7.40223021E+02      8.47837059E+02
      2.32036393E+01     -5.69966502E+02      6.64205444E+01
     -7.06009105E+01     -1.62102863E+03      1.69392092E+03
     -2.76618623E+02     -7.93945912E+02     -2.92575979E+03
      2.08250931E+02     -5.03293490E+02      1.37367747E+01
     -1.63831831E+03      1.49805425E+03      2.57282929E+03
     -1.58886830E+03      2.32810986E+03      8.48742498E+02
     -7.05044564E+02      1.99764602E+02      5.73262461E+02
     -9.61804166E+02     -1.08646790E+03     -3.96699833E+02
     -8.45933228E+02     -1.31759670E+03     -1.32278862E+03
     -3.69457187E+02      1.76536195E+02     -3.95337109E+02
     -2.56554554E+03      7.45396427E+02      3.14034892E+03
      6.32503975E+02      1.40100892E+03      3.65486937E+02
     -3.63823862E+02      2.07602204E+02     -1.74486194E+02
      6.89640509E+02      6.97090518E+02     -5.68491372E+02
     -1.10428660E+03     -9.43153946E+02      2.02769784E+03
     -3.05061861E+02     -4.00826119E+02      2.13127096E+02
     -7.40239644E+02      4.03980188E+02      5.74388720E+02
      1.64857188E+03     -1.96501176E+03      2.32124742E+03
      3.29374599E+02     -3.94778623E+02      1.12872135E+02
     -2.44021895E+03     -6.55326520E+02      7.02549287E+02
      5.85784187E+02      1.15013256E+03      6.52764267E+02
     -4.07842190E+02     -4.09418069E+02     -7.86730134E+02
     -1.47873971E+03     -1.11534942E+02     -1.66307079E+03
      1.80523233E+02     -3.40765145E+03      5.04259639E+02
     -3.19392647E+02     -9.06474278E+02      4.35667538E+02
      4.61131000E+02      1.83615263E+01      4.07281435E+01
     -4.87206326E+02      1.18177195E+03      1.61142505E+03
     -2.40467718E+03      3.63193258E+02     -1.83178944E+03
      5.64163573E+02     -6.62788298E+01      1.83471615E+02
     -2.75002214E+02     -2.42412397E+03     -8.71468837E+02
      1.40314013E+03      7.33408179E+01     -1.84015410E+02
     -5.45750680E+02      5.42976473E+01      1.81684297E+03
     -4.56852505E+01     -2.80338606E+02     -8.62911573E+02
     -4.56280738E+02     -3.91414799E+03     -7.73716527E+02
     -1.02538223E+03      8.58152169E+02     -4.18885959E+02
     -1.03246941E+02      3.20889559E+01     -2.45302285E+02
      1.20472744E+03     -5.95382605E+02      6.71056549E+02
      2.75579206E+03      7.26899272E+02     -6.37288977E+02
     -5.52353829E+02      5.88816546E+02     -2.22931075E+02
     -3.00210078E+02     -1.69917230E+03     -1.50191394E+03
     -2.36877088E+02     -1.34147774E+03     -8.37014076E+02
     -9.50782640E+01     -4.86013168E+01     -9.56567197E+01
      3.49017474E+02      2.48401088E+03      1.22418196E+03
      9.35578230E+02      6.03906512E+02      3.09272245E+02
     -1.84391216E+02     -3.86587010E+02     -7.82099314E+02
      1.13281381E+03      5.36440920E+02     -5.03722212E+02
      3.01774945E+02     -1.79449035E+02      4.30187738E+02
     -9.24968332E+02     -5.33676159E+02     -1.10795267E+03
      9.10497564E+02     -1.51131418E+03     -4.70404455E+02
      9.68745573E+01      1.72019214E+03     -8.31795347E+02
      3.89380131E+02      1.11546341E+02      5.41933146E+02
      5.42534989E+02      9.15394194E+02     -3.01649125E+02
     -1.20763611E+03     -2.62898067E+02      2.21724162E+03
      1.96626539E+02     -4.97809784E+02     -1.60426264E+02
      2.19076261E+03      5.27220240E+02     -1.32355208E+03
      1.65760530E+03      4.67081023E+02     -1.10479611E+03
      4.86423813E+02     -1.84610744E+02      2.47304588E+02
     -1.01613406E+03     -1.86344828E+03     -1.68182062E+03
     -2.18950484E+03      2.41440261E+03      1.48187225E+03
      1.24366375E+03     -1.25406894E+03     -3.55799800E+02
      2.28302532E+02      2.40903984E+01      6.33756865E+01
     -1.62970537E+03     -2.65341309E+03     -1.71383125E+02
     -2.96538810E+03     -4.01165324E+03      3.47764595E+03
      2.25145293E+03      1.89793650E+03     -9.78907669E+02
      2.45226476E+02      3.89712598E+02     -2.10555494E+02
      9.74815633E+02     -1.70577410E+03      5.46783517E+02
      9.49414947E+02      1.50272488E+03     -1.37592025E+02
      4.47213010E+01     -1.29735633E+03     -2.01812734E+02
      3.02607795E+03      2.76308373E+03      2.05897612E+03
     -4.11618848E+02     -2.69189319E+03      1.19104197E+03
      4.63588713E+02     -4.87438957E+02     -3.28852380E+02
      1.47263341E+03     -3.03933606E+01     -1.64264166E+03
     -2.26205341E+02     -1.08770174E+03     -2.01071386E+03
     -3.37155530E+02      1.83584722E+02      1.54246038E+01
      5.11915227E+02     -1.80649492E+02     -1.05236222E+03
     -4.10127585E+02     -2.02096490E+03     -1.16124235E+03
     -4.81255749E+01     -2.71230866E+02      2.80119575E+01
     -7.44968965E+02      4.91234789E+02      2.27217365E+03
      3.38336825E+02     -6.27867148E+02      4.87561184E+02
      3.62196090E+01     -1.36159910E+02     -1.30119659E+02
      1.43825157E+03     -1.82108891E+03     -2.72036154E+03
      9.34435457E+02      1.40309860E+03     -1.48566898E+03
     -1.56892002E+02      5.17842164E+02     -3.55147668E+02
     -1.62311728E+02     -4.63605181E+02     -5.67154530E+02
      2.18036133E+03     -2.86793410E+03      2.87229265E+02
     -7.04699914E+02     -2.28005364E+02     -2.26231164E+02
     -2.29001150E+03      6.57906831E+01     -4.12790257E+02
     -1.44933881E+03      2.66761443E+03     -5.10060037E+02
      6.44225061E+02     -5.76172735E+02     -8.67290857E+02
      8.97350311E+00      1.03537716E+03     -3.00924581E+03
     -5.55412404E+02      1.10884737E+03      9.67041150E+01
     -1.14815202E+03     -2.58195837E+03      1.59559402E+02
     -3.51675508E+00     -2.91935006E+02     -3.67827408E+02
     -1.09521481E+02     -2.47309341E+01     -1.47444469E+03
     -1.35675491E+03     -5.79276204E+02      2.49153700E+02
      1.41804368E+03     -1.97299553E+03     -2.30813559E+03
  }
}

Hamiltonian = DFTB {
  SCC = Yes
  SCCTolerance = 1e-6
  MaxSCCIterations = 200
  ForceEvaluation = Dynamics
  MaxAngularMomentum = {
    C = "p"
    H = "s"
  }
  Charge = 0.0
  SpinPolarisation = {}
  Eigensolver = Standard {}
  Filling = Fermi {
    Temperature [Kelvin] = 300.0
  }
  SlaterKosterFiles = Type2FileNames {
    Prefix = "../../pbc-0-3/"
    Separator = "-"
    Suffix = ".skf"
    LowerCaseTypeName = No
  }
  KPointsAndWeights = {
    0.0000000000000 0.0000000000000 0.0000000000000 1.00000000000000
  }
  Dispersion = LennardJones { 
    Parameters = UFFParameters {}
  }
}

ParserOptions = {
  ParserVersion = 3
}
