Geometry = GenFormat {
<<< "system.gen"
}

Driver = VelocityVerlet{
  Steps = 50000
  TimeStep [fs] = 0.2
  MDRestartFrequency = 5
  Thermostat = None {
    #InitialTemperature [Kelvin] = 300.0
  }
  Xlbomd{ 
    IntegrationSteps = 6 
    MinSccIterations = 2
    MaxSccIterations = 200
    SccTolerance = 1e-6 
  }
  Velocities [m/s] {
      5.50293920E+02     -3.20773102E+02      8.58739878E+02
     -1.26392848E+03      1.35428688E+03     -1.06218135E+03
     -8.31821578E+02      2.31824701E+03     -3.74115545E+02
      2.56129201E+02     -1.76281361E+02      8.50135618E+02
     -2.90995190E+03      1.05728332E+03     -1.51871291E+03
      1.81623017E+03     -1.18734513E+03      7.02977887E+02
      3.78868230E+02     -6.81930086E+02     -1.67088167E+02
     -9.94267051E+02      3.92992110E+02      5.44973765E+00
     -1.07034048E+03     -2.65896151E+03     -1.42953807E+03
     -7.28248363E+02      5.67756228E+02      8.25008935E+02
      1.08843036E+03      1.01874547E+03      5.22163193E+02
      2.29031664E+03     -1.20298926E+03     -5.79332581E+02
     -7.72882474E+02      1.48221332E+02      8.35733769E+02
     -8.67351321E+02     -3.30472902E+03     -4.02698913E+03
     -7.37700885E+02      3.36054219E+03     -2.14124794E+03
      1.38940723E+02      1.01686372E+01      3.07713991E+02
      1.48632867E+03     -8.83657135E+02      1.41676933E+03
     -4.03788508E+03     -1.44581547E+03      1.82513798E+03
      5.40785200E+02      2.60546680E+02      5.62425141E+02
     -2.24286474E+03     -3.09183951E+02      5.09202550E+02
      1.81778186E+03     -5.86752756E+02      2.16156164E+03
      1.54573822E+02      5.02440184E+02     -1.64093402E+02
     -1.46527278E+03     -2.55031865E+02      9.74428486E+02
      3.73939069E+02     -1.55575641E+03     -1.68421856E+03
     -1.46759678E+02      1.98853640E+02     -2.63730146E+02
      2.23880024E+03      2.17670658E+03     -5.79298706E+02
      6.20142952E+02     -1.17836914E+03      9.15947269E+02
      2.18590844E+03      1.55565536E+03     -6.92248746E+02
     -3.49290418E+02      3.40364151E+02      1.51143919E+03
     -9.93129769E+02     -2.37957919E+03     -3.94663796E+03
     -1.62618529E+03     -2.22005822E+02      1.76513228E+02
     -8.74982695E+01      1.94104415E+02      2.15578017E+03
     -2.35014501E+02      4.43293180E+02      1.39358235E+02
     -1.50655892E+02     -1.15756037E+03      1.69494734E+03
     -3.52329959E+02     -5.68947980E+02      1.65852958E+03
     -3.55950476E+02     -8.97052097E+02      7.06119851E+02
      9.06181121E+02     -4.04421066E+02      5.45950760E+02
     -2.38078945E+02     -1.41864370E+03     -2.05716326E+03
     -7.26214491E+02     -2.72244922E+02      9.40535718E+02
     -2.77315530E+02     -3.72135351E+03      3.38699336E+03
      5.52025794E+02      1.33400988E+03      1.70726245E+03
     -9.19817832E+02     -4.76241514E+01     -8.17844210E+01
      1.94570083E+03     -1.52534116E+03      4.16674461E+03
      8.45319279E+02      5.32874862E+02     -6.58677388E+02
     -2.77198206E+02     -7.21406430E+00      6.38622746E+02
     -2.19068074E+03     -1.21356538E+03     -2.71508061E+02
     -3.66199788E+02      2.71210131E+03     -3.05510227E+03
     -2.73278324E+02      7.73818454E+02     -2.71138219E+02
     -1.85505073E+02      9.05531947E+02     -2.45105233E+02
      7.06058283E+02     -9.30326780E+02     -7.94965305E+01
     -1.80954708E+02     -3.08136708E+02      2.26902710E+02
     -1.57923240E+03     -5.36311482E+02     -7.69025760E+02
      1.46152902E+03      3.01882534E+02     -2.43119621E+02
      3.67361816E+02      8.10563351E+02      5.88122365E+02
     -7.83750768E+02      2.07181953E+03      1.04076737E+03
      4.53810847E+02      3.37929940E+03      1.21552208E+02
      2.61202428E+02     -2.90873079E+02      1.37069296E+02
     -1.89943858E+03     -1.95353368E+03     -1.25658289E+03
      1.47938481E+03      2.56649281E+03      8.54749353E+02
     -1.86388895E+03      1.91004882E+03      3.09941155E+03
      3.34872540E+02      3.76259431E+02      4.02398950E+02
     -1.76189594E+03     -1.48671978E+03      2.23744985E+03
      2.07548698E+03     -1.15732887E+03      3.30694802E+02
     -2.94816032E+03     -1.59159375E+03      9.57221662E+02
      4.56122799E+02      1.24824017E+02      8.58462990E+01
     -7.71811727E+02      3.14319750E+03     -1.80548406E+02
     -1.90257117E+03     -8.05475595E+02      1.66221836E+03
     -1.71060142E+02      3.70767561E+02      1.08536397E+03
     -1.22427217E+03     -3.06202867E+03     -8.00853787E+02
     -2.43487579E+03      4.26861353E+02     -4.65306132E+02
     -1.74285824E+00      1.02003644E+03      4.89484751E+02
     -1.69235972E+03     -3.59239024E+03      5.40457815E+02
      5.38568386E+02      1.53453452E+03     -6.50680069E+02
     -5.54659817E+02     -3.88165454E+02     -1.54380927E+02
     -7.29842430E+01     -3.21316598E+02      8.50392194E+02
      1.53289659E+03     -2.68134401E+02      5.92726730E+02
     -7.22324215E+02     -9.67202149E+02     -1.47691160E-01
     -1.24015482E+03     -7.41237850E+02     -3.81106975E+02
      8.68414769E+02      4.60020386E+02     -7.17001498E+02
     -7.80310934E+02     -4.44238628E+02      1.54866475E+02
      2.19021908E+03      1.32294750E+03     -2.00901182E+02
     -1.02717704E+03     -6.46761943E+02     -1.54487960E+03
      5.48082580E+02     -2.12725595E+01     -4.94082772E+02
      1.53803105E+03     -2.71144865E+03      1.06833351E+03
     -6.39913373E+02     -7.05319348E+02      6.48735842E+02
     -1.37769642E+02      9.40288858E+02      3.20968323E+02
     -2.61197727E+03      3.07806026E+02     -3.19337392E+03
     -3.22876906E+03      6.41291394E+02      2.14723440E+03
      1.12041894E+02     -3.62606215E+02      1.73886383E+01
      1.26365309E+03      3.22172695E+03      2.22363355E+03
     -6.66942113E+01     -7.16723906E+02     -2.70546529E+02
      5.61292724E+02      1.22519727E+03     -4.00049121E+02
      6.85485157E+01     -4.20634790E+01      6.04776113E+02
      9.75420841E+02     -2.22330494E+03     -7.01103512E+02
      9.80773945E+02     -7.84236208E+01     -9.77210478E+02
      2.51238769E+03      5.76320997E+02      2.09822176E+03
     -1.99226169E+02     -2.58676317E+02      1.80488692E+02
      1.59376913E+03     -4.58051619E+02     -8.03550970E+02
      1.74544686E+03      4.70428382E+02      5.30928622E+02
      4.20300202E+02     -3.46226150E+02      1.09058461E+03
      1.31438196E+03      1.14312555E+02     -1.43787368E+03
     -6.01052047E+02      1.55282397E+02     -1.76469960E+03
     -1.15940590E+02     -1.28957974E+01     -1.01928578E+03
      2.33204196E+02      1.75281596E+03      1.68153013E+03
      8.65372278E+02     -1.88008952E+03      2.13648442E+03
      6.47626695E+02      3.36701447E+02      1.98371220E+02
      1.50148179E+03      5.54032106E+02      2.38152755E+02
     -1.67570795E+03      2.35007291E+03     -1.32694093E+02
     -3.17131334E+02     -6.65200743E+02      1.08044575E+02
     -1.79295878E+03     -2.01649422E+03     -1.52225874E+02
      1.07558946E+03      1.98234405E+02     -7.85390568E+02
      3.68250849E+02     -1.21170981E+03      3.47417165E+02
     -1.08597677E+03      3.06677617E+02     -8.68077010E+01
     -1.88222312E+02      2.17213672E+03      3.60472407E+02
     -5.42337108E+02     -6.30362293E+02      1.05254244E+02
     -1.40219755E+03      2.38000067E+03     -2.22807675E+03
      7.51952847E+02     -1.44936532E+03     -8.23108567E+01
     -4.17563733E+02     -4.48057376E+02      1.49996401E+02
     -2.15470431E+03      2.29762721E+02     -2.09130123E+03
      1.01198377E+03     -4.94774182E+03     -3.54451493E+02
      4.86877394E+02     -1.79933630E+02     -4.16437880E+02
      9.06243546E+02     -1.22341496E+03      5.42906102E+02
      9.01262736E+02      8.36834130E+02     -3.09117639E+02
     -1.54107416E+03     -2.20856234E+03     -1.14826771E+03
      1.80770367E+02      2.41997371E+02     -2.36226135E+01
     -2.09525044E+03     -6.99371100E+02      1.31113521E+03
     -1.23251760E+03      3.22327115E+02      1.85790280E+03
      6.85924237E+02     -1.12823745E+03     -1.26371978E+03
     -4.98601400E+02     -7.79938980E+02      9.78799429E+02
     -3.87136130E+03      1.76786777E+03     -9.18941363E+02
     -3.24460291E+03     -9.25393994E+02      2.97463751E+03
      1.05207718E+02     -3.55737501E+02     -2.69980869E+02
      1.35651190E+03     -1.44868196E+02     -1.72990133E+03
      8.31766596E+02     -5.33646134E+02      1.10532524E+03
      1.72731790E+02     -3.19335783E+02      5.41821675E+02
     -2.53641379E+03      2.24737501E+02      5.57699389E+02
      1.44672117E+03      9.00936742E+02      1.33413688E+03
     -1.68476298E+02     -2.08255844E+02      6.18559772E+00
      1.52777798E+03      2.72791845E+01      2.60254218E+03
      3.90596247E+02      2.76987998E+03      1.65527271E+03
      1.42736903E+04      1.17758631E+03     -1.63706371E+04
     -2.46470647E+03     -3.93452691E+02     -2.53390458E+03
      1.22548095E+03      7.65269651E+01      1.16937850E+03
     -4.64638416E+02     -5.59271422E+02     -4.01576622E+02
      1.13569692E+03      1.72303118E+03     -3.39317065E+02
     -6.57247432E+02     -6.80214837E+02      1.77753003E+03
     -4.48831498E+02      6.38468916E+02     -5.27268365E+01
      1.42187378E+03      9.22577994E+02     -1.93471341E+03
     -1.49056289E+03     -3.88469666E+02     -8.97737166E+02
      4.17619806E+02     -4.72534766E+02      4.98318654E+02
     -2.64895350E+03      1.15620763E+03     -7.79550015E+02
     -8.35849613E+02     -1.69222080E+03     -1.91684618E+03
     -7.36013085E+01     -3.07653648E+02     -2.49106528E+02
      5.54719598E+02      9.63499348E+02     -2.76074246E+03
     -3.98308146E+02      1.45639778E+03      2.83291090E+03
     -4.31324911E+02      3.80662176E+02      4.17821875E+02
     -5.13150857E+02      1.50634796E+02      2.49554022E+02
      3.50226367E+02     -3.11484202E+03     -2.68536444E+03
     -3.73871215E+03     -2.31441587E+03     -1.04566153E+03
      5.69826886E+02      2.96731757E+03      1.25003698E+03
      5.96435924E+02     -1.43610579E+02      3.74964807E+02
     -2.14951883E+03     -5.73577011E+02     -6.05789059E+02
     -9.35679874E+02     -1.83322991E+03      1.93030008E+03
     -5.96717894E+02      5.41186023E+02     -3.95293693E+02
      4.74592927E+02      1.43105920E+03      1.56301756E+02
     -1.83677216E+03     -4.53403410E+02     -6.56874329E+02
     -2.37316654E+02      2.25109415E+02      2.65888382E+02
     -2.30564410E+03      3.08226925E+02      9.39983026E+02
     -1.04268036E+02      1.28802111E+03      2.30839421E+03
      3.13355783E+02      3.24955634E+02     -3.00189999E+01
     -1.80154395E+03      1.30416658E+03      1.55158970E+02
     -1.45650884E+03      2.69966859E+03      3.37390045E+02
     -4.17934898E+02     -3.16284367E+02     -4.77718738E+02
      3.18308191E+03     -4.57333219E+02      2.52870086E+03
      7.70782804E+02      4.52371482E+02      2.37265678E+03
      1.18366847E+02     -2.26342446E+02      3.61951286E+02
      3.28878506E+03     -9.36749248E+02     -1.51594134E+03
      3.84889196E+02     -1.23532005E+03      3.07117064E+03
     -7.17685299E+02      2.04007206E+02      5.21353868E+02
      4.26889578E+02     -1.53761354E+03     -5.69783232E+02
      1.78051119E+03      2.49351441E+02     -3.29688961E+02
     -1.88914737E+02     -4.70838516E+02     -4.96870984E+02
     -3.68886385E+02      1.08358152E+03     -1.66286175E+03
     -4.20081547E+02     -4.03848071E+02      1.05142788E+03
     -3.24967308E+02      6.83824117E+02     -5.32787144E+01
     -6.06539726E+02      4.50250999E+02     -4.20597624E+02
     -4.85238111E+02      9.35864111E+02     -5.92070805E+02
     -3.11276251E+02     -3.32413181E+03      7.47347478E+02
     -2.39592991E+02     -4.52561253E+02     -2.60558045E+02
      7.39608145E+02      5.88479920E+02      8.66426451E+02
     -2.30825737E+03      1.02569844E+03      2.62085014E+03
     -1.69426102E+03      3.04489463E+02      2.51646096E+03
      1.69969889E+02      5.29366881E+02      4.71946621E+02
     -3.45360220E+02      2.06947542E+03     -3.95566746E+02
      1.54445196E+03      2.21867806E+02     -2.93388180E+03
     -2.20282729E+01      3.72939471E+01     -6.03794633E+02
     -1.33205993E+03     -2.69925870E+02     -1.74580068E+03
     -5.25756283E+02      2.00985353E+02      3.24425505E+02
      8.43892208E+02     -1.75321969E+02     -7.54051548E+01
      8.85802804E+02      3.61918532E+02     -3.28932224E+02
      6.03253680E+02     -2.16581381E+03     -6.90590588E+02
      5.17053256E+02     -1.60347640E+02     -3.43057181E+02
     -2.75401832E+03     -2.69762974E+03     -1.75809763E+02
      1.76818400E+03     -4.02466289E+02      1.80778326E+03
      1.29520316E+02      2.66772490E+02      8.16338346E+01
      2.32289291E+02     -8.35596019E+02      1.20232491E+03
     -8.58651822E+01      2.86833543E+02      5.18814067E+02
     -1.12302568E+02     -2.37116144E+02      3.42262400E+02
      2.69405842E+03      7.53436205E+02      1.10817926E+02
      2.35996617E+03     -1.23598560E+03     -1.59965840E+03
     -1.06367638E+03      8.59792749E+01     -7.90425372E+01
     -7.59537356E+01      3.01761959E+03      2.08178392E+03
     -3.08802803E+03      3.64635866E+01      8.80618092E+02
      2.76134814E+02     -5.41444964E+02      3.45263123E+02
      1.25843352E+03     -1.93474289E+03      1.01566966E+02
     -7.96843275E+02      2.91594295E+03      9.58847013E+01
      9.85000886E+01      4.85309431E+02      2.54400403E+02
      6.14355175E+02     -7.38815568E+02      3.37746472E+02
      1.33494820E+03     -1.43161556E+02     -1.92453076E+03
     -1.41865133E+03     -4.42858096E+02      5.10714049E+02
     -5.60107364E+02      5.66678367E+01     -2.44676781E+02
      9.29109811E+02      2.05138744E+03      2.66667083E+02
     -2.37896308E+03     -6.27223879E+02     -1.55187491E+03
     -8.05057616E+02      1.33562192E+03      1.98302807E+02
     -6.38111274E+02     -8.60395820E+02      2.72034830E+02
      5.68343166E+02      3.09848639E+02     -3.29474826E+03
      1.30164643E+03     -2.21644238E+03      1.70836769E+02
      1.40166450E+02      1.81262034E+02      1.52661392E+02
     -2.58771709E+03     -1.03069706E+03     -3.85859458E+01
      1.04061630E+03     -1.61367640E+03     -5.22917514E+02
     -4.91120814E+02      1.45053997E+02      3.91050913E+02
     -8.24694126E+02     -4.49003028E+02      3.56866390E+03
      3.64990443E+02     -1.14761730E+03     -3.44285079E+02
      4.14505652E+02      2.84887104E+01     -4.80096403E+02
     -2.31348025E+02     -1.03644369E+03      1.47171146E+03
     -2.25356267E+03     -2.97743979E+03      2.72518616E+03
      7.03038008E+02     -4.45680229E+02      1.76088988E+02
      3.70976530E+02      4.23740696E+02      1.12219860E+03
      2.24836139E+03      1.91587542E+03      3.25497786E+03
     -2.00198909E+02     -8.31625054E+01      1.23697634E+02
      4.20255671E+02      1.10000486E+03      1.03419532E+03
     -4.53444866E+02      3.35742954E+03      2.60748935E+03
     -3.13180651E+02     -4.03362888E+02      1.02638283E+03
     -1.08312449E+03      1.91070359E+03      1.43752850E+03
      1.74655219E+03      1.56848329E+02      1.39231021E+03
      4.93267721E+02     -2.91951250E+02     -1.69007343E+01
      9.00140427E+02      4.24401026E+02     -1.19873132E+03
      3.66799857E+03      2.18906006E+03     -2.21931284E+02
      6.18150287E+02      6.47981283E+02     -2.71779750E+02
     -6.36989507E+02      3.13613458E+03     -1.52444528E+03
     -1.06573889E+03      2.84952939E+03     -6.84290464E+02
     -6.28678261E+02      1.05090403E+03     -4.84677611E+02
     -2.89378054E+02      4.09570777E+02     -3.10061970E+02
     -1.06003527E+03      1.04631538E+03      8.25134520E+02
     -4.35209067E+02     -1.03961524E+02     -1.79749389E+03
     -1.29730299E+03      7.36694552E+02      1.61228249E+03
     -8.50346814E+02      2.04678716E+02      3.33601860E+02
     -1.07941098E+03     -7.76179251E+02      1.16829470E+03
      4.99987949E+02     -2.35859790E+03     -4.93452195E+02
     -9.09409850E+01      2.05185765E+02     -3.43192015E+02
     -1.55276375E+03      1.51702769E+03      2.26148657E+03
      5.25051532E+02      5.99202662E+02      9.47117032E+01
     -4.33824173E+02      3.16322855E+02      2.59566415E+01
     -9.37843684E+02     -4.23065635E+02     -1.17277122E+03
     -1.52370459E+03      1.89178068E+03     -2.60040430E+02
      3.13539110E+02     -3.87334822E+02     -1.18970373E+03
     -3.90821014E+02      1.42257570E+03      3.15713792E+02
     -1.90985073E+03      1.24633146E+03     -1.14213690E+03
     -6.80314821E+02      7.62085087E+00      5.79627634E+02
     -4.67835306E+02     -1.92542306E+03      1.74567501E+03
      1.64101088E+03     -9.00717388E+02     -1.99697617E+01
     -4.14492222E+02      2.19392940E+02      7.34775459E+02
      1.91012799E+03     -2.80225483E+02      6.41148612E+02
     -4.57206901E+02      3.06108638E+02      1.21191778E+03
     -6.63957507E+02     -1.63269801E+02     -5.03090986E+02
     -2.41236144E+03     -1.89010254E+03      2.64262935E+03
      2.41397998E+03      7.10048629E+02      2.79042416E+02
      7.47654678E+01      4.65529258E+02      7.19715232E+02
      7.10997797E+02     -5.29350565E+02      7.44157302E+02
      1.17773559E+03     -4.81486782E+02      2.30323586E+03
     -4.27845894E+02     -2.63646915E+02      6.84806035E+02
      1.24202268E+02      9.14089717E+02      2.24257694E+03
     -1.54694017E+03      4.02528975E+02      2.33734277E+03
     -2.64183030E+03      1.24707155E+03     -1.79127815E+03
      4.18354960E+02      4.13749431E+02      6.20240795E+01
     -2.51127654E+03     -5.61187802E+02     -1.03009621E+03
     -7.03510982E+01     -4.26857709E+02     -2.62819409E+03
      2.05937949E+03      7.22008102E+02     -2.74145621E+03
      3.50969443E+02      2.28394716E+02      5.34361764E+02
     -1.70680321E+03     -1.51205883E+03     -6.14390822E+02
      2.61652166E+02     -3.86303849E+03      3.02582846E+02
     -3.74802521E+02     -9.86730634E+02     -1.21264700E+02
     -5.23462988E+01      3.68147323E+02     -1.40001899E+03
      9.59002436E+02     -2.07078926E+02     -2.89882108E+03
     -3.45020181E+02     -6.55303015E+01      1.02416211E+02
     -2.18616816E+03      2.02273896E+03      1.15340545E+03
     -1.29166187E+03     -2.63739780E+03     -6.40751377E+02
     -5.07854532E+02      2.84461301E+02     -7.67974832E+02
     -2.36027017E+03     -2.58069893E+03     -3.03306268E+03
     -2.28440124E+03     -5.62168999E+02     -4.35627876E+03
      1.40936758E+02     -1.17563647E+02     -4.64683464E+02
      1.85816148E+02     -5.16947477E+02     -6.53889410E+02
     -1.99618261E+03     -1.71585435E+03      4.65390376E+02
      8.98177249E+01      2.04499717E+02      9.35074524E+01
      2.01883360E+02     -2.20427532E+03     -2.05075712E+03
      2.06951201E+03     -2.59666234E+03     -3.96745108E+02
     -4.76763159E+02      1.31510836E+02     -4.86390782E+02
     -9.84019973E+02      3.77691899E+03      2.15691280E+02
     -2.98632932E+02      6.88068049E+02      6.18889632E+02
      3.12520783E+02     -4.95931274E+02     -1.59765191E+02
     -1.12757288E+03      3.49582917E+03      1.42195950E+03
      1.41726296E+03      1.05577160E+03     -1.69499819E+03
      8.24305497E+01     -8.23779899E+01      8.67240834E+01
     -8.49715195E+02     -2.13006352E+03      1.84101996E+03
     -5.12907185E+02     -1.75333285E+03      5.43216159E+02
     -1.85359149E+03      2.00245070E+03     -1.89288758E+03
     -1.20556090E+01      4.27177083E+02      5.61807089E+02
     -9.48525966E+02      2.14591658E+02     -6.96006713E+02
      1.12328215E+03      1.82839591E+03     -2.48618724E+02
     -7.90744219E+02      2.75565676E+03      2.25570021E+03
     -1.36512603E+01     -3.60142937E+01      1.19961637E+01
     -6.46185781E+02      7.84572226E+02      5.71547060E+02
      4.17127133E+02     -6.32359075E+02     -1.49416384E+03
     -1.41888550E+02      8.01716481E+02     -9.07065962E+02
      3.09718443E+03      3.91330718E+02      1.69808891E+02
     -9.51701752E+02     -3.17871196E+02     -1.12564149E+03
     -8.37431568E+01     -4.50689014E+01      5.44690400E+02
     -1.62473925E+02     -5.63049247E+01      7.06654164E+02
      3.93959051E+02      2.00232312E+03     -1.59240292E+03
     -5.56277126E+01      4.26928851E+02      7.67920476E+01
      6.81810622E+02     -8.10858635E+02     -1.19519142E+03
     -2.45017037E+03     -1.60376311E+02      4.18616994E+02
      2.06800027E+02      2.28333725E+02      1.78619669E+02
     -1.36955827E+03     -9.12893201E+02      1.32572293E+03
     -1.52981989E+02      1.78072120E+03     -1.99730021E+03
     -5.97380795E+02     -9.96836494E+02      6.17296111E+02
      1.36378872E+03      3.20074819E+03      9.09373724E+02
     -9.92748798E+02      2.76515702E+02      8.09649968E+02
     -5.89231993E+02      4.92489036E+02      8.70816178E+02
     -2.96432547E+02      1.41631259E+03     -5.63348669E+02
      1.21659277E+03      1.01741235E+03     -1.44137432E+03
      2.68824366E+02      1.02237902E+02      1.00632961E+03
      5.15605926E+01      2.09088030E+03      8.15021738E+02
     -7.82750559E+02      6.20095672E+02     -3.40599691E+03
     -3.91744407E+02      4.34219582E+02     -4.67835007E+02
     -1.69014458E+03      1.60276785E+03      7.47042272E+02
     -9.63544046E+02      2.61968409E+03     -9.19377921E+02
      1.28334533E+03     -1.71345472E+03     -4.58917408E+03
      2.03138102E+02     -2.63764190E+02     -5.68765951E+02
      2.56556483E+02     -8.67793431E+02      4.02761446E+02
     -5.70979929E+02     -2.14014216E+03     -5.85764096E+02
     -5.58241914E+02     -2.26327481E+03     -9.89500677E+02
  }
}

Hamiltonian = DFTB {
  SCC = Yes
  SCCTolerance = 1e-6
  MaxSCCIterations = 200
  ForceEvaluation = Dynamics
  MaxAngularMomentum = {
    C = "p"
    H = "s"
  }
  Charge = 0.0
  SpinPolarisation = {}
  Eigensolver = Standard {}
  Filling = Fermi {
    Temperature [Kelvin] = 300.0
  }
  SlaterKosterFiles = Type2FileNames {
    Prefix = "../../pbc-0-3/"
    Separator = "-"
    Suffix = ".skf"
    LowerCaseTypeName = No
  }
  KPointsAndWeights = {
    0.0000000000000 0.0000000000000 0.0000000000000 1.00000000000000
  }
  Dispersion = LennardJones { 
    Parameters = UFFParameters {}
  }
}

ParserOptions = {
  ParserVersion = 3
}
