Geometry = GenFormat {
<<< "system.gen"
}

Driver = VelocityVerlet{
  Steps = 50000
  TimeStep [fs] = 0.2
  MDRestartFrequency = 5
  Thermostat = None {
    #InitialTemperature [Kelvin] = 300.0
  }
  Xlbomd{ 
    IntegrationSteps = 6 
    MinSccIterations = 2
    MaxSccIterations = 200
    SccTolerance = 1e-6 
  }
  Velocities [m/s] {
     -9.15150339E+02      3.18969722E+02      6.05800895E+02
      1.19253379E+03      1.82179837E+03      3.22049353E+03
     -2.31074853E+03     -9.36415509E+02     -1.92517682E+03
     -4.85308350E+02      9.57626294E+01     -2.66629020E+02
      1.50436412E+03     -2.34238554E+03      7.32670940E+02
      2.61708284E+02      4.55247705E+02     -1.52618898E+03
      1.77518361E+01     -1.39834453E+02     -5.78248362E+01
     -2.09785041E+03      2.02289434E+03     -7.98468481E+02
     -3.88385516E+03      8.80252685E+02      1.42288370E+03
      2.11243224E+02     -1.01255544E+03     -5.47556224E+02
      7.97721634E+02      1.22934668E+03     -9.17744180E+02
     -2.89518201E+02     -3.29804029E+03     -8.01364099E+02
     -3.10279794E+02      1.90585782E+02     -7.71580098E+02
      3.89614980E+02     -6.74584741E+02      6.88728076E+02
      1.89659015E+01     -4.02522597E+02      3.69208429E+02
      2.53727719E+02      9.88183520E+01      3.76558897E+02
      2.61918445E+03      1.62276843E+03      1.84705901E+03
      9.11829252E+02      1.98806824E+03      4.45572632E+02
      5.93269539E+02     -2.87798430E+02     -5.84302693E+01
      8.94994273E+02     -1.81643066E+03     -4.81822694E+02
     -3.93508834E+02      2.28404669E+03      1.55269081E+03
      8.85556005E+02      3.94789744E+01      6.64602091E+01
      3.30532476E+02     -6.15391302E+02      4.97697014E+02
      2.56654519E+03      7.60770715E+02      2.35983487E+02
      3.77999049E+02      1.22898978E+02     -1.78604870E+02
     -3.11785099E+02      1.18318775E+03     -1.05507998E+03
      2.31499976E+03      1.54778133E+03      3.33916973E+02
     -1.72939170E+03      2.22804463E+03     -4.00440533E+03
     -4.28281685E+01      4.35767009E+02      2.38234256E+02
     -1.54777905E+02     -1.45991253E+03      1.27177276E+03
     -1.81760543E+03     -1.59904265E+03      3.92665806E+01
      6.61899511E+02      8.02281721E+02      1.44673399E+03
     -7.71064541E+02      2.84152341E+02     -6.82261529E+01
     -2.55754778E+03     -2.96418203E+03      1.44443924E+03
      1.24997881E+03     -1.82423797E+03      1.44257992E+03
     -4.82184527E+02      1.41855996E+02     -7.23308042E+02
     -8.38566959E+02      3.91405628E+03     -2.08730481E+02
      8.62387628E+02      2.90537655E+02      1.54088618E+03
     -5.74405429E+02     -4.48605172E+02     -5.88524068E+02
     -6.91554365E+02     -3.94619506E+03     -2.64779163E+03
     -1.42371143E+03      4.26120809E+03     -2.32770491E+03
     -2.26133518E+02     -2.63616151E+02      4.21721201E+02
     -4.78757659E+02      1.48955881E+03      3.67257962E+02
     -1.21939794E+03      7.22022281E+02     -5.70167493E+02
      2.57948912E+02      5.37479494E+02      1.41633910E+02
     -4.78274792E+02     -6.44204702E+02      7.01670126E+02
      2.39250824E+03     -8.89211850E+02      2.14025746E+03
      4.58944648E+02      4.57963247E+02      8.57494836E+02
     -2.06682806E+03      3.36148029E+03      3.17417610E+03
      3.85339900E+02     -2.20042492E+02     -2.93195361E+03
      1.10339770E+03     -1.99787054E+02     -1.05601516E+03
      2.24951428E+03      3.01342995E+03     -2.33774960E+03
     -1.62126070E+02      1.34416206E+02      1.07078351E+03
     -1.95638332E+01     -8.93644041E+01      1.26055220E+02
      1.37968457E+03     -1.27458945E+03     -1.02809767E+03
     -1.33014810E+03     -9.65179762E+02      2.32951749E+02
      4.95331273E+02     -5.17840674E+02     -3.41183977E+01
     -8.36750341E+02     -2.03456098E+03     -1.27122516E+03
     -1.68638143E+03      1.19721120E+03      3.17445219E+02
     -1.77614000E+03      7.75060625E+02     -5.14018257E+01
     -2.78545252E+02      1.02408925E+02      1.28060555E+02
      1.51919026E+01      1.68045212E+03     -4.68523299E+03
      3.33521976E+02      1.52302388E+03     -1.81638862E+03
      1.64360462E+03     -2.29446633E+03     -1.95952226E+03
     -8.85536069E+02     -5.21078170E+02      8.50220312E+01
     -4.91894662E+01     -1.57758684E+03     -1.41398318E+03
     -1.69537620E+01     -1.27836726E+03      2.02218482E+03
      5.93228111E+02     -7.60274181E+02      9.20823247E+02
      1.32865636E+03     -3.65818557E+02      4.36741515E+01
     -6.86510602E+02     -2.03274214E+03     -9.30285742E+02
     -2.66987940E+02     -8.16224045E+01      3.65315747E+02
     -9.50256915E+02     -1.97340011E+03     -1.21994254E+03
     -1.91899056E+03     -1.72623728E+03      1.24551333E+03
     -2.32041640E+02     -2.67794399E+02      3.42783795E+02
      7.13358791E+02      6.78240707E+02     -1.07864789E+02
      1.12806881E+03      1.77047781E+03      9.13831214E+02
      9.31820402E+02     -9.06079641E+02      3.28212429E+01
     -7.91217031E+02      1.49469473E+02     -2.10172343E+03
     -2.43860582E+02     -5.97953004E+02      2.51963661E+03
      3.29887029E+02     -3.59174427E+02      4.08186136E+02
     -6.22523837E+02      1.70583315E+03      1.29452971E+03
      1.48889712E+03     -9.95780141E+02      1.62444833E+03
     -5.77356917E+01      5.77307500E+02      7.16895049E+02
      1.83547771E+03     -1.02178607E+03     -1.90957790E+03
     -2.82026359E+03     -1.94870677E+03      1.66973204E+03
     -9.83531372E+01      1.88438236E+02     -2.72642169E+02
      1.57684054E+03     -1.61632419E+02      9.50196694E+02
     -1.51766801E+03      1.06973571E+03     -8.39918442E+01
     -1.30823440E+02     -4.43794946E+01      2.54912279E+02
      1.18483022E+03      1.09624390E+03      2.63311092E+03
     -2.48797000E+03      1.57444470E+03     -5.53696485E+02
     -1.94032445E+03      1.16650815E+03      3.04216821E+02
     -7.34788300E+02     -2.19629147E+02      1.10673322E+03
      6.18400497E+02      2.02168530E+03     -1.91479537E+03
      1.01419779E+03      1.05707833E+03     -1.62186396E+03
     -2.26114713E+03     -1.27056615E+03      2.45590335E+03
     -3.40566603E+01      2.11224180E+02      7.03283027E+02
      1.83434636E+03     -2.37614647E+02      1.52131644E+03
     -1.39800167E+02      8.89757057E+02      1.80130745E+03
     -2.78142798E+02      6.49809954E+03     -2.07282432E+04
      4.37574995E+02     -3.49422374E+02      5.41369435E+02
     -3.77262415E+03      1.88160875E+03      4.12216334E+02
     -3.57010842E+01     -5.91736071E+02     -3.64807777E+02
      6.83967420E+02     -4.42699727E+02      2.11125117E+03
      3.46211831E+01     -3.93086537E+02     -9.04714797E+02
      6.72547821E+02      5.04705372E+02     -6.54604887E+02
      2.77308658E+03      5.10786180E+02      2.43209377E+01
     -1.99757996E+03      1.50188705E+03     -5.41390993E+02
     -2.66809143E+02      3.61425930E+02     -3.72119607E+02
     -8.10938649E+02      3.55893087E+02     -1.68281407E+03
      1.99375398E+02      2.92238188E+03      4.45008135E+03
      4.52497806E+01      8.47310049E+01      2.22604978E+02
     -1.45203618E+03     -4.26336121E+01     -1.41290195E+03
     -1.43691830E+03     -2.36099514E+03      1.92012025E+03
     -4.68726993E+01     -1.29288335E+02      8.72957302E+01
      3.26261790E+02      2.65696037E+03     -1.75923380E+03
      8.82167791E+02      1.40360980E+03     -2.81054675E+03
     -7.24507472E+01     -2.83984399E+01      1.13370169E+03
      3.55304426E+03     -8.15008611E+02     -4.42860386E+03
      3.42765187E+02      8.75051697E+02      2.50590182E+03
      5.30421009E+02     -7.26797968E+02      4.63980870E+02
      6.76173933E+02     -6.68427628E+02      4.57216877E+03
      5.74431606E+02      7.96671785E+02      7.60080093E+01
     -1.77265490E+03      2.11307805E+03      1.71828840E+03
     -3.67200212E+01     -4.36563123E+01      9.28037111E+02
      2.63416804E+03      1.39680699E+03      2.05352198E+03
     -2.28580818E+01     -1.27070367E+03     -7.63099911E+02
     -1.49050488E+03      4.56340049E+01      1.38363201E+03
      1.22053465E+03     -5.72207438E+02      8.57375035E+02
      2.70759823E+02     -5.83687587E+02      1.61444571E+03
      2.54185953E+03      9.21954822E+02     -7.33630081E+02
      4.63619919E+02     -3.86939797E+01      1.20155363E+03
     -1.75155010E+02     -1.05055288E+03      8.45455979E+02
      1.26476110E+03      2.30722898E+02     -3.38949872E+03
     -6.50002639E+01     -9.19829357E+02      5.08203982E+02
     -1.30190081E+03     -2.23267904E+03      8.92411801E+02
      1.95280887E+03     -1.07222616E+03     -1.26650894E+03
      4.04942844E+02     -1.27984315E+02      5.86630325E+02
      1.18822464E+03     -1.12834169E+03     -1.18268282E+02
     -5.42908409E+02     -4.02253806E+02      7.75090494E+01
     -1.09136963E+02      1.84315449E+02     -5.82389612E+02
     -1.41113232E+02      1.79566134E+03      3.31419084E+03
     -1.61354576E+03     -2.35338213E+03     -1.26852676E+03
     -2.14463266E+01      7.25145065E+02     -1.57677624E+02
      4.57998648E+02     -9.56135340E+02      1.50991025E+03
     -1.24180585E+03      1.16784210E+03     -8.79897763E+01
      4.91819221E+01      2.81318817E+02      7.09196203E+02
     -2.44296395E+03     -6.76281668E+02      3.36083848E+02
     -6.77863158E+02      2.38169188E+03     -9.49752965E+01
      8.33645142E-01      3.13527266E+02     -4.63038178E+02
      9.06887989E+02      1.04521033E+03     -9.80347663E+02
      6.28969528E+02     -4.75240130E+01     -2.00547563E+03
     -2.28751901E+02     -7.20376058E+02      7.66676994E+02
      1.93307188E+03      2.79603126E+03      9.41962938E+02
     -7.43627529E+02     -1.62281267E+03     -6.63367803E+02
      2.24922928E+02      6.61577900E+02      1.63497216E+03
      2.41569916E+02     -2.92001684E+02      2.40664455E+01
      1.04836591E+03      5.26976041E+02     -6.78349018E+02
      1.63233854E+03     -2.22567940E+02      3.58413223E+02
     -2.06436082E+02      4.17287415E+02      2.56563242E+02
     -3.48693407E+02      4.90497774E+01     -6.85373849E+02
     -2.80176602E+03      4.82050135E+02     -1.48945226E+02
      1.41255509E+03      1.43847842E+03      2.02435679E+03
      2.98620302E+02     -6.05104750E+02     -1.14251627E+02
      1.04945524E+03      1.31771314E+03     -1.19881936E+03
      3.29175946E+02     -9.74553668E+01      1.40628988E+02
      1.99034677E+02      1.77532519E+02     -9.08747940E+01
      4.66888651E+02      1.09331307E+03      1.81265620E+03
     -1.31205732E+03     -7.35107826E+02     -1.65527786E+03
      3.59792058E+02     -1.00029253E+02     -1.62191959E+02
      7.15961654E+02      1.70049531E+03     -2.01392565E+03
     -1.06582527E+03      1.89911200E+03     -2.14059009E+02
      1.28495005E+02     -4.57356040E+02      4.73821599E+02
      4.91478209E+02      1.02996600E+03     -1.38054974E+02
      2.16427241E+03     -8.18514171E+02     -1.00012227E+03
      7.02546262E+02     -7.17590137E+01      2.81578966E+02
      3.57063390E+02      7.28579804E+02      9.72758174E+02
     -8.25681304E+02     -1.69185668E+03      1.03191429E+03
      4.28638652E+02      2.92421339E+02      1.67985788E+02
      5.19791937E+01      1.88168105E+03      6.61545121E+02
     -2.45909135E+03     -2.55450437E+01     -9.98156176E+01
     -4.09423302E+02     -1.33382262E+02     -7.45224958E+01
      2.47983151E+03      1.36780817E+03      1.70855288E+03
     -2.47029848E+03      2.57012342E+03      9.18297252E+02
      8.90344019E+01      3.23555084E+02      3.59266953E+00
     -1.00179222E+02     -1.19424038E+03     -1.34959973E+03
     -1.88860898E+03      1.49998220E+03     -5.93912819E+02
      9.61870442E+02      7.37608041E+02      8.74003548E+02
     -4.86512664E+02     -6.75527633E+02      1.04903616E+03
      3.25705342E+02      1.23983242E+03     -7.13424143E+02
     -5.28219720E+02     -1.56593944E+02     -2.68495659E+03
      1.97694256E+03      2.09569334E+03      1.21287051E+03
      1.76983423E+02      1.54067699E+02      1.05929830E+03
      1.49624547E+03     -7.11893996E+02     -3.15103473E+03
      1.02982845E+03     -3.48949626E+03     -5.09243595E+02
     -3.50863725E+01     -4.18781798E+02      4.94669809E+02
      3.29060452E+03      1.10413225E+03     -9.17704842E+02
     -1.92505891E+02     -8.70849153E+02      1.23683668E+03
     -2.39996456E+02      2.73043447E+01      3.19002137E+02
      4.52576237E+02      2.83934098E+03      2.33557401E+03
     -1.31283096E+03      1.72009526E+03     -1.24004526E+03
      5.91889450E+01      3.99394338E+02     -3.21622758E+02
      3.60299117E+02      5.06153329E+02      7.10034889E+02
     -4.06692472E+02     -1.90853255E+02      1.36963144E+03
     -3.53165096E+02      6.86673900E+02      8.62859322E+02
      1.33246709E+03      4.99770119E+02      7.24598874E+02
      1.22324694E+03      6.76552895E+02      2.12341765E+03
     -1.90766264E+02     -5.11781826E+02      3.33652465E+02
      1.38248673E+02     -2.92693398E+03      3.22176322E+03
      3.18684422E+03      1.48240427E+03      1.17821859E+02
     -5.26106063E+01      9.70396524E+01      1.33788635E+01
     -1.67151534E+03     -2.15990885E+03     -5.97553196E+02
     -2.44684363E+03     -8.42041573E+02     -5.12738376E+02
     -1.65625124E+02     -3.48631076E+02     -5.12880865E+01
     -3.78915424E+03      1.49462613E+03     -4.64929370E+02
     -2.21732397E+02      1.37219934E+02     -1.95400856E+02
     -2.65455067E+01      2.26274873E+02      1.05533342E+03
      1.25191472E+03     -9.51976199E+02     -1.81597591E+02
      1.64429348E+03     -4.77834055E+01     -2.49859794E+03
      1.95894869E+03      4.31725815E+02      1.59848986E+03
      5.20584501E+02      3.90675414E+02      3.83280766E+01
      3.60167056E+02     -2.17163695E+03      2.56585784E+02
     -2.66574363E+02     -5.63159482E+01      3.39499534E+02
      3.67478556E+02     -2.24662333E+03     -1.62484656E+03
     -9.74074852E+01      3.51537585E+01      5.68270516E+02
     -2.88749259E+03      2.04850491E+03     -4.21355492E+03
      8.66941391E+02      3.16616751E+02      8.82221585E+02
     -2.74960412E+01     -8.40235290E+02      9.52491329E+01
      2.63307518E+03      1.36548230E+03     -1.16884936E+02
     -6.44794110E+02     -2.63097861E+02     -1.26454446E+03
     -7.91472875E+02      1.65220893E+02     -6.16792381E+02
      1.56774772E+03      2.60095587E+02     -1.18054744E+03
      1.43867192E+03      4.29011412E+01     -1.13992459E+03
     -1.23717509E+02     -3.10893946E+02     -2.60190660E+02
      4.23016954E+02      9.56553149E+02      1.83138287E+03
     -2.76093023E+02     -1.43813860E+03      2.39796517E+02
     -3.93399419E+02      8.26007743E+02      1.26371307E+02
      2.80015934E+03     -1.98737553E+03     -1.66429580E+03
      1.69376061E+03      8.63023890E+02     -1.52347275E+03
     -6.79655520E+01      6.73821749E+00     -3.76133060E+02
      6.29657256E+02     -2.96590831E+03      8.94540668E+02
      3.00514103E+02     -1.08488659E+02      7.78160968E+02
     -3.98649552E+02     -1.25025508E+03     -1.15083465E+02
     -1.14441179E+03     -1.30725903E+03      9.38851369E+02
     -1.64402527E+03      1.70192765E+02      1.26281235E+03
     -4.24851222E+02      3.78781777E+02     -2.40549775E+00
      1.30943235E+03      1.58642393E+02      8.44742565E+02
     -1.32054886E+02      4.49076625E+03      1.39587993E+03
     -6.83633684E+02      1.05801192E+03      5.05436317E+02
     -1.48742054E+03     -3.47121655E+03      5.15039940E+02
      2.51299407E+03     -1.18759832E+03      2.39445700E+02
      2.65511984E+02      3.22335060E+02     -3.60734730E+02
     -2.47384032E+02      3.67178953E+02     -3.46040896E+02
     -3.56143438E+03     -1.93109888E+03      1.75473545E+03
     -2.92034485E+02      2.35364374E+03      6.40337586E+02
     -1.61831938E+03      3.70659183E+02      2.32036355E+03
      8.11449963E+02      1.35420868E+02      4.95133739E+02
     -2.54936122E+02      2.72153153E+03      1.54415535E+03
     -2.25023678E+03      1.64235593E+03     -5.86960335E+02
      7.09574362E+02     -3.60663112E+02      2.96345116E+02
      8.32441749E+02      6.35910421E+02     -1.06225998E+03
      3.88475240E+02      2.01910773E+02     -6.23367307E+02
     -9.36402148E+02     -4.63311985E+02      3.13107989E+01
      1.66677531E+02      3.12235052E+03      3.24830920E+02
     -1.17691396E+03      1.35186744E+03     -8.25829909E+02
     -2.92694634E+02     -4.67688973E+02      5.23306190E+02
     -3.94974080E+03      1.25465008E+03     -1.60201035E+03
     -1.69249444E+03     -9.51550201E+01      1.63268311E+03
     -9.55073977E+02      1.45586820E+02     -7.35559300E+02
      2.13000069E+03     -1.14435698E+03      1.10799022E+03
     -2.43716941E+02      2.70560385E+03      1.22252169E+03
      7.38960516E+01      2.01385297E+02     -6.25671656E+02
      2.60213839E+03     -1.02602094E+03      2.19556866E+03
      2.25070706E+02      1.16501707E+03      1.25932010E+03
      5.16329666E+02     -4.22034478E+01      5.85368891E+02
     -2.32297315E+02      2.05458676E+03     -6.79411466E+02
      1.13657845E+03     -6.54951055E+02     -4.27010253E+02
     -2.89371372E+02     -8.49229214E+02     -4.83592253E+02
     -1.00691863E+03     -2.66305859E+03     -1.48840317E+03
      4.13702988E+02      5.50635813E+02      5.19110018E+02
      1.11754403E+02      1.37783710E+02     -2.92858249E+01
      3.58490579E+02     -3.33760480E+02     -5.29332765E+02
     -1.82220882E+03     -8.43650228E+02      1.05049019E+03
     -6.76771274E+02     -6.55607371E+02      3.84701853E+03
     -5.50742597E+02     -3.45460369E+02      2.77524139E+02
      6.83145026E+02     -1.93049219E+02     -5.30063047E+02
     -7.89529193E+02      1.48226082E+03      7.87525615E+02
     -1.79758726E+03      2.83407137E+01     -5.36019055E+02
      5.11622005E+01      2.70212742E+00      3.07270589E+02
     -3.96761271E+03      1.20047758E+03     -2.92287532E+02
     -1.39366216E+03      1.39706711E+02     -8.88922536E+02
     -1.39748717E+02     -1.72835249E+02     -1.81323948E+02
     -1.39891676E+03      1.01943241E+03     -1.58145093E+03
     -1.42700617E+03      3.46057387E+03      2.45285029E+02
      6.62488681E+01     -2.27760767E+02      7.08742710E+02
     -1.01431479E+03      5.46958037E+02      1.36557769E+03
     -4.23915682E+02      3.18110403E+02     -1.24414411E+03
      6.08317247E+01      4.69336284E+02      7.95094883E+01
     -1.79614761E+03      8.00579207E+02      2.11196632E+03
      2.21184159E+02      1.35987891E+01     -5.48522853E+01
      8.64019521E+02     -4.28195326E+02      5.82169482E+02
     -1.22598114E+03      5.00145669E+02      9.67469316E+02
     -1.21795607E+03      8.27363507E+02      1.24430025E+03
      3.34143391E+02     -7.65349506E+02     -3.26871018E+02
     -8.74887921E+01     -4.25548115E+02     -2.03133283E+03
     -2.12599762E+03      4.72641080E+02      1.78231050E+02
     -4.30151762E+02     -5.09925824E+02      7.72307317E+02
      1.03858084E+02      6.62248514E+02     -1.08838979E+03
      1.89874742E+03     -2.39834958E+03      1.08883030E+03
      3.97220833E+02      3.56148797E+02     -5.98901624E+01
      6.48975196E+02      1.40045020E+03      1.40213562E+03
     -1.32207505E+03      2.60141957E+03      1.19417769E+03
      6.16959487E+02     -4.59359114E+02      3.33352485E+02
     -1.05597127E+03      1.54897497E+03     -3.74179558E+02
     -4.31902850E+01      6.48184624E+02      1.14699867E+03
     -1.14666016E+03     -7.92864568E+02      1.96388370E+03
      9.47134479E+01     -8.23637304E+01      5.24578115E+02
      1.36390986E+03      2.21522715E+03      1.14591084E+03
      2.05820416E+03      4.25330618E+02     -1.27920445E+03
      9.66109554E+02      2.13538981E+03      1.95914695E+02
      3.67958903E+02      2.15031153E+02     -3.75023539E+02
     -1.54758430E+02      1.52217892E+03      1.27640712E+03
     -4.67602999E+02     -4.11299064E+02     -2.30587025E+03
      7.38436858E+01     -6.31866497E+02     -3.80514650E+01
      8.77002548E+00     -2.48767246E+03     -2.47877387E+03
     -2.79516206E+03     -3.05784925E+03      1.94999733E+03
      5.87083390E+01     -7.15286964E+02      1.70774530E+02
     -5.27477803E+02     -1.21666637E+02      1.63501117E+03
      2.33792530E+03     -4.48023619E+02      3.98230895E+02
      5.15558970E+02     -6.34667082E+02     -1.22200142E+02
     -6.91968611E+01      6.00098558E+02      2.91947926E+02
      2.16372559E+03      2.67809706E+03      1.53348256E+03
      1.18103710E+01     -1.36063578E+02      1.96125388E+02
      5.55788241E+02     -6.32164276E+02     -1.13778131E+03
      4.58399221E+02     -1.62783845E+02      8.19965807E+02
      1.82756840E+02     -1.56546053E+02      6.38089802E+02
     -2.69427864E+03      1.28811074E+03      1.68953627E+03
     -9.19154812E+02     -7.42394578E+02     -9.43249965E+02
     -1.26680961E+02     -5.07344781E+02      7.10705514E+02
      4.35066078E+01     -3.82465252E+03      1.18331529E+03
     -4.79442207E+02     -1.06999652E+03      1.28141972E+03
      1.97559161E+02     -8.48483484E+02     -8.37893351E+01
      8.99669699E+02      5.53392855E+02     -2.92590563E+02
     -3.12269363E+02      1.69368140E+03      2.28555357E+03
     -4.85059092E+02      3.12051155E+02      7.80135829E+02
     -1.02391765E+03      3.04264563E+03     -1.22025135E+03
     -1.68566801E+03     -4.92852968E+02     -3.93857503E+01
      1.49806730E+02     -1.54826389E+03     -1.95750209E+03
     -3.63176227E+02      2.76664945E+02      9.56518562E+02
     -1.06369803E+03     -2.82791748E+03     -2.85833484E+03
      2.35485492E+03      5.89948048E+02     -1.13253675E+03
     -1.77307775E+03     -1.42523844E+03      1.77830494E+03
  }
}

Hamiltonian = DFTB {
  SCC = Yes
  SCCTolerance = 1e-6
  MaxSCCIterations = 200
  ForceEvaluation = Dynamics
  MaxAngularMomentum = {
    C = "p"
    H = "s"
  }
  Charge = 0.0
  SpinPolarisation = {}
  Eigensolver = Standard {}
  Filling = Fermi {
    Temperature [Kelvin] = 300.0
  }
  SlaterKosterFiles = Type2FileNames {
    Prefix = "../../pbc-0-3/"
    Separator = "-"
    Suffix = ".skf"
    LowerCaseTypeName = No
  }
  KPointsAndWeights = {
    0.0000000000000 0.0000000000000 0.0000000000000 1.00000000000000
  }
  Dispersion = LennardJones { 
    Parameters = UFFParameters {}
  }
}

ParserOptions = {
  ParserVersion = 3
}
