Geometry = GenFormat {
<<< "system.gen"
}

Driver = VelocityVerlet{
  Steps = 100000
  TimeStep [fs] = 0.2
  MDRestartFrequency = 5
  Thermostat = None {
    #InitialTemperature [Kelvin] = 300.0
  }
  Xlbomd{ 
    IntegrationSteps = 6 
    MinSccIterations = 2
    MaxSccIterations = 200
    SccTolerance = 1e-6 
  }
  Velocities [m/s] {
     -1.07099505E+03      2.72586828E+02      3.10972413E+02
      1.50877389E+02     -1.75874628E+03      1.06072782E+03
      1.18493598E+03     -6.51618057E+02      1.24127002E+03
      3.16478784E+02      1.26818208E+03     -6.57203299E+02
      5.63744389E+02     -3.06010332E+03      4.45121916E+03
      4.52950129E+02     -2.12150263E+03     -9.86994960E+02
      2.81958711E+02      8.74290943E+02     -9.16696775E+02
      1.30963926E+02     -3.90435723E+02     -1.39364871E+03
     -9.47655064E+02     -1.12153292E+03      2.80741141E+02
      1.99985660E+02     -3.68887086E+02     -1.13148050E+03
      2.10842581E+03     -3.93016795E+02     -8.36093428E+01
     -1.06184485E+03      2.50523989E+03     -6.90776863E+02
      2.20657863E+02      1.89837854E+02     -2.77366396E+02
      1.35058510E+02      1.35464273E+03     -2.05441726E+02
      1.68942598E+03      1.54831112E+02      4.77329881E+02
      3.00748848E+02     -2.51117373E+02     -4.19758383E+02
      3.18359255E+03     -1.22251281E+03      1.95370551E+02
      2.52515296E+03     -2.10072728E+02     -1.11935838E+03
      1.07083103E+02      3.92766588E+01     -5.06499048E+02
     -5.37919680E+02      1.46484362E+03     -2.70598850E+02
     -1.94402428E+02     -1.69535830E+03     -3.92490190E+02
     -2.68964608E+02      9.51701074E+01      2.36349775E+01
      2.28091281E+03     -6.27465124E+02      4.18373082E+02
      1.33142190E+03      2.72680804E+03      2.60094917E+03
      7.24512336E+02     -4.75996143E+02     -8.12160767E+02
     -2.37544354E+03      1.18290316E+02      4.73680676E+02
     -1.04869187E+03     -1.29523873E+03     -9.68505008E+02
      2.79673301E+03      2.75961290E+03     -3.76311518E+03
     -1.40504009E+02     -9.26989000E+01     -6.94277043E+02
      1.60058622E+03      1.96118041E+01      2.04568191E+03
     -1.93614385E+03      1.60105733E+03      6.17754485E+01
     -1.36269469E+03      3.80184934E+03      1.42850384E+03
      1.54160773E+03      5.89700609E+02     -4.82109150E+02
     -2.19630992E+03      1.25251526E+03      1.14030681E+03
      1.22863082E+03     -6.17687423E+02      3.73033710E+03
      4.98429454E+02      3.95887535E+02      3.19738541E+02
     -2.50243543E+03     -2.51973303E+03      1.21540032E+03
      3.27635737E+01      1.80937457E+03      6.55921536E+02
     -3.58622837E+02      5.94231850E+02     -4.53072769E+01
      1.39608064E+03      4.15748314E+02      2.20302964E+03
      4.20068826E+02     -1.19744704E+03     -1.05646707E+03
      3.36232395E+02     -2.61889148E+01     -3.88840490E+02
     -2.63912508E+03     -2.13381546E+03      4.64237753E+02
      2.48147090E+03      3.28419838E+03     -4.90349753E+02
      8.70454640E+02      4.67651675E+02      1.78931362E+01
      3.20303808E+03     -1.59623130E+03      4.00487580E+02
     -8.78135166E+02     -1.62372298E+03      1.97031932E+03
     -7.27667697E+01      3.09699973E+02      3.66701138E+02
      7.47250926E+02     -1.95775584E+02      2.00689955E+03
      2.47905539E+03     -1.04603880E+03      1.68096319E+03
     -7.02773399E+01     -7.92178959E+01     -2.29834209E+02
      2.86118184E+02     -1.09866427E+03      1.34107392E+03
     -8.45119620E+02      2.52625234E+03     -1.33443799E+03
      5.91633234E+01      2.37302132E+02      3.29420962E+02
     -6.15168084E+02      9.98173608E+02     -8.77380104E+02
      5.88170265E+01     -2.51801497E+02      9.90338527E+02
     -6.78580630E+01      3.80158139E+02     -1.92128427E+02
      1.65973653E+02      2.20164740E+03      1.08063405E+03
      7.74324733E+02      3.27894909E+03      1.52945216E+03
     -1.32294096E+03     -1.48219559E+03     -3.17510607E+02
      2.40409530E+02      3.03941527E+02     -8.14107406E+01
     -1.51982926E+03      2.22651755E+03     -2.68217854E+03
     -2.92494383E+02      1.25279665E+03      1.70549440E+03
      9.76130903E+02     -9.65991366E+02     -1.09454896E+03
      6.70991211E+02     -4.71906605E+02      2.60156494E+01
     -4.02802376E+03     -2.99240141E+02     -1.40434571E+01
      8.27463110E+02      2.76962264E+02     -1.73629234E+03
     -1.32260807E+04     -2.75376032E+04      1.31737838E+04
     -3.27165594E+02     -2.03060299E+02     -1.44032972E+03
     -2.91494066E+01      5.11127084E+02      8.25316543E+02
      3.64401325E+02     -6.02916343E+02      1.02704715E+03
     -4.38313661E+02      3.74318662E+03     -1.20018847E+03
      1.47215742E+03      2.62598100E+03      1.12927919E+03
     -3.39153093E+02     -3.43244988E+02     -6.51060167E+01
     -2.73086233E+03     -7.11552601E+02      2.94798176E+02
     -1.57679289E+03     -4.36154025E+03     -1.84928661E+02
      5.51690618E+01      5.86588098E+02      1.74705265E+02
     -2.64885612E+03      1.64449669E+02      8.88043303E+01
     -2.68580038E+03      1.71288889E+03     -2.63469478E+03
      4.01625787E+02      8.01748981E+02     -2.14061648E+02
     -1.75404793E+03      3.51835330E+02     -1.23677266E+03
      6.34599098E+02     -1.42733182E+03      9.85156161E+02
      4.48898792E+02      1.04378799E+03     -3.92485464E+02
     -1.18063239E+03      3.73657898E+01     -8.29937925E+01
     -1.87688409E+03     -2.12632601E+02      5.45633204E+02
      3.04718531E+02      3.28014916E+02     -6.62079909E+02
      1.80456686E+03     -9.93716003E+02     -2.22363252E+03
     -5.83028263E+01      5.71300208E+02     -1.32535509E+03
     -4.93825616E+01     -2.21138907E+01     -1.36285769E+02
     -1.65020061E+03     -2.38099766E+03     -1.53285029E+03
     -1.42044361E+02     -1.36458203E+03     -2.71816346E+03
      1.97741444E+03      2.33655164E+03     -3.23348412E+03
      4.01426454E+02      5.36679726E+02     -5.20247456E+02
      1.18470875E+03      9.11979973E+02      4.33632924E+01
      1.03068841E+03      2.96100880E+03      1.55652999E+03
     -4.55647893E+01     -1.05576264E+03      2.64698795E+03
     -2.97675926E+02      1.23243894E+02     -1.52320284E+02
      1.47272290E+03      6.75580754E+02      6.46082756E+02
      6.66963601E+02      2.70004128E+03     -2.14158296E+03
     -1.29702995E+02      1.12352265E+03     -5.02668065E+02
     -3.66535946E+02      1.69101922E+03     -2.85390302E+02
     -7.53855274E+02      4.02190952E+03      6.29182273E+02
      3.19263061E+02     -3.56416445E+02      4.84652161E+02
     -1.24363700E+03      2.52172449E+03      3.96840481E+03
      1.79098467E+03     -3.58690143E+02      2.79792550E+01
     -7.64977412E+01      2.57956209E+02      2.01652884E+02
     -9.34675372E+02     -1.36406466E+03     -3.66622953E+02
     -9.15759946E+02      8.61432692E+02     -3.54909829E+02
      6.75995959E+02      3.06354676E+02     -4.51450535E+02
      2.73144682E+03     -1.17126306E+03      3.88775254E+02
     -1.79545259E+02     -3.91113957E+02     -1.00278916E+03
      2.42428862E+02     -3.30164626E+02     -2.67372054E+02
     -6.64560124E+02     -1.08399482E+02      1.46489900E+03
      1.42286252E+02     -1.80277145E+03      1.92496341E+03
     -1.35382515E+02     -3.79918526E+02     -1.01759107E+03
      8.66014175E+02      1.42745303E+03      1.49091326E+02
     -3.00758732E+02      1.33579637E+03     -2.52017032E+02
      1.01620366E+02     -3.69931393E+01     -4.49918623E+02
      2.56166935E+03      7.66393243E+02      2.03120699E+03
      1.35430931E+03     -2.02683120E+02     -1.87837493E+03
      1.12545986E+02      2.68075494E+02     -5.12442310E+02
     -2.06546700E+02     -2.67165524E+03      1.26489346E+03
      1.89698051E+03     -2.32961016E+03      7.81173690E+02
      4.18294878E+02     -3.03907880E+03      1.01256381E+03
      2.97228880E+02      6.92500321E+02      3.35678413E+01
      1.38914840E+03     -4.51536424E+01      1.31923333E+02
      2.51680963E+03      3.63293619E+02     -1.72444268E+03
     -3.32785793E+02      3.73937238E+01     -5.74301546E+01
      7.83825807E+02      1.00215004E+03     -3.02368521E+02
     -2.05197495E+03      1.94187974E+02      1.40779639E+02
     -1.24587643E+03     -2.33191421E+03      5.43970149E+02
     -3.04632894E+02     -6.38427314E+02      7.67499018E+02
     -8.83537482E+02     -2.31883299E+02      3.64558438E+03
     -1.55701805E+03      1.45380784E+03      3.58380028E+02
     -2.49781664E+02     -2.22190018E+02      4.25102788E+02
     -3.10190638E+01     -6.60753016E+02     -1.43602216E+03
      7.56488208E+02     -7.76881938E+02      1.20315837E+03
      2.16024095E+02      6.61343427E+02     -3.23580211E+02
     -1.45448704E+03      8.50134564E+02     -8.65897759E+02
      2.78431004E+03      1.14615106E+03      1.80968271E+03
     -8.33498710E+01      8.66329500E+02      4.46622602E+02
      1.49523069E+03      3.58380242E+03      5.33466562E+02
      2.92665481E+03     -1.45259552E+03      2.30044031E+03
     -9.31796049E+01      1.36299078E+02      9.58705549E+02
      2.66946001E+03     -6.49436170E+02      1.32466233E+00
     -4.20413187E+03      5.59527022E+01     -2.32629352E+01
      3.65574735E+02      1.81670811E+02     -5.45702872E+02
      8.55784036E+01      1.01945244E+03      4.24928565E+02
      1.88471375E+03     -3.32671714E+02      9.58129472E+02
      2.62822431E+01      6.89430003E+02      2.92783740E+02
     -1.76585861E+03      1.86700065E+03     -1.70083256E+03
      1.93303261E+03     -6.83953760E+02      3.29577471E+03
     -3.91537364E+02     -2.65050002E+02      4.29775302E+02
      3.17217338E+02     -3.01017441E+03      3.54515336E+02
      1.58423983E+03     -1.83372700E+03      2.62697330E+03
      2.27015676E+03     -1.40847508E+03      5.45791141E+02
      9.88014384E+02     -3.95846567E+02     -2.73576347E+02
      3.23960594E+03      2.43769441E+03     -2.74563427E+02
      4.86088852E+03      1.55869462E+03      1.61956555E+03
      1.36896334E+03      2.95700041E+02     -8.46401942E+02
      6.72094292E+02     -8.02420240E+02      4.23020388E+02
     -1.77303006E+03      1.86397924E+02     -4.38940779E+02
     -5.25315110E+02      2.35807924E+03      1.85021228E+03
      4.93919507E+02      1.46092190E+02     -9.57102833E+01
      5.86587461E+02      1.95915390E+03     -2.69027040E+02
     -4.91654659E+02      9.34592658E+02      1.72489705E+03
      6.00620386E+00      8.92117071E+02     -4.28484406E+02
      1.84766785E+02      7.44443069E+02     -2.53323021E+03
     -2.02838362E+03      7.98258252E+01     -3.37734135E+02
     -1.69207365E+02     -1.01717178E+02      3.39699069E+02
      2.52921967E+03      8.19906133E+02     -1.28748448E+03
      4.66096740E+02      2.41175307E+03     -1.15993771E+03
      9.20195198E+02      5.85198277E+02     -5.63810689E+02
     -1.78942032E+03      1.07471335E+03     -3.32387379E+03
      2.11669564E+02     -1.91785264E+03      5.52856792E+02
     -6.45001030E+01     -2.12027751E+02      1.41097213E+02
     -4.98794670E+02     -1.45733612E+03     -6.40779064E+02
      1.47091478E+03     -8.51717123E+02     -5.01779638E+02
      5.48429688E+02      8.95140705E+01     -6.34344115E+02
      1.19620623E+03      2.03143514E+03      1.07697984E+03
      1.55626795E+03      1.81799660E+02      7.83685080E+02
     -4.96281666E+02      4.08280029E+02     -1.95051638E+02
      1.02122127E+03     -1.31418961E+03     -1.12818513E+03
     -1.53041264E+03      5.87098352E+02      1.20217613E+03
      3.98866296E+02     -7.77096233E+02      8.68233580E+01
      2.96467200E+02     -3.39898756E+02     -3.73478266E+02
      3.10039672E+02     -4.65915364E+01     -9.93616638E+01
      2.49779333E+03      8.57222421E+02      9.96968973E+02
     -2.38682921E+02      9.78243637E+02     -3.53241001E+02
      1.43318653E+01     -8.61582243E+02     -1.94081326E+02
      2.32088922E+03      2.26938301E+03      1.03032920E+03
     -1.65479058E+03     -2.61817631E+03     -5.05560645E+02
      3.62158644E+01     -4.60662402E+02      2.13917798E+02
      2.81242226E+03     -8.54625204E+02     -1.62512177E+03
      4.26510957E+02      7.66706827E+02     -1.37711887E+03
     -3.08451942E+02      1.03491478E+03      3.29385698E+02
     -4.61886142E+02      2.27034832E+02      1.16336023E+02
      1.36469608E+03      2.31481613E+03      3.13941031E+02
      6.62114108E+01      2.82210723E+02     -3.84142507E+02
      4.02734057E+02     -1.68520075E+03     -7.82764548E+02
     -1.55480317E+03      7.68195815E+02     -7.43441674E+02
      1.90011537E+02      4.60346524E+02     -8.53092840E+01
      5.18094224E+02      1.48737590E+02     -1.34078449E+03
      1.46774435E+03     -8.86155010E+02      1.09957340E+03
      4.06891438E+01      9.72327317E+02      7.23837510E+02
     -1.33567623E+03      2.43970177E+03     -2.32074372E+03
     -4.78293943E+02     -2.96460524E+02     -1.04383956E+03
     -1.55526711E+02      7.69189199E+02     -2.02098502E+02
      1.26666175E+03      6.84432753E+02     -4.13765440E+03
      7.17665788E+02      1.03075401E+03      3.09897237E+02
     -2.40693465E+02     -1.23425221E+02     -2.46840513E+02
      1.74328433E+03     -3.97122125E+02      3.42834120E+02
     -1.52793578E+03      7.00502587E+02     -2.49622018E+03
      7.84464366E+02     -1.46848433E+01     -4.77816082E+02
      2.56542181E+03      3.91744289E+03     -4.20884347E+02
     -1.34340780E+03     -8.95561235E+02     -2.69439522E+03
      3.46195303E+02     -5.41443464E+02      6.76476165E+02
     -2.73899041E+03     -3.03685081E+03     -2.17578396E+03
     -7.49072964E+02      2.09597738E+02      1.46142008E+03
      3.95241888E+02      7.43995176E+02      1.40833617E+03
     -1.64005408E+02     -1.12244622E+02     -2.92626387E+02
      7.82216081E+02     -3.92006346E+02     -1.48768023E+03
      1.99039681E+02      1.85148475E+03      3.45005552E+03
     -2.76893320E+03     -1.85519025E+03      9.65238560E+02
      4.60000297E+02     -3.30589635E+02      7.14774955E+02
     -1.83947894E+02     -7.00072096E+02      3.07309332E+03
      4.07727099E+03      6.67948253E+02     -1.14938672E+03
      1.12069198E+02     -8.26495832E+02      4.40321880E+02
      1.86132146E+03     -1.16552052E+03      2.99668842E+03
     -2.05174168E+03      8.98295517E+01      6.06842166E+02
     -3.57348386E+02      3.43961056E+02     -1.91753195E+02
     -2.29829742E+03      7.90228370E+02     -7.20818180E+02
      3.49436864E+02     -2.00552662E+03      2.49911442E+03
     -2.89274259E+02      2.31973372E+02      6.03413877E+02
     -1.81447666E+02      1.59914121E+03      1.12683150E+03
     -1.13651773E+03      7.93717935E+02      1.18494276E+03
     -1.92556201E+02      5.42545817E+01      2.48717734E+02
      1.59856986E+03      7.64382282E+02      3.25127100E+03
     -9.28603504E+02     -4.65885469E+02      9.96152550E+02
      2.84835756E+02      8.64535264E+02      5.47578824E+02
     -2.80467146E+03     -1.22889031E+03      4.85792796E+01
     -2.13623210E+02     -9.44635123E+02     -6.63711406E+02
     -1.71522040E+02      2.48985074E+02      4.28790646E+02
      2.37249508E+03      1.21943805E+03      1.49834956E+03
      1.25265385E+03      7.81425511E+02     -1.47854413E+03
     -5.01062188E+02      5.62592222E+02     -5.99367024E+02
      2.61788924E+03     -1.64333648E+03      1.93467233E+01
      8.21653872E+01      1.07125100E+03     -1.42779619E+02
      2.09928665E+02      4.14521171E+02      6.27437899E+01
     -1.67782289E+03     -1.72034049E+03      1.40968746E+03
      1.03210693E+03      2.30334307E+02     -1.43921815E+03
      9.82223871E+02      1.34150327E+03      6.80277770E+02
     -4.30892381E+02      6.08878897E+02      9.91211937E+01
      1.33051879E+03     -1.48080943E+03     -1.78915450E+03
      5.15727952E+02     -1.40447487E+03      3.48783117E+02
     -5.00032645E+03      4.18321773E+03     -2.12472647E+03
      5.84115422E+02      4.02088893E+02      4.08977431E+02
      1.57987585E+03      1.89999109E+03     -2.23981461E+03
      2.60110991E+03     -2.07040251E+03     -6.07179963E+02
      9.45708015E+01      4.79952218E+02     -3.79917720E+02
      2.50258399E+02     -2.89502453E+02      1.74711633E+03
      2.30203564E+03      1.84106521E+03     -2.57187569E+03
     -2.33448443E+02      1.74478978E+02     -2.30748550E+02
      1.84742153E+03     -8.73237134E+02     -2.16136368E+03
      1.97081188E+03     -3.50460759E+02     -3.51583500E+03
      2.98425248E+02      4.55517252E+02      4.84904711E+02
     -6.41324122E+02     -2.02007352E+03      3.40147499E+02
      1.47008270E+03      1.39735167E+03     -1.51430308E+03
     -6.44810251E+02      4.21562535E+02     -1.33657533E+03
      1.79178734E+03      2.06083040E+03      9.45754041E+02
     -5.51127992E+03      3.00563475E+03      3.06114016E+02
     -7.32675304E+02     -7.35000821E+02      1.86470732E+02
     -2.91405097E+02      5.10411923E+02      2.86479221E+02
      1.36026504E+03      1.95416237E+03      2.08587357E+02
     -1.47532733E+02      4.81305631E+02     -2.23256296E+02
     -2.39283499E+03      2.65121997E+03      2.34460955E+03
      1.77522438E+03      5.79242371E+02      2.10715008E+03
     -7.61611053E+02      8.91940178E+01     -2.76019929E+02
      1.02101065E+03     -1.29892803E+03     -2.08539232E+03
     -1.26273727E+03     -1.64078063E+03      3.01794327E+03
     -4.80759092E+02     -2.64872271E+01     -1.30555105E+03
      2.83538864E+03      2.36195605E+02      2.12481265E+02
      1.18004783E+03      2.56598595E+03     -2.14556668E+03
      1.61411186E+03      2.65356022E+03     -2.60631591E+03
      3.79142886E+01     -5.74719512E+01      2.31595674E+02
      5.70091557E+02     -2.25049303E+03     -6.93779707E+01
      8.40090521E+01      1.58324860E+03     -1.57847368E+03
      1.00703886E+03     -2.75757083E+03     -2.25500463E+03
      2.71508334E+02      2.10906021E+02      8.05299031E+01
      4.44756894E+02      3.47042443E+03     -3.05668496E+02
      1.42071025E+03      1.65585953E+03     -1.29823341E+03
      3.20783277E+02     -1.57032039E+02      8.25170295E+01
     -3.10841789E+02      2.29252223E+03     -5.40711447E+02
      2.26995942E+03     -8.35232672E+02     -1.85104517E+03
     -2.78301332E+02      1.30504732E+03      3.11934321E+02
      1.16217732E+03     -8.42744778E+02      2.75291388E+02
     -1.06624561E+02      8.34976232E+02      1.68647812E+03
     -8.09672067E+02      6.28908088E+02      4.35324010E+01
      1.10111338E+03      1.84268013E+03     -1.73647653E+03
      5.00159100E+02     -7.45823842E+01     -2.77780405E+03
     -2.56298488E+02      4.73685676E+02     -6.19258821E+02
     -3.18291896E+03     -1.59168091E+03      3.80473124E+03
     -9.32935742E+02      2.90377066E+02     -2.11238194E+03
     -9.92525478E+01     -2.09872246E+02     -1.51522213E+02
      2.91832459E+03      3.70338031E+02      6.31701689E+02
     -1.43933442E+03      4.60271270E+02      7.04290251E+02
      2.13334468E+02      1.40980534E+02     -5.45940388E+02
      1.10112199E+03     -9.70582773E+02     -1.19370634E+03
     -5.93093390E+02     -4.42159630E+02      2.31405436E+03
      4.12237632E+02      1.49942255E+02     -5.76344755E+02
     -1.03306944E+03      1.13819487E+03     -1.38288025E+03
      1.33594316E+03      5.01308141E+02      1.63731679E+03
      6.99211752E+02      1.22477627E+01     -1.08426084E+03
      4.82753411E+02      3.04771937E+03     -2.04646384E+03
      2.82506458E+03     -4.17979540E+02     -1.85531534E+03
      1.73864212E+02     -3.15671254E+03      2.61245677E+03
      1.84377263E+02     -2.46202737E+01      3.65316263E+02
     -2.78144612E+02     -2.01728953E+01     -2.13933023E+03
      3.24045801E+03     -2.30068291E+03     -3.31811656E+03
     -1.71738506E+02      7.32907646E+02     -1.54835618E+03
     -5.10732081E+02      5.08468275E+02     -7.24734330E+02
     -1.54528602E+03      6.34042912E+01      1.37010844E+03
     -5.76141134E+02     -7.40003263E+02      7.71410100E+02
      3.36638907E+02      2.01153830E+00     -7.38092228E+02
     -2.72576176E+03      1.58729426E+03      2.30632401E+03
     -1.18288007E+03      3.38296558E+03      1.93209238E+03
      2.39032135E+00      3.57964150E+02      6.46117345E+02
     -3.63564811E+02     -2.13563145E+03      1.34319212E+03
      1.64637338E+03      2.67695390E+03     -3.82124080E+03
     -4.08725715E+02      1.36760664E+03     -5.28847600E+02
     -4.31253249E+02      1.47076682E+03      2.38081072E+03
      4.81903545E+01     -3.04991352E+03     -2.40431971E+03
      4.44216798E+02      3.84678845E+02      9.31397092E+01
     -1.25799058E+03      3.15158816E+03     -6.81614088E+02
      1.67635280E+03      7.65993923E+02     -1.67909468E+03
      2.57445704E+02      8.54320881E+02     -3.69474179E+02
     -1.20484583E+03      2.45434176E+03      2.89381076E+03
     -9.06236465E+02      8.16749169E+02      1.31450010E+03
     -9.41729414E+01     -4.51465047E+02     -3.41116328E+02
      2.03051742E+02      7.11160943E+02      9.19195243E+02
      2.95250125E+03      1.95025813E+03      1.29953748E+03
     -8.16682991E+02     -1.10424367E+02     -2.05484468E+02
      7.46873468E+02     -8.03128235E+02     -1.98121972E+03
     -1.69524048E+03      1.31011030E+03      1.12259230E+02
      1.61964462E+02     -2.83595973E+02     -3.40712064E+02
      4.87696074E+02      1.16540876E+03     -1.86023311E+03
      1.23650023E+03     -9.38472272E+02     -3.40451850E+03
     -7.95937087E+02     -2.29609757E+03      1.93147390E+03
      2.32399570E+02      2.82185624E+02     -3.69672392E+02
      1.46435962E+03      2.09598106E+03     -7.58200530E+02
     -5.98859520E+02     -2.25885853E+03      3.49477803E+02
      5.26909444E+02     -1.60868521E+02     -4.00762326E+03
  }
}

Hamiltonian = DFTB {
  SCC = Yes
  SCCTolerance = 1e-6
  MaxSCCIterations = 200
  ForceEvaluation = Dynamics
  MaxAngularMomentum = {
    C = "p"
    H = "s"
  }
  Charge = 0.0
  SpinPolarisation = {}
  Eigensolver = Standard {}
  Filling = Fermi {
    Temperature [Kelvin] = 300.0
  }
  SlaterKosterFiles = Type2FileNames {
    Prefix = "../../pbc-0-3/"
    Separator = "-"
    Suffix = ".skf"
    LowerCaseTypeName = No
  }
  KPointsAndWeights = {
    0.0000000000000 0.0000000000000 0.0000000000000 1.00000000000000
  }
  Dispersion = LennardJones { 
    Parameters = UFFParameters {}
  }
}

ParserOptions = {
  ParserVersion = 3
}
