Geometry = GenFormat {
<<< "system.gen"
}

Driver = VelocityVerlet{
  Steps = 100000
  TimeStep [fs] = 0.2
  MDRestartFrequency = 5
  Thermostat = None {
    #InitialTemperature [Kelvin] = 300.0
  }
  Xlbomd{ 
    IntegrationSteps = 6 
    MinSccIterations = 2
    MaxSccIterations = 200
    SccTolerance = 1e-6 
  }
  Velocities [m/s] {
      5.45765821E+02     -1.08989686E+02     -1.98017837E+02
      8.72630147E+02      1.28921006E+03      2.13491216E+03
      1.54641300E+03     -4.92792445E+02      6.53103148E+02
      2.47031467E+02     -3.68544176E+02      8.22353751E+02
      1.04416230E+03     -6.05848042E+02      7.05817636E+02
      1.88175990E+03     -5.66817814E+02      8.79130997E+02
     -5.01469943E+02     -1.85843002E+02     -3.90806272E+01
      2.34043650E+03      7.54583850E+02     -3.03314058E+03
     -1.78566103E+03      2.31542554E+03      7.61035215E+02
     -6.85348676E+01     -4.94892939E+02      2.27093050E+02
     -5.37977113E+02      2.64967940E+03      2.09912595E+03
      2.35623989E+03     -1.38373106E+03      1.61032649E+03
      7.71012926E+02     -5.75737065E+02      7.91905927E+02
     -1.05320936E+03     -2.20311465E+03     -1.62499180E+03
     -6.79687634E+02     -1.64446024E+03     -2.70119832E+03
     -5.85070084E+01     -1.25769881E+02      7.97972870E+02
     -1.27727050E+03     -1.22592712E+03      1.00916020E+03
      8.89497806E+02     -5.09247199E+02     -1.02198963E+03
      8.99446311E+01     -1.33823503E+02      1.40659007E+02
     -1.80247342E+03      1.29665167E+03      3.15591035E+03
     -8.70005122E+02      2.58041438E+03      4.17003376E+00
      1.97094374E+02     -3.26710887E+02     -3.93157170E+02
     -4.90091285E+03      1.01128218E+03     -4.39293797E+02
      3.15644445E+01     -3.93219164E+03     -1.43663674E+03
      3.78911522E+02      1.37606220E+02      1.55623570E+01
     -1.59834461E+03     -3.37844660E+03     -1.11897298E+03
      5.99362884E+02     -1.24365839E+03      4.57203562E+02
      2.35740659E+03     -1.07977239E+03     -1.22986617E+03
      2.17595900E+02      4.69235699E+02     -8.82122094E+02
     -5.19147344E+02      2.36546787E+03     -1.96167184E+02
      1.26707488E+03     -1.24253844E+03     -1.04901553E+03
     -1.94903574E+03     -5.73666942E+02     -1.39571521E+03
     -1.54873970E+02      4.88503274E+02      2.63668003E+02
     -6.15522776E+02      4.35215752E+02     -1.51010861E+03
      9.86253759E+02      1.32381433E+03      2.60721642E+03
      8.86330495E+01     -3.76450519E+01     -1.04098335E+02
     -5.49756332E+02      2.08769917E+02      5.57958489E+02
     -1.15975740E+03      5.31907328E+01     -1.95190066E+03
      5.79226899E+02     -3.85412972E+02     -2.02448728E+02
      5.09427660E+02      1.95189664E+03     -5.74607462E+02
     -2.71280093E+02     -2.74669516E+03      7.84448076E+02
      2.58301071E+02     -2.75050759E+02      3.81693727E+02
      1.52105644E+03      2.95976384E+03      1.54201945E+03
      1.86448035E+03     -1.42090368E+03     -3.42753785E+02
     -4.23019490E+02     -5.98199192E+02      9.13217599E+01
      5.03160857E+02      2.00938519E+03      1.43798828E+03
     -1.97361003E+03      1.09763546E+03     -9.79722552E+02
      1.99860090E+02     -3.11168404E+02     -3.24421110E+02
     -8.60226170E+02      2.83912524E+03      1.68257448E+03
     -1.59726757E+03     -6.02533149E+02      1.52372012E+03
      5.88002935E+02     -5.34803793E+02      2.80007600E+02
     -1.66134984E+03     -7.11052377E+02      7.25412647E+02
      9.54655355E+02     -3.11654070E+02      5.74430415E+02
     -4.14554344E+01      6.38445798E+02      1.55251438E+02
      2.49833182E+02      7.91039025E+02     -3.47608951E+02
      5.27471008E+02      1.91871579E+03      2.32808322E+03
     -9.90495877E+01     -3.54504273E+02     -4.74282446E+02
      1.01025509E+03     -1.35619445E+03     -6.62774943E+02
     -3.47776877E+02      3.70171001E+03     -1.73469746E+01
     -3.00573727E+03     -1.59451372E+03      7.66878093E+02
      4.15731931E+02     -1.33795827E+02     -1.44261387E+02
     -7.83938856E+02      9.46403503E+02     -1.03517591E+03
     -5.68656006E+02     -2.64935829E+03      1.28207331E+03
     -8.52281327E+02     -9.84428644E+02     -2.18620433E+03
      3.58869458E+02      4.85434624E+02      3.66256081E+02
      2.18137674E+03     -1.71199832E+03     -1.28740316E+03
      4.27731646E+03     -2.93027352E+03     -2.20561785E+03
     -1.32002142E+01     -3.22017249E+02      2.55426269E+02
      3.71762374E+01      2.23625788E+02      2.08716503E+02
     -8.13718863E+02      9.74185494E+02     -6.89065366E+02
     -3.49912649E+02      5.22399880E+02      4.23388625E+02
     -1.48992786E+03     -2.49697818E+03     -2.52555509E+03
      4.49029673E+02     -1.11648164E+03     -5.83228040E+02
     -8.24639690E+01     -9.25753765E+02     -6.03329536E+02
     -1.61415553E+03     -5.52644461E+00      2.81838642E+03
     -3.03917077E+03      2.90029195E+02     -5.90743287E+02
      2.50031284E+01     -7.02145517E+02      7.32732074E+01
      1.05153749E+03      1.55968227E+03      1.04788035E+03
     -1.47842792E+03      3.30930138E+02     -1.63599121E+02
     -7.27640354E+01      7.53084855E+01     -1.77407193E+02
     -2.07089879E+03      2.01108119E+03      3.53715423E+03
      1.56346043E+03     -9.06439992E+02      2.90331493E+03
      1.75766007E+02     -2.37407678E+02     -8.28509151E+02
     -1.30190254E+03      1.89008603E+02      1.44570381E+03
     -1.59887133E+03     -2.01051669E+02     -4.87675259E+02
     -5.94954062E+02     -8.19432880E+02      2.86640119E+02
     -2.77176203E+03     -2.07265931E+03     -1.32847037E+03
     -1.78945026E+03     -2.59730058E+03     -1.10354395E+03
      5.98804401E+02      1.76449551E+02      2.36921203E+02
     -7.10008106E+02      1.83136320E+02     -1.29830680E+03
     -1.04662737E+02     -2.22518995E+03     -1.54988872E+02
     -2.51682852E+02      2.54172903E+02      4.07116380E+02
     -2.77600578E+02     -1.36714995E+02     -5.40627075E+02
     -2.43804774E+03      1.98665674E+03     -1.37774588E+03
     -3.46497946E+03     -3.22846607E+02     -2.40795291E+02
      9.68970541E+02     -9.02864677E+02     -1.41522640E+03
      4.56151032E+02     -2.89131660E+02     -8.84667882E+02
     -1.71042465E+03     -2.71912301E+03     -8.90679699E+02
      5.46889034E+02      1.96913631E+02     -1.89509573E+03
      3.40093438E+00     -1.65502961E+02      5.39337254E+02
      9.96283369E+01     -1.13003472E+02      7.71454348E+02
     -8.91643724E+02     -8.20460904E+02      1.25034574E+03
     -3.72447351E+02     -4.47314103E+02     -3.25378797E+02
      2.69205778E+03      4.54535138E+03      1.99084773E+02
     -1.47732057E+03     -1.77812510E+03     -1.17733909E+02
     -2.25437917E+02     -5.12280150E+02     -9.97682325E+01
     -3.58216508E+03     -5.25573662E+02     -3.23277636E+03
     -1.13553239E+03      5.37390346E+02     -1.42538531E+03
      4.88402559E+02     -2.25526441E+02      3.15222161E+02
      6.01533333E+01     -1.99183105E+03     -3.31930095E+02
     -1.94750341E+03      2.35596237E+03      1.29861624E+03
      1.04747671E+02     -6.73557272E+02     -5.96763537E+02
     -3.29593968E+02      5.94964502E+02      2.35789172E+03
     -1.55067925E+02     -3.84719814E+01     -1.25939075E+03
     -5.72912688E+02      5.10919785E+02     -6.59995398E+02
      4.83847492E+02     -1.85552128E+03     -2.61318820E+03
      1.61424377E+03      1.81731964E+03     -3.29402720E+03
      1.75156109E+02      2.31943508E+02     -7.83748244E+02
     -2.48047496E+03     -6.11920060E+02     -2.00087923E+03
     -1.42684331E+03      1.08377153E+03     -2.40867460E+02
      1.55255183E+02     -6.62952377E+01     -9.67516165E+02
      2.01723612E+03      8.79487537E+02      4.21416973E+02
     -1.52788555E+03      1.33938893E+03      6.58251442E+02
      1.49268509E+03     -8.40365429E+02     -5.16428179E+02
      7.03303183E+02     -9.08430418E+02      1.30118271E+02
     -8.51062977E+02      4.74758052E+03     -2.94978531E+03
     -1.97671290E+03      2.20418037E+03     -3.63594875E+02
      1.43758666E+02     -5.17136704E+02      7.52155471E+02
     -1.05223448E+03     -4.62617462E+01     -6.34430881E+02
     -5.83002658E+02      2.29094678E+03     -1.58923351E+03
      1.91790115E+03     -8.37194217E+02      2.58559190E+03
      5.35785941E+02     -1.66243979E+02      1.93059342E+02
     -2.73390542E+03     -6.59608123E+02      1.94676951E+03
      2.32633656E+02     -5.63092400E+02      3.69952823E+03
      3.40961640E+01     -8.40336790E+02      3.18730818E+01
      2.41966917E+03      5.50207750E+02     -7.33544345E+02
     -1.65590032E+02     -1.34652577E+03     -4.68220402E+02
     -4.12057270E+01     -9.81044615E+02      3.22038937E+01
     -1.29833983E+03     -1.31335479E+03     -3.05887908E+03
     -2.34625184E+03     -1.11449082E+02     -1.78066568E+03
      4.15135559E+01     -2.88187289E+02     -9.89536918E+02
     -7.27615932E+02     -1.02664689E+03      5.19994270E+03
     -2.96255829E+03      1.13774552E+03      6.61804985E+02
      7.40933610E+02      1.63182667E+02      7.41227656E+02
     -1.18161852E+02      1.35128876E+03      2.57400977E+03
     -9.91656022E+02      1.06604846E+01     -1.82282075E+03
      3.17851892E+02      8.58573356E+01     -1.00283893E+03
      1.03148030E+03     -1.76505280E+03     -1.68926740E+03
      2.02899758E+03     -1.62228405E+03     -7.36129024E+02
     -8.51536443E+02      5.68863660E+02      2.16446654E+02
     -1.69901095E+03      7.17813898E+01     -6.17359556E+02
     -2.43336841E+03     -1.83592841E+03     -1.45851881E+03
     -1.10826611E+02      1.65521556E+01     -9.06535894E+02
      1.55560522E+03     -2.29443075E+03      2.02481867E+03
     -2.05083229E+03      1.09928260E+03     -1.03793431E+03
      1.51017887E+02     -2.71550890E+03     -1.99386367E+03
      4.22716239E+02     -1.45090233E+02      3.14668853E+02
      1.90354825E+03     -8.03336891E+02      4.61203096E+01
      2.82060879E+02     -3.29068584E+01     -2.33827278E+03
      3.17401267E+03      1.02812492E+03      2.22434559E+03
     -2.86980152E+02     -4.76094116E+02     -1.15981643E+03
      1.35297097E+03      2.86480572E+01     -6.14195453E+02
      1.92559511E+03     -1.95500245E+03     -5.97268645E+02
      1.77503092E+02     -2.70680348E+02      4.64518418E+02
     -9.39756226E+02     -1.52534370E+02     -3.13374260E+02
     -5.37519962E+02      5.23821745E+02     -5.65627525E+02
      8.36330474E+02      3.55706277E+01     -7.49113148E+02
     -3.11325257E+03     -9.39882632E+02      9.52014394E+02
      1.75634051E+03     -9.12117397E+02      4.27761013E+03
      3.94433168E+02     -7.81540242E+02      3.20232736E+02
      1.99017051E+03      1.11915021E+03     -2.21877402E+03
     -7.59046577E+02      1.51766599E+03     -2.90101009E+03
     -6.20592257E+02     -5.34179833E+02      1.06962849E+03
      1.54371149E+03      7.80977772E+02     -1.49995483E+03
     -3.93342807E+02     -1.44573039E+03     -2.02671078E+03
      2.55123489E+02     -4.79728974E+02     -6.20523733E+02
      1.40481915E+03     -1.79745328E+03     -1.96657664E+02
     -5.44019294E+02      1.40699314E+03     -1.73885149E+03
      5.15511158E+02      1.94345840E+02     -4.10338837E+02
      1.54996843E+03     -1.09623570E+03      5.49066658E+02
      3.48787719E+02      1.18524202E+03     -1.46369449E+02
      1.72116766E+02      7.86774194E+02      4.17650940E+02
     -1.97704524E+02      5.10490426E+02     -1.79822151E+03
      1.33933270E+03     -9.87723335E+02     -2.12517191E+02
      2.16998550E+02     -8.58945595E+02     -8.87015118E+02
     -7.69520065E+02     -6.20793619E+02      1.54969936E+03
      1.50796666E+03     -2.84633958E+02      2.44964430E+03
      1.34346855E+03      1.56871593E+03     -2.34226747E+03
      8.09310174E+02     -3.74088555E+02     -9.28301142E+02
     -2.54679859E+03     -6.55816180E+02      1.12009898E+01
     -6.92392853E+02     -1.71254164E+02     -1.75211699E+03
      3.38109641E+03     -1.06017548E+03     -1.17420637E+03
     -1.19513691E+02     -3.20683483E+02     -2.26942825E+02
      3.35154771E+03     -1.02078075E+03     -2.09253347E+03
      2.56990765E+03      2.69063891E+03     -7.46024875E+02
      2.90936714E+02      2.53068315E+02     -3.62299560E+02
      1.23413701E+03     -3.91039572E+02      1.10754434E+03
      2.10254469E+03      4.35933275E+03     -6.17389586E+02
      4.31217046E+02     -1.71258788E+00      2.20926237E+02
      1.31860370E+03     -5.30739899E+02     -1.04216814E+03
     -8.10265395E+02     -4.81231524E+03      7.60839138E+02
     -4.82440259E+01     -5.45230109E+02      1.69155936E+02
     -1.39573515E+03     -9.83667985E+02      1.67733487E+03
      3.14630756E+01     -1.26514228E+03     -3.20358195E+03
     -4.94750024E+02      1.93795553E+04      1.00283553E+04
      5.59760672E+02     -6.52069823E+02     -5.89185978E+02
      2.40093179E+02     -4.60045423E+02     -1.76558868E+03
     -7.58959453E+02     -2.30646134E+02      3.59342133E+02
     -1.21265034E+03     -1.20562499E+03      4.98023698E+01
     -5.32418749E+02      1.28032326E+03      1.60968843E+03
      3.81940213E+02      3.23320952E+02      4.79307268E+02
     -1.04399420E+03      1.80825674E+03      2.31227027E+02
     -7.59587213E+01      3.64017980E+02     -5.09293685E+02
     -2.79410766E+02     -1.42917258E+02     -1.21677992E+02
     -1.46794373E+03      1.40064187E+03     -8.16034023E+02
      8.24450077E+02      4.03664468E+02      2.64308927E+02
     -1.64773404E+02     -2.22282064E+02     -2.49382961E+02
     -1.71937010E+03     -1.15744350E+03     -2.26163595E+03
     -2.09625535E+02     -1.90765968E+02     -1.02738659E+03
      4.56111939E+02     -1.09704481E+03     -1.29535150E+03
     -2.67122555E+00      8.51151186E+02      7.92147897E+02
     -2.64978757E+01     -4.43806196E+02      9.73654014E+02
      5.74798691E+02     -7.85911072E+02      6.73911957E+01
     -2.09944122E+03      9.99995574E+02     -1.76784801E+03
     -9.08463284E+02     -7.09868209E+02      3.28855396E+02
      2.32238023E+03      4.38712916E+02      1.81890379E+02
     -5.88971967E+01      9.96902274E+02      1.43574617E+03
      1.07500641E+02      7.37273597E+02     -3.96084627E+02
     -3.26832118E+03     -4.78806440E+02     -1.62419728E+03
     -3.12124725E+03     -1.43531583E+03     -1.57338183E+02
     -1.98118199E+02      1.32479061E+02      5.71519458E+02
     -9.71202760E+02      1.15655702E+03     -2.56130360E+03
     -1.28929591E+03      1.03157248E+03      1.08591018E+02
      8.09538119E+01      2.43632054E+02     -5.83748826E+02
      2.99672795E+03     -1.04071293E+03      2.12022696E+03
      9.42688845E+02     -2.97005407E+02     -1.17221203E+03
      3.05896718E+02      1.53960537E+02     -3.64147802E+02
     -1.29559030E+03     -3.28239074E+03      3.83112397E+01
     -1.13825207E+03     -2.53609357E+03     -4.95130149E+03
      2.97764088E+02     -1.79340819E+02      4.01895579E+02
      4.12802646E+03     -9.63699766E+02      1.09390116E+03
      2.10624630E+02      1.14039731E+03      1.68800013E+02
     -6.32892921E+02     -3.99888780E+02     -3.10851785E+02
     -2.32648769E+02     -1.92457383E+03      2.88851473E+02
     -1.21933747E+01      1.29599754E+03      6.22038623E+02
     -5.98149495E+01      6.53707786E+02     -8.20280922E+01
     -1.20035906E+03     -2.64127083E+03      1.30056428E+03
     -1.22349541E+03      8.25160752E+02     -4.27917790E+02
     -6.16280545E+02     -9.75269492E+02      3.31892054E+02
      2.95664648E+03      8.63411408E+02     -4.53775424E+02
     -1.50090470E+03     -4.01873460E+02      3.14161982E+03
     -9.68670564E+02      6.99039785E+02      2.95310118E+03
      8.79167163E+02      6.60585742E+02     -2.83602797E+01
     -9.74335165E+02      7.61438841E+02      2.60593840E+02
      1.22520068E+03     -2.60381569E+02     -1.83065266E+03
     -2.25969717E+03      9.22506769E+02     -2.39953604E+03
     -1.90684128E+02      3.72948848E+02     -9.78788932E+02
      2.11923247E+03     -3.13519999E+03      7.30355074E+02
      2.91627733E+03     -5.01840096E+01      1.56021194E+03
     -5.29000522E+02     -2.35855175E+02     -4.81705477E+01
     -1.36128891E+03      1.12783706E+03      1.85349684E+03
     -2.60679509E+03      9.81035863E+01      1.00069559E+03
     -7.29706264E+02     -4.55058384E+02      3.85626900E+02
      2.21128134E+03     -1.91592195E+03      4.00257271E+03
     -6.42728539E+01     -1.82451585E+03     -1.32743658E+03
      2.04925695E+02     -1.44014110E+02     -1.18209249E+02
      1.06069868E+03     -1.64012749E+03      9.91072825E+02
     -3.50337245E+03     -2.46946678E+03     -3.90897313E+02
     -4.83093954E+01     -4.67392514E+01     -1.58778891E+02
      5.47412994E+02     -7.55163003E+02      1.97791219E+03
     -5.33537040E+02      1.65090333E+02     -1.34177909E+03
      2.11617402E+02     -2.79998328E+02     -2.44723250E+01
     -2.42716868E+02     -1.34439045E+03     -2.16763926E+03
      1.68602356E+03      1.73800617E+03     -4.87786509E+02
      1.14086027E+02     -3.21297806E+02      2.40689439E+02
     -5.31001372E+03     -9.40993849E+02     -3.21581116E+02
      1.77323056E+03      7.53249708E+02     -6.91033891E+02
     -4.14587660E+02     -4.27747588E+02     -5.66192559E+02
     -7.34079969E+02      2.99156043E+02     -1.38999062E+03
      3.47021311E+01      2.70423748E+01     -2.59945634E+03
      8.96415296E+02     -4.12048096E+02      2.42040138E+02
     -6.67301582E+02     -1.18283301E+03     -1.81637359E+03
     -5.09314291E+02      8.33626530E+02     -9.52527522E+02
     -1.92626482E+02      1.59141218E+03      1.89843931E+03
      2.27258490E+02     -1.01116033E+03     -5.25934478E+02
      2.50427586E+03     -2.95201332E+02      1.69097068E+03
      1.85919667E+03     -1.63161462E+02      6.51654031E+02
      2.10615262E+03      2.79084944E+03     -8.99010774E+02
      2.02812228E+02     -1.78958261E+02     -2.97542830E+02
      1.41313845E+03     -1.93146208E+03      2.55006893E+03
      2.71939877E+03     -3.49210433E+03     -1.16364610E+03
     -1.82713623E+02     -4.13206773E+02     -7.59263534E+02
     -2.00846359E+03     -5.26211104E+00      8.46638777E+02
      2.37454455E+03     -1.52506584E+03      7.96757077E+02
     -7.89392308E+02     -3.08823072E+02      9.08230511E+02
     -6.80688983E+02     -1.33469498E+03      1.24994741E+03
     -4.44122222E+02      2.68166474E+03     -8.42298787E+02
     -2.49285659E+02      7.63747679E+02      7.01967415E+02
     -1.45940770E+03      1.35534226E+03     -1.08822654E+03
      2.07239769E+03     -6.52392250E+02     -2.21192975E+03
     -4.38503299E+02     -2.12245795E+01     -9.62331334E+01
     -1.34114506E+03      4.13654895E+03      2.97494833E+03
      4.09965552E+03     -2.00582549E+03     -2.69072159E+03
      3.98568408E+02     -4.77053571E+02     -4.39163169E+02
      9.68924760E+02     -1.90923191E+03     -5.68678382E+02
      7.43770190E+02     -3.63533099E+03      1.36265086E+03
      3.03146207E+02     -8.12104762E+02     -3.13200646E+02
     -9.55922278E+02      3.84512831E+02      1.02278051E+03
      1.91768284E+03      7.69301799E+02      1.35938279E+03
     -6.45379581E+02     -2.96981907E+02     -2.20112721E+01
      5.69024463E+02      2.70429423E+03      1.37038758E+03
      2.36311013E+03     -1.24985982E+03     -8.97440494E+02
      2.51090668E+02     -5.32619392E+02      2.28273589E+02
      2.61451655E+02      2.63642027E+02     -6.81624702E+02
      3.57348551E+02     -1.86313597E+03     -1.52187097E+03
     -3.35913130E+02      9.02146506E+02      9.10082297E+02
     -3.44436272E+02     -4.34093155E+02      3.55808682E+02
     -4.15800842E+02      8.93032424E+02      6.37371004E+02
      2.83341972E+02     -7.27086596E+02      5.49225084E+02
      5.64447761E+02      1.15872855E+03     -6.31492346E+02
      2.03113919E+01      1.21182123E+03     -1.97567059E+02
      2.73170458E+03     -1.89578119E+03      7.12492871E+02
      1.96600216E+03      1.11689192E+03     -1.74351482E+03
     -8.57736019E+02      1.45707113E+02     -2.03134461E+02
      5.61569552E+02     -1.39147081E+03      8.16265936E+02
     -1.98673195E+03      1.42988854E+03     -2.63563040E+03
     -5.88964343E+02      5.46514856E+02     -3.86233930E+02
     -3.26383149E+03     -2.17324806E+03     -9.22081863E+02
      1.18590951E+03      8.87632513E+02      1.89162423E+03
      4.12622752E+01     -4.11036846E+02      5.58786229E+02
     -2.60825088E+02      5.93997538E+02     -4.39291305E+02
      1.88718486E+03      1.92530822E+03      1.08569714E+03
      7.14712202E+01     -1.26169508E+02     -2.93564041E+01
      8.26514018E+02     -2.62142855E+03      3.94622426E+02
     -3.86872025E+03      1.22752070E+01     -2.11986068E+03
      1.85146655E+01     -1.34642107E+02     -3.68665717E+01
      9.59809620E+02     -1.15824753E+03     -2.87814675E+03
     -2.91592414E+03      1.08124190E+03     -5.61366742E+01
     -3.33870937E+01     -4.66777610E+02      5.48090793E+02
     -9.53534314E+02      2.00097842E+03      1.90306165E+03
     -2.61032143E+02     -1.07781993E+03     -7.09299962E+02
     -1.96747176E+01     -1.16240652E+02     -2.65106152E+02
     -8.53886765E+02      3.31265028E+03      1.57180965E+02
      1.99225681E+03     -2.07367231E+03      1.28055888E+03
      9.61431172E+01     -5.79978337E+02     -1.21084268E+02
     -3.09235163E+03      9.94143376E+02      2.84366664E+03
     -7.08197610E+02      2.27791559E+03      4.37235115E+02
     -1.52090994E+03      1.64730126E+03      1.09270298E+03
     -4.44897918E+01     -7.14446621E+01     -5.31858556E+02
     -1.84705126E+03      1.97824567E+03      4.17126523E+02
     -6.66966780E+02      1.44880107E+03      1.49781909E+03
      9.11158805E+02     -1.56432919E+03      2.80316682E+03
  }
}

Hamiltonian = DFTB {
  SCC = Yes
  SCCTolerance = 1e-6
  MaxSCCIterations = 200
  ForceEvaluation = Dynamics
  MaxAngularMomentum = {
    C = "p"
    H = "s"
  }
  Charge = 0.0
  SpinPolarisation = {}
  Eigensolver = Standard {}
  Filling = Fermi {
    Temperature [Kelvin] = 300.0
  }
  SlaterKosterFiles = Type2FileNames {
    Prefix = "../../pbc-0-3/"
    Separator = "-"
    Suffix = ".skf"
    LowerCaseTypeName = No
  }
  KPointsAndWeights = {
    0.0000000000000 0.0000000000000 0.0000000000000 1.00000000000000
  }
  Dispersion = LennardJones { 
    Parameters = UFFParameters {}
  }
}

ParserOptions = {
  ParserVersion = 3
}
