Geometry = GenFormat {
<<< "system.gen"
}

Driver = VelocityVerlet{
  Steps = 50000
  TimeStep [fs] = 0.2
  MDRestartFrequency = 25
  Thermostat = None {
    #InitialTemperature [Kelvin] = 300.0
  }
  Xlbomd{ 
    IntegrationSteps = 6 
    MinSccIterations = 2
    MaxSccIterations = 200
    SccTolerance = 1e-6 
  }
  Velocities [m/s] {
      7.36679463E+02     -2.49551695E+02     -7.97230230E+01
      2.73093724E+01      8.33926135E+02      1.73890702E+02
      1.08849815E+03     -1.42831185E+03      1.35686070E+03
      4.37284855E+02     -4.37891744E+01     -3.06192380E+02
     -5.08809234E+01     -7.28716529E+02      1.10984597E+03
     -8.48194948E+02     -1.20037401E+03      3.75249361E+02
     -2.65817043E+02      5.59507926E+01     -3.69405100E+02
     -1.62271224E+03     -8.79836897E+02      1.40665843E+03
     -1.19529556E+02     -5.44441075E+02      1.02077716E+03
      7.33654303E+02     -3.16002134E+02      2.67821237E+02
      2.12462534E+03      2.16791886E+02     -1.87595185E+03
     -2.58122555E+03      1.48412241E+03     -8.83545570E+02
      5.57633463E+02     -1.47425644E+02     -1.94231498E+02
      1.12049901E+03      1.31951743E+03     -1.53476064E+03
     -2.79498554E+03      7.25483595E+02     -3.61214714E+02
      5.64336469E+02     -3.22925367E+02     -6.74398702E+02
      5.11254673E+02      1.63729956E+03     -1.81342415E+02
      6.04069334E+02     -6.79270680E+02     -1.11766286E+03
     -5.28005875E+01     -2.58172614E+02      3.36589004E+02
      9.43117412E+02     -1.93033583E+03      3.52651379E+03
      8.89120794E+02     -6.79620693E+02      1.10485920E+03
     -1.22147088E+02      1.79403785E+01      4.01843796E+02
      1.78602469E+02      5.00245957E+02      1.11050228E+03
     -1.59729358E+02     -9.37894346E+02      1.43274620E+03
     -4.72960562E+02     -1.27419194E+02     -6.99966124E+02
     -2.80897834E+03      1.20109702E+03      3.07280245E+02
     -1.40929102E+03     -7.91714925E+02      1.16608873E+02
      2.72465887E+02      8.18858345E+02     -6.28981937E+02
     -1.54863271E+02     -2.81526903E+02      5.09753923E+02
      9.58847024E+02     -8.76581139E+02     -1.86244680E+03
      1.00121164E+03      2.88705525E+03      2.00124353E+03
      2.53951128E+02     -1.84201954E+03     -3.66255579E+02
      3.90183930E+02     -5.92033156E+02     -3.39464099E+01
     -3.75406297E+02      7.77983002E+02     -1.39751946E+03
      1.22108181E+03     -1.71799765E+03      5.53779255E+02
     -3.76420389E+02     -5.58207133E+02      6.88845762E+02
     -1.57716144E+03      1.40631669E+02      8.14843712E+01
      1.86950532E+03     -1.69421008E+03     -8.56935638E+02
     -4.63224291E+02      3.76739888E+02      3.60631272E+02
      1.99415797E+03      1.20277445E+02      4.99180078E+02
      4.13230856E+02      1.00084369E+02     -9.16667304E+02
      5.35719598E+02     -3.13101839E+02     -3.95900524E+02
     -7.44771831E+02     -1.59844101E+02      1.30919789E+03
     -2.60253760E+03      4.73838183E+03     -5.63525834E+01
      1.81063086E+02     -2.42257723E+02     -3.53989079E+02
     -6.84796915E+02     -1.81669661E+03      7.63227832E+02
     -1.03286309E+02     -6.21001196E+02      4.04299256E+02
     -5.90740562E+02      3.29415993E+02      4.29560562E+02
     -1.75279887E+03     -8.53440694E+02     -2.10324634E+03
      1.44727476E+03     -6.92904611E+02     -5.12604378E+02
      3.64822443E+02     -4.56330389E+02      1.93496604E+02
     -1.08496775E+03     -2.73924422E+03      7.75426686E+02
      1.27530840E+03      1.35308712E+03      1.11904273E+03
      4.17139577E+02     -6.89309139E+02     -1.47702575E+02
     -8.10300993E+02     -8.08196537E+01      2.62210209E+03
      1.85775537E+03     -2.05838519E+03      2.39011782E+03
     -8.49399440E+02      1.31901780E+02     -1.94226217E+02
      4.21024104E+02      3.54222624E+02      1.71443015E+03
      2.59409191E+03     -3.72883086E+03     -5.90560017E+02
     -1.77767567E+03     -8.50480429E+02     -1.31332552E+03
      4.25597983E+02     -1.08854114E+02      2.09133837E+02
     -8.68846003E+02      3.09787292E+02      9.77995258E+02
     -3.99257814E+03      5.02192339E+02      1.74994184E+03
     -2.09955921E+03     -1.97272213E+03     -3.03726209E+03
     -7.46527289E+01     -8.74345267E+02     -3.83594956E+02
     -2.43363783E+02     -3.28843014E+03      2.09099250E+03
      3.28021378E+03      3.68575287E+02      4.50699625E+02
      4.73501969E+02     -1.03162533E+02      6.16631492E+02
      2.25396569E+03      3.15384397E+03      2.44742819E+03
      2.10706525E+03     -2.35384941E+03     -2.97984030E+03
     -3.47750463E+01      4.36829844E+02     -2.54447159E+01
     -2.50457261E+03      1.89864570E+03     -8.92379410E+02
      2.87150034E+03      1.16504039E+03      3.82823945E+02
      1.86265604E+02      1.30587235E+01      3.83053237E+02
     -1.86022435E+03     -1.38348515E+03     -3.01021401E+03
      2.86140315E+03      5.96187066E+02     -1.81219626E+03
      2.44637089E+02     -2.19829379E+02     -6.17301717E+02
     -1.84947156E+03     -6.17070605E+02      4.61840018E+02
      1.31413768E+03      5.41207088E+02     -1.00347889E+03
     -3.43439579E+02     -4.24847086E+02     -2.57030571E+02
     -2.53668696E+03     -1.85514797E+02      4.71375956E+02
     -7.61568061E+02      1.42950696E+03      5.99734564E+02
     -4.88833252E+02      3.75123034E+02     -1.99857870E+02
     -8.09234157E+02     -9.94047421E+02      1.72851927E+02
      3.10897645E+02      2.60345617E+02     -5.77746721E+02
     -2.54195299E+02      1.43587959E+02      1.37797133E+01
     -5.52958129E+02      6.06068049E+02     -1.85915828E+02
     -1.56138465E+03      2.49284799E+03     -1.03867639E+03
      3.74800136E+02     -7.07268165E+02      1.36399660E+02
      4.10075810E+03      4.74445595E+03      6.35488256E+02
     -6.39119621E+02      3.14712556E+03      5.12966242E+02
      3.77635933E+02     -2.31388508E+03      1.93150516E+03
      4.92128599E+02     -6.66283704E+02      8.55178178E+02
      1.43835095E+03      9.93042232E+02     -1.72106910E+03
     -1.23178055E+02     -2.29938671E+03      2.67058103E+03
     -2.93356430E+03     -2.25708037E+03     -5.98947156E+02
      6.26708119E+02      3.57062452E+02     -9.26378357E+01
      5.02610187E+02     -1.33227938E+03      5.20257332E+01
     -1.91531487E+03     -2.09876095E+03     -1.04776161E+02
     -6.22288807E+02      8.77406635E+01      4.24413982E+02
     -1.61148597E+03      2.55778916E+02      1.37772891E+03
     -9.40378220E+02      6.65924708E+02     -2.39821827E+03
      2.49632465E+00     -3.03878126E+02      4.00495755E+02
     -1.78866803E+02     -7.20297562E+02      5.35792089E+02
     -7.77994929E+02     -1.54660565E+03      1.03233995E+03
     -1.44109796E+04      1.40297621E+04     -8.39901853E+03
     -5.66424613E+02      1.20322365E+03      2.46410266E+03
     -1.00106965E+03      2.58319126E+03      2.47690641E+02
     -6.79143972E+02     -9.63997929E+01      1.73688998E+00
      2.61410183E+03     -1.95589365E+03     -1.48984821E+02
      2.03455018E+03      2.82285734E+03      1.63408092E+02
     -3.38010410E+02      2.67784663E+02     -5.01829463E+02
     -7.20013659E+02      1.57942519E+03     -6.05982493E+02
     -7.82835299E+02      1.64756909E+02     -7.14685492E+00
      7.26994160E+02      1.50794727E+02      1.30143049E+03
     -8.69379919E+02      1.89257883E+03     -4.30008492E+02
      1.43589947E+03      2.94768795E+02     -2.85563496E+03
     -7.08756693E+01      5.19492252E+02     -6.87072599E+01
      8.07239151E+02      2.15195082E+03     -1.63650197E+03
      4.09536154E+02      9.06623558E+02     -1.41784975E+03
      6.47773975E+02     -3.54337001E+02      3.00577890E+02
      1.95893662E+03     -1.88973241E+03     -1.46960621E+03
     -1.39570971E+03     -1.06062622E+03      2.58006498E+02
      1.67387469E+03      1.95633661E+03     -8.68405399E+02
      4.21531214E+02     -1.63227003E+02      5.08765553E+01
     -1.55219162E+02     -8.00383622E+02     -5.58650851E+02
      1.19312244E+03     -4.42426759E+03     -1.42568242E+01
     -1.99435511E+03     -1.27970614E+03      1.80467202E+03
      4.60498328E+02     -7.97304425E+01      3.70320730E+02
     -2.72655481E+01      6.09942675E+02      1.66193227E+03
      1.86949969E+03      3.30174042E+02      1.97717785E+03
      7.60230892E+02     -5.79660305E+02     -8.86220023E+01
     -1.88624039E+03     -6.56809073E+02      1.88731228E+02
      3.45567954E+02      2.47225730E+03      1.64100471E+02
      2.45448301E+02      1.80461316E+02      8.36004673E+02
      2.66211908E+03      2.42861476E+03      9.14583871E+02
      3.41338329E+02     -1.17754838E+03      2.82054821E+03
      6.46480844E+02      3.95154996E+02     -6.13349648E+02
      7.96474199E+02     -5.87912242E+02      4.38003516E+02
     -3.34737098E+02      2.32280396E+03      2.51341130E+03
     -6.51808238E+02      4.29925841E+02     -1.22558377E+02
      2.24662792E+03     -5.90051617E+02     -1.78019320E+03
      1.27637716E+03     -3.85282655E+02     -4.75559562E+01
     -6.74787955E+02     -3.43911559E+02      7.19307465E+01
      2.29578059E+03      1.88164720E+03      1.81919574E+03
     -1.09466957E+03      1.13022509E+03     -3.87723990E+02
      5.42687935E+02      3.14680807E+02      4.76598530E+02
      1.01080570E+03      1.56642560E+03      3.10142022E+03
     -2.28163449E+03      2.62608061E+03     -1.41330875E+03
      8.45981321E+02     -3.63167035E+02      2.85067663E+02
      8.51521062E+01     -1.59035138E+03     -1.55207868E+03
      4.37590655E+02      1.40963757E+03      1.08326641E+03
      5.89313932E+02     -1.20286638E+02     -2.08444901E+02
     -2.19625675E+03     -3.51650641E+02      1.81407687E+03
      6.63766369E+02     -5.00676562E+01     -6.98230569E+02
     -5.67863800E+02     -5.37560529E+01     -7.71008962E+01
     -3.11947006E+02      1.08636598E+02     -6.17643876E+01
      1.98688416E+03     -1.13183031E+03      5.25085552E+02
      1.45075955E+03      1.64582245E+03     -1.00950892E+03
     -1.21215008E+03      1.48608085E+03     -1.18299449E+03
      2.62120666E+02      2.98362752E+02     -2.68801223E+01
     -1.45621745E+03     -2.45703460E+02      6.71167826E+02
     -2.43933726E+03      5.06704288E+02     -3.88226438E+02
      1.69694794E+01     -6.86272067E+02      7.47919742E+02
     -2.40926207E+03      1.66774858E+03      1.69378173E+03
     -1.20753399E+01     -1.42510109E+03     -1.72971829E+03
     -2.61285184E+01     -6.93215789E+02      1.87469661E+02
      4.03283909E+02     -2.63695571E+03      6.95430070E+02
      1.96822881E+03      1.87148772E+03     -1.12174697E+03
     -3.94366516E+02      3.77576967E+02     -1.74723737E+02
      1.10651578E+03      1.08550255E+03     -2.85608811E+03
     -6.31518010E+02     -2.66489728E+03     -3.24874577E+02
      7.56114697E+02      6.42492145E+02     -6.30615390E+02
     -1.05462684E+03     -1.32057259E+03     -8.07561813E+02
     -1.99692515E+03     -1.31812447E+03     -3.99715161E+02
      1.08221300E+03      4.91386882E+00      1.89758286E+01
     -2.77327150E+03     -4.96550707E+02     -1.80344299E+03
     -1.76577131E+03      2.32545067E+01     -7.39715706E+02
     -2.78463343E+02     -1.33579041E+02     -9.69591579E+01
     -4.97707960E+02      1.91118986E+03      1.26001381E+03
      8.31051281E+02     -2.33104687E+03      1.83594866E+03
      2.20843996E+02     -7.81231796E+02     -2.20963829E+02
     -1.18290582E+03     -3.75891276E+02     -2.53014047E+03
      1.29376129E+02      2.41842878E+03     -1.85637013E+03
      2.20043205E+02     -1.28012400E+02      8.87825752E+01
      6.59560678E+02     -2.64503515E+03     -1.66148771E+03
     -2.07655687E+03      7.73684771E+02     -6.56164253E+02
      2.31478207E+03     -2.26945943E+03     -5.12464002E+02
      6.56180098E+01     -4.51289654E+02     -2.09540040E+01
     -1.75539860E+02      4.80836302E+02     -8.79143670E+02
     -1.42750983E+03     -3.34137617E+02      1.18946985E+03
     -5.72510555E+02     -6.02300389E+02      3.41169112E+03
      7.36292593E+01      2.35214684E+02      2.65891237E+01
     -9.18486183E+02      1.93492033E+03      2.03962861E+03
      1.55825847E+03      8.69075844E+02     -1.18001890E+03
      4.22809961E+02      4.70926207E+02      5.64817670E+02
     -1.15354324E+03     -1.35512784E+03      1.16362330E+02
     -1.35455687E+03     -2.41500589E+03      1.39265883E+03
     -4.46259081E+02      1.41435451E+02      3.45259806E+01
      2.72097354E+02      6.69903136E+02     -2.37014596E+01
      1.38858877E+03     -9.82539721E+02      1.27100415E+03
      5.18044381E+02     -5.41443697E+02      4.85362513E+02
     -1.99785997E+03      8.11079182E+02      1.13925392E+03
      3.33502494E+03     -1.53701370E+02      1.16434534E+03
      7.14739372E+02     -2.11453358E+02      4.01613412E+02
      8.04806721E+02     -1.51192729E+03     -2.15717355E+03
     -1.01893681E+03     -1.85604680E+03     -3.62964038E+03
      3.21726596E+02     -7.94564530E+01     -1.85075656E+02
      7.80512613E+01      4.60497444E+02      7.63988541E+01
     -1.09612890E+03     -2.30365967E+03      1.39723629E+03
      2.63422851E+02      3.42508578E+00     -2.97807994E+02
      9.74563710E+02     -1.57189109E+03     -7.37668274E+02
      8.48229941E+02     -6.12207184E+02     -1.02836631E+03
      1.09274283E+02     -2.83765296E+02      2.13145834E+02
      2.80576901E+03     -3.43774063E+02      8.06643789E+02
      2.61028763E+03     -1.80284723E+03      9.92898475E+02
      1.44310893E+02     -4.86363265E+02      1.02808424E+02
     -1.12469665E+03      1.94316479E+03      1.64729197E+03
     -2.10348329E+03     -1.29962165E+02     -6.49303352E+02
      3.01331897E+03     -1.02826824E+03      9.01313170E+02
      4.92677579E+02     -1.29504202E+03      4.74487433E+02
      3.23083276E+03      2.47640487E+02      3.58125049E+03
     -1.77932421E+03     -8.97390819E+02     -2.72028065E+03
      1.11198294E+03      1.73910789E+03      9.84925967E+02
      6.10770512E+02      2.88790755E+02     -2.95980206E+02
      1.05767021E+02      1.13030984E+03      1.12498367E+03
      2.22277329E+03     -1.06020050E+03     -2.65110379E+02
      5.17082059E+02      6.98783262E+02     -1.44593718E+02
     -5.13041132E+02      8.61540812E+02     -6.14459773E+01
     -5.28781011E+02     -1.00695351E+02      2.07162778E+01
      1.79682116E+02     -9.20682074E+01      2.17184806E+02
      1.99721243E+03     -1.12012617E+02      2.30938455E+03
     -6.03516616E+02     -1.42412454E+03     -1.11543568E+03
      5.68269241E+01      3.47424947E+02      2.36666578E+02
     -1.90587807E+02     -7.57300701E+02      1.00735770E+03
      1.18253490E+01      1.91278974E+03      1.53724938E+03
      8.46206506E+02     -9.46093686E+01      4.81214360E+02
      1.56811908E+03     -5.40035368E+02      1.76167967E+03
     -1.42221964E+03      3.49645687E+03     -1.24696312E+03
     -3.17665338E+02     -3.00954307E+02      5.91401205E+01
      1.38428538E+03      8.51192587E+02     -4.85792952E+02
      4.45211708E+02      4.23570090E+02      1.45829312E+03
     -1.73250563E+02      6.35162949E+01      2.15266668E+02
      2.17754521E+03     -2.71336115E+03      1.40086755E+03
      6.25976304E+02      2.40727045E+02      9.73403790E+02
      5.52494198E+02      1.42626892E+02     -2.97378164E+01
      6.58704240E+02      1.23279102E+03      2.85153843E+03
      1.33408547E+03     -1.33716899E+03      1.36097992E+03
     -4.92303502E+02     -6.50453793E+02     -5.52617114E+02
     -1.07170641E+03     -1.23940134E+03     -1.61916182E+03
      8.67860567E+01     -1.41595356E+01     -1.40735713E+03
     -1.11659782E+03     -1.45953782E+03      1.72059050E+02
      1.15734809E+03     -3.56775175E+02      1.11109006E+01
     -1.85525530E+02     -2.11418456E+03     -7.70167467E+01
     -3.43012052E+02      1.82982833E+03     -1.30268339E+03
      9.63773370E+02      3.58035209E+03     -2.31401965E+03
      4.60397968E+01     -3.42821931E+02      1.00313172E+03
      3.74119731E+02      7.24299074E+02     -1.73996113E+03
      5.35532937E+02     -1.99999269E+03      9.17918598E+02
     -9.54681316E+01      1.50258478E+02      3.37037577E+02
     -1.89637847E+03     -5.26719430E+02     -2.61401466E+03
     -1.43285369E+03      3.91124888E+03      7.91065992E+02
      2.27801190E+02     -1.13370039E+02      9.66046606E+02
     -1.05120754E+03     -9.88172984E+02      5.08485490E+02
     -9.50322953E+02     -1.36338248E+03     -2.55687007E+03
     -2.48941559E+02     -2.93124644E+02     -1.28748357E+02
      5.26050454E+02     -9.58083472E+02     -9.98112704E+02
     -1.16589340E+03      1.55637650E+03     -1.54088495E+02
      9.34865892E+02      9.47495342E+01      4.48644754E+02
      1.20482365E+03     -1.82607655E+03     -1.37178223E+03
      1.97615867E+03     -6.02401872E+02      2.16912252E+03
     -2.98476855E+02     -3.41597463E+01     -4.91984283E+02
     -7.61061086E+02      8.17192825E+02      1.02765594E+03
     -8.36143836E+02     -2.00953169E+02     -6.87249079E+02
      4.95304153E+02      6.29731707E+00     -6.10021707E+01
      4.07942717E+02      5.47101250E+02     -9.00056017E+02
     -3.69713349E+02      3.83707355E+02      4.06322100E+03
     -3.85229777E+02     -1.17512425E+02      7.92822142E+02
      5.30122059E+02     -2.61082016E+03      1.11688522E+03
      1.11273846E+02      1.53697304E+03      1.16215576E+03
     -1.24655202E+02      1.09211405E+02     -1.10650722E+03
      8.81440799E+02      9.85595163E+02      1.10606946E+03
     -2.25664820E+03     -1.11171617E+03     -2.78186806E+03
      6.69210380E+02     -1.81990488E+03     -2.21599623E+03
      2.28199972E+02     -6.63741055E+01      1.03363845E+02
      7.30327406E+01      2.40597966E+03     -1.37347403E+03
     -3.03708577E+02     -1.57052934E+03      1.21474737E+03
     -1.21640276E+03      2.07496175E+03      3.78231613E+03
      1.17946125E+02      4.66076953E+02     -4.41356381E+02
     -1.36965077E+03      5.29925374E+02      5.80947084E+02
     -1.90679225E+03     -5.82138863E+02     -2.39130220E+03
     -3.31976101E+02     -3.48743645E+02      5.88011267E+01
     -6.15599820E+01     -2.62341501E+02      1.14659203E+03
      2.19167068E+02      2.20074167E+03      2.68486209E+03
     -5.33170842E+01     -1.31262539E+02     -7.57515253E+01
      7.57453520E+01     -2.09746615E+03     -9.65012044E+02
     -2.74774211E+03      6.03169904E+02      5.93405164E+02
     -7.28377609E+01     -8.28323493E+02      1.63464997E+02
      7.19555684E+01      3.32510552E+03     -1.67134893E+03
      1.39208498E+03      8.63170757E+02      6.18205719E+02
      2.24288620E+02      3.22370501E+02     -1.55663059E+02
      1.45804334E+03     -2.35240655E+03      6.40394839E+02
     -1.07621666E+02      7.03226170E+02      5.34205992E+02
     -3.09435056E+02      7.21562087E+01      4.35958376E+02
     -3.46993761E+03     -1.79901276E+03      1.11706956E+03
     -3.54228223E+02     -1.63856422E+03      3.10987251E+03
     -2.27353598E+02      1.27335581E+02     -2.29089645E+01
      6.44884939E+02     -2.39816216E+03      7.18352740E+02
     -1.08458239E+03     -3.15711020E+03     -2.27558983E+03
      3.37223026E+02     -5.31405799E+02     -4.00244698E+02
      7.62719682E+02     -1.98983110E+03      2.41323014E+03
     -6.88788907E+02     -1.01223878E+02      2.28049483E+03
      5.95587825E+02     -2.16148310E+02     -4.00653822E+02
      2.87903993E+03     -1.53161699E+03      8.86608995E+01
      1.55625962E+03     -3.09711990E+02      1.39259552E+03
      9.31687574E+02      3.10339407E+02     -1.19534755E+03
      6.78169829E+02      1.92637324E+02     -1.08527385E+02
      2.01097734E+03     -4.75434894E+02      8.65410346E+02
     -1.94816683E+03      2.81894173E+02     -2.96497258E+03
      6.75369294E+02      2.49677844E+03      1.68407123E+03
     -2.85531964E+02     -2.69586273E+01      3.34708390E+02
      2.19465827E+03     -6.16349388E+01      8.07663913E+02
      2.57146749E+03     -5.55894144E+02     -2.23757610E+03
      6.37887056E+02     -6.33298659E+02      2.14846214E+02
     -2.96504885E+03      5.37451218E+02      4.57687902E+02
      5.33336591E+01     -1.06956105E+03     -2.20677058E+02
     -7.30380677E+02     -3.31690230E+02     -5.85473311E+02
     -3.48875868E+01      2.80529534E+02     -5.55210831E+02
      6.71785074E+02     -1.21739804E+03      9.91946511E+02
     -3.62815913E+02      2.60496384E+02     -1.00406147E+02
      3.15986837E+03      5.97349196E+02      7.12291917E+02
     -6.52540191E+02     -2.89810541E+03      1.24342502E+03
     -4.17796183E+02     -6.92041744E+02      3.24096474E+02
      4.16526691E+02      1.49635611E+03      2.59529288E+03
      5.26021298E+02      5.51065655E+02     -4.07410824E+02
      4.33502646E+02     -5.40815038E+02     -6.01428792E+02
      4.54812495E+02      1.75632988E+03     -4.60197198E+01
      2.30536973E+03     -1.95751380E+03      8.52888723E+02
     -7.74569570E+02      4.97140910E+01      4.79311749E+02
      1.17152402E+03     -5.48878976E+02     -2.31699535E+03
      1.27640284E+03     -7.43492388E+02      1.44091607E+03
     -2.12799263E+02     -2.10251098E+02      3.47776571E+02
      1.29423233E+03     -1.31424105E+01     -1.93225616E+03
      4.17287621E+03      5.34724734E+02      2.52613153E+03
     -1.28491256E+02      7.72998719E+02     -4.97216229E+02
      1.58128110E+03     -6.62842889E+02     -1.95564166E+03
     -1.68025769E+03      1.71993807E+03     -8.77012873E+02
     -1.64623751E+02     -1.19991605E+03      5.17394805E+02
     -1.07169963E+02     -4.80754659E+02     -1.77142740E+02
     -7.60755253E+02      1.09753975E+03      1.69059871E+03
      3.37369500E+02     -2.88462536E+03     -3.85141568E+02
     -1.51668382E+03     -9.85759797E+02     -7.87526337E+02
  }
}

Hamiltonian = DFTB {
  SCC = Yes
  SCCTolerance = 1e-6
  MaxSCCIterations = 200
  ForceEvaluation = Dynamics
  MaxAngularMomentum = {
    C = "p"
    H = "s"
  }
  Charge = 0.0
  SpinPolarisation = {}
  Eigensolver = Standard {}
  Filling = Fermi {
    Temperature [Kelvin] = 300.0
  }
  SlaterKosterFiles = Type2FileNames {
    Prefix = "../../pbc-0-3/"
    Separator = "-"
    Suffix = ".skf"
    LowerCaseTypeName = No
  }
  KPointsAndWeights = {
    0.0000000000000 0.0000000000000 0.0000000000000 1.00000000000000
  }
  Dispersion = LennardJones { 
    Parameters = UFFParameters {}
  }
}

ParserOptions = {
  ParserVersion = 3
}
