Geometry = GenFormat {
<<< "system.gen"
}

Driver = VelocityVerlet{
  Steps = 50000
  TimeStep [fs] = 0.2
  MDRestartFrequency = 5
  Thermostat = None {
    #InitialTemperature [Kelvin] = 300.0
  }
  Xlbomd{ 
    IntegrationSteps = 6 
    MinSccIterations = 2
    MaxSccIterations = 200
    SccTolerance = 1e-6 
  }
  Velocities [m/s] {
      8.09690103E+02     -2.36524093E+02     -2.54015377E+01
     -8.85445806E+02      1.04360660E+03     -1.13914407E+03
     -2.70664960E+03     -3.10204792E+02      2.02697270E+03
      2.86279093E+02      8.90664211E+01      5.66345519E+02
     -1.78920264E+03     -9.25806111E+02      5.94376624E+02
      1.60991735E+03     -2.79682407E+03      2.52349465E+03
     -3.73877272E+02     -5.50410170E+02     -5.22425074E+01
     -1.28260347E+02     -9.60740615E+02      2.72985894E+03
      9.01503902E+02      1.13967307E+03      3.36453332E+02
      6.69426981E+02      3.18500369E+02     -4.20537515E+02
     -1.04348690E+03     -9.72620372E+01      1.74619369E+03
      2.11775319E+03     -1.15627417E+03      7.28549818E+02
      2.81926289E+02      3.06095713E+02     -1.59713758E+02
     -1.30611131E+03      2.23866090E+03     -2.39109451E+03
     -1.09691494E+03      2.07720437E+03      4.47042203E+02
     -6.68982831E+01      1.83204274E+02     -1.26586477E+03
      4.35417615E+02      2.96437295E+02     -1.26996799E+03
     -1.75599989E+03     -1.70671940E+02      7.62739627E+02
      5.07789820E+02      7.51310922E+01      2.43557790E+02
      2.67972084E+03      4.83727255E+02      2.96520491E+02
      1.47018941E+03      6.41862600E+02     -1.91782046E+03
     -3.47993068E+02      7.46670083E+02     -4.58885678E+02
     -1.54733706E+03      2.86326764E+03      9.50762417E+02
      8.72270881E+02     -5.99173504E+01      1.04983238E+03
     -4.11184062E+02     -3.05537145E+02     -1.27314162E+03
     -4.75086441E+02      8.88798540E+02     -7.29204544E+02
     -1.35246790E+02     -3.95585250E+02     -6.15641924E+02
      2.32009877E+03      7.78377406E+02     -1.75511457E+03
      1.92113086E+02     -1.97518351E+02      1.89720325E+02
     -2.08863125E+03      1.03527329E+03     -2.00863832E+03
     -1.02487825E+03      2.65386275E+03      1.52234822E+02
     -1.22876308E+01      9.53515670E+02     -1.13798702E+03
     -6.45430087E+02      1.08412032E+02      2.85553553E+01
      2.57119610E+03      9.16901648E+02      2.50303323E+02
     -2.67175379E+03      1.79253301E+03     -7.54663906E+02
     -3.31362611E+02     -9.85734554E+02     -4.50064713E+02
      8.98373070E+02     -2.56576921E+03      1.36209508E+03
     -2.22679128E+03     -4.89298106E+02     -5.65832043E+02
      3.06145870E+02      1.90638223E+02     -3.02343826E+02
     -6.39658221E+02     -4.06907322E+02      9.63185896E+02
     -6.95052714E+02      8.64767957E+02      8.39916258E+02
      5.58793122E+02      2.54065153E+02     -5.99057276E+02
      1.93958967E+03      2.12913876E+03      6.85223726E+02
     -2.93437273E+02      8.54861238E+02     -6.18805827E+01
      4.77766582E+02     -1.35898422E+02      2.73326607E+02
      1.04156736E+03     -7.27576830E+02      1.91424921E+03
     -2.48954371E+02     -3.42750972E+03      5.68976185E+02
      2.33842745E+02      7.74467371E+02      8.29665427E+02
      2.51066941E+03     -7.19611567E+02     -1.88030308E+03
     -2.76744749E+02     -1.64517532E+03     -2.13555578E+03
      6.92300546E+02     -3.64178464E+02     -4.64135220E+02
      2.58385955E+03      1.72876071E+03     -4.05206723E+01
     -1.67423197E+03     -5.54916518E+02      2.62154903E+02
     -1.85257112E+02     -3.39909369E+02      6.59368117E+02
     -1.76894411E+03     -5.37281766E+02     -1.30045896E+03
      9.11842373E+02      7.54859785E+02     -7.87524675E+02
      5.02595636E+02     -2.81901520E+02     -5.15816524E+02
      2.62356641E+02     -5.87563316E+02     -1.75699620E+03
      2.04749585E+03      4.65563457E+02      2.03221734E+03
     -2.40918356E+00      2.46018281E+03     -2.57376437E+02
      1.69211206E+02     -7.30470250E+02     -5.49076044E+02
      2.42574373E+03     -2.61022268E+03      3.43755249E+02
      2.07485089E+02     -1.82868203E+03      4.29777022E+02
     -8.75710768E+02     -9.63357479E+02     -1.81111734E+03
      3.83826418E+02     -1.17415690E+02      4.57758794E+02
      4.39137128E+03     -2.11037851E+02     -1.07259524E+02
     -2.29545905E+03      3.52070171E+02      6.43180332E+02
      1.35939831E+02     -7.58321976E+02      3.72790683E+02
      1.77421450E+03     -1.42310642E+03      4.66735361E+02
      6.16401670E+02     -2.07990193E+03     -1.16926635E+03
     -8.29241356E+02     -3.52579734E+02      1.07450273E+03
      1.16776253E+03      8.44826596E+02     -1.27077901E+03
     -3.84052455E+02     -8.78519262E+02     -2.92549690E+03
     -7.11626375E+02     -5.49181637E+02      4.09627573E+02
      8.77579569E+02     -1.73471100E+03     -2.16881498E+03
      4.26807227E+02      8.96145517E+02     -2.11533479E+03
      5.51603828E+02     -2.89023636E+02     -6.97176436E+02
     -4.72197588E+02      9.27326183E+01      1.51678042E+03
      6.78630707E+02      1.13271474E+03      1.53400194E+03
      3.17684904E+02     -1.75152357E+02      1.11798306E+02
      8.84960533E+02      6.74619521E+02     -9.27690584E+02
      6.35710608E+01     -1.35677524E+03      1.75668749E+03
      5.11922899E+01      4.13175323E+02     -3.82209783E+02
     -1.77784884E+03      2.91888428E+02      1.65623614E+03
      1.21970670E+03     -4.11970246E+02     -3.67199489E+03
      6.89224970E+02     -1.72936457E+02     -5.84463868E+02
      1.65560430E+02      9.11668735E+02     -1.20832051E+03
      9.63194759E+02     -1.12908511E+03      4.57214024E+02
     -4.76363835E+01      3.42726592E+02     -3.99721759E+02
     -7.99086839E+01      1.87707525E+03     -2.67240824E+03
     -1.48205440E+03      2.91937167E+03      2.79628758E+03
      1.61467346E+03      1.55483284E+03     -2.73959590E+02
     -8.76901982E+02     -5.92511056E+02     -2.81362160E+02
     -1.75123289E+03     -1.40147407E+02      1.15095897E+02
      5.12802801E+03     -7.73632054E+02      1.88397783E+03
      1.35963956E+03     -1.82755189E+03      8.74470978E+02
      4.09134518E+01     -2.21575429E+02      7.70767158E+01
      1.99480468E+02     -1.57276476E+03     -7.38164069E+02
     -1.89896908E+03      2.13971651E+03      1.22664705E+03
     -3.07222025E+01      5.71157215E+02      9.04700633E+00
      3.43291348E+02     -3.32235330E+02      3.86427694E+03
     -2.50825452E+03     -1.33591597E+03      3.08526733E+01
      5.02716270E+02      2.74120185E+02     -6.80080069E+02
     -1.42040111E+03     -1.14634309E+03     -4.24913151E+02
      6.04629316E+02      6.09290268E+02      2.69970431E+03
     -5.39014379E+02      2.92663617E+02     -4.72852517E+02
      1.48100023E+03      3.14494174E+02      6.82730276E+01
      1.09259080E+03     -7.67079727E+02      1.13728379E+03
      5.95479392E+02      2.39649829E+02      4.16594511E+01
     -1.19030999E+03      6.13907476E+02     -9.07321366E+02
      3.16733093E+02      5.99556702E+02      3.91799207E+02
      2.86863367E+02      5.54920793E+02     -1.49644249E+02
     -3.24854509E+02     -1.76970211E+02      1.43583678E+03
     -1.11850023E+03      2.72785244E+02      1.62692391E+01
      1.25204107E+02     -3.44301986E+01     -1.86650427E+02
     -9.83574625E+02     -2.13008264E+03      3.09032310E+02
     -4.69724953E+02      2.48122228E+03     -1.35717073E+03
      8.33385194E+01     -1.95606652E+02     -2.28647632E+02
     -1.73760913E+03      5.90998620E+02      9.70412621E+02
     -1.63178509E+02      4.77549516E+02     -1.32375810E+03
     -1.76695458E+02      1.07916826E+02      4.76567928E+02
      1.40786268E+02     -1.27433977E+02      6.10319311E+01
     -5.35685732E+02      1.12094465E+03      1.28863220E+03
      9.60108332E+02      2.00173521E+03     -5.81773262E+01
     -2.62187619E+02      7.29386786E+02      9.15595458E+01
      7.57317473E+02      3.10916741E+03     -3.99175414E+02
     -5.74661287E+02     -1.05488378E+02      1.00506933E+03
      1.61002492E+03      1.41189641E+03      1.56675310E+03
      2.70178927E+02     -1.49252169E+01      9.66901631E+02
      4.59178019E+02      4.05004030E+02      5.25865999E+02
      6.82965831E+02      1.56597014E+03      1.37444860E+03
      1.88108846E+02     -5.05680455E+02      1.52479199E-01
      1.25491800E+03     -3.71391975E+02      2.05857092E+02
     -4.72921482E+02      2.08720641E+03     -8.41912804E+01
      5.89602816E+02      6.72076408E+02     -8.68675120E+02
     -2.05185462E+03      6.26220873E+02     -1.81694843E+02
      1.57727602E+03      5.55568682E+02     -3.73505892E+02
     -1.41896001E+02     -6.00916555E+02     -4.69748929E+02
      1.83681334E+03     -4.18791453E+02     -1.22891251E+02
      1.49084853E+03      5.29020696E+01      2.56150123E+03
      1.08177049E+03      7.27692075E+02     -1.52944791E+02
      3.00765194E+02     -3.44016361E+03      5.86855616E+02
      2.61589899E+02     -2.01617489E+03     -2.38076698E+03
      1.74858649E+02     -8.36079952E+02      2.11187017E+02
      9.34382255E+02      3.84085571E+02      4.23561019E+02
      6.68206409E+02     -8.12521507E+02      9.86212249E+02
      2.09474308E+02     -8.91730285E+02     -1.05461378E+02
      6.81013166E+02     -2.24266763E+02     -1.14430953E+03
     -5.46569521E+02      1.86159979E+03      2.08235818E+02
      4.04422317E+02      1.49204457E+02      5.65508817E+02
      2.62135579E+03     -2.53338178E+02     -6.39260719E+02
     -4.47808493E+02      6.66339206E+02      2.90108461E+02
      7.56957703E+02     -1.83007967E+02     -1.57092474E+02
     -1.53635953E+03      2.19523691E+03     -1.13608023E+03
      1.63968137E+03      1.45510831E+03     -6.84570502E+02
     -1.03567520E+03      1.96325978E+03     -4.35623327E+02
     -3.25251695E+02     -1.97644955E+02      7.70264588E+01
      1.11820344E+03     -9.19731450E+02      1.90260224E+03
     -5.28441910E+02      1.92438040E+03     -1.52631326E+03
     -2.83943587E+03      8.82868908E+01      2.21349323E+03
      4.60337725E+02     -1.33332801E+02     -6.05145973E+02
      5.43095029E+02     -1.37791481E+03      1.52373896E+03
     -8.85220160E+02      1.78988778E+03     -3.38173850E+03
     -6.26485743E+02      4.52312327E+02     -4.47723106E+02
      1.31269990E+03     -2.14132297E+03      5.22259129E+02
     -2.08728697E+03      3.50404787E+02     -4.06798820E+02
      5.04873769E+00      1.31578306E+02     -9.70046459E+02
      4.88711102E+02      3.02062292E+03     -1.27045387E+03
     -2.19918033E+03     -1.38473051E+03      2.41831958E+03
     -2.18024235E+02      2.94866220E+02     -2.82471893E+02
     -2.92020593E+03      1.08237128E+03     -1.16506792E+03
      1.39881563E+03      3.78509926E+02     -3.36855852E+03
     -2.42804643E+02      4.36550996E+01     -3.44561603E+01
     -4.23250226E+02      1.17813824E+03      1.86512522E+03
      3.44020166E+02      8.36655014E+02     -1.05033319E+03
      1.63792580E+02     -5.22354552E+02     -2.78099759E-01
      1.24252541E+03     -7.71288707E+00      1.37337525E+03
      6.77203844E+02      9.72675982E+02      1.13439974E+03
      1.19418801E+02      9.19049639E+01     -6.03172619E+01
     -1.59826937E+03      4.61446921E+02      5.36043754E+02
     -2.87608641E+03      2.07636879E+03      2.32350522E+03
     -7.16412546E+02      1.16345792E+02     -6.93899453E+02
     -2.12700730E+02     -6.16036342E+02      2.57642237E+03
     -1.83103840E+03      6.53411377E+02      5.36091243E+00
     -6.41176080E+01      1.23440748E+01      3.08630200E+02
      3.26632696E+03      1.34940255E+03      1.22989014E+02
     -7.03000490E+02     -1.36709673E+03      1.79838114E+03
      5.47246519E+01     -2.56194191E+02      3.64418382E+03
     -6.51559864E+01      4.52895886E+02      5.63290304E+02
     -2.29103076E+03      1.77813076E+03      3.39517966E+01
     -1.11454041E+03      1.58646406E+03      1.54577403E+02
     -3.42539194E+02      7.34949340E+02     -1.25381672E+03
     -5.77327359E+01     -1.87964178E+02     -4.29108349E+02
     -1.25573017E+03      4.76606923E+02     -1.43814996E+03
     -1.62392927E+03      3.74977575E+02      5.83180792E+02
      6.60738997E+02     -5.73364990E+02     -5.46630800E+02
     -1.91149164E+01     -1.11458255E+03      4.49006702E+02
      5.83692115E+02     -3.71578813E+02      9.86000717E+01
      1.06084466E+02      1.15069717E+03      2.78628387E+02
     -8.57912121E+02      4.57888525E+02     -4.55540368E+02
      2.66038858E+03     -9.76586359E+02      9.97553063E+02
     -4.94121511E+02     -4.09073996E+02     -7.11436140E+02
     -1.55969986E+03     -3.11514680E+02      1.60408281E+03
     -1.44251865E+03      1.10694971E+03     -1.52621989E+02
      2.71831167E+02     -8.74906510E+02     -9.40359717E+02
      6.54151561E+02     -1.26941381E+03      1.34547071E+03
      9.22761140E+02      4.29366022E+02     -8.33835862E+02
      8.11787518E+02     -1.89298044E+02     -3.59055629E+02
     -1.03508642E+03      1.04251723E+03     -7.15391785E+02
      2.23698095E+03     -1.07957941E+03     -6.26741405E+02
      2.83630654E+01      8.11248632E+02     -3.33998720E+02
     -1.07921634E+03     -6.95714733E+02     -2.78986840E+02
     -2.19722082E+02     -1.98589236E+02     -4.55620912E+03
      1.73722921E+02      2.00038600E+02      4.37247248E+02
      3.85586747E+03     -1.12517465E+03     -1.52706778E+03
     -6.79536727E+02      1.66527419E+02      2.92183086E+02
      1.76325511E+02      5.18784460E+01     -6.19097725E+02
      3.32203812E+03      5.81738253E+02     -1.81706751E+03
      7.15060804E+02      1.13343301E+02      3.73680472E+03
      1.64996954E+03     -8.69504874E+02      1.83836352E+02
      3.57065341E+02      4.29328434E+02     -1.11976570E+03
      9.99977847E+02      4.99165444E+02      1.95712661E+03
     -1.88634175E+03     -4.03487840E+02     -7.25252618E+02
     -2.61349947E+03     -1.27394130E+02     -1.21766703E+03
     -1.86596753E+02     -3.50970399E+02      4.10418402E+02
      2.77706165E+02     -6.46921016E+01      1.61953078E+03
     -5.85465846E+02      2.35675744E+03     -1.18102443E+03
      1.85894677E+02     -3.62328693E+00      9.94862038E+01
      1.37841217E+03      2.11774316E+03      2.97430547E+02
     -1.35172360E+03      7.30582380E+02      1.25188050E+03
      1.21147204E+01     -4.34930159E+01      1.81468629E+01
     -2.08430254E+03      1.05160978E+02      8.57825483E+02
      5.42573704E+02      1.80144264E+03      3.35256103E+02
      1.70314014E+02      3.36265457E+02      3.91905132E+02
      2.27268323E+03     -1.27224146E+03      2.90837330E+03
     -1.06388136E+03      5.58257532E+02     -8.17309980E+02
      2.16617159E+02      5.42048919E+02     -3.41019941E+02
      2.67016629E+03      2.08171220E+03     -7.30146466E+02
      9.32839753E+02     -1.86125849E+03     -4.30804873E+02
     -2.75554008E+02      7.06926806E+02     -7.52202488E+02
      2.59696821E+03     -1.12829717E+03      8.49883850E+02
     -3.90551326E+01     -8.64279175E+02      7.49293783E+02
     -1.75452858E+04     -3.84704428E+03      1.23776840E+04
     -5.11582547E+02     -2.24339241E+03     -1.22649241E+03
      1.57233150E+03      5.35536671E+03      1.39448504E+03
      9.37050627E+02      3.31812090E+02     -6.07162432E+02
     -4.45709139E+02      1.36922831E+02      2.73044433E+03
     -4.03549729E+03      8.25286087E+02      1.03661378E+03
      4.19665468E+02     -1.72002620E+02     -5.61891779E+02
     -1.94128445E+03     -2.02483813E+02      9.71227387E+02
     -1.06685379E+03      8.91365667E+02     -9.07324005E+02
      1.50038339E+03     -6.33414808E+02      1.15397003E+03
      2.75633545E+02     -6.76568749E+02     -1.16065641E+02
      1.20411746E+03      5.41452257E+02      1.28256019E+03
      2.77421381E+03      1.70790590E+03      3.62269420E+02
      1.42521605E+02      1.68532363E+03      5.71813743E+02
     -1.70416115E+02      5.07717759E+02     -9.44926598E+01
      4.94903132E+02     -2.53741620E+03      2.58019405E+02
     -1.18277837E+03      3.37592016E+02      2.98023674E+03
      3.57186413E+02     -3.20491506E+02      7.66542016E+01
     -8.39550264E+02      6.22001699E+02      3.20559477E+02
      5.02696353E+02      7.08980758E+02      1.91348670E+02
      3.68057959E+02      2.11552114E+02     -9.60329633E+02
      1.71330936E+02     -7.70288253E+02     -5.46478565E+02
      1.86439583E+02      4.60841619E+03     -2.53122331E+02
      5.79652917E+01      1.24921957E+01     -6.39038263E+02
      5.23474611E+02     -6.07758427E+02      6.58801136E+02
     -1.45629316E+03      8.46260332E+02     -4.38588110E+02
      2.38891147E+02      7.79025176E+02      5.68375918E+01
      1.64259636E+03     -1.03222443E+03      1.49769545E+03
      8.48370612E+02     -1.37010464E+02     -1.87813815E+03
     -9.14463388E+01     -6.04352215E+01     -8.60964253E+02
      1.55694711E+03     -2.39788729E+03     -1.32205435E+03
      4.86511375E+02      1.49539251E+03     -3.80432029E+03
      9.05833569E+02      7.06771597E+02     -3.60468672E+01
     -9.54529493E+02      4.16203137E+02      2.28915924E+02
      1.16156310E+03     -3.96828980E+02      3.91248452E+02
      7.78098895E+02      4.76931966E+02     -5.38373601E+02
     -5.21697320E+02      1.44695941E+03     -6.06639280E+02
      1.47939192E+03      5.06588936E+02     -5.50584401E+02
      5.13274092E+02      3.31365319E+02      4.02896149E+02
     -8.91706597E+02     -2.27791822E+03      5.08270649E+02
      1.88662609E+03      1.06751214E+03     -4.06732759E+02
      2.91938824E+02     -2.07085974E+03      5.76121793E+02
      6.07828447E+02      1.49850027E+02      6.00191306E+02
      1.23215162E+03     -7.70431101E+02      1.59969794E+03
     -2.34206868E+03     -5.89403179E+02     -2.27693257E+03
     -1.36651230E+03      1.36458142E+03      1.10521350E+03
     -8.08423653E+02      1.67528264E+02     -4.96110434E+01
      1.78681049E+03      5.04358003E+02      5.40053358E+02
     -2.32618823E+03      5.08641795E+02     -1.90079515E+03
      1.17460724E+02      5.72501752E+02      7.52462999E+01
      7.91459180E+02     -6.82895262E+02     -2.82771826E+02
      7.03672843E+01     -3.67448663E+01      2.35195570E+03
      7.73816688E+02      6.19053098E+01      5.76704708E+01
      2.14825627E+03      3.41884357E+02      1.75079347E+03
     -8.77125698E+02     -1.88735557E+03      4.81728246E+02
      4.22293457E+02     -4.05022583E+02      3.75794409E+02
      9.36543648E+02     -2.21675804E+02      2.35419907E+03
     -1.32611973E+03      1.85162224E+03      4.12181984E+03
     -5.51164998E+02      1.10770289E+02      1.75292786E+02
      8.02723147E+02     -1.10580151E+02      1.58835143E+03
     -4.92984061E+02      1.08712314E+03     -1.49256328E+01
      2.71020280E+02      7.38001113E+00      4.72508953E+02
      1.33918188E+03     -5.47857174E+02     -2.60221878E+03
      1.97924104E+03      1.70143391E+02      1.68528186E+02
      3.59912804E+02      2.43202106E+02      9.72709603E+02
     -3.94123789E+02      1.82037580E+03     -1.02329056E+03
      3.05052870E+03      2.50578685E+03     -7.23421777E+02
      2.36104298E+02     -2.14784261E+02     -2.64883422E+02
      1.58524401E+03     -2.76902978E+03     -8.21160990E+02
     -1.55950508E+03     -7.30027789E+02      1.25085463E+03
      2.67183916E+02     -2.67427386E+02      4.62105194E+02
     -2.69209321E+03     -4.04961382E+03      5.05780612E+02
     -9.30721730E+02      2.58754314E+03      2.18024977E+03
     -4.42843426E+02      2.50162058E+03      3.32448049E+02
      1.16021569E+03     -4.36412750E+02     -6.08926343E+02
      2.34123834E+02      3.33187097E+02     -7.08470736E+02
     -3.17810905E+03      7.20437589E+02     -1.26322811E+03
     -2.06538990E+03      1.23229305E+03      7.11163908E+01
      9.91071460E+01     -2.63869875E+02     -6.03935019E+02
      1.41214383E+03     -7.47784654E+02     -1.39393795E+02
     -2.45897848E+02      8.14961184E+02     -1.13329290E+03
     -4.98488159E+01      1.30486254E+02      7.41504627E+00
      1.78018105E+03      7.96440580E+02      1.55317907E+03
     -3.00788142E+02     -2.38412681E+02      6.47017445E+02
      5.80743313E+02     -3.47096632E+02     -3.33109916E+02
     -8.72541873E+02      5.05749678E+02     -1.85656989E+02
      2.23329298E+03      9.59689034E+02      1.59782711E+02
     -7.82778546E+02     -2.91060010E+02     -4.44566392E+01
     -4.34096826E+01     -8.69775724E+02     -2.92728388E+02
      1.79212123E+03     -1.36977115E+03     -3.74078144E+02
     -2.24459235E+02     -3.00194888E+02      6.31610115E+02
      5.00365400E+03      1.37925557E+02     -4.22326923E+03
      2.59012275E+03     -1.88138729E+03     -2.34863388E+03
      1.57584380E+02      9.21483632E+02     -1.42980886E+03
     -1.81713879E+03     -2.30405123E+03      4.22368041E+02
      1.76012758E+03      6.76892159E+02     -1.51728565E+03
     -5.67598563E+02     -1.61501164E+02      8.22538463E+02
      1.07779625E+03      3.85994194E-01      1.88835493E+02
      5.34302652E+02      2.24109129E+03     -8.80422360E+02
      1.07725387E+02     -3.41882807E+02     -2.91677951E+02
     -7.36130964E+02     -2.72286174E+02      8.40893934E+02
     -1.23159463E+02     -1.05220991E+02      2.88358457E+02
      5.99777784E+02      1.53475201E+02     -3.50270085E+02
     -1.04794031E+02     -3.30104956E+03      2.33623217E+03
      7.60396199E+02     -4.59264093E+02      1.09617738E+03
     -1.30855247E+02     -3.33843545E+03      1.74959914E+03
     -2.96333602E+02     -5.08980659E+02     -4.83883855E+02
      1.59481394E+03      8.35376951E+02     -1.43828793E+03
      5.60881027E+02     -2.31033960E+03      7.00490677E+02
     -2.38704945E+02     -7.51762132E+02      1.31335983E+03
  }
}

Hamiltonian = DFTB {
  SCC = Yes
  SCCTolerance = 1e-6
  MaxSCCIterations = 200
  ForceEvaluation = Dynamics
  MaxAngularMomentum = {
    C = "p"
    H = "s"
  }
  Charge = 0.0
  SpinPolarisation = {}
  Eigensolver = Standard {}
  Filling = Fermi {
    Temperature [Kelvin] = 300.0
  }
  SlaterKosterFiles = Type2FileNames {
    Prefix = "../../pbc-0-3/"
    Separator = "-"
    Suffix = ".skf"
    LowerCaseTypeName = No
  }
  KPointsAndWeights = {
    0.0000000000000 0.0000000000000 0.0000000000000 1.00000000000000
  }
  Dispersion = LennardJones { 
    Parameters = UFFParameters {}
  }
}

ParserOptions = {
  ParserVersion = 3
}
