Geometry = GenFormat {
<<< "system.gen"
}

Driver = VelocityVerlet{
  Steps = 50000
  TimeStep [fs] = 0.2
  MDRestartFrequency = 25
  Thermostat = None {
    #InitialTemperature [Kelvin] = 300.0
  }
  Xlbomd{
    IntegrationSteps = 6
    MinSccIterations = 2
    MaxSccIterations = 200
    SccTolerance = 1e-6
  }
  Velocities [AA/Ps] {
10.49252157 7.53872196 -2.39143859
-27.92268460 -14.96344903 -0.07404078
-5.57826373 -4.82960220 34.51836060
-2.13453347 1.70564400 -4.40469453
-1.20371832 -5.07245653 36.86585672
20.91568379 49.61550973 -26.73775406
5.84829980 5.08422732 10.44543779
-32.32304799 12.00810457 60.27832015
-0.93883097 -5.94908913 2.62600312
0.74488908 -1.97437755 0.13134312
15.12328391 -31.15657840 37.68221045
10.74490658 5.20849271 -22.17811024
2.11848150 -6.99835010 2.76800670
-20.30121617 4.96584199 -23.63580133
4.43642645 12.58253286 -33.01143243
8.10258498 -6.00393930 6.66715330
27.82448216 8.40793180 27.48616694
-14.10203219 -2.69933060 -4.25006745
12.75699155 1.87763587 4.42944520
45.83745586 1.10949033 7.30599044
-10.65632936 -57.89357289 -6.86524562
6.80545054 -2.14050442 -8.78429913
-1.84872423 -12.48052095 47.08026767
-31.50238439 -0.87457673 -27.81029371
-2.70131288 -4.63696750 9.07663567
-34.89238566 32.26730957 1.58941070
57.34915974 21.77553203 -20.73715576
40.71404911 -27.25017832 24.02718026
1.80210212 1.34577885 1.40534006
-25.08140959 -3.04198114 4.69756557
39.12564424 15.78783357 8.96269752
5.21752756 -32.53635411 -5.00795651
0.07123384 -9.47345820 -3.08837558
27.56585198 -49.93538028 40.13215720
26.36492939 -6.09684380 -29.32399475
4.18372948 8.20362654 4.80182928
21.42649140 -7.04396974 4.12242508
-13.69700046 -1.77827682 17.10115428
-2.63293118 6.23836402 -1.30483977
6.84586081 19.64178912 34.70804289
-22.89550510 -8.82577174 16.73265040
-5.15736863 0.12086688 4.89667124
-3.88484288 2.60468063 7.29951868
-2.72806479 -23.37716915 25.90971159
-9.69326894 -2.75628031 2.38026315
-18.44386748 -0.83409018 -16.33646601
-13.58116651 6.16163862 14.14151244
-10.38524975 -15.54765250 0.52737198
3.16475140 28.31813550 -5.92931856
-19.35238125 16.91937774 -17.85144353
-3.90812523 2.80597763 0.33292909
-33.28126658 -7.89927060 21.48256393
-14.22259856 56.48787252 1.40149165
0.54644443 -6.93544477 -10.05864794
24.02535471 -21.62686543 -19.54393603
-19.67889815 5.25633835 -12.13469090
4.56987408 -2.85374825 5.83944181
11.75957651 -9.64866970 -22.23108395
13.11510994 30.93800942 31.04637574
17.29229737 17.74069122 -19.66151860
-4.44889161 -8.45533442 13.67035656
-25.29011556 0.39680809 -11.91711534
-23.42633418 -33.55032393 11.42514579
-30.74559260 -12.02612501 7.68384865
-23.79555039 -0.51080503 -6.30876218
57.51290852 -13.10909757 -23.66819690
43.21930462 5.54593806 -106.24271353
-5.40145444 2.77560402 -14.27422135
24.05048579 -27.05146878 49.36222105
23.44747771 6.97533809 13.19348866
2.00925508 8.99121707 0.68441106
-28.11758651 12.59315434 7.16499426
7.33968609 17.92880313 -23.64508552
-10.34459582 -2.32049139 5.44502700
2.41332063 34.31116971 -33.58409347
-3.17731503 -25.40199734 -0.56745222
2.48982116 3.36429570 -1.71944944
-8.46958670 17.33115629 -0.90052981
36.32651310 32.30458791 17.63521771
0.55861849 18.95749521 3.62027627
-20.48047804 -16.53748523 27.09555205
-15.19201142 12.89404399 -24.70373005
-4.26763891 -8.19110234 1.41051215
-38.75502658 -2.60857922 7.78993042
13.46638393 36.19471571 5.31764301
3.15285140 7.29571429 1.14682620
-11.43539478 14.80981777 1.48968242
20.41381561 -0.97335863 -16.22139528
0.86486433 9.39923218 -1.24770094
-22.11143114 -13.31213349 -8.21637203
14.19400620 7.98346050 3.65906966
1.08184836 -23.44074871 -18.80083010
10.69945131 3.39822966 6.21499410
-34.52442630 -1.51416749 -5.84100689
6.82327243 14.98849861 34.89880099
-5.82385266 -23.41750102 -21.61963689
0.20124519 3.70291436 12.53315629
-28.45329402 15.81775061 -51.44864786
24.08406085 -28.21202953 -41.98557782
-8.43113152 8.44344292 5.03411152
8.55535893 5.40715707 -1.29064943
-13.23428280 -59.23122266 -4.63929867
5.80328710 4.19810505 -4.89590392
-27.38983997 -12.96439315 -2.36816730
0.19097613 26.86742498 -28.88113225
6.46743978 2.55327433 7.04002011
32.59359476 -6.59671636 -29.26225118
11.77647461 2.40479134 -3.32497416
-2.36735548 -4.99272845 -2.18463199
15.00175512 3.92610307 16.91323775
35.85161984 -24.93345046 7.08267156
-8.97074776 4.48862345 2.18059890
-33.18308092 43.65620563 3.90823922
2.35758942 22.75675846 13.90824632
2.36961000 6.33001604 2.61195312
10.82155155 -35.01179909 -14.90749281
21.09716597 16.23617667 -22.71647572
5.78975832 -6.34304529 2.65403555
4.60830343 17.92844567 -5.05954630
16.24745857 7.08311814 -21.51963414
1.76352381 0.38408991 -7.69939671
62.69014973 25.63258938 -19.67376898
-10.33107901 -9.04535087 -37.33653008
-11.18670626 24.33430262 -0.00131146
1.15679170 -4.52451791 7.80181113
8.13689938 -9.82459171 -16.14513656
-1.64191525 -17.41864930 -5.92059974
25.94434288 -7.09501157 5.48285721
4.76326901 -11.52645498 1.12712952
-19.70545740 14.67910181 4.24973070
-13.48736544 14.73591288 15.37974571
8.43599557 -0.72960701 -0.48040616
-16.31498599 -8.09293207 28.85433734
24.11098962 -27.04448011 16.38262497
-1.03077937 -0.96592389 1.49773334
11.43296909 -4.37808681 19.71819012
19.65958635 3.25772894 10.25608465
-6.55792130 5.07371659 -12.60372864
-26.27077920 -27.43586098 -14.83342942
14.15345365 -23.60996648 2.06669272
-7.73344154 -2.29432712 -14.16309754
-21.96267598 -20.90579453 -30.96660585
-8.51642974 -7.59166811 6.51475576
-2.54514432 -6.87044523 4.67234647
-45.41029920 13.99425094 -10.24834471
-2.04689767 -20.50397276 2.76997314
1.63797388 -3.19647186 -1.88988763
-23.70596270 -14.13427410 -4.12587044
-26.14038283 10.64005212 2.70366865
2.83062609 -3.47539424 -3.02271812
2.98365976 -39.02392697 -17.88368635
18.42178091 13.56128744 -1.39459565
1.78620647 -5.61252543 5.44846717
-8.60760499 -13.34540348 -20.97607967
-4.06845901 7.78239251 9.83340506
-30.99386566 3.78407549 -17.17888000
-7.75568207 -10.25302150 1.07444220
3.27708140 15.69598841 3.04503086
28.84625968 -22.93363468 35.16682143
-21.64565617 -0.27431031 -13.99958270
-8.58327716 -2.44559759 -4.84945259
-40.69220460 -34.16270131 19.47561003
-12.91751849 -14.85362010 49.43849833
-9.07943153 0.15373092 -3.68914168
-33.51835922 1.64783570 -43.70567096
9.30543697 12.36283355 14.99589054
-1.55305682 -2.56576687 -5.59181771
18.11732072 -10.44334505 -8.25091085
-22.53672024 -35.74240141 7.05924065
3.50681920 -6.67634890 -0.08794242
16.56823982 7.43954952 -18.82696878
-1.32701094 -12.38604420 3.57480366
-6.56431695 4.70716636 8.99100488
13.02477554 -16.28595270 4.80296398
11.39508186 -5.12393704 -3.33049042
5.59603888 1.27406304 2.09680071
-29.17809086 9.29831486 8.00452032
-6.62347191 1.22340769 -8.64641932
-1.35771657 2.69872777 -5.50864184
-2.93830611 -9.66892308 -14.10346759
-32.77912921 -3.46865614 40.69782981
-3.41640169 3.38643405 -2.44506107
13.54992479 8.86490978 -24.00089475
-9.64886370 0.61700617 14.06073279
-15.40838348 5.40964593 2.24545435
-3.46714897 9.82947472 -9.27750242
-7.24834425 2.98947242 9.54621365
-0.50876375 23.73982091 5.43868809
-3.59818108 -1.40375118 2.91620062
-5.48393198 -23.90868832 -6.37342550
-16.41605851 30.83730148 24.54920748
13.51160890 -22.83611659 25.15595077
10.57674746 -7.56791013 -3.00983195
2.31631242 -57.99373534 -0.07860250
4.42694190 -10.72451251 13.50363811
5.49495661 -3.32428272 -2.78641767
-15.91494362 -4.03061317 21.37276630
13.62117232 5.31756841 -11.41811313
-2.51373217 5.07650681 -2.51664811
32.86316962 4.45704075 -4.72545158
10.35187063 -23.49434859 -3.42452730
-6.49479273 -3.25663710 -1.22730850
-4.42791997 -2.02677560 -22.24644571
9.90848003 -13.49616237 -28.14147098
2.89924748 7.28061916 -3.18899693
16.72513124 31.09105169 10.40219555
6.77422243 -48.93276282 2.08125915
-3.00337641 3.71334294 4.31263993
46.82192855 -20.69750513 -17.72943927
5.85721260 -45.90762082 -22.46784710
6.34041450 -0.57851993 4.45159905
-8.23680692 14.87571212 -3.29388498
13.44407349 -9.57889326 23.62419988
0.67194330 -12.47018139 0.96088329
-16.19250357 -17.03349560 -22.04085730
-26.61590807 -16.99380069 13.71860497
-4.18416158 -6.86354187 8.55148125
-24.91370165 23.93439090 6.80775274
35.69012167 -10.03815432 -24.22323132
15.32578152 21.63045875 7.06523437
10.57116075 10.70630009 -6.17408596
-14.33949852 -1.07248763 -6.50977715
19.61462356 36.99371212 -22.60714112
5.77156600 -24.98664379 19.56632385
4.89049374 7.21957968 -2.06069633
115.68855306 33.89056909 107.09768202
24.74514731 5.77472441 -12.07384137
-8.81275972 -4.75943083 7.96553505
-22.40252422 20.28012854 14.20803159
26.99279097 -20.24737363 -33.15969393
7.72551385 15.21836383 -0.35163707
39.99733574 10.39565836 21.48811110
-22.92994696 42.31632352 9.05841548
5.61110421 -2.19867828 -9.17138715
8.37392812 12.20715419 2.28501144
-12.72030591 11.06745510 6.20969028
-3.71222741 -0.71218658 -0.79088923
9.38681106 -19.22290801 -46.65447459
-11.72816934 -28.14302857 13.97043537
-11.24474612 7.78987823 2.29701222
17.23992010 34.69342619 10.74049904
-1.69099696 16.51024620 -29.96129974
2.54729776 4.44727632 -5.67348032
33.70750718 24.51739672 14.63847546
43.18773922 -10.38713836 -6.20593684
1.23242344 -9.62271191 4.82849622
13.10286236 36.75575004 -19.96798725
13.32602607 -2.25630324 -17.92287169
5.20703172 3.22863929 -4.07531305
25.80423212 -66.40485559 21.26816070
-73.90313627 -14.83487709 17.53140745
-22.17518669 28.92040000 -3.99118735
3.57372680 -9.31004480 -0.05656274
-3.10355338 -15.87043586 -24.51054783
-18.07030691 -37.25464946 44.22868113
28.99958411 -0.48625238 -45.40046198
-1.90590757 -4.62315498 -11.77804434
8.24670497 -37.90701176 26.30483978
18.56380903 -15.73145820 28.68090931
6.74950886 2.24103142 1.20935837
1.73710737 -5.82135637 -10.86744001
18.39641832 6.54002668 -15.45417996
-8.06447194 4.38684414 6.02699301
5.44877832 -10.66081104 19.89731195
16.41697922 10.93677119 -11.33973951
-3.53148592 16.88445714 -1.26130050
-25.97329863 -16.07938106 -5.58473529
1.21907409 17.54151786 10.63409211
-7.10793328 -2.71170009 2.80295794
-31.93092910 -17.38617974 49.81115374
11.67309678 -11.09265542 -26.52135369
2.41269219 3.77865219 -5.06459583
6.62743696 -4.23161759 -48.22535331
5.94635299 31.28645717 25.83888663
-4.15763690 -4.52195405 -4.87460507
-13.10617479 26.58251768 5.35494175
13.78269858 -20.41191754 -8.48121708
0.31595273 3.51446464 1.32589551
-5.70352631 12.31765927 32.76631526
-3.22574394 0.52617351 24.72039716
1.38991770 5.75712984 -6.97089370
-10.76517752 2.30897214 3.70566538
5.22606734 -10.14411389 -9.01826031
5.75067546 6.85149422 22.01946267
-5.38225392 3.10542340 9.62872725
1.22174732 -18.51788513 36.85845754
-5.66761894 -9.21584665 -17.10013226
24.18378530 -3.03421027 38.17407623
-1.09787882 5.67161646 6.93870191
-34.57309980 -2.14740890 1.82896009
-7.09224182 -7.12023134 6.14292010
-9.65370290 2.72612639 -7.14474216
18.52565016 5.84157262 -31.65907535
1.78809208 6.80816385 -10.99092465
-9.26403094 -6.90534415 -10.74155749
16.69834643 3.32315958 0.27512305
-9.79014381 -29.70348120 -21.04993067
-6.18175748 -0.27977803 4.18035869
11.89071534 -9.56239526 -15.21494183
-33.84163628 -7.62979778 -31.73952988
2.87310651 3.26323508 -8.68641622
10.19681334 4.70118556 -3.34105717
-16.84199490 1.36756085 -0.46009364
3.19541169 2.90966955 -2.03239927
15.98346504 -8.59222303 -8.73576953
1.90452272 -18.91706398 1.98281852
-5.01865567 -0.80657324 -6.05597989
-16.95328559 24.37552624 20.04494477
24.33365299 20.00315468 1.99456395
-10.37599260 -13.52982533 0.06395088
28.16754366 -4.97238999 -20.06868582
7.74037368 -24.40268557 -3.64100657
-6.35520703 1.52896940 -3.59611418
-12.73346658 3.83421390 12.17720163
5.67319439 18.65860838 21.89897206
-24.14796998 13.81030606 35.92731015
-2.61038988 3.42364044 1.77533675
35.38505880 21.41681844 8.50518414
-6.62678736 -7.91728427 -3.14238823
-17.51568433 -7.04571783 -23.65446860
3.05398148 -1.05308966 0.28374331
14.82502407 -25.35852744 41.87796366
14.90358924 18.83486228 18.14942220
4.10907108 -2.97382203 3.55177074
46.30757943 12.26835596 5.05279926
22.00671922 -2.82131766 -13.97462060
1.18731563 -1.83262500 -0.46211016
6.26627387 23.38482420 -1.30961058
-9.47278176 1.12919226 -6.77880194
7.78107619 -1.44351212 -4.15926494
-11.06631683 8.37028119 -19.08649305
-6.60102136 7.15680687 -37.96364246
3.00758600 1.54901258 1.93476218
-5.06107339 -28.50363560 29.69648826
10.66673922 28.59271438 16.57202481
13.66139341 2.93797393 7.89065992
32.25457427 7.96433118 9.14987970
23.50245686 11.31144317 29.41783468
7.33003950 2.65002129 -0.11264984
26.63440834 -18.11554068 2.37466487
3.90348522 -4.39818464 16.35971856
0.62364383 -4.30736786 -4.50167946
-6.41195567 -13.36614051 2.54289663
52.92479447 5.14890183 16.05501470
5.47933264 3.93939721 -3.98309577
-17.62757345 8.57882084 -28.73010734
26.52382041 44.23356096 -23.25844229
-5.15888095 -2.51938689 -54.34518077
0.23302404 1.95983570 2.98949107
-31.68893444 -7.11874419 26.26862717
-9.94933776 11.09009392 41.92268807
-2.27341459 21.87683594 -27.92742324
  }
}

Hamiltonian = DFTB {
  SCC = Yes
  SCCTolerance = 1e-6
  MaxSCCIterations = 200
  readinitialcharges = yes
  ForceEvaluation = Dynamics
  MaxAngularMomentum = {
    C = "p"
    H = "s"
  }
  Charge = 0.0
  SpinPolarisation = {}
  Eigensolver = Standard {}
  Filling = Fermi {
    Temperature [Kelvin] = 300.0
  }
  SlaterKosterFiles = Type2FileNames {
    Prefix = "/usr/workspace/troup1/second_set/real_data/decane_run_first_50/pbc-0-3/"
    Separator = "-"
    Suffix = ".skf"
    LowerCaseTypeName = No
  }
  KPointsAndWeights = {
    0.0000000000000 0.0000000000000 0.0000000000000 1.00000000000000
  }
  Dispersion = LennardJones {
    Parameters = UFFParameters {}
  }
}

ParserOptions = {
  ParserVersion = 3
}
