Geometry = GenFormat {
352  S
C  H
1 1    0.4181615456E+02    0.3484887997E+02    0.3930702378E+02
2 2    0.4089990865E+02    0.3554608853E+02    0.3920404926E+02
3 2    0.4159202171E+02    0.3425546241E+02    0.3828368945E+02
4 1    0.4318738223E+02    0.5091418146E+02    0.3939741963E+02
5 2    0.4330164199E+02    0.5145642914E+02    0.4031663117E+02
6 2    0.2794284237E+02    0.5164564918E+02    0.3857823580E+02
7 1    0.4437058787E+02    0.4986500249E+02    0.3928779228E+02
8 2    0.2880750770E+02    0.4900772098E+02    0.3990135357E+02
9 2    0.4530721347E+02    0.5029616827E+02    0.3987840593E+02
10 1    0.2922105346E+02    0.4968443636E+02    0.3774155920E+02
11 2    0.3018548692E+02    0.5009799362E+02    0.3739136916E+02
12 2    0.2844181635E+02    0.5012127329E+02    0.3721817293E+02
13 1    0.4434150943E+02    0.4822475451E+02    0.3718768639E+02
14 2    0.4486799428E+02    0.4830512516E+02    0.3618735908E+02
15 2    0.4331533444E+02    0.4801960983E+02    0.3697666847E+02
16 1    0.2957998488E+02    0.4720339852E+02    0.3810114841E+02
17 2    0.2920806803E+02    0.4731986470E+02    0.3909114712E+02
18 2    0.3061441520E+02    0.4751549416E+02    0.3815302526E+02
19 1    0.4445954274E+02    0.4576775290E+02    0.3771664225E+02
20 2    0.4328634288E+02    0.4577441869E+02    0.3748321709E+02
21 2    0.4440278176E+02    0.4513697757E+02    0.3865142388E+02
22 1    0.4498485588E+02    0.4497561325E+02    0.3653038179E+02
23 2    0.2979001455E+02    0.4554616951E+02    0.3560269025E+02
24 2    0.2890832446E+02    0.4417109075E+02    0.3633050307E+02
25 1    0.4144648228E+02    0.3384787171E+02    0.4037593703E+02
26 2    0.4070913345E+02    0.3314457867E+02    0.3990505208E+02
27 2    0.4216995713E+02    0.3313075962E+02    0.4060263935E+02
28 2    0.4090927739E+02    0.3431237344E+02    0.4123730008E+02
29 1    0.4628912336E+02    0.4431972517E+02    0.3675199550E+02
30 2    0.4678763709E+02    0.4453732679E+02    0.3770173829E+02
31 2    0.3405945069E+02    0.3635715902E+02    0.4122629609E+02
32 2    0.4616426541E+02    0.4321385911E+02    0.3706113104E+02
33 1    0.2812724501E+02    0.3149911656E+02    0.3340126915E+02
34 2    0.2906480884E+02    0.3185033012E+02    0.3396261379E+02
35 2    0.2755381361E+02    0.3240795541E+02    0.3364195018E+02
36 1    0.2837115638E+02    0.3161215439E+02    0.3189283841E+02
37 2    0.2734955331E+02    0.3144770695E+02    0.3147987009E+02
38 2    0.2897368997E+02    0.3068068765E+02    0.3145856516E+02
39 1    0.2908680809E+02    0.3289582294E+02    0.3141652221E+02
40 2    0.2965532348E+02    0.3336638780E+02    0.3223059715E+02
41 2    0.2835522925E+02    0.3368942440E+02    0.3113365920E+02
42 1    0.3007305423E+02    0.3267074899E+02    0.3028063270E+02
43 2    0.4612454056E+02    0.3190799607E+02    0.3067270109E+02
44 2    0.3064160840E+02    0.3367669750E+02    0.3009676509E+02
45 1    0.2950909649E+02    0.3216182013E+02    0.2898392641E+02
46 2    0.2844486991E+02    0.3219348625E+02    0.2904440107E+02
47 2    0.4500877407E+02    0.3098380356E+02    0.2890905595E+02
48 1    0.4515002593E+02    0.3291284451E+02    0.2764914848E+02
49 2    0.4568878424E+02    0.3385982362E+02    0.2778922664E+02
50 2    0.4408692140E+02    0.3312054607E+02    0.2733387922E+02
51 1    0.3057186677E+02    0.3197474821E+02    0.2666309583E+02
52 2    0.3035607763E+02    0.3221031031E+02    0.2554656044E+02
53 2    0.3022103204E+02    0.3095927998E+02    0.2694841737E+02
54 1    0.4739397816E+02    0.3218630656E+02    0.4220187970E+02
55 2    0.4755449414E+02    0.3239407842E+02    0.4332248223E+02
56 2    0.4757015607E+02    0.3308066301E+02    0.4178154034E+02
57 1    0.2747936466E+02    0.3024705513E+02    0.3395247197E+02
58 2    0.2809678341E+02    0.2957634595E+02    0.3455831210E+02
59 2    0.2657278726E+02    0.3052647762E+02    0.3456271878E+02
60 2    0.2703421558E+02    0.2993444091E+02    0.3305056597E+02
61 1    0.3294728768E+02    0.3093766718E+02    0.4178887697E+02
62 2    0.3388290762E+02    0.3138281940E+02    0.4204575601E+02
63 2    0.3280515161E+02    0.3009455814E+02    0.4239809348E+02
64 2    0.3293728851E+02    0.3061156039E+02    0.4073127288E+02
65 1    0.3426043803E+02    0.4582367848E+02    0.4548079576E+02
66 2    0.3459303454E+02    0.4449456886E+02    0.4530432031E+02
67 2    0.3525409167E+02    0.4605241143E+02    0.4615629183E+02
68 1    0.3065232812E+02    0.3842746076E+02    0.3937757667E+02
69 2    0.3039448726E+02    0.3730413332E+02    0.3934084835E+02
70 2    0.2992064056E+02    0.3900339487E+02    0.4003256594E+02
71 1    0.3150930327E+02    0.3878470444E+02    0.3844609961E+02
72 2    0.3324962194E+02    0.4552037063E+02    0.4626137905E+02
73 2    0.3213898991E+02    0.3799805188E+02    0.3795106398E+02
74 1    0.3186741788E+02    0.2490343833E+02    0.3823605720E+02
75 2    0.3114743062E+02    0.2548068995E+02    0.3895861267E+02
76 2    0.3137906756E+02    0.2514716425E+02    0.3726113834E+02
77 1    0.3341961181E+02    0.2536896869E+02    0.3836096285E+02
78 2    0.3396733558E+02    0.4018168924E+02    0.3914482621E+02
79 2    0.3333424574E+02    0.4182051585E+02    0.3878052263E+02
80 1    0.3441569919E+02    0.2542582461E+02    0.3707507056E+02
81 2    0.3426536151E+02    0.2441417169E+02    0.3660809642E+02
82 2    0.3548382028E+02    0.2547439940E+02    0.3732191409E+02
83 1    0.3399418121E+02    0.2643221195E+02    0.3601636113E+02
84 2    0.3303821988E+02    0.2694555881E+02    0.3620067969E+02
85 2    0.3355482132E+02    0.2573520521E+02    0.3521707630E+02
86 1    0.3523832451E+02    0.2723108063E+02    0.3557061726E+02
87 2    0.3604791581E+02    0.2653905774E+02    0.3534520836E+02
88 2    0.3557662316E+02    0.2788047654E+02    0.3633800957E+02
89 1    0.3399136417E+02    0.3574773138E+02    0.4027564373E+02
90 2    0.3417117587E+02    0.3463755089E+02    0.4042576678E+02
91 2    0.3309348945E+02    0.3576531953E+02    0.3975472050E+02
92 2    0.3485433477E+02    0.3610928879E+02    0.3961903562E+02
93 1    0.3537460262E+02    0.2816453085E+02    0.3439866890E+02
94 2    0.3554814755E+02    0.2748359971E+02    0.3355445475E+02
95 2    0.3445214040E+02    0.2869436490E+02    0.3437136603E+02
96 2    0.3633463824E+02    0.2882516923E+02    0.3435120227E+02
97 1    0.2325103470E+02    0.3440921412E+02    0.4790398140E+02
98 2    0.2268915939E+02    0.3349305802E+02    0.4803710860E+02
99 2    0.2409800807E+02    0.3443454266E+02    0.4873463444E+02
100 1    0.2389836787E+02    0.3418550611E+02    0.4646755789E+02
101 2    0.2311567248E+02    0.3408690636E+02    0.4555857456E+02
102 2    0.2446851984E+02    0.3324004591E+02    0.4655033499E+02
103 1    0.2484060224E+02    0.3529174428E+02    0.4614250804E+02
104 2    0.2548739480E+02    0.3548413336E+02    0.4704770161E+02
105 2    0.2419469974E+02    0.3615524365E+02    0.4590857016E+02
106 1    0.2573994954E+02    0.3506706598E+02    0.2961603717E+02
107 2    0.2513091389E+02    0.3445179957E+02    0.2885116023E+02
108 2    0.2666289946E+02    0.3440391883E+02    0.2977150373E+02
109 1    0.2625999727E+02    0.3639539153E+02    0.2888105324E+02
110 2    0.2671159234E+02    0.3703686030E+02    0.2964266452E+02
111 2    0.2535480336E+02    0.3691453960E+02    0.2837720153E+02
112 1    0.2730567638E+02    0.3606543621E+02    0.2780845163E+02
113 2    0.2680939377E+02    0.3559998914E+02    0.2707482592E+02
114 2    0.2811278037E+02    0.3541549455E+02    0.2835691247E+02
115 1    0.2817597251E+02    0.3733990044E+02    0.2761245485E+02
116 2    0.2886850343E+02    0.3686754918E+02    0.2678386355E+02
117 2    0.2885716389E+02    0.3729555754E+02    0.2856764812E+02
118 1    0.2765992371E+02    0.3868515021E+02    0.2709464985E+02
119 2    0.2851376971E+02    0.3930782282E+02    0.2687408544E+02
120 2    0.2715238678E+02    0.3931624145E+02    0.2782936835E+02
121 1    0.2259790318E+02    0.3576495369E+02    0.4797211487E+02
122 2    0.2321222483E+02    0.3664597663E+02    0.4806140417E+02
123 2    0.2181045844E+02    0.3596477054E+02    0.4719069180E+02
124 2    0.2201804139E+02    0.3568404906E+02    0.4901964440E+02
125 1    0.2663352312E+02    0.3862923591E+02    0.2590640277E+02
126 2    0.2723442738E+02    0.3870894095E+02    0.2496572412E+02
127 2    0.2607144773E+02    0.3769787359E+02    0.2560602246E+02
128 2    0.2592072002E+02    0.3939138702E+02    0.2603799174E+02
129 1    0.3571579111E+02    0.3917599352E+02    0.3387789527E+02
130 2    0.3549916297E+02    0.3927142521E+02    0.3283693836E+02
131 2    0.3520799558E+02    0.4004626675E+02    0.3423498484E+02
132 1    0.3509564782E+02    0.3804628451E+02    0.3468840446E+02
133 2    0.3520645040E+02    0.3843114678E+02    0.3572690023E+02
134 2    0.3576536840E+02    0.3709261993E+02    0.3456916281E+02
135 1    0.3368061411E+02    0.3780646765E+02    0.3420002424E+02
136 2    0.3364418869E+02    0.3742415334E+02    0.3320226410E+02
137 2    0.3324481223E+02    0.3881072670E+02    0.3425897400E+02
138 1    0.3289655185E+02    0.3696075104E+02    0.3522205794E+02
139 2    0.3325342396E+02    0.3731009657E+02    0.3616390337E+02
140 2    0.3340512015E+02    0.3601449275E+02    0.3509631618E+02
141 1    0.3134620503E+02    0.3699661958E+02    0.3516907644E+02
142 2    0.3109837205E+02    0.3800663710E+02    0.3556046579E+02
143 2    0.3101846997E+02    0.3616465979E+02    0.3590463837E+02
144 1    0.3072126559E+02    0.3691595410E+02    0.3374440482E+02
145 2    0.3100562688E+02    0.3588134181E+02    0.3321731512E+02
146 2    0.3125933988E+02    0.3762068386E+02    0.3300423518E+02
147 1    0.2917226048E+02    0.3712177151E+02    0.3353938279E+02
148 2    0.2898478459E+02    0.3706367051E+02    0.3241967143E+02
149 2    0.2880423002E+02    0.3809326518E+02    0.3384339478E+02
150 1    0.2841786400E+02    0.3598584020E+02    0.3419644099E+02
151 2    0.2858443200E+02    0.3615529482E+02    0.3528108514E+02
152 2    0.2883766607E+02    0.3490746819E+02    0.3404431822E+02
153 1    0.3715293697E+02    0.3945314005E+02    0.3400213130E+02
154 2    0.3741025337E+02    0.2432482202E+02    0.3505267042E+02
155 2    0.3772306627E+02    0.3858934280E+02    0.3359571250E+02
156 2    0.3736204978E+02    0.4042638049E+02    0.3347988925E+02
157 1    0.2689012137E+02    0.3600805425E+02    0.3405030049E+02
158 2    0.2629812089E+02    0.3535500829E+02    0.3477460878E+02
159 2    0.2643348954E+02    0.3699488337E+02    0.3428068921E+02
160 2    0.2652631440E+02    0.3558149798E+02    0.3311240271E+02
161 1    0.4008836854E+02    0.3033062210E+02    0.2958059163E+02
162 2    0.3960144666E+02    0.2948869479E+02    0.2900074599E+02
163 2    0.3928872095E+02    0.3106142885E+02    0.2989324051E+02
164 1    0.4062192293E+02    0.2963793846E+02    0.3089813466E+02
165 2    0.4128984732E+02    0.3043336690E+02    0.3131609897E+02
166 2    0.4140294880E+02    0.2887156272E+02    0.3061433621E+02
167 1    0.3958804097E+02    0.2912202877E+02    0.3196271892E+02
168 2    0.3879183698E+02    0.2858133433E+02    0.3136572220E+02
169 2    0.3916801391E+02    0.2995255536E+02    0.3257280393E+02
170 1    0.4014147307E+02    0.2808384609E+02    0.3289426037E+02
171 2    0.4111117436E+02    0.2842129931E+02    0.3335787856E+02
172 2    0.4043241579E+02    0.2715689689E+02    0.3236227575E+02
173 1    0.3917579052E+02    0.4286141237E+02    0.3406825251E+02
174 2    0.3829056693E+02    0.4238405123E+02    0.3353971025E+02
175 2    0.3884306965E+02    0.2847657433E+02    0.3462612490E+02
176 1    0.3992517869E+02    0.4185495146E+02    0.3494598756E+02
177 2    0.3916028659E+02    0.4136035779E+02    0.3555327501E+02
178 2    0.4046429276E+02    0.4238076729E+02    0.3579563844E+02
179 1    0.4082386815E+02    0.4068984930E+02    0.3441473758E+02
180 2    0.4167410891E+02    0.4106857329E+02    0.3391488754E+02
181 2    0.4022741747E+02    0.4004212153E+02    0.3367094230E+02
182 1    0.4137645336E+02    0.3982426452E+02    0.3553262191E+02
183 2    0.4182126801E+02    0.4051103305E+02    0.3634309938E+02
184 2    0.4220836065E+02    0.3918798022E+02    0.3510631680E+02
185 1    0.4119035303E+02    0.3101484246E+02    0.2880142334E+02
186 2    0.4181788148E+02    0.3169236858E+02    0.2928603166E+02
187 2    0.4192594061E+02    0.3021676988E+02    0.2834701763E+02
188 2    0.4081459159E+02    0.3160274631E+02    0.4334143584E+02
189 1    0.4039564843E+02    0.3888382071E+02    0.3624184190E+02
190 2    0.3978195925E+02    0.3829535369E+02    0.3559589257E+02
191 2    0.4107913247E+02    0.3821223041E+02    0.3680392233E+02
192 2    0.3979793653E+02    0.3947643238E+02    0.3696013731E+02
193 1    0.3686915803E+02    0.2653445693E+02    0.4176320690E+02
194 2    0.3743340765E+02    0.2663625735E+02    0.4085131774E+02
195 2    0.3655077665E+02    0.4088778261E+02    0.4167571144E+02
196 1    0.3762552189E+02    0.2669247969E+02    0.4310834852E+02
197 2    0.3764143304E+02    0.2773640556E+02    0.4357739167E+02
198 2    0.3877286273E+02    0.4173389578E+02    0.4301819109E+02
199 1    0.3703888385E+02    0.2577916799E+02    0.4412096455E+02
200 2    0.3662465482E+02    0.2481728610E+02    0.4371508293E+02
201 2    0.3610656184E+02    0.2623163093E+02    0.4440100221E+02
202 1    0.3785370790E+02    0.2534637485E+02    0.4539250803E+02
203 2    0.3701298870E+02    0.2495747676E+02    0.4609728532E+02
204 2    0.3829695023E+02    0.2624408619E+02    0.4582002745E+02
205 1    0.3888090089E+02    0.2422623459E+02    0.4523622138E+02
206 2    0.3933007677E+02    0.2427559678E+02    0.4414993980E+02
207 2    0.3829519047E+02    0.2331267124E+02    0.4521070117E+02
208 1    0.4001905341E+02    0.2421745325E+02    0.4621398110E+02
209 2    0.4032996873E+02    0.2314547850E+02    0.4650721067E+02
210 2    0.3956274280E+02    0.2463065126E+02    0.4712584456E+02
211 1    0.4121865022E+02    0.4038454344E+02    0.4580500245E+02
212 2    0.4204539422E+02    0.3961276954E+02    0.4533856568E+02
213 2    0.4178486512E+02    0.4080415796E+02    0.4665570716E+02
214 1    0.4111417241E+02    0.4142186705E+02    0.4470473751E+02
215 2    0.4015515665E+02    0.4202424887E+02    0.4489861262E+02
216 2    0.4090715016E+02    0.4100629061E+02    0.4369543579E+02
217 1    0.3550185856E+02    0.2748329909E+02    0.4170047229E+02
218 2    0.3480554836E+02    0.2727381409E+02    0.2546819960E+02
219 2    0.3493622924E+02    0.2752520295E+02    0.2734276071E+02
220 2    0.3567130497E+02    0.2859991854E+02    0.4157122623E+02
221 1    0.4244200284E+02    0.4215151589E+02    0.4436609003E+02
222 2    0.4318761068E+02    0.4133471842E+02    0.4397268073E+02
223 2    0.4246126842E+02    0.4301510793E+02    0.4366249313E+02
224 2    0.4290317641E+02    0.4236448932E+02    0.4536577883E+02
225 1    0.2958427887E+02    0.4116420915E+02    0.3369623416E+02
226 2    0.3400850190E+02    0.4628595470E+02    0.2908346760E+02
227 2    0.2853935744E+02    0.4148398662E+02    0.3405570438E+02
228 1    0.3002848282E+02    0.2622931762E+02    0.3227830870E+02
229 2    0.2924461761E+02    0.2647207614E+02    0.3148483548E+02
230 2    0.3074262625E+02    0.2552146183E+02    0.3171997604E+02
231 1    0.3065814353E+02    0.4307555549E+02    0.3228746207E+02
232 2    0.3172381373E+02    0.4297853624E+02    0.3248741775E+02
233 2    0.3008383104E+02    0.4360942022E+02    0.3295837024E+02
234 1    0.3039079919E+02    0.4381185901E+02    0.3085947884E+02
235 2    0.3070972507E+02    0.4486420695E+02    0.3103991333E+02
236 2    0.2936331734E+02    0.4392864982E+02    0.3073496142E+02
237 1    0.3122567473E+02    0.4324096769E+02    0.2966805353E+02
238 2    0.3157217598E+02    0.4215572952E+02    0.2997708007E+02
239 2    0.3223331993E+02    0.2842916057E+02    0.2943455521E+02
240 1    0.3052651116E+02    0.4297708778E+02    0.2825179286E+02
241 2    0.2979000545E+02    0.2848419421E+02    0.2798528297E+02
242 2    0.2997917570E+02    0.2672518621E+02    0.2853665384E+02
243 1    0.3159307965E+02    0.4279568094E+02    0.2706055179E+02
244 2    0.3230406556E+02    0.4359992930E+02    0.2709447039E+02
245 2    0.3107808003E+02    0.4296663073E+02    0.2606036103E+02
246 1    0.3227793418E+02    0.4136976053E+02    0.2709636487E+02
247 2    0.3321582067E+02    0.4136505910E+02    0.2793117619E+02
248 2    0.3255173272E+02    0.4125318242E+02    0.2602471008E+02
249 1    0.3035370553E+02    0.2521460810E+02    0.3455796967E+02
250 2    0.3016407215E+02    0.2525700655E+02    0.3568069452E+02
251 2    0.3170298797E+02    0.2910920392E+02    0.3605157998E+02
252 2    0.3148156305E+02    0.2480403786E+02    0.3435112952E+02
253 1    0.3147801186E+02    0.4010914533E+02    0.2734695051E+02
254 2    0.3099724138E+02    0.4013421727E+02    0.2833649794E+02
255 2    0.3066345362E+02    0.4010462755E+02    0.2651861444E+02
256 2    0.3223055979E+02    0.3936499266E+02    0.4254392113E+02
257 1    0.3870096190E+02    0.3754959035E+02    0.4003249212E+02
258 2    0.3977715761E+02    0.3746424971E+02    0.4001016028E+02
259 2    0.3870556973E+02    0.3857376254E+02    0.3945729697E+02
260 1    0.3790427168E+02    0.3650679661E+02    0.3935888375E+02
261 2    0.3683326117E+02    0.3681452395E+02    0.3922893848E+02
262 2    0.3792070275E+02    0.3551703119E+02    0.3993457710E+02
263 1    0.3851068716E+02    0.3621849248E+02    0.3791611818E+02
264 2    0.3897870652E+02    0.3524448535E+02    0.3796488313E+02
265 2    0.3942806334E+02    0.3682875807E+02    0.3772870850E+02
266 1    0.3768649691E+02    0.3622254277E+02    0.3666009050E+02
267 2    0.3835830296E+02    0.3602596422E+02    0.3579337597E+02
268 2    0.3741065333E+02    0.3724337129E+02    0.3644526443E+02
269 1    0.3650997342E+02    0.3517511900E+02    0.3655245945E+02
270 2    0.3576845350E+02    0.3545531098E+02    0.3583655208E+02
271 2    0.3594207836E+02    0.3509269100E+02    0.3749352352E+02
272 1    0.3723428372E+02    0.3388806958E+02    0.3603972795E+02
273 2    0.3797716305E+02    0.3413299098E+02    0.3523165538E+02
274 2    0.3642554288E+02    0.3330915019E+02    0.3555611832E+02
275 1    0.3791466796E+02    0.3309911479E+02    0.3714002832E+02
276 2    0.3723655100E+02    0.3301973834E+02    0.3804831295E+02
277 2    0.3892586455E+02    0.3355479194E+02    0.3741389964E+02
278 1    0.3830330521E+02    0.3162593442E+02    0.3674653297E+02
279 2    0.3938607311E+02    0.3137460297E+02    0.3727155077E+02
280 2    0.3859835023E+02    0.3151702107E+02    0.3566974560E+02
281 1    0.3832772000E+02    0.3806033281E+02    0.4152450525E+02
282 2    0.3715219486E+02    0.3816181435E+02    0.4171833332E+02
283 2    0.3877328793E+02    0.3750125502E+02    0.4235484805E+02
284 2    0.3883989129E+02    0.3904913798E+02    0.4155998055E+02
285 1    0.3718306568E+02    0.3056396774E+02    0.3699144071E+02
286 2    0.3775140793E+02    0.2967805115E+02    0.3683272299E+02
287 2    0.3672311733E+02    0.3061237166E+02    0.3794036535E+02
288 2    0.3643856796E+02    0.3056515442E+02    0.3619390826E+02
289 1    0.4420794830E+02    0.2686210064E+02    0.3944304846E+02
290 2    0.4496491392E+02    0.2762429080E+02    0.3917810501E+02
291 2    0.4478301782E+02    0.2616163205E+02    0.4002778432E+02
292 1    0.4325939774E+02    0.2747877839E+02    0.4055303115E+02
293 2    0.4377014415E+02    0.2837163850E+02    0.4088895322E+02
294 2    0.4337225354E+02    0.2680271576E+02    0.4138706214E+02
295 1    0.4184428500E+02    0.2787675876E+02    0.4009014914E+02
296 2    0.4128061554E+02    0.2695390179E+02    0.3996348545E+02
297 2    0.4199412455E+02    0.2842428317E+02    0.2370462575E+02
298 1    0.4102106445E+02    0.2878696726E+02    0.2573575965E+02
299 2    0.4159709150E+02    0.2918385908E+02    0.4187798839E+02
300 2    0.4042336720E+02    0.2804488317E+02    0.2626792459E+02
301 1    0.4016360009E+02    0.2989400938E+02    0.2496654800E+02
302 2    0.3950812041E+02    0.2933574872E+02    0.2421867660E+02
303 2    0.4087130222E+02    0.3060143601E+02    0.3979333205E+02
304 1    0.3919609343E+02    0.3061641625E+02    0.2596055358E+02
305 2    0.3967064470E+02    0.3160570232E+02    0.2607102680E+02
306 2    0.3943286247E+02    0.3013466331E+02    0.2690922257E+02
307 1    0.3783086693E+02    0.3053921730E+02    0.2549550931E+02
308 2    0.3768361892E+02    0.2941116879E+02    0.2538825441E+02
309 2    0.3781208146E+02    0.3092565113E+02    0.2451978638E+02
310 1    0.3666776415E+02    0.3099758191E+02    0.2642106069E+02
311 2    0.3694221299E+02    0.3052975433E+02    0.2741980755E+02
312 2    0.3569159516E+02    0.3053692787E+02    0.2602460194E+02
313 1    0.4369279813E+02    0.2608618073E+02    0.3824697623E+02
314 2    0.4271451493E+02    0.2564657357E+02    0.3851693160E+02
315 2    0.4341622933E+02    0.2677797078E+02    0.3743444770E+02
316 2    0.4449354558E+02    0.2528136181E+02    0.3792958104E+02
317 1    0.3676377998E+02    0.3252176700E+02    0.2651246415E+02
318 2    0.3777252025E+02    0.3280816184E+02    0.2670874453E+02
319 2    0.3647603865E+02    0.3284951517E+02    0.2545022006E+02
320 2    0.3609758516E+02    0.3296455283E+02    0.2726905750E+02
321 1    0.3380168149E+02    0.3223311742E+02    0.2012771192E+02
322 2    0.3416088085E+02    0.3137312605E+02    0.2084651458E+02
323 2    0.3479392619E+02    0.3254745561E+02    0.1968759632E+02
324 1    0.3279321339E+02    0.3166206626E+02    0.3449292547E+02
325 2    0.3170168162E+02    0.3169564219E+02    0.3480229835E+02
326 2    0.3298865602E+02    0.3066712428E+02    0.3433547083E+02
327 1    0.3282732935E+02    0.3214113639E+02    0.3301003794E+02
328 2    0.3222821137E+02    0.3149822080E+02    0.3236333789E+02
329 2    0.3386407382E+02    0.3204143501E+02    0.3269502907E+02
330 1    0.3253331922E+02    0.3362469101E+02    0.3266730922E+02
331 2    0.3303952362E+02    0.3418855183E+02    0.3357077905E+02
332 2    0.3147355248E+02    0.3390916635E+02    0.3263358717E+02
333 1    0.3322274704E+02    0.3403450289E+02    0.3137809811E+02
334 2    0.3283223844E+02    0.3336261715E+02    0.3050505984E+02
335 2    0.3433999220E+02    0.3391254420E+02    0.3155731730E+02
336 1    0.3293731252E+02    0.3549092116E+02    0.3108396760E+02
337 2    0.3364087889E+02    0.3603711377E+02    0.3173192577E+02
338 2    0.3181714684E+02    0.3583102081E+02    0.3117576449E+02
339 1    0.3336884560E+02    0.3573746316E+02    0.2960252306E+02
340 2    0.3268692141E+02    0.3513356061E+02    0.2900217759E+02
341 2    0.3433682416E+02    0.3528542041E+02    0.2943946321E+02
342 1    0.3346398931E+02    0.3721069674E+02    0.2904352985E+02
343 2    0.3246189240E+02    0.3760762599E+02    0.2874145446E+02
344 2    0.3399295686E+02    0.3718189714E+02    0.2805944125E+02
345 1    0.3313512669E+02    0.3324043502E+02    0.2102779161E+02
346 2    0.3204496811E+02    0.3311260609E+02    0.2076117330E+02
347 2    0.3328309162E+02    0.3315760901E+02    0.2209919067E+02
348 2    0.3351929042E+02    0.3423193190E+02    0.2077081020E+02
349 1    0.3422793786E+02    0.3811733355E+02    0.3005056730E+02
350 2    0.3417304178E+02    0.3762087624E+02    0.3106748599E+02
351 2    0.3525529715E+02    0.3826207802E+02    0.2978659460E+02
352 2    0.3385119053E+02    0.3918095751E+02    0.3013338527E+02
0.0000000000E+00    0.0000000000E+00    0.0000000000E+00
0.1532620600E+02    0.0000000000E+00    0.0000000000E+00
0.0000000000E+00    0.1532620600E+02    0.0000000000E+00
0.0000000000E+00    0.0000000000E+00    0.1532620600E+02
}
Driver = VelocityVerlet {
  Steps = 50000
  TimeStep [fs] = 0.2
  MDRestartFrequency = 25
  Thermostat = None {}
  Xlbomd = {
    IntegrationSteps = 6
    MinSccIterations = 2
    MaxSccIterations = 200
    SccTolerance = 1e-6
    PreSteps = 0
  }
  Velocities [AA/Ps] = {
10.49252157 7.53872196 -2.39143859
-27.92268460 -14.96344903 -0.07404078
-5.57826373 -4.82960220 34.51836060
-2.13453347 1.70564400 -4.40469453
-1.20371832 -5.07245653 36.86585672
20.91568379 49.61550973 -26.73775406
5.84829980 5.08422732 10.44543779
-32.32304799 12.00810457 60.27832015
-0.93883097 -5.94908913 2.62600312
0.74488908 -1.97437755 0.13134312
15.12328391 -31.15657840 37.68221045
10.74490658 5.20849271 -22.17811024
2.11848150 -6.99835010 2.76800670
-20.30121617 4.96584199 -23.63580133
4.43642645 12.58253286 -33.01143243
8.10258498 -6.00393930 6.66715330
27.82448216 8.40793180 27.48616694
-14.10203219 -2.69933060 -4.25006745
12.75699155 1.87763587 4.42944520
45.83745586 1.10949033 7.30599044
-10.65632936 -57.89357289 -6.86524562
6.80545054 -2.14050442 -8.78429913
-1.84872423 -12.48052095 47.08026767
-31.50238439 -0.87457673 -27.81029371
-2.70131288 -4.63696750 9.07663567
-34.89238566 32.26730957 1.58941070
57.34915974 21.77553203 -20.73715576
40.71404911 -27.25017832 24.02718026
1.80210212 1.34577885 1.40534006
-25.08140959 -3.04198114 4.69756557
39.12564424 15.78783357 8.96269752
5.21752756 -32.53635411 -5.00795651
0.07123384 -9.47345820 -3.08837558
27.56585198 -49.93538028 40.13215720
26.36492939 -6.09684380 -29.32399475
4.18372948 8.20362654 4.80182928
21.42649140 -7.04396974 4.12242508
-13.69700046 -1.77827682 17.10115428
-2.63293118 6.23836402 -1.30483977
6.84586081 19.64178912 34.70804289
-22.89550510 -8.82577174 16.73265040
-5.15736863 0.12086688 4.89667124
-3.88484288 2.60468063 7.29951868
-2.72806479 -23.37716915 25.90971159
-9.69326894 -2.75628031 2.38026315
-18.44386748 -0.83409018 -16.33646601
-13.58116651 6.16163862 14.14151244
-10.38524975 -15.54765250 0.52737198
3.16475140 28.31813550 -5.92931856
-19.35238125 16.91937774 -17.85144353
-3.90812523 2.80597763 0.33292909
-33.28126658 -7.89927060 21.48256393
-14.22259856 56.48787252 1.40149165
0.54644443 -6.93544477 -10.05864794
24.02535471 -21.62686543 -19.54393603
-19.67889815 5.25633835 -12.13469090
4.56987408 -2.85374825 5.83944181
11.75957651 -9.64866970 -22.23108395
13.11510994 30.93800942 31.04637574
17.29229737 17.74069122 -19.66151860
-4.44889161 -8.45533442 13.67035656
-25.29011556 0.39680809 -11.91711534
-23.42633418 -33.55032393 11.42514579
-30.74559260 -12.02612501 7.68384865
-23.79555039 -0.51080503 -6.30876218
57.51290852 -13.10909757 -23.66819690
43.21930462 5.54593806 -106.24271353
-5.40145444 2.77560402 -14.27422135
24.05048579 -27.05146878 49.36222105
23.44747771 6.97533809 13.19348866
2.00925508 8.99121707 0.68441106
-28.11758651 12.59315434 7.16499426
7.33968609 17.92880313 -23.64508552
-10.34459582 -2.32049139 5.44502700
2.41332063 34.31116971 -33.58409347
-3.17731503 -25.40199734 -0.56745222
2.48982116 3.36429570 -1.71944944
-8.46958670 17.33115629 -0.90052981
36.32651310 32.30458791 17.63521771
0.55861849 18.95749521 3.62027627
-20.48047804 -16.53748523 27.09555205
-15.19201142 12.89404399 -24.70373005
-4.26763891 -8.19110234 1.41051215
-38.75502658 -2.60857922 7.78993042
13.46638393 36.19471571 5.31764301
3.15285140 7.29571429 1.14682620
-11.43539478 14.80981777 1.48968242
20.41381561 -0.97335863 -16.22139528
0.86486433 9.39923218 -1.24770094
-22.11143114 -13.31213349 -8.21637203
14.19400620 7.98346050 3.65906966
1.08184836 -23.44074871 -18.80083010
10.69945131 3.39822966 6.21499410
-34.52442630 -1.51416749 -5.84100689
6.82327243 14.98849861 34.89880099
-5.82385266 -23.41750102 -21.61963689
0.20124519 3.70291436 12.53315629
-28.45329402 15.81775061 -51.44864786
24.08406085 -28.21202953 -41.98557782
-8.43113152 8.44344292 5.03411152
8.55535893 5.40715707 -1.29064943
-13.23428280 -59.23122266 -4.63929867
5.80328710 4.19810505 -4.89590392
-27.38983997 -12.96439315 -2.36816730
0.19097613 26.86742498 -28.88113225
6.46743978 2.55327433 7.04002011
32.59359476 -6.59671636 -29.26225118
11.77647461 2.40479134 -3.32497416
-2.36735548 -4.99272845 -2.18463199
15.00175512 3.92610307 16.91323775
35.85161984 -24.93345046 7.08267156
-8.97074776 4.48862345 2.18059890
-33.18308092 43.65620563 3.90823922
2.35758942 22.75675846 13.90824632
2.36961000 6.33001604 2.61195312
10.82155155 -35.01179909 -14.90749281
21.09716597 16.23617667 -22.71647572
5.78975832 -6.34304529 2.65403555
4.60830343 17.92844567 -5.05954630
16.24745857 7.08311814 -21.51963414
1.76352381 0.38408991 -7.69939671
62.69014973 25.63258938 -19.67376898
-10.33107901 -9.04535087 -37.33653008
-11.18670626 24.33430262 -0.00131146
1.15679170 -4.52451791 7.80181113
8.13689938 -9.82459171 -16.14513656
-1.64191525 -17.41864930 -5.92059974
25.94434288 -7.09501157 5.48285721
4.76326901 -11.52645498 1.12712952
-19.70545740 14.67910181 4.24973070
-13.48736544 14.73591288 15.37974571
8.43599557 -0.72960701 -0.48040616
-16.31498599 -8.09293207 28.85433734
24.11098962 -27.04448011 16.38262497
-1.03077937 -0.96592389 1.49773334
11.43296909 -4.37808681 19.71819012
19.65958635 3.25772894 10.25608465
-6.55792130 5.07371659 -12.60372864
-26.27077920 -27.43586098 -14.83342942
14.15345365 -23.60996648 2.06669272
-7.73344154 -2.29432712 -14.16309754
-21.96267598 -20.90579453 -30.96660585
-8.51642974 -7.59166811 6.51475576
-2.54514432 -6.87044523 4.67234647
-45.41029920 13.99425094 -10.24834471
-2.04689767 -20.50397276 2.76997314
1.63797388 -3.19647186 -1.88988763
-23.70596270 -14.13427410 -4.12587044
-26.14038283 10.64005212 2.70366865
2.83062609 -3.47539424 -3.02271812
2.98365976 -39.02392697 -17.88368635
18.42178091 13.56128744 -1.39459565
1.78620647 -5.61252543 5.44846717
-8.60760499 -13.34540348 -20.97607967
-4.06845901 7.78239251 9.83340506
-30.99386566 3.78407549 -17.17888000
-7.75568207 -10.25302150 1.07444220
3.27708140 15.69598841 3.04503086
28.84625968 -22.93363468 35.16682143
-21.64565617 -0.27431031 -13.99958270
-8.58327716 -2.44559759 -4.84945259
-40.69220460 -34.16270131 19.47561003
-12.91751849 -14.85362010 49.43849833
-9.07943153 0.15373092 -3.68914168
-33.51835922 1.64783570 -43.70567096
9.30543697 12.36283355 14.99589054
-1.55305682 -2.56576687 -5.59181771
18.11732072 -10.44334505 -8.25091085
-22.53672024 -35.74240141 7.05924065
3.50681920 -6.67634890 -0.08794242
16.56823982 7.43954952 -18.82696878
-1.32701094 -12.38604420 3.57480366
-6.56431695 4.70716636 8.99100488
13.02477554 -16.28595270 4.80296398
11.39508186 -5.12393704 -3.33049042
5.59603888 1.27406304 2.09680071