Geometry = GenFormat {
352  S
C  H
1 1    0.3924485425E+02    0.2964634113E+02    0.3704662995E+02
2 2    0.3849934241E+02    0.2967513130E+02    0.3787000140E+02
3 2    0.3980834080E+02    0.3061719954E+02    0.3703913432E+02
4 1    0.4018047044E+02    0.4378731725E+02    0.3713672606E+02
5 2    0.4092375626E+02    0.4393026552E+02    0.3636164243E+02
6 2    0.2435181868E+02    0.4284950208E+02    0.3691516603E+02
7 1    0.4106930317E+02    0.4362529913E+02    0.3842786544E+02
8 2    0.2500908744E+02    0.4348061414E+02    0.3924217372E+02
9 2    0.4170999536E+02    0.4452658091E+02    0.3853151001E+02
10 1    0.2673130627E+02    0.4249543330E+02    0.3829063120E+02
11 2    0.2742735411E+02    0.4269926647E+02    0.3921979280E+02
12 2    0.2729060908E+02    0.4239258561E+02    0.3725185481E+02
13 1    0.4131300512E+02    0.4121992326E+02    0.3851929472E+02
14 2    0.4050626708E+02    0.4143885279E+02    0.3916183958E+02
15 2    0.4189141988E+02    0.4055489500E+02    0.3913341024E+02
16 1    0.2563073128E+02    0.4059892379E+02    0.3721904591E+02
17 2    0.2640742186E+02    0.4087100474E+02    0.3642201071E+02
18 2    0.2464089151E+02    0.4091412826E+02    0.3692854970E+02
19 1    0.4089518098E+02    0.3905560090E+02    0.3725895329E+02
20 2    0.4025782767E+02    0.3895821022E+02    0.3629629299E+02
21 2    0.4013014052E+02    0.3866681510E+02    0.3800946255E+02
22 1    0.4223798634E+02    0.3826135183E+02    0.3716037499E+02
23 2    0.2750275335E+02    0.3844814064E+02    0.3818053940E+02
24 2    0.2749191002E+02    0.3874776695E+02    0.3628667778E+02
25 1    0.3856856756E+02    0.2966941997E+02    0.3570536007E+02
26 2    0.3797592542E+02    0.3056616801E+02    0.3557627333E+02
27 2    0.3934730210E+02    0.2962886769E+02    0.3484334896E+02
28 2    0.3794670305E+02    0.2876388940E+02    0.3563367138E+02
29 1    0.4200549474E+02    0.3683175076E+02    0.3691980979E+02
30 2    0.4170974044E+02    0.3660223111E+02    0.3583497707E+02
31 2    0.4291827387E+02    0.3620692639E+02    0.3698860272E+02
32 2    0.4137268986E+02    0.3630389394E+02    0.3763234881E+02
33 1    0.2548320584E+02    0.3364052680E+02    0.3285340924E+02
34 2    0.2608947601E+02    0.3401959268E+02    0.3370502445E+02
35 2    0.2505259942E+02    0.3445896641E+02    0.3219145429E+02
36 1    0.2644047055E+02    0.3283494528E+02    0.3197918623E+02
37 2    0.2717585562E+02    0.3356252724E+02    0.3152886951E+02
38 2    0.2579498261E+02    0.3253308609E+02    0.3112043614E+02
39 1    0.2712567394E+02    0.3168497259E+02    0.3261573077E+02
40 2    0.2648764501E+02    0.3078748698E+02    0.3247444422E+02
41 2    0.2743730833E+02    0.3172931755E+02    0.3362963986E+02
42 1    0.2842878833E+02    0.3133493327E+02    0.3174052857E+02
43 2    0.4451987882E+02    0.3218384396E+02    0.3174862260E+02
44 2    0.2814534906E+02    0.3123764002E+02    0.3056738667E+02
45 1    0.2915108565E+02    0.3000473686E+02    0.3207440579E+02
46 2    0.2870915204E+02    0.2915724840E+02    0.3169334400E+02
47 2    0.4458296350E+02    0.2982651535E+02    0.3310320065E+02
48 1    0.4607900719E+02    0.2993370439E+02    0.3152213858E+02
49 2    0.4680170700E+02    0.2983422114E+02    0.3233384450E+02
50 2    0.4629698174E+02    0.3085372147E+02    0.3090158261E+02
51 1    0.3105909103E+02    0.2867566980E+02    0.3067373394E+02
52 2    0.3208031692E+02    0.2877936644E+02    0.3009628213E+02
53 2    0.3032499275E+02    0.2866785697E+02    0.2982908838E+02
54 1    0.4652854839E+02    0.2719515720E+02    0.4659553720E+02
55 2    0.4737272844E+02    0.2668783378E+02    0.4610311451E+02
56 2    0.4564809355E+02    0.2662581419E+02    0.4643369818E+02
57 1    0.2432203374E+02    0.3285089007E+02    0.3338325163E+02
58 2    0.2388979472E+02    0.3205567534E+02    0.3270621563E+02
59 2    0.2462032723E+02    0.3237133493E+02    0.3435372879E+02
60 2    0.2355544815E+02    0.3345765118E+02    0.3368018212E+02
61 1    0.3150232779E+02    0.2718569682E+02    0.4812364323E+02
62 2    0.3165625845E+02    0.2614327424E+02    0.4844738038E+02
63 2    0.3247246344E+02    0.2766683019E+02    0.4834501932E+02
64 2    0.3066849994E+02    0.2756019901E+02    0.4876613379E+02
65 1    0.3694106408E+02    0.3927002426E+02    0.3240687328E+02
66 2    0.3693131441E+02    0.3836907700E+02    0.3176744950E+02
67 2    0.3802246564E+02    0.3959576389E+02    0.3258527608E+02
68 1    0.3622784957E+02    0.4043459643E+02    0.3163588498E+02
69 2    0.3512507900E+02    0.4045449242E+02    0.3193890485E+02
70 2    0.3628629156E+02    0.4020612979E+02    0.3058673784E+02
71 1    0.3691225850E+02    0.4176036515E+02    0.3193522761E+02
72 2    0.3787088924E+02    0.4154000057E+02    0.3245182375E+02
73 2    0.3621182949E+02    0.4234129408E+02    0.3261516508E+02
74 1    0.3702455051E+02    0.2745162529E+02    0.3068905056E+02
75 2    0.3591240653E+02    0.2762139187E+02    0.3057677396E+02
76 2    0.3750617514E+02    0.2669439764E+02    0.2985343209E+02
77 1    0.3781744854E+02    0.2867806469E+02    0.3088718284E+02
78 2    0.3788799110E+02    0.4447715427E+02    0.2990730082E+02
79 2    0.3884640032E+02    0.4368477410E+02    0.3105174978E+02
80 1    0.3738923089E+02    0.2966625405E+02    0.3201408538E+02
81 2    0.3823431889E+02    0.3040602035E+02    0.3224700233E+02
82 2    0.3734281693E+02    0.2911396138E+02    0.3296725045E+02
83 1    0.3605380672E+02    0.3058657117E+02    0.3189987532E+02
84 2    0.3566298531E+02    0.3051803542E+02    0.3292455663E+02
85 2    0.3525418260E+02    0.3009731588E+02    0.3117175809E+02
86 1    0.3629585012E+02    0.3201893973E+02    0.3142903927E+02
87 2    0.3698683638E+02    0.3189904700E+02    0.3056867342E+02
88 2    0.3676498721E+02    0.3270518969E+02    0.3221236735E+02
89 1    0.3631214581E+02    0.3887671104E+02    0.3372745370E+02
90 2    0.3575313681E+02    0.3969341662E+02    0.3411098741E+02
91 2    0.3560278906E+02    0.3814371320E+02    0.3357148928E+02
92 2    0.3702748892E+02    0.3856774239E+02    0.3449504876E+02
93 1    0.3496907818E+02    0.3262274699E+02    0.3102500295E+02
94 2    0.3461337985E+02    0.3227334352E+02    0.3003997779E+02
95 2    0.3413798155E+02    0.3248987963E+02    0.3172938304E+02
96 2    0.3518549535E+02    0.3366665872E+02    0.3110787693E+02
97 1    0.2853550327E+02    0.3669948500E+02    0.4213694316E+02
98 2    0.2815214540E+02    0.3613709434E+02    0.4301860600E+02
99 2    0.2764770836E+02    0.3725675562E+02    0.4188968217E+02
100 1    0.2970447562E+02    0.3765205021E+02    0.4254503891E+02
101 2    0.2950814940E+02    0.3864775505E+02    0.4216392748E+02
102 2    0.3081788190E+02    0.3734708250E+02    0.4226458942E+02
103 1    0.2986211447E+02    0.3781047096E+02    0.4407527944E+02
104 2    0.2998418629E+02    0.3690351989E+02    0.4458141841E+02
105 2    0.2890282171E+02    0.3815505714E+02    0.4461589696E+02
106 1    0.3095143875E+02    0.3882986683E+02    0.2923590809E+02
107 2    0.3041750594E+02    0.3986339667E+02    0.2905806291E+02
108 2    0.3199999523E+02    0.3879101353E+02    0.2867536761E+02
109 1    0.3132855959E+02    0.3865475261E+02    0.3070946695E+02
110 2    0.3038270679E+02    0.3859435663E+02    0.3131171561E+02
111 2    0.3206073523E+02    0.3948943702E+02    0.3097884057E+02
112 1    0.3207579436E+02    0.3720309489E+02    0.3086998233E+02
113 2    0.3235224899E+02    0.3685522139E+02    0.2991778942E+02
114 2    0.3128025571E+02    0.3650957804E+02    0.3129813725E+02
115 1    0.3328610753E+02    0.3703166068E+02    0.3183211671E+02
116 2    0.3416397831E+02    0.3764611897E+02    0.3139326249E+02
117 2    0.3359728799E+02    0.3597986841E+02    0.3171683940E+02
118 1    0.3303447245E+02    0.3751771927E+02    0.3325521604E+02
119 2    0.3207239120E+02    0.3814032173E+02    0.3306346027E+02
120 2    0.3390796271E+02    0.3829504114E+02    0.3353321920E+02
121 1    0.2881007637E+02    0.3566784418E+02    0.4104114671E+02
122 2    0.2952338491E+02    0.3613362199E+02    0.4028873370E+02
123 2    0.2934827829E+02    0.3476439188E+02    0.4149594027E+02
124 2    0.2787973459E+02    0.3541776037E+02    0.4053368953E+02
125 1    0.3296091865E+02    0.3643919960E+02    0.3431734317E+02
126 2    0.3277504686E+02    0.3683241751E+02    0.3532449960E+02
127 2    0.3226424728E+02    0.3568711189E+02    0.3416361077E+02
128 2    0.3397522879E+02    0.3602017175E+02    0.3437847036E+02
129 1    0.3529654594E+02    0.3968508596E+02    0.2784516284E+02
130 2    0.3645695610E+02    0.3949768023E+02    0.2772896337E+02
131 2    0.3513196437E+02    0.3939088337E+02    0.2886558421E+02
132 1    0.3518714588E+02    0.4125793495E+02    0.2786301596E+02
133 2    0.3591445389E+02    0.4176211210E+02    0.2853831492E+02
134 2    0.3406320859E+02    0.4140202165E+02    0.2815959083E+02
135 1    0.3532828232E+02    0.4179193403E+02    0.2638644773E+02
136 2    0.3442156348E+02    0.4230737386E+02    0.2609016993E+02
137 2    0.3568677170E+02    0.4086828524E+02    0.2571179858E+02
138 1    0.3653266099E+02    0.4276128013E+02    0.2610532127E+02
139 2    0.3698333290E+02    0.4292413241E+02    0.2504356316E+02
140 2    0.3736809311E+02    0.4251431516E+02    0.2667495372E+02
141 1    0.3619681149E+02    0.4419402672E+02    0.2642896967E+02
142 2    0.3707951173E+02    0.4480160237E+02    0.2653576698E+02
143 2    0.3544676689E+02    0.4423681337E+02    0.2741296284E+02
144 1    0.3542815102E+02    0.4456186500E+02    0.2501235711E+02
145 2    0.3487429139E+02    0.4387521468E+02    0.2438151092E+02
146 2    0.3616398971E+02    0.4504162269E+02    0.2446763131E+02
147 1    0.3424468427E+02    0.4555598129E+02    0.2520826282E+02
148 2    0.3336656801E+02    0.4509941465E+02    0.2581846173E+02
149 2    0.3447802068E+02    0.4649795958E+02    0.2557037203E+02
150 1    0.3283311729E+02    0.3391135608E+02    0.3871067743E+02
151 2    0.3184579307E+02    0.3417707547E+02    0.3887918611E+02
152 2    0.3276861736E+02    0.3285132095E+02    0.3859356414E+02
153 1    0.3438996297E+02    0.3885154562E+02    0.2677314599E+02
154 2    0.3464306831E+02    0.2242916361E+02    0.2697840484E+02
155 2    0.3330589298E+02    0.3909803129E+02    0.2700926474E+02
156 2    0.3472318920E+02    0.3894098572E+02    0.2577738845E+02
157 1    0.2851012700E+02    0.3611252450E+02    0.3315950372E+02
158 2    0.2934122471E+02    0.3648838159E+02    0.3365220169E+02
159 2    0.2845923027E+02    0.3574253767E+02    0.3212107290E+02
160 2    0.2772351290E+02    0.3583193986E+02    0.3383795079E+02
161 1    0.4186139337E+02    0.2832972018E+02    0.2773665297E+02
162 2    0.4249745002E+02    0.2919401548E+02    0.2795942470E+02
163 2    0.4235426185E+02    0.2731134169E+02    0.2765162082E+02
164 1    0.4085997636E+02    0.2818108380E+02    0.2887561683E+02
165 2    0.4020113696E+02    0.2725556319E+02    0.2848050398E+02
166 2    0.4018893727E+02    0.2905637470E+02    0.2894830178E+02
167 1    0.4125427410E+02    0.2796209254E+02    0.3030468447E+02
168 2    0.4034563221E+02    0.2783215790E+02    0.3087840871E+02
169 2    0.4173417069E+02    0.2874889392E+02    0.3086559635E+02
170 1    0.4220242561E+02    0.2679854804E+02    0.3056731683E+02
171 2    0.4324415013E+02    0.2723619874E+02    0.3061011449E+02
172 2    0.4209101747E+02    0.2604791281E+02    0.2973990497E+02
173 1    0.4181652767E+02    0.4122850429E+02    0.3176890075E+02
174 2    0.4078014420E+02    0.4089967792E+02    0.3162155138E+02
175 2    0.4196640380E+02    0.2631315540E+02    0.3277858211E+02
176 1    0.4261213845E+02    0.3988501519E+02    0.3174723675E+02
177 2    0.4346908111E+02    0.4008445465E+02    0.3248965186E+02
178 2    0.4303825250E+02    0.3961772456E+02    0.3074711059E+02
179 1    0.4187723347E+02    0.3858192702E+02    0.3219491600E+02
180 2    0.4133069579E+02    0.3877141214E+02    0.3313736791E+02
181 2    0.4279844968E+02    0.3804898505E+02    0.3254259289E+02
182 1    0.4092408554E+02    0.3766827073E+02    0.3137371154E+02
183 2    0.4007494797E+02    0.3821826773E+02    0.3089668161E+02
184 2    0.4041844184E+02    0.3700409852E+02    0.3206483284E+02
185 1    0.4119667055E+02    0.2872556318E+02    0.2638753329E+02
186 2    0.4010044290E+02    0.2856338246E+02    0.2638215098E+02
187 2    0.4144953660E+02    0.2969899840E+02    0.2605971102E+02
188 2    0.4163245613E+02    0.2804796309E+02    0.4100243526E+02
189 1    0.4171020025E+02    0.3684251339E+02    0.3034085127E+02
190 2    0.4271973088E+02    0.3667626666E+02    0.3059681150E+02
191 2    0.4123983666E+02    0.3584279400E+02    0.3001934473E+02
192 2    0.4168832793E+02    0.3741375863E+02    0.2937784181E+02
193 1    0.3651432774E+02    0.2566787197E+02    0.3678359087E+02
194 2    0.3724208075E+02    0.2633693883E+02    0.3727846676E+02
195 2    0.3707227091E+02    0.4069135107E+02    0.3587515065E+02
196 1    0.3610438087E+02    0.2447156014E+02    0.3765546996E+02
197 2    0.3599097865E+02    0.2349433736E+02    0.3711395425E+02
198 2    0.3523063689E+02    0.4020442683E+02    0.3828736403E+02
199 1    0.3722566621E+02    0.2422062823E+02    0.3861402703E+02
200 2    0.3752062342E+02    0.2510517454E+02    0.3924411517E+02
201 2    0.3804308989E+02    0.2401082545E+02    0.3795090920E+02
202 1    0.3678615842E+02    0.2296552066E+02    0.3944558182E+02
203 2    0.3675807292E+02    0.2204808664E+02    0.3890081870E+02
204 2    0.3568971142E+02    0.2303097421E+02    0.3975019560E+02
205 1    0.3757512570E+02    0.2296189536E+02    0.4075550441E+02
206 2    0.3712644806E+02    0.2223940973E+02    0.4146434677E+02
207 2    0.3717520223E+02    0.2389404444E+02    0.4136784556E+02
208 1    0.3911961044E+02    0.2287150733E+02    0.4084759886E+02
209 2    0.3981676820E+02    0.2364744656E+02    0.4028087418E+02
210 2    0.3945684210E+02    0.2196692797E+02    0.4035735405E+02
211 1    0.3961886086E+02    0.3805584615E+02    0.4227708322E+02
212 2    0.4048907307E+02    0.3737281977E+02    0.4233468849E+02
213 2    0.3882968073E+02    0.3757714866E+02    0.4281019662E+02
214 1    0.3997143928E+02    0.3934346940E+02    0.4308130913E+02
215 2    0.4054039866E+02    0.4001285198E+02    0.4238721803E+02
216 2    0.4071307642E+02    0.3897648118E+02    0.4382851203E+02
217 1    0.3531341392E+02    0.2630831861E+02    0.3610694486E+02
218 2    0.3451480198E+02    0.2556561066E+02    0.2038068511E+02
219 2    0.3481723994E+02    0.2691478448E+02    0.2156159435E+02
220 2    0.3559694661E+02    0.2696480701E+02    0.3526652052E+02
221 1    0.3890104254E+02    0.4005432299E+02    0.4385035466E+02
222 2    0.3932080700E+02    0.4094752805E+02    0.4443491287E+02
223 2    0.3809924549E+02    0.4025530609E+02    0.4311136665E+02
224 2    0.3839817965E+02    0.3944872032E+02    0.4466395922E+02
225 1    0.2992913780E+02    0.4169105164E+02    0.4137698931E+02
226 2    0.2889108606E+02    0.4202598404E+02    0.4106659367E+02
227 2    0.2994950248E+02    0.4095601905E+02    0.4216194907E+02
228 1    0.3086490282E+02    0.2594098443E+02    0.4020790402E+02
229 2    0.3079390133E+02    0.2487230297E+02    0.4009653772E+02
230 2    0.3193565389E+02    0.2614025390E+02    0.4039890261E+02
231 1    0.3053491794E+02    0.4190672648E+02    0.3884520830E+02
232 2    0.2997719313E+02    0.4285529266E+02    0.3875586897E+02
233 2    0.2994248708E+02    0.4108911653E+02    0.3835388391E+02
234 1    0.3170279826E+02    0.4232215738E+02    0.3798698822E+02
235 2    0.3238044793E+02    0.4142640301E+02    0.3783488654E+02
236 2    0.3241264528E+02    0.4309454925E+02    0.3837190586E+02
237 1    0.3122217900E+02    0.4283643411E+02    0.3655614517E+02
238 2    0.3009819448E+02    0.4296889954E+02    0.3648592877E+02
239 2    0.3154059391E+02    0.2672454978E+02    0.3586288828E+02
240 1    0.3173308851E+02    0.4421753090E+02    0.3619963063E+02
241 2    0.3095012778E+02    0.2956220143E+02    0.3597488485E+02
242 2    0.3371435698E+02    0.3041418951E+02    0.3952507689E+02
243 1    0.3313179941E+02    0.4463074839E+02    0.3588196727E+02
244 2    0.3355838060E+02    0.4370607169E+02    0.3540557528E+02
245 2    0.3365747696E+02    0.4455747287E+02    0.3692438105E+02
246 1    0.3331690976E+02    0.4607321995E+02    0.3528589079E+02
247 2    0.3269541141E+02    0.4668846000E+02    0.3586588675E+02
248 2    0.3301625109E+02    0.4600142533E+02    0.3422177491E+02
249 1    0.3041967217E+02    0.2760984720E+02    0.4205563537E+02
250 2    0.3026337137E+02    0.2850107865E+02    0.4146436384E+02
251 2    0.2991767055E+02    0.2783512288E+02    0.4307849803E+02
252 2    0.3149540882E+02    0.2752920410E+02    0.4229783151E+02
253 1    0.3469927356E+02    0.4670598323E+02    0.3553375285E+02
254 2    0.3482915868E+02    0.4759366424E+02    0.3500982117E+02
255 2    0.3482142051E+02    0.4702030824E+02    0.3660900967E+02
256 2    0.3540240922E+02    0.4599922040E+02    0.5039344522E+02
257 1    0.4110732602E+02    0.3372450286E+02    0.4248395997E+02
258 2    0.4177991416E+02    0.3447938524E+02    0.4187842489E+02
259 2    0.4049427777E+02    0.3443170782E+02    0.4314711657E+02
260 1    0.4022023420E+02    0.3274083364E+02    0.4157098558E+02
261 2    0.3935910602E+02    0.3222146114E+02    0.4201366058E+02
262 2    0.4109200668E+02    0.3205749713E+02    0.4137099343E+02
263 1    0.3977254418E+02    0.3353148075E+02    0.4032760884E+02
264 2    0.4070206312E+02    0.3406024138E+02    0.3980686214E+02
265 2    0.3914766955E+02    0.3435811067E+02    0.4058346845E+02
266 1    0.3888220762E+02    0.3279123926E+02    0.3920081618E+02
267 2    0.3802918799E+02    0.3225776421E+02    0.3970106786E+02
268 2    0.3934822371E+02    0.3192982162E+02    0.3870308968E+02
269 1    0.3851677500E+02    0.3398744792E+02    0.3832826185E+02
270 2    0.3939290082E+02    0.3449475252E+02    0.3787924040E+02
271 2    0.3811595505E+02    0.3483646891E+02    0.3891656861E+02
272 1    0.3765430925E+02    0.3360147287E+02    0.3710203590E+02
273 2    0.3702119203E+02    0.3272515083E+02    0.3730873176E+02
274 2    0.3842485876E+02    0.3307999355E+02    0.3643822297E+02
275 1    0.3661418972E+02    0.3461724155E+02    0.3668454529E+02
276 2    0.3594492921E+02    0.3497650054E+02    0.3743988656E+02
277 2    0.3592027003E+02    0.3417763315E+02    0.3586285084E+02
278 1    0.3718628963E+02    0.3589499150E+02    0.3604462665E+02
279 2    0.3754589680E+02    0.3671040373E+02    0.3676143219E+02
280 2    0.3643809283E+02    0.3644955850E+02    0.3548451882E+02
281 1    0.4204468688E+02    0.3294831440E+02    0.4343506786E+02
282 2    0.4284654450E+02    0.3235575868E+02    0.4291855478E+02
283 2    0.4245968237E+02    0.3380618008E+02    0.4403566373E+02
284 2    0.4158088021E+02    0.3236756723E+02    0.4419750532E+02
285 1    0.3855722328E+02    0.3557450688E+02    0.3527910667E+02
286 2    0.3869027649E+02    0.3611979010E+02    0.3436888633E+02
287 2    0.3935975074E+02    0.3588994527E+02    0.3600089808E+02
288 2    0.3857628019E+02    0.3449606968E+02    0.3495206675E+02
289 1    0.2893325448E+02    0.3210303802E+02    0.3621476883E+02
290 2    0.2847409893E+02    0.3111575179E+02    0.3574504408E+02
291 2    0.2812519521E+02    0.3289783772E+02    0.3646090749E+02
292 1    0.2962737334E+02    0.3167311573E+02    0.3758196603E+02
293 2    0.3049594055E+02    0.3234430051E+02    0.3780254811E+02
294 2    0.3009752288E+02    0.3077206230E+02    0.3729133789E+02
295 1    0.2883785152E+02    0.3152518733E+02    0.3883522475E+02
296 2    0.2800340647E+02    0.3083932938E+02    0.3873686621E+02
297 2    0.2844983476E+02    0.3251672484E+02    0.2393357406E+02
298 1    0.2981613945E+02    0.3084125491E+02    0.2456158252E+02
299 2    0.3078440535E+02    0.3127205652E+02    0.3976354216E+02
300 2    0.2995570187E+02    0.2975973556E+02    0.2423178767E+02
301 1    0.2920200641E+02    0.3090075243E+02    0.2590683161E+02
302 2    0.2862759241E+02    0.2993512029E+02    0.2624404609E+02
303 2    0.2842478129E+02    0.3170321841E+02    0.4114777682E+02
304 1    0.3010972152E+02    0.3114698231E+02    0.2712699234E+02
305 2    0.3074304695E+02    0.3032592348E+02    0.2732202215E+02
306 2    0.2944680210E+02    0.3119934067E+02    0.2798763775E+02
307 1    0.3104242232E+02    0.3241581965E+02    0.2716902524E+02
308 2    0.3042345122E+02    0.3312058788E+02    0.2654003147E+02
309 2    0.3189563908E+02    0.3227612200E+02    0.2659520335E+02
310 1    0.3143364652E+02    0.3301229633E+02    0.2846977556E+02
311 2    0.3240588983E+02    0.3350991555E+02    0.2830440563E+02
312 2    0.3182990350E+02    0.3224090326E+02    0.2923908549E+02
313 1    0.2991900828E+02    0.3258464963E+02    0.3513249805E+02
314 2    0.2922522395E+02    0.3275724091E+02    0.3426271635E+02
315 2    0.3030906171E+02    0.3366896436E+02    0.3539158837E+02
316 2    0.3077728724E+02    0.3189394315E+02    0.3494793271E+02
317 1    0.3042368238E+02    0.3391701680E+02    0.2916119189E+02
318 2    0.2938621481E+02    0.3417444107E+02    0.2874384979E+02
319 2    0.3016720841E+02    0.3339809643E+02    0.3007769039E+02
320 2    0.3086449786E+02    0.3486962898E+02    0.2941450574E+02
321 1    0.3691811688E+02    0.3535072162E+02    0.2929352533E+02
322 2    0.3668181382E+02    0.3639238814E+02    0.2883612340E+02
323 2    0.3610106454E+02    0.3523261066E+02    0.3004079757E+02
324 1    0.3678631631E+02    0.3435680945E+02    0.4350754797E+02
325 2    0.3642116990E+02    0.3340655741E+02    0.4419193576E+02
326 2    0.3768255680E+02    0.3406215774E+02    0.4308264724E+02
327 1    0.3579159254E+02    0.3483506784E+02    0.4238358782E+02
328 2    0.3607346019E+02    0.3587344083E+02    0.4207400974E+02
329 2    0.3492724807E+02    0.3481122962E+02    0.4295674953E+02
330 1    0.3564282928E+02    0.3382189652E+02    0.4127761227E+02
331 2    0.3522124812E+02    0.3300717004E+02    0.4181712689E+02
332 2    0.3668642333E+02    0.3347812113E+02    0.4094153128E+02
333 1    0.3494915381E+02    0.3410410477E+02    0.3992778921E+02
334 2    0.3521957273E+02    0.3338711963E+02    0.3917354880E+02
335 2    0.3557007744E+02    0.3493644227E+02    0.3953186752E+02
336 1    0.3345849835E+02    0.3443849464E+02    0.4001405686E+02
337 2    0.3290344230E+02    0.3380565178E+02    0.4078962095E+02
338 2    0.3285536896E+02    0.3431796446E+02    0.3768927254E+02
339 1    0.3315745014E+02    0.3593472280E+02    0.4017152363E+02
340 2    0.3402518063E+02    0.3649177291E+02    0.4070754672E+02
341 2    0.3227950156E+02    0.3603270256E+02    0.4090730384E+02
342 1    0.3261373820E+02    0.3684647784E+02    0.3884302410E+02
343 2    0.3159312922E+02    0.3701236252E+02    0.3892970830E+02
344 2    0.3278743641E+02    0.3618555043E+02    0.3797580385E+02
345 1    0.3818287481E+02    0.3554407637E+02    0.3007213469E+02
346 2    0.3827343308E+02    0.3453141425E+02    0.3056618927E+02
347 2    0.3893330916E+02    0.3615790602E+02    0.2964928888E+02
348 2    0.3782912316E+02    0.3592476239E+02    0.3103975363E+02
349 1    0.3324885241E+02    0.3811758550E+02    0.3856918071E+02
350 2    0.3324555649E+02    0.3879222430E+02    0.3947440634E+02
351 2    0.3433016364E+02    0.3794445832E+02    0.3813712244E+02
352 2    0.3279664081E+02    0.3867490682E+02    0.3786478109E+02
0.0000000000E+00    0.0000000000E+00    0.0000000000E+00
0.1532620600E+02    0.0000000000E+00    0.0000000000E+00
0.0000000000E+00    0.1532620600E+02    0.0000000000E+00
0.0000000000E+00    0.0000000000E+00    0.1532620600E+02
}
Driver = VelocityVerlet {
  Steps = 50000
  TimeStep [fs] = 0.2
  MDRestartFrequency = 5
  Thermostat = None {}
  Xlbomd = {
    IntegrationSteps = 6
    MinSccIterations = 2
    MaxSccIterations = 200
    SccTolerance = 1e-6
    PreSteps = 0
  }
  Velocities [AA/Ps] = {
-0.28106097 4.07048760 -9.14656511
-15.61491605 -27.47689692 -22.86093404
-2.87976507 -22.04818583 -29.82978809
-4.59853726 -3.02183124 -3.15188993
6.07634398 0.00957402 -39.08676954
13.61862954 26.05868596 4.71439329
9.53443766 -0.31027667 -1.74230114
-14.54346992 -6.92868408 9.40355687
-14.47026698 -13.21515159 6.67741626
5.18722935 3.69214216 9.24820873
0.59957084 -24.27362643 -10.72006564
16.35506299 1.92724360 15.77228257
2.84608671 2.80063366 0.96154836
2.03825796 -3.24539783 -33.22430089
0.91634683 -3.48159374 -11.28565433
-2.88766847 -4.70241989 -2.06521466
-13.98545895 14.78348668 32.11416383
25.69402080 -0.87905622 -13.39833901
5.81668822 -5.80609726 3.01993688
-1.22187878 -6.99956768 -5.72047707
0.11590273 3.11208731 -11.71250397
3.86899430 -6.07734603 4.39885205
25.26593059 -12.22268708 22.46352207
9.25425025 -8.52405505 13.31013046
3.32848158 -13.70608320 4.35736130
-10.00156669 -1.39031551 -16.89412839
-11.15248349 -11.75231436 2.48382534
13.41599257 6.63086225 8.90892125
-5.01111861 -1.84283372 8.61469395
34.78952806 -3.30899127 -45.89551404
8.25146276 -11.11190919 6.38371853
18.07453302 -4.68771891 49.50605140
-2.12795764 -1.67192409 5.30073474
27.38257716 9.07423760 10.90382833
-1.72373403 -12.29742294 15.15858785
-1.04410736 7.86035516 -16.59247698
-10.75735285 -2.29899082 -33.97526754
-27.11021525 -19.81518465 -18.04733007
-2.13789381 0.07305926 -6.49602794
-10.91516822 -13.22852552 -41.76169476
9.42285832 -3.49024002 -14.79844903
-7.91560496 -2.10928470 0.48016035
-23.35733522 -30.45672518 40.45668984
8.60525719 -13.27267052 -12.03708000
3.78681539 -0.31892332 -10.19323004
33.15901607 -17.12480214 51.82528458
-25.35885901 6.04352026 7.63333464
-0.46517014 5.55888138 0.59997102
-12.54974804 2.44116543 -6.65617440
17.03434046 1.46708045 5.53710046
0.34379042 10.74759093 -7.85594438
14.21152545 -12.90801938 22.67149230
-17.51500899 -9.91777046 -37.21106436
3.00798112 0.09208221 -4.60640004
13.96226377 -7.55555269 2.40780669
1.39829763 -26.00477072 -22.62969203
-10.68705363 3.08122199 -1.91745800
5.41500596 -2.13989219 1.62102998
-9.26001089 4.97531711 8.73840714
-6.31125237 12.04057611 -6.69135017
-3.41386552 3.63296636 -2.82336158
1.24530751 -4.65950787 16.96699672
-17.80146956 7.14014287 -7.42826852
1.99929942 11.73449976 -5.33054084
5.81671383 -7.14426126 3.65009464
-32.81037770 9.28995449 -35.03594216
17.71327704 -22.57309459 -18.69255979
-9.31760357 2.38651035 8.49986937
-11.50478087 -2.96015529 16.02548284
19.40296812 9.68486718 4.83068888
-12.24011731 4.35464103 -6.44762715
-9.35911574 -36.83884827 24.65527244
21.65239230 26.46170520 -0.43902900
1.91373394 -12.65756157 -9.29733578
-7.55156117 7.76417619 24.06520820
3.14556618 4.04505115 -11.52158216
7.73501494 -3.09207788 -3.48744352
1.13048538 -8.73775664 21.89557180
-7.79113592 16.32686485 21.99296395
-2.76175704 6.35959087 -4.19049214
20.70970806 12.49793733 5.48249971
14.80488352 24.51779057 5.42446501
3.08577241 2.49408237 5.16567016
-2.00886347 2.04810634 11.83202098
-4.95853624 -13.99639387 -22.51604770
3.49489628 -1.68049987 8.70354959
18.28281759 -5.20212782 -30.91926075
5.60094535 5.25319820 32.68618638
-8.82668605 -6.48455777 -7.94254728
-18.19698899 4.19939839 16.23283871
13.02802589 -37.07631050 31.14653051
-41.37971078 10.00616211 1.22609948
0.54577494 -1.04219788 -4.99588716
-55.47389920 -15.58461032 -8.68560626
-21.41112112 13.64373421 9.56767310
-6.06191835 -27.17078823 -3.45653813
-8.26298379 -7.37923294 7.05238849
-5.50000221 3.18515076 2.37626347
-23.28406142 6.51049651 -9.01081038
2.29924230 -3.05051392 9.25139919
-8.51348539 12.69245084 -15.52670610
13.96191641 -8.64742449 -14.01969900
3.17434776 0.32834153 7.48149061
-1.72118656 18.09713912 12.30475055
23.20693463 -4.99741748 -1.79584816
-0.60457782 7.51434806 -5.80691192
18.09707498 28.51369923 -39.97395286
19.31060684 -1.42514908 -11.81881664
4.68037668 -2.58748454 -7.31663910
-10.88362268 40.43940939 -28.52518075
9.05355017 -12.69927429 10.98357590
-4.20443935 -6.29101595 -7.11461376
18.95375324 -9.16011312 19.89436523
2.99873706 13.38791923 21.04196008
7.71016648 0.04144887 -8.64925936
-8.74546209 2.16343639 -12.29434313
6.92346848 -34.26260360 -8.15160200
-5.72106170 6.62352184 -4.72841936
-11.65004813 -20.06333070 8.84561584
0.48486241 24.99295272 6.17915175
9.36034356 3.28803212 1.50688122
-1.43692128 12.84279335 29.61825787
-10.93521249 16.12562577 41.07842314
7.47044814 7.32161254 -3.97565608
-0.93886406 8.27375938 2.35680161
-24.46138236 -14.43065042 11.51564993
-9.88650956 -18.02309771 13.07938190
-15.96776844 -15.75059542 37.37322027
-18.50691827 3.69470678 -12.43465338
2.51554287 40.49887849 16.96032165
-8.68560875 -24.21628366 -41.01791978
3.09667699 0.57985444 -5.07981498
23.20017301 2.54536966 -8.79828248
10.88051955 -11.94712559 -27.15838449
-8.53654028 -0.40308637 -1.37701599
1.88006662 29.81520360 8.69954308
-28.99129817 14.78539311 20.61034901
-4.39798130 6.88713247 5.46513634
15.53225798 8.55149295 31.67143472
44.23620322 -15.67607133 0.67204060
-2.60399437 -3.55870301 -5.89510309
14.11450209 -1.56609165 -3.65742091
-11.93750046 40.61630430 -3.07920333
-4.58057432 -1.46976067 1.80463478
-13.20470441 0.59371278 2.61427997
41.05671156 16.89543912 10.79111939
8.56786119 7.14262940 -2.58111111
-36.47577259 -43.02937258 31.63083676
-16.28042760 55.04895403 -31.19521802
6.21702309 15.40659482 12.94900977
-35.81543103 35.64079185 8.01619555
15.88146949 -7.52996933 7.48864394
6.49568484 3.95936814 -19.88523617
-25.30117589 27.76659579 -6.57093390
21.09027180 66.43796528 26.96714627
9.98671851 20.29077865 14.57702879
6.40838705 9.56754397 12.24208491
-65.14347245 12.45485806 -52.09724946
1.32613648 11.46892059 -65.72951684
12.91034391 5.53203853 -43.23510385
4.65606421 2.80624550 -1.60226766
-18.77301673 -19.30957093 33.41396802
25.38494581 10.91136564 8.20756466
1.90659223 -4.00974364 -5.10320243
24.61054835 20.09478199 35.51041814
-37.67647216 -6.34645174 12.06518099
-8.60127384 0.76810657 7.88496195
-12.39051721 -21.66671849 -1.33717916
24.77018045 21.83012795 -22.26321565
0.19695084 -9.31411593 -1.63576012
0.16354451 -9.04378582 9.64269428
17.42430655 21.96607304 6.52487005
-4.03659756 -7.32225412 -9.65833044
14.72946075 6.64664612 26.62137184
19.21688461 23.08086534 56.24858531
-5.94481315 -1.68806461 0.74811464
6.14611485 10.85831130 -19.21580477