Geometry = GenFormat {
<<< "system.gen"
}

Driver = VelocityVerlet{
  Steps = 50000
  TimeStep [fs] = 0.2
  MDRestartFrequency = 5
  Thermostat = None {
    #InitialTemperature [Kelvin] = 300.0
  }
  Xlbomd{
    IntegrationSteps = 6
    MinSccIterations = 2
    MaxSccIterations = 200
    SccTolerance = 1e-6
  }
  Velocities [AA/Ps] {
-0.28106097 4.07048760 -9.14656511
-15.61491605 -27.47689692 -22.86093404
-2.87976507 -22.04818583 -29.82978809
-4.59853726 -3.02183124 -3.15188993
6.07634398 0.00957402 -39.08676954
13.61862954 26.05868596 4.71439329
9.53443766 -0.31027667 -1.74230114
-14.54346992 -6.92868408 9.40355687
-14.47026698 -13.21515159 6.67741626
5.18722935 3.69214216 9.24820873
0.59957084 -24.27362643 -10.72006564
16.35506299 1.92724360 15.77228257
2.84608671 2.80063366 0.96154836
2.03825796 -3.24539783 -33.22430089
0.91634683 -3.48159374 -11.28565433
-2.88766847 -4.70241989 -2.06521466
-13.98545895 14.78348668 32.11416383
25.69402080 -0.87905622 -13.39833901
5.81668822 -5.80609726 3.01993688
-1.22187878 -6.99956768 -5.72047707
0.11590273 3.11208731 -11.71250397
3.86899430 -6.07734603 4.39885205
25.26593059 -12.22268708 22.46352207
9.25425025 -8.52405505 13.31013046
3.32848158 -13.70608320 4.35736130
-10.00156669 -1.39031551 -16.89412839
-11.15248349 -11.75231436 2.48382534
13.41599257 6.63086225 8.90892125
-5.01111861 -1.84283372 8.61469395
34.78952806 -3.30899127 -45.89551404
8.25146276 -11.11190919 6.38371853
18.07453302 -4.68771891 49.50605140
-2.12795764 -1.67192409 5.30073474
27.38257716 9.07423760 10.90382833
-1.72373403 -12.29742294 15.15858785
-1.04410736 7.86035516 -16.59247698
-10.75735285 -2.29899082 -33.97526754
-27.11021525 -19.81518465 -18.04733007
-2.13789381 0.07305926 -6.49602794
-10.91516822 -13.22852552 -41.76169476
9.42285832 -3.49024002 -14.79844903
-7.91560496 -2.10928470 0.48016035
-23.35733522 -30.45672518 40.45668984
8.60525719 -13.27267052 -12.03708000
3.78681539 -0.31892332 -10.19323004
33.15901607 -17.12480214 51.82528458
-25.35885901 6.04352026 7.63333464
-0.46517014 5.55888138 0.59997102
-12.54974804 2.44116543 -6.65617440
17.03434046 1.46708045 5.53710046
0.34379042 10.74759093 -7.85594438
14.21152545 -12.90801938 22.67149230
-17.51500899 -9.91777046 -37.21106436
3.00798112 0.09208221 -4.60640004
13.96226377 -7.55555269 2.40780669
1.39829763 -26.00477072 -22.62969203
-10.68705363 3.08122199 -1.91745800
5.41500596 -2.13989219 1.62102998
-9.26001089 4.97531711 8.73840714
-6.31125237 12.04057611 -6.69135017
-3.41386552 3.63296636 -2.82336158
1.24530751 -4.65950787 16.96699672
-17.80146956 7.14014287 -7.42826852
1.99929942 11.73449976 -5.33054084
5.81671383 -7.14426126 3.65009464
-32.81037770 9.28995449 -35.03594216
17.71327704 -22.57309459 -18.69255979
-9.31760357 2.38651035 8.49986937
-11.50478087 -2.96015529 16.02548284
19.40296812 9.68486718 4.83068888
-12.24011731 4.35464103 -6.44762715
-9.35911574 -36.83884827 24.65527244
21.65239230 26.46170520 -0.43902900
1.91373394 -12.65756157 -9.29733578
-7.55156117 7.76417619 24.06520820
3.14556618 4.04505115 -11.52158216
7.73501494 -3.09207788 -3.48744352
1.13048538 -8.73775664 21.89557180
-7.79113592 16.32686485 21.99296395
-2.76175704 6.35959087 -4.19049214
20.70970806 12.49793733 5.48249971
14.80488352 24.51779057 5.42446501
3.08577241 2.49408237 5.16567016
-2.00886347 2.04810634 11.83202098
-4.95853624 -13.99639387 -22.51604770
3.49489628 -1.68049987 8.70354959
18.28281759 -5.20212782 -30.91926075
5.60094535 5.25319820 32.68618638
-8.82668605 -6.48455777 -7.94254728
-18.19698899 4.19939839 16.23283871
13.02802589 -37.07631050 31.14653051
-41.37971078 10.00616211 1.22609948
0.54577494 -1.04219788 -4.99588716
-55.47389920 -15.58461032 -8.68560626
-21.41112112 13.64373421 9.56767310
-6.06191835 -27.17078823 -3.45653813
-8.26298379 -7.37923294 7.05238849
-5.50000221 3.18515076 2.37626347
-23.28406142 6.51049651 -9.01081038
2.29924230 -3.05051392 9.25139919
-8.51348539 12.69245084 -15.52670610
13.96191641 -8.64742449 -14.01969900
3.17434776 0.32834153 7.48149061
-1.72118656 18.09713912 12.30475055
23.20693463 -4.99741748 -1.79584816
-0.60457782 7.51434806 -5.80691192
18.09707498 28.51369923 -39.97395286
19.31060684 -1.42514908 -11.81881664
4.68037668 -2.58748454 -7.31663910
-10.88362268 40.43940939 -28.52518075
9.05355017 -12.69927429 10.98357590
-4.20443935 -6.29101595 -7.11461376
18.95375324 -9.16011312 19.89436523
2.99873706 13.38791923 21.04196008
7.71016648 0.04144887 -8.64925936
-8.74546209 2.16343639 -12.29434313
6.92346848 -34.26260360 -8.15160200
-5.72106170 6.62352184 -4.72841936
-11.65004813 -20.06333070 8.84561584
0.48486241 24.99295272 6.17915175
9.36034356 3.28803212 1.50688122
-1.43692128 12.84279335 29.61825787
-10.93521249 16.12562577 41.07842314
7.47044814 7.32161254 -3.97565608
-0.93886406 8.27375938 2.35680161
-24.46138236 -14.43065042 11.51564993
-9.88650956 -18.02309771 13.07938190
-15.96776844 -15.75059542 37.37322027
-18.50691827 3.69470678 -12.43465338
2.51554287 40.49887849 16.96032165
-8.68560875 -24.21628366 -41.01791978
3.09667699 0.57985444 -5.07981498
23.20017301 2.54536966 -8.79828248
10.88051955 -11.94712559 -27.15838449
-8.53654028 -0.40308637 -1.37701599
1.88006662 29.81520360 8.69954308
-28.99129817 14.78539311 20.61034901
-4.39798130 6.88713247 5.46513634
15.53225798 8.55149295 31.67143472
44.23620322 -15.67607133 0.67204060
-2.60399437 -3.55870301 -5.89510309
14.11450209 -1.56609165 -3.65742091
-11.93750046 40.61630430 -3.07920333
-4.58057432 -1.46976067 1.80463478
-13.20470441 0.59371278 2.61427997
41.05671156 16.89543912 10.79111939
8.56786119 7.14262940 -2.58111111
-36.47577259 -43.02937258 31.63083676
-16.28042760 55.04895403 -31.19521802
6.21702309 15.40659482 12.94900977
-35.81543103 35.64079185 8.01619555
15.88146949 -7.52996933 7.48864394
6.49568484 3.95936814 -19.88523617
-25.30117589 27.76659579 -6.57093390
21.09027180 66.43796528 26.96714627
9.98671851 20.29077865 14.57702879
6.40838705 9.56754397 12.24208491
-65.14347245 12.45485806 -52.09724946
1.32613648 11.46892059 -65.72951684
12.91034391 5.53203853 -43.23510385
4.65606421 2.80624550 -1.60226766
-18.77301673 -19.30957093 33.41396802
25.38494581 10.91136564 8.20756466
1.90659223 -4.00974364 -5.10320243
24.61054835 20.09478199 35.51041814
-37.67647216 -6.34645174 12.06518099
-8.60127384 0.76810657 7.88496195
-12.39051721 -21.66671849 -1.33717916
24.77018045 21.83012795 -22.26321565
0.19695084 -9.31411593 -1.63576012
0.16354451 -9.04378582 9.64269428
17.42430655 21.96607304 6.52487005
-4.03659756 -7.32225412 -9.65833044
14.72946075 6.64664612 26.62137184
19.21688461 23.08086534 56.24858531
-5.94481315 -1.68806461 0.74811464
6.14611485 10.85831130 -19.21580477
19.56841217 16.82878546 29.45534730
-1.19511658 -0.13331329 -0.42394633
15.41522765 -8.58412804 16.16992770
-35.84696264 -5.68321664 -4.09411229
0.32128240 -2.22135535 2.95789249
-0.47572711 39.82047188 22.30495483
-14.23533504 -32.28163544 -16.50463627
5.03613527 6.51935850 7.96224890
2.36566635 -17.66683686 30.50569683
-13.77195327 17.12834990 18.11625476
-30.14311579 11.43609992 -0.39699079
0.15134778 -1.84698030 2.82315502
34.94319428 -23.11373672 16.22969635
0.56292673 -0.54798613 -24.05156250
14.37861149 -51.55473095 34.93846150
5.38951969 12.12494192 6.33868248
-29.66418264 40.81128254 -14.06721818
13.97886855 8.32930195 11.22336526
-1.02305201 -6.23080268 7.80177988
-11.10086888 -10.37248488 20.46591331
7.20405497 -1.52420927 3.52289729
5.07543849 7.48985355 2.75850551
9.71720022 51.59143515 -8.72787154
-2.10037014 22.38590623 -16.84162343
-5.83272185 7.17965695 -6.26890172
37.99404415 -15.08825100 21.68088256
-4.51489579 -38.38521266 4.68409043
-2.40156211 -3.35954072 9.50895519
-36.23245381 7.08258839 -8.93719258
6.12441510 25.34324079 18.15950821
3.68223775 -9.79745527 -0.39480412
-12.03514752 -33.41631887 -31.23078973
-23.45881095 -10.91016720 31.57895020
-4.06252834 -1.69518712 19.26292082
-16.30888479 -24.99399191 14.62762432
-5.80936538 -26.99444572 4.23534907
3.80772800 -9.01620371 5.08073153
24.90957623 -18.71789817 -33.64763897
4.10252842 19.07892253 -11.59960033
-8.30408280 -0.31168591 8.87501512
7.60692652 10.05573652 -1.82161339
3.81806076 10.73267778 0.12843711
-8.20921599 -14.36776689 -23.37058062
-7.59835015 -3.18564814 0.59662072
-0.14914696 7.04627283 17.81365109
-14.13147066 -14.37967914 -12.01759725
43.30354223 47.91796943 -0.09090914
6.57851835 3.75484218 4.95957425
27.89311101 37.88531156 -38.70855785
19.00519283 -22.62869166 8.06464000
0.53290675 5.16964867 5.10492415
2.66471705 -18.93786745 1.96864242
7.08453589 27.99133331 13.73727813
5.77529515 -8.24463509 -6.85182963
-12.52867501 17.85663815 0.49071395
3.46243113 -19.75308076 15.65704931
-0.43102277 13.40783399 1.54253383
18.02427636 27.14066596 -10.12244038
1.44363301 42.45454569 11.31805145
-4.73457274 6.98234025 2.82588511
7.54558112 -28.13267457 -21.17337691
26.29332151 32.09196342 -35.06575676
3.20542512 2.54699851 -6.02778459
-10.46979949 17.41470974 -20.40671337
5.27664718 9.48686678 8.06488434
-2.32766675 0.44615994 5.05679076
-7.68829575 -11.82600548 33.59339503
2.75667992 16.88123873 -22.60121992
0.85603700 -4.58522046 5.18358169
-23.22413718 -18.96653016 -20.22804453
3.55503189 0.10299760 20.68448207
11.56689966 4.95623521 4.20444579
-1.75318348 12.73342018 -31.46825157
13.24152685 27.79471347 -0.63285013
44.05417434 -2.91543542 29.16583296
5.26417626 -1.81778035 -1.77956287
-7.28015774 23.92010709 -32.08433448
-47.27192811 -4.78567076 -12.54960964
-15.18067407 -12.67350712 11.04092714
2.15821362 8.50179662 3.63304446
-7.91179523 4.37747286 24.27153228
-18.37082000 -12.13639390 -14.58259203
0.74408661 5.08195139 -1.64463569
39.74852463 -9.83657472 -20.04244047
13.44915558 7.74726450 -7.73286622
-9.95471636 3.47210843 2.85372171
-17.53691662 12.89934032 -6.90603259
15.13451300 -16.95383209 -36.27082503
-5.28280907 -6.15492238 4.02858915
-4.46861374 -52.35275655 -27.60067560
29.25517058 18.41788869 2.21572347
0.39418006 -3.08360199 4.38364343
12.65775482 -3.49954148 3.13494586
-17.68639553 7.36213718 4.72729846
3.44305274 3.50301874 -3.99787635
-38.57994585 -7.79339032 -7.09164280
-20.52812172 -23.15125041 10.87550893
4.39459255 1.26208317 -5.24417500
-31.52408571 23.26331339 -3.39390705
-5.51278792 -28.58961508 7.09436698
10.32214307 -13.07747348 -6.38388342
-14.22360867 16.96944399 -10.12983603
28.48423169 -4.74818640 15.57117884
-4.00769235 -11.58933199 -2.73071089
-19.26584421 -23.87709842 14.40607813
-4.12283453 4.43165775 9.82167474
-13.03229297 15.75947565 5.22776639
-6.52584593 -13.97463762 10.31823144
21.75148400 -8.96066474 0.79191888
-25.00223889 22.44253696 -8.52757479
10.46153885 -15.33395166 -20.05759366
5.75726034 -0.15028939 -11.26368831
-18.63677078 30.17455279 31.73819732
22.20108902 26.65922206 15.13531673
-2.92425342 1.51822023 -3.12759889
-8.67890653 -11.42684590 -27.70088892
22.69138613 0.41098503 -13.94017311
8.35835000 5.98865209 -5.62000104
-6.27268225 -7.49237936 36.93488576
16.14456380 2.42435611 47.93627528
4.71767889 6.42940319 13.75147603
28.76540161 42.51833441 -9.63994505
-1.93276090 -16.99468434 1.18568859
-0.88054360 5.21747973 0.84858961
-10.83953504 -15.06211754 44.48032194
15.49284567 -36.89365245 18.66461619
6.59068046 0.57628937 -4.52250301
1.99579626 -12.96487876 1.40065858
-4.64891937 -15.02033013 3.41983326
-2.48097373 -9.26473362 4.71893727
-7.24220283 29.06122631 -3.69660582
-6.80248070 -9.93279951 18.12032931
-10.96456451 2.14486642 5.76120256
-13.86609053 -2.28537655 11.54736931
11.14624431 0.94267356 7.21609857
2.08048148 -5.50636909 -6.58073840
9.52233283 -1.06348514 9.59786894
-12.03240649 22.66052093 -15.45997184
-12.16748837 3.39028036 2.18497101
6.97399018 1.84521100 -2.92028257
22.54210475 -2.56046664 6.26978389
38.05097904 11.27059512 -24.50907947
-14.56529004 35.73586718 -22.53053875
-4.67032712 8.60364983 5.79686804
-7.94785325 2.00352136 -35.12978964
-22.69912518 -23.67326182 10.35944798
-15.34850681 -14.96938032 -1.09678937
20.04262705 -20.25710195 -0.02634886
37.50470219 -2.81318058 -46.57308543
-1.68998884 -7.60121421 -6.66214935
-26.33188825 -18.48217470 -6.19356629
2.41010541 21.70214260 -54.77300964
-6.32433847 1.08277849 4.41996184
2.17362473 -17.04624378 -22.62317184
-16.16765303 29.77427830 -30.95904467
0.60580172 -9.29851276 -9.63583852
6.29255307 32.36298339 -5.22796253
0.20956377 -15.79740091 37.68243032
1.70462250 -3.93303843 3.01108188
19.39580382 52.30057384 7.41083827
-38.92914334 -6.93762423 -10.47824270
14.87169439 -2.30966631 1.70733052
0.45423433 -14.32425070 7.76038005
-14.99387107 -7.11868432 13.49538517
3.69798334 -2.53433902 -6.80120535
-4.28575095 -21.51195013 23.90507489
-54.33197162 -1.91781132 -65.23634510
9.30141766 -7.76747846 -4.33803089
47.07212311 41.11640471 -0.68350439
-28.39409992 3.79079587 -30.93303123
-41.54352873 46.62162103 19.78945302
-1.20920422 -5.25320832 9.34031914
11.15063459 -14.21405892 -15.25091606
19.27763798 0.20188840 18.53734684
-52.49064555 -12.23477523 -59.30764783
  }
}

Hamiltonian = DFTB {
  SCC = Yes
  SCCTolerance = 1e-6
  MaxSCCIterations = 200
  readinitialcharges = yes
  ForceEvaluation = Dynamics
  MaxAngularMomentum = {
    C = "p"
    H = "s"
  }
  Charge = 0.0
  SpinPolarisation = {}
  Eigensolver = Standard {}
  Filling = Fermi {
    Temperature [Kelvin] = 300.0
  }
  SlaterKosterFiles = Type2FileNames {
    Prefix = "/usr/workspace/troup1/second_set/real_data/decane_run_first_50/pbc-0-3/"
    Separator = "-"
    Suffix = ".skf"
    LowerCaseTypeName = No
  }
  KPointsAndWeights = {
    0.0000000000000 0.0000000000000 0.0000000000000 1.00000000000000
  }
  Dispersion = LennardJones {
    Parameters = UFFParameters {}
  }
}

ParserOptions = {
  ParserVersion = 3
}
