Geometry = GenFormat {
<<< "system.gen"
}

Driver = VelocityVerlet{
  Steps = 50000
  TimeStep [fs] = 0.2
  MDRestartFrequency = 5
  Thermostat = None {
    #InitialTemperature [Kelvin] = 300.0
  }
  Xlbomd{ 
    IntegrationSteps = 6 
    MinSccIterations = 2
    MaxSccIterations = 200
    SccTolerance = 1e-6 
  }
  Velocities [m/s] {
     -1.08551260E+03     -6.42461534E+02     -9.60505993E+01
      2.29877532E+02      1.78808193E+03      1.01603917E+03
      2.30881898E+03      1.88081313E+03     -1.99119099E+03
      2.13848462E+02     -4.18477971E+02      7.59398802E+02
     -2.28022768E+02      1.25298581E+03     -1.64281141E+02
     -1.86331163E+03     -1.94729948E+03     -7.82219772E+01
      6.75184868E+02     -5.56175289E+02     -3.03440117E+02
     -7.03365124E+02     -2.73867393E+02      1.50276236E+03
      2.47175016E+03      1.14751934E+03     -1.35041651E+03
     -6.40365677E+02      3.75702165E+02     -6.38845588E+02
      1.81600321E+03     -1.85463651E+03     -1.24840427E+03
     -2.47589770E+03     -3.67003646E+02     -1.57155811E+03
      1.16711192E+02      6.48500116E+02     -2.93265469E+02
     -8.56949695E+02     -9.24367413E+02      8.99325838E+02
     -1.65410332E+02      1.95776137E+03      4.12430879E+02
     -2.63500744E+00     -2.62577237E+02      3.06094561E+02
     -5.55590368E+02     -2.81263635E+03     -6.26692580E+02
      5.16934702E+02     -1.64862231E+03     -1.32839224E+03
      3.97755488E+02      3.72297022E+02      7.29708687E+02
     -2.19142355E+03     -3.77148833E+02      2.14728018E+02
      4.49797885E+02     -5.55664637E+02     -1.55980735E+01
     -8.44713548E+01      2.89426841E+02     -4.73719265E+01
      2.49777973E+01     -8.11405533E+02     -2.45358852E+03
     -3.38284736E+02     -1.36632121E+03      1.18516977E+02
      8.66130617E+01     -3.75479739E+02      5.14151288E+01
     -3.82975986E+02      1.90775749E+03      5.93015649E+02
      1.91021087E+03      2.62212330E+03     -2.10760870E+03
     -2.50611710E+02     -1.32653751E+02     -2.65745325E+03
      1.20060524E+02     -5.08769381E+02     -1.63507072E+02
     -1.36452127E+03     -1.52904779E+03     -1.34937823E+03
     -1.86217324E+03      2.46361123E+03     -1.41997571E+03
     -6.72921530E+02     -3.10955826E+02      1.66542485E+03
     -4.56092711E+02     -2.59379003E+02      1.66674209E+01
      8.16904529E+02     -6.60405043E+02      1.72173298E+03
      1.15699875E+03      1.22840643E+03      2.74081452E+03
      8.61431714E+01     -5.39588668E+02      1.04843747E+03
     -4.31074813E+01     -2.80040307E+03     -1.01426939E+03
     -1.14981486E+03      7.08853863E+02     -2.99025498E+02
      2.44307741E+02      6.94803403E+00     -4.65120499E+02
      1.56983923E+03     -3.26346718E+01      7.44390271E+02
     -3.85116238E+02      1.56376229E+03     -1.03956990E+03
      9.03000508E+02     -8.01067090E+02      6.50113043E+02
      2.20842601E+03     -8.02636441E+02     -1.26737942E+03
      3.03511848E+03     -2.66808016E+03      3.13870419E+01
      3.51743763E+02     -3.52256628E+01      6.61270515E+01
     -8.47571650E+02     -1.53508311E+03      9.46012965E+02
     -1.66232351E+03     -2.18654763E+03      5.47634221E+02
     -6.53868029E+02      2.11379388E+01     -4.03095363E+02
      7.07040765E+02      1.30127785E+03     -3.15322600E+03
      9.96872528E+02      7.34212279E+02      1.61019642E+03
     -1.25005508E+02     -7.00108145E+02      5.48588135E+02
      1.45249912E+03      3.27625881E+02      8.75150882E+01
     -2.09025330E+03     -6.16703957E+01     -2.07532916E+03
      3.12805947E+02      3.90754552E+02     -1.63483022E+02
     -7.07844969E+02      1.30303345E+02     -7.36977422E+02
      3.36413513E+03      1.92307163E+03      4.47669990E+02
      3.51210622E+02     -5.74512448E+02      2.67993719E+02
      1.93900697E+03     -4.41102379E+02     -1.35981774E+02
     -1.42728445E+03      2.77065572E+03      3.18004479E+03
      1.26932955E+02      1.78009052E+03      1.42281571E+03
     -5.64879904E+01     -4.44502511E+02      4.22485204E+02
     -4.81291585E+02     -1.02438871E+03      2.51598933E+03
     -6.41097389E+03      2.67356112E+03     -2.16915728E+03
     -2.51283243E+03     -2.52686325E+03     -1.53210802E+03
      2.07507461E+02     -8.84261232E+02      6.23938843E+02
      1.27888399E+03     -1.18712818E+02     -1.02163134E+03
     -4.88286522E+02     -5.87444505E+02     -1.19000334E+03
     -8.91513038E+02      5.06529051E+02     -5.64825489E+02
     -1.46526193E+03      9.84131646E+02     -9.25945611E+02
     -4.27657050E+03     -2.97336060E+03     -3.21534958E+02
      3.91382581E+03      2.13860458E+04     -2.46260318E+03
     -8.10920891E+02      2.05816172E+03      6.51034443E+02
      2.69275969E+02     -1.14569812E+03     -2.21187828E+03
      4.21234354E+02     -3.03749669E+02      5.90520248E+02
     -1.37186288E+03     -4.65671992E+02      1.01496214E+03
      2.51973939E+03      1.11456305E+03     -1.70922324E+02
      2.73211164E+02      1.66505215E+02     -8.33922956E+02
     -9.62939860E+02      5.20977404E+02     -3.93313594E+03
     -1.03011469E+03     -3.96610458E+02      2.51266703E+03
     -1.91181511E+02      8.81553575E+02     -1.26863759E+02
      5.12084832E+01      3.53456500E+03     -1.55166217E+03
      2.28683206E+03     -2.23571228E+03     -2.55571095E+03
     -4.53082503E+02      1.12756259E+02     -3.28331697E+02
      1.08305169E+03      8.27817763E+02     -1.15758539E+03
     -2.08261364E+03     -1.78814379E+03     -9.41484313E+02
     -5.15153588E+02      2.63884565E+02      3.92354194E+02
      4.08588944E+02     -1.29628444E+03     -1.59091023E+03
     -1.65943154E+03     -3.26563056E+03      1.12435430E+03
      2.36530082E+02      4.04615362E+02      4.39748623E+01
      3.26416055E+02      1.17536344E+03     -2.95117801E+02
      2.18452041E+03     -4.47184337E+02     -1.66255591E+03
     -5.27398488E+02      3.76471290E+01     -1.03343144E+02
      9.25504436E+02      2.12260941E+02      5.60082045E+01
     -1.46564421E+03     -2.18243041E+03     -8.65375735E+02
      1.95156736E+02      6.71759099E+01     -1.87869013E+03
      3.76325677E+03      2.41003353E+03     -6.02563385E+02
     -2.90545308E+02      3.62085342E+01      5.82865126E+02
      7.52364733E+02     -2.98006619E+03      1.62958566E+03
      1.06987726E+03      4.50366332E+02      1.40795326E+03
      4.30637345E+02      4.83004707E+01      2.15209931E+01
     -1.57933947E+03      2.43237222E+03     -1.01402506E+02
      1.52344631E+03     -1.95368851E+03     -1.30441910E+03
     -4.31087978E+02      4.64003656E+02      3.22029715E+02
     -2.29126140E+03     -7.23671950E+02      1.18119392E+03
     -1.02390224E+03      2.21781663E+02      7.89438406E+02
     -6.22314454E+02      5.37073863E+02     -4.69883263E+02
      9.26172633E+02     -1.86499282E+03      1.96932225E+03
      5.49855786E+02     -8.16561740E+02      1.29666912E+03
     -3.37939232E+02      1.48443439E+02      5.00602454E+02
      1.17950860E+03     -7.70394933E+02      8.76688704E+02
     -2.47065083E+02      2.78092269E+02      4.39816864E+02
     -2.32298561E+02      7.84238464E+01     -6.43572884E+02
     -8.61886947E+02     -3.15476015E+03     -3.74591105E+02
      2.45938812E+03      1.01313590E+03     -1.14573767E+03
      2.62880316E+02     -4.06583094E+02     -7.21762275E+02
      1.12792871E+03     -1.17272862E+03     -1.31322351E+03
      6.67265566E+02      3.18442617E+02     -5.22068128E+02
      1.30210106E+03     -2.82121099E+02     -2.48609936E+02
     -1.22110811E+03      2.16463104E+02     -1.31714291E+03
      4.16265313E+02     -6.40204144E+02      1.30589351E+03
      1.27743513E+03     -4.75015724E+02      3.41233795E+02
     -1.65921200E+03      5.34872432E+02     -2.41490357E+03
      1.99454826E+03     -5.90800155E+02      5.69414555E+02
      8.71643877E+02     -1.14785579E+03      1.68159504E+03
      1.24447923E+03     -2.01747227E+02     -6.12312875E+02
      2.16941031E+03      1.87253528E+03      1.45346322E+03
      5.28733346E+02      6.03764740E+02     -8.06205116E+02
      6.14118428E+02     -1.58696931E+03     -4.03680774E+02
     -7.99380526E+02      4.81555498E+02     -3.61580788E+02
     -1.94109747E+03     -1.12011252E+03     -1.29455014E+03
     -2.14020547E+03     -1.13036248E+03     -1.33824162E+03
      3.56378678E+02     -2.35087092E+02      1.15488649E+03
      7.50566132E+02      1.40228758E+03      2.30756113E+02
      9.13561633E+02     -7.94085359E+02     -3.81235730E+02
      4.67393649E+02     -2.71212162E+02      7.84250694E+02
     -4.26533011E+02      5.10760069E+02     -1.07467723E+03
     -5.41064005E+03     -5.00931238E+00     -2.53662465E+01
     -2.42859439E+02     -4.46819252E+02      3.93795167E+01
      1.27530220E+03      1.56983268E+03     -3.80146504E+02
      1.85606805E+02      1.51971569E+03      7.13019376E+02
      7.76638903E+02     -3.81610737E+02     -1.32345129E+02
      8.17037510E+02      1.88057110E+03      1.47230340E+03
     -1.17587819E+03     -1.32741372E+03     -9.11013047E+02
     -2.40263617E+02     -4.67871827E+02      2.69706420E+02
      5.08710568E+02      6.35756662E+02     -3.05459333E+02
     -2.14190811E+03     -7.42625113E+02      1.25417055E+03
     -2.52545964E+02     -9.41544953E+02      9.07432581E+02
     -8.11926910E+01      5.70680057E+02      2.21069504E+02
     -9.52077810E+02     -1.60094911E+03     -2.98511380E+03
     -1.30792635E+02      3.07280062E+02      2.92391382E+02
     -1.50576169E+03      1.87550818E+02      2.14904651E+03
      3.68406367E+03      1.20802224E+03     -3.71701361E+02
     -3.46916907E+02      2.59401742E+02     -7.97330147E+01
     -1.63714702E+03      1.75038868E+03     -1.81026804E+03
      1.02704168E+03     -8.54892222E+01      5.18070543E+02
     -3.65634550E+02      7.87734417E+02      5.66051805E+02
     -4.93018211E+02     -3.54043420E+02     -7.08826216E+02
      2.23941476E+03      1.24466667E+03     -1.45869756E+03
     -1.50052850E+03     -2.69492769E+02      2.54218374E+03
     -1.86590950E+03      2.94102979E-01     -1.35351039E+03
     -4.33457562E+02     -7.74267261E+01     -3.61500140E+02
     -8.38670991E+02     -1.98358347E+03     -3.50323938E+03
     -1.61196535E+03     -1.50557690E+03      7.04595302E+02
      1.52993105E+01      5.02353620E+02      1.69489984E+02
     -9.38705055E+02     -1.53972308E+03      2.82227602E+03
     -2.39552439E+03     -2.90484333E+02      1.38557973E+03
      1.45094744E+02      2.38163979E+02     -1.72394464E+01
      7.65291611E+02      1.10215411E+03     -1.57701522E+03
      2.72046448E+02      1.23640249E+03     -2.51974293E+03
     -8.04875563E+01      6.97746632E+02     -1.26996551E+02
      1.36870066E+03      7.70020585E+02     -1.99853414E+03
      2.36335776E+03     -1.75371427E+03     -3.58143561E+03
      1.06976886E+02     -1.97475672E+02      2.45193281E+02
     -1.37988346E+03     -8.26222298E+02      4.74517418E+02
      1.71090577E+02      4.02100524E+02     -1.53072839E+03
     -4.23320536E+02     -3.86759100E+02      2.13858691E+02
      1.78518012E+03     -1.70230618E+02     -8.96083079E+02
      2.00885915E+03      2.56397636E+03     -1.24803140E+03
     -3.44111357E+02      1.54066737E+02      2.23239618E+02
      6.92070623E+02      5.17352949E+02      2.15452849E+03
      2.92017147E+03      1.38088817E+02      3.46466180E+02
      6.75688128E+02      2.74130928E+02     -4.71822127E+01
     -2.31864170E+02     -1.60302049E+02      8.66192262E+02
      8.81853008E+02     -8.16440898E+02      1.99043817E+03
      2.33763472E+02     -5.88331962E+02     -3.45123629E+01
      3.06712927E+02     -2.34751288E+03      7.64501722E+02
     -1.65220701E+03      9.93402374E+02      1.99092734E+03
      8.27591241E+02     -2.21420628E+03      2.22135104E+03
     -1.08145344E+03     -6.51548106E+02     -4.45592604E+02
     -1.44110830E+03      1.20256150E+03     -1.93395341E+03
      4.69370020E+02     -6.55878213E+02     -2.66425803E+03
     -6.55773156E+02      9.15886170E+02     -6.08361165E+02
     -6.62049496E+02     -2.92291920E+02     -3.52246043E+02
      5.20287304E+01      6.82637319E+01      3.09252096E+02
      8.85518049E+02     -3.94558711E+01      3.31838602E+03
      1.85420239E+02     -6.33592027E+02      3.75989742E+02
     -1.95572748E+03      3.83584747E+02     -1.63139042E+03
     -2.94432308E+03     -7.26928280E+02      4.37818109E+02
      2.45847479E+02     -5.82937207E+02     -2.65968350E+02
     -9.38053925E+01     -3.63440488E+03     -4.82607238E+02
      1.49917688E+03     -1.82438089E+03     -1.19832770E+03
      4.30678117E+02      8.14309868E+02     -6.32896590E+02
      3.31538036E+03      2.74677606E+02      1.14323476E+03
      9.19135963E+02      1.48359308E+03     -3.67832380E+02
     -1.12517215E+02     -4.54160167E+02      6.41810285E+02
     -3.33831998E+03     -2.26557626E+03     -6.81903471E+02
     -1.28258187E+03      3.40939253E+02     -1.01424393E+03
     -1.21033921E+02     -2.27241450E+02     -5.49319340E+02
      3.38733030E+02      3.86123312E+02     -1.45321367E+03
     -1.53969963E+03     -3.89284396E+03     -1.52116630E+03
     -1.18244130E+02     -3.68515289E+02     -1.46961575E+02
     -1.62908958E+03     -2.02522162E+03     -9.47865819E+02
      4.56271961E+02      1.71045393E+02     -1.14077138E+03
      2.80932993E+02     -6.23550741E+01      7.23132129E+02
     -4.24787125E+02     -4.06830188E+03     -1.78713379E+03
      5.98256478E+02     -1.37730827E+03      4.20223096E+02
     -1.85935625E+02     -3.75595995E+02      8.32621894E+02
      4.50389896E+02     -2.12033767E+03     -6.46256871E+02
     -5.67032941E+02     -5.23257527E+01     -2.77046127E+02
      2.66269592E+02      1.80446187E+03     -1.04846159E+03
      3.31643299E+02     -3.43244554E+02      3.36494355E+02
      6.19183787E+02     -2.54217549E+03     -1.30747346E+02
      7.91819319E+02      2.06192125E+02      1.49939418E+03
     -8.47236540E+02     -3.61331751E+03      9.18734430E+02
      6.76488354E+02     -3.03445081E+02     -6.55845015E+02
      4.52122107E+01      1.57342481E+03      3.30283715E+02
      1.96045941E+03      2.23154774E+03      1.20218381E+03
      4.34678707E+02     -5.29190742E+02      3.51204755E+02
      1.05821213E+03     -1.77246154E+03      7.42415743E+02
     -4.60665472E+02      6.03942903E+01     -1.81366665E+03
     -6.46062940E+02     -5.47218500E+02     -8.57893496E+02
     -9.88548338E+01      1.55734248E+03      1.64085093E+03
      1.75008994E+02      9.03170372E+02     -6.63380035E+02
     -1.68723355E+02     -1.15456324E+02      4.41607411E+02
     -1.86414806E+03     -9.47265157E+02     -5.04473066E+02
      1.88342693E+02      1.06517659E+03     -2.58759450E+01
     -1.70760420E+02     -6.78746888E+02      3.34528196E+01
      1.97223770E+03      6.56317865E+02     -1.12668846E+03
      1.33370017E+03      7.90101018E+02     -4.25452047E+03
      9.53436259E+01     -4.92492706E+02     -5.62591872E+02
      1.69385328E+03      3.01792462E+03      1.81195249E+03
     -9.12693636E+02     -1.58543333E+03     -2.62196094E+02
     -2.51064915E+02     -2.00922637E+02      1.61483543E+02
     -2.31927816E+03      1.47733866E+03     -1.59041136E+03
      8.35158923E+02      4.54715201E+02     -2.13212863E+03
      4.02143589E+01     -1.04505786E+03     -2.39938693E+02
      5.78444212E+01      1.53137683E+03      1.11949417E+03
     -1.21600809E+03      1.05234775E+03      5.09397345E+02
     -8.50529505E+02      6.96901900E+02     -3.79207227E+02
      1.09878128E+03      9.56128730E+02      1.87073529E+03
     -7.01291987E+02     -1.04860849E+03      3.39431163E+03
     -1.16253990E+03     -2.44227894E+03      2.88934486E+02
     -3.34210337E+02     -4.03869787E+02     -4.30926419E+02
     -1.78906803E+03     -2.85476463E+03      9.68449837E+01
     -7.20048544E+02     -2.17790086E+03      2.81577542E+03
     -7.73327953E+02      4.83704534E+02      1.58912348E+03
      1.35058199E+02     -8.95495247E+01      2.06040406E+01
     -6.18645540E+02     -1.66175688E+03     -6.99950315E+02
      7.65540543E+02     -2.52547276E+03     -7.64746893E+01
      9.99439908E+02     -5.20596744E+02      8.68559393E+01
      1.75138847E+03     -9.71603890E+02     -8.97674023E+02
     -9.89667644E+02      2.64934519E+02     -1.21671203E+03
     -1.03476048E+02     -3.92728014E+02      2.04800732E+02
      2.01190276E+03     -1.43481554E+03      5.57452528E+02
      1.20104305E+02     -7.38868068E+02      8.51728846E+02
      1.35798547E+02      4.65227333E+02      9.05195220E+01
      4.16155524E+02     -1.36146178E+03     -2.26122046E+03
      7.81289324E+02     -1.27436571E+03      2.12579945E+03
     -4.74367271E+02     -5.84091993E+02      2.77763763E+02
      2.17867395E+03     -6.79479945E+02      8.64656472E+02
      5.23606771E+02      8.31662908E+02      2.85007131E+02
      1.95055836E+02     -8.03091176E+01      6.83307457E+02
      1.76844522E+03     -1.42081295E+03     -9.64287483E+02
     -3.17901921E+02      8.42528150E+02      6.37817249E+03
      2.53643352E+01     -8.18335457E+02     -3.54953492E+02
     -4.87297574E+02      2.48735095E+03     -3.53534318E+02
     -4.09966156E+02     -8.70660506E+02      4.55515192E+02
     -3.24779492E+01      2.40674747E+02      4.48747328E+02
      1.91916222E+03     -2.65192530E+03     -4.93743144E+02
     -1.55037379E+03     -6.08126194E+02      1.70356375E+03
     -6.99590127E+02      3.17399395E+02     -3.62845743E+02
      3.41920241E+03     -1.64023341E+03     -1.07127587E+03
     -3.59517626E+02     -2.93089405E+03     -1.91951522E+03
     -1.49332108E+02      3.24494551E+02     -8.01057212E+01
     -3.30482685E+02     -1.02976256E+03      1.73259061E+01
     -2.76870278E+03     -7.69333840E+02     -7.09052567E+02
     -2.33543487E+03     -1.92273307E+03     -5.53943553E+02
     -7.46135699E+02     -1.43252051E+02     -1.29380709E+03
     -2.92213513E+02     -3.83428662E+02     -4.56014105E+02
      1.36301725E+03     -1.82042605E+03     -5.78033775E+01
      7.70345898E+02     -1.75131697E+03     -3.18489349E+03
     -7.39666649E+02      6.62406620E+01      3.34720132E+02
      8.53715974E+02     -2.06223722E+03     -1.22218279E+03
     -3.89497345E+02     -5.43417115E+02      1.20188262E+03
     -4.27288666E+02      3.30733800E+02      3.11473370E+02
     -2.47644689E+03      3.56032107E+03      1.92891959E+03
      1.66557447E+03      1.01020495E+03     -5.77907087E+02
      3.77753195E+01     -9.34548189E+01     -2.73057059E+02
      1.01764500E+02     -2.81008191E+03     -2.29971394E+02
     -8.61961453E+02      3.51203865E+03     -1.36162417E+03
      1.86584415E+02     -3.03128540E+02      8.17850751E+02
      1.45327606E+03      1.71582536E+03     -8.23238623E+02
     -4.77853395E+02     -9.51496704E+00      7.87675153E+02
     -3.27486388E+02     -4.32538843E+02     -2.18488297E+01
     -1.85918529E+03      4.42587940E+01      6.93481380E+02
      1.43817230E+03      9.47547188E+02      3.50792594E+03
     -1.59121936E+02      1.78213103E+02      9.52581953E+02
     -6.50306929E+02     -3.63359473E+03     -1.55053334E+03
      2.05045699E+03     -6.43071389E+02      1.06945508E+03
     -6.84719547E+02     -4.55391564E+02      1.85728299E+02
     -2.01230556E+03     -2.02666933E+03     -2.51650646E+01
      5.74414107E+02     -4.14090382E+02      6.58707931E+02
     -9.30748001E+02     -1.29884724E+03     -2.26923784E+02
     -1.36768191E+02     -5.75586953E+02      1.18702159E+03
      2.30503608E+03      5.62878421E+02     -9.27438373E+02
      5.17225846E+02      2.22399875E+03      1.07144367E+03
     -9.67015159E+01      1.14730215E+03     -1.79999632E+02
     -2.87076900E+02      1.23137934E+03     -6.16513741E+02
     -1.60309115E+03      3.42719684E+03     -1.79392034E+03
     -1.28171809E+03     -9.12817182E+02      1.37077084E+03
     -2.85390353E+02      6.11453141E+01      9.09547158E+01
      1.37348944E+03      5.80503899E+02     -1.18600738E+03
     -1.27581295E+03      6.77065640E+02     -4.70494990E+02
      5.68338539E+02      1.25803605E+03      5.38670584E+02
      3.26110229E+01      1.03941169E+03      1.40677088E+03
     -5.73547802E+01     -4.80057244E+02     -7.54001720E+02
      5.83064111E+02      3.01082035E+02     -5.77176449E+02
     -3.18464585E+03      1.16013168E+02     -7.28834333E+02
     -3.75561541E+02      1.42557985E+03      1.63934077E+02
     -5.51368444E+02     -4.57746943E+02     -2.96815034E+02
     -1.05275978E+03      1.13649020E+03     -3.95258077E+02
      1.30335149E+03     -1.13744593E+03     -2.04769718E+03
      1.58977145E+02     -3.81345845E+02      3.94691398E+02
      3.49633481E+02     -3.15566556E+02      1.68246250E+03
     -4.09094130E+02     -5.28680217E+02     -6.39937482E+02
     -3.11658235E+02     -4.31903036E+02      1.83514652E+02
     -9.47973342E+02      1.49232688E+03      1.33303687E+02
     -6.89659011E+02     -7.24569666E+02      1.74572221E+03
     -1.77571453E+02     -4.68608314E+02     -1.50955950E+02
     -1.64516582E+03     -1.89980495E+03      7.23104128E+01
      4.32715784E+02     -1.13387860E+03     -1.07982746E+03
      3.43471680E+02     -1.11470792E+03      1.03501224E+03
     -1.91802985E+03      7.41457954E+02      1.73484816E+03
      2.00601417E+03      5.86217922E+02      2.08134452E+02
      1.93218010E+02     -1.29984925E+03      8.75366619E+02
      1.30476349E+03     -1.85637273E+03      4.32969700E+02
      2.23770391E+03     -4.20627965E+02     -1.06509086E+03
     -1.31563595E+03      1.34781956E+03      1.45225353E+02
     -6.69377147E+02      6.01543041E+01     -1.03520193E+03
      2.49149084E+02     -2.15754738E+03     -1.23188671E+03
      1.06391531E+03     -2.12559730E+03     -2.08883170E+03
      2.58779773E+02      3.73039110E+02     -1.89602091E+03
  }
}

Hamiltonian = DFTB {
  SCC = Yes
  SCCTolerance = 1e-6
  MaxSCCIterations = 200
  ForceEvaluation = Dynamics
  MaxAngularMomentum = {
    C = "p"
    H = "s"
  }
  Charge = 0.0
  SpinPolarisation = {}
  Eigensolver = Standard {}
  Filling = Fermi {
    Temperature [Kelvin] = 300.0
  }
  SlaterKosterFiles = Type2FileNames {
    Prefix = "../../pbc-0-3/"
    Separator = "-"
    Suffix = ".skf"
    LowerCaseTypeName = No
  }
  KPointsAndWeights = {
    0.0000000000000 0.0000000000000 0.0000000000000 1.00000000000000
  }
  Dispersion = LennardJones { 
    Parameters = UFFParameters {}
  }
}

ParserOptions = {
  ParserVersion = 3
}
