Geometry = GenFormat {
<<< "system.gen"
}

Driver = VelocityVerlet{
  Steps = 100000
  TimeStep [fs] = 0.2
  MDRestartFrequency = 5
  Thermostat = None {
    #InitialTemperature [Kelvin] = 300.0
  }
  Xlbomd{ 
    IntegrationSteps = 6 
    MinSccIterations = 2
    MaxSccIterations = 200
    SccTolerance = 1e-6 
  }
  Velocities [m/s] {
     -1.45597846E+03     -3.60327231E+02      9.48956337E+01
      1.11763498E+03     -4.87029473E+02     -2.65020125E+03
      3.43777903E+02     -4.29255405E+02     -1.51341387E+03
      5.69555578E+02      2.98279528E+00     -3.77785996E+02
      3.74934723E+02     -1.79169990E+03      1.29372292E+03
     -1.95755199E+03     -1.23449721E+03     -4.04556768E+03
     -3.26848893E+02      5.85456731E+02     -9.35721211E+01
      1.19035237E+03      3.40921948E+02     -2.19889477E+03
     -7.68948402E+02      1.95795971E+03      1.98107979E+03
     -1.35266953E+02      7.78158436E+01     -1.26171925E+02
      1.38489061E+03      1.53731488E+02      1.19996639E+03
      1.25201036E+03      9.05374730E+02     -2.47479590E+03
     -4.10352480E+02     -3.54173454E+02      2.87953346E+02
      1.37489022E+03     -9.20445320E+02     -1.11609891E+03
      1.56908737E+03      2.75370369E+03      1.79971873E+02
     -5.63390979E+02     -3.75273383E+02     -8.62645761E+02
      5.11031030E+02      5.05084864E+02     -5.40644494E+02
     -1.95096912E+02      4.76975353E+01      5.41213955E+02
     -1.58223292E+02      3.49120208E+02     -5.30903310E+02
      1.98131031E+03      1.36394574E+03      4.03407691E+02
      1.98834435E+03     -8.06818970E+01     -8.10785712E+02
     -8.34980056E+01     -8.26918769E+02      2.90293071E+01
     -2.56100209E+02      1.37196780E+03     -2.10508169E+02
     -1.83583139E+03      3.67819895E+03     -2.96302026E+02
      3.97814779E+01     -7.41552630E+02      4.54717618E+01
      1.38278620E+03     -1.92244717E+03      7.91954281E+02
      1.47234787E+03      1.36137217E+03      9.26252879E+02
      1.02217081E+03     -3.85681300E+03     -2.99539907E+02
      3.70217084E+02     -4.19000830E+02      2.44569244E+02
      1.39527684E+03      3.72421959E+03      1.86514539E+03
     -2.79241103E+03      8.73788061E+01     -2.50729654E+02
      5.57454052E+01      1.74090392E+02      5.46251324E+02
     -2.77447331E+02     -1.10024050E+02     -6.41222293E+02
      7.65518674E+02      1.47187134E+03      7.99891672E+02
     -1.82333121E+03     -1.31226738E+03     -8.62178633E+02
      3.71781951E+02      5.22225016E+02     -4.48327436E+02
      1.08297510E+02     -3.44079827E+03     -1.40101003E+03
     -1.56822530E+03      2.11002044E+02     -9.26845111E+02
      2.36421462E+02     -8.36715611E+02     -1.29969135E+02
      2.31432729E+03     -1.75738713E+03     -2.35792367E+03
     -1.31932920E+02     -2.38192114E+03     -2.33833585E+02
     -1.85295626E+02     -2.09926969E+02      3.57906186E+02
     -1.44952573E+03     -6.34881581E+02      1.03027374E+03
      1.25980797E+03     -2.88754653E+03     -1.09308071E+03
      1.00008636E+01      1.04427061E+03     -3.19686899E+01
     -1.02456921E+03      1.86665391E+03     -2.78845102E+03
     -2.50424294E+03      4.48522807E+02      1.59797562E+03
      8.51410359E+02      4.77855189E+02      3.12639746E+02
     -3.56570807E+02      1.75533529E+03     -3.30078027E+01
      1.33664883E+03      3.74055106E+03     -9.25154355E+02
      1.29966215E+02     -1.36809153E+01     -1.29987780E+03
     -1.40024473E+02      1.35469975E+03     -8.99310907E+02
     -8.80213388E+02      9.14736704E+02      1.93761726E+02
      4.16507845E+02      2.33492730E+02     -1.75309882E+02
      2.97429748E+03     -9.67862692E+02     -1.17243141E+03
      2.86763488E+03     -4.65929614E+02      1.09619363E+03
      2.98970690E+02      7.70412759E+01     -5.04743337E+02
     -7.15660221E+02      1.21858578E+03     -3.21601089E+03
      2.53101966E+03     -7.03381167E+02      4.14349677E+02
      1.61012088E+02      7.69037605E+02      1.73856038E+03
     -2.82298815E+02     -2.98529407E+02     -7.51517246E+02
     -9.29066555E+02      7.44527858E+01      1.07385201E+03
      1.77836128E+03      7.92894460E+02     -2.10364283E+02
      4.30823250E+02      8.94172556E+02      2.75387678E+02
     -1.48922418E+01      1.04207229E+02      1.07191161E+02
      1.81793659E+03      9.29881109E+02     -1.01430283E+03
      3.32899049E+02     -1.93429628E+03     -1.41253769E+03
     -7.92604553E+01      1.61011760E+02      6.21747709E+01
      7.54573677E+02     -1.42420635E+03      7.98539944E+02
      1.29609462E+03     -1.64963557E+03      4.79721824E+02
      1.32232326E+03     -6.13046657E+02     -1.58467706E+02
     -6.18754758E+02      5.30199702E+02      2.31915389E+03
     -1.40942565E+03     -4.99539215E+02      1.50968598E+02
      4.03763880E+02     -4.96526107E+02     -3.55052886E+02
      7.65164231E+02     -2.59982433E+03     -8.69895834E+02
     -2.66567870E+03      8.43480343E+02      5.53229269E+02
      4.37189030E+02     -3.37873280E+02     -3.08590053E+00
     -1.39236352E+03     -1.25423525E+03     -7.81290418E+02
     -4.24147030E+02     -1.74453068E+03     -1.74309766E+03
      2.47663475E+02     -2.68168732E+02     -9.25417638E+00
     -2.14191277E+02     -8.40419023E+02      1.61487263E+02
     -2.59290114E+03      3.60176029E+03     -3.10631745E+02
     -2.78896668E+02     -3.92148163E+02     -1.28378009E+03
      1.51006463E+03      8.35341578E+02     -3.92607654E+03
     -2.64856613E+03     -1.84874792E+03      7.91573487E+02
      6.91749595E+02     -8.19867399E+02     -4.42026697E+01
     -1.49613161E+03     -2.03107769E+03     -1.51303146E+03
     -1.45265727E+03      9.09857300E+02     -2.50677157E+03
     -2.47815692E+02     -5.13914233E+02     -2.69988782E+02
     -9.35653358E+02      1.71174520E+03     -1.53693351E+03
     -5.57738437E+02     -8.49416267E+02     -1.34010429E+02
     -2.41024593E+03      2.76812103E+03     -7.91815848E+02
     -7.85208628E+02     -3.08760351E+02      1.01887158E+03
      5.13504291E+02      1.03011084E+03     -3.26503881E+03
     -1.40238366E+03      8.55090861E+02     -6.98229346E+02
     -1.21834136E+03      3.53443502E+02      9.09722558E+02
     -5.56731466E+02     -5.23602923E+02     -4.31558589E+02
     -8.15972925E+01      1.15717084E+03     -1.31101720E+03
      1.27542603E+03      1.35063975E+03     -8.97476860E+02
     -6.15345541E+01     -4.65331818E+02     -4.92445337E+02
     -2.56611465E+03     -2.42279102E+03     -4.00687305E+02
     -6.41977984E+01      1.11346018E+03     -1.76350687E+02
     -9.74857480E+02     -2.59072401E+02     -4.85298111E+02
     -1.41697684E+03      2.32548885E+03      2.47579448E+03
     -1.86164261E+03     -1.21250016E+03     -1.15478500E+03
     -7.37709147E+02      2.04351465E+02      9.27585740E+01
     -1.90434651E+03     -1.68100866E+03      6.69516434E+02
      1.70575797E+03      2.73531425E+02      1.90301590E+03
     -5.93314116E+01     -4.40249399E+02      1.83708807E+02
      6.19495572E+02      2.28267504E+03     -7.05058981E+02
      4.35384386E+03     -1.27911673E+03      1.56474497E+03
     -5.78559245E+02      2.75342350E+02     -3.04241142E+02
     -5.74531681E+02     -4.32830019E+02     -1.60578055E+03
      3.06708993E+02     -3.37873860E+01     -1.55967817E+03
      1.00462559E+03      3.54931628E+02     -4.26406399E+02
     -2.82993124E+02      8.77231823E+01     -1.41449131E+03
     -2.59944621E+02     -1.06052261E+03      8.62578513E+02
     -8.79707951E+01     -2.85631655E+02     -3.34735773E+02
     -1.96011295E+03      2.56569597E+03      3.43843223E+01
      1.28120441E+03      4.36282716E+02      2.47268401E+02
     -5.29977144E+02     -4.76744026E+02      1.59301542E+02
     -9.80819158E+02     -2.07576410E+03     -2.82632879E+01
      6.47890527E+02     -2.54923267E+03      3.74875882E+03
     -9.78020989E+02      7.29432096E+02      9.95539757E+02
      1.90049243E+02      3.43178320E+02      1.59394384E+02
     -7.57601670E+02      2.95043423E+03     -1.60881375E+03
      2.03272276E+03      3.04680087E+03      4.12302331E+02
      3.17187963E+02     -8.94898910E+02      3.21796315E+02
      4.92672160E+02      1.92077640E+02      4.33937347E+02
     -2.05231409E+03     -7.04708522E+02     -5.04400377E+02
     -7.20998120E+02     -2.32626607E+03     -2.03141740E+02
     -7.47676058E+02      5.57761008E+02     -2.40645620E+02
      4.46131878E+01     -1.23730981E+03     -3.14951637E+03
     -6.67237108E+02      2.73669481E+02     -1.38327454E+03
     -3.60111396E+02     -7.46847999E+02     -3.18650478E+02
      2.06179546E+02      4.05813159E+02     -3.67144554E+02
      2.43061203E+03      1.82865593E+03     -2.27514986E+03
      7.30552727E+01      1.36158258E+02      5.37848043E+02
     -5.74994698E+02      2.22915500E+03     -3.37261371E+03
     -1.93164731E+03      1.11887087E+03     -2.72882566E+03
     -2.27155703E+02      5.09869938E+02     -7.98367417E+02
     -4.72219762E+02     -3.01252572E+01     -1.37804811E+03
     -4.47359043E+02      1.97436551E+03      6.30908426E+02
      6.83549196E+02      2.27898058E+02      4.15224684E+02
     -5.18779151E+02     -1.90058451E+03     -2.07098014E+03
     -1.56683444E+02      3.61554297E+03     -2.37911177E+03
     -4.05295092E+01     -1.08913679E+03      3.16286247E+02
     -2.02902091E+03      1.01180430E+03     -1.16855612E+03
      2.05955868E+03     -2.04786348E+03     -1.23324131E+03
      2.64993383E+02      2.60567700E+01     -6.10961371E+02
     -2.37726366E+03      4.92749283E+02     -4.08557180E+02
      3.50331874E+03      4.25434880E+02     -4.18592933E+01
      2.61012571E+01      6.74619177E+02     -4.12643822E+02
      2.98352260E+03     -1.40049564E+03     -2.81964179E+02
     -1.71674829E+03     -3.82680760E+03     -8.50234804E+02
      3.14001260E+02      1.57827254E+03     -3.11310604E+02
     -3.57275086E+02      1.06108327E+02      4.63709741E+01
      1.00679460E+03      1.04556652E+03     -1.84579127E+03
      2.15908334E+03     -1.22373367E+03      7.22016998E+02
      2.64618450E+03      2.56511573E+03      1.06592721E+03
     -5.54399061E+02     -3.39941002E+02     -1.05992854E+02
     -7.41809782E+02     -2.50556436E+03      1.85909678E+03
      1.04743814E+03      3.34758342E+03     -1.78026953E+03
     -1.27406399E+03      1.91751656E+02     -8.96257308E+02
     -1.05569852E+02      2.60875062E+01      1.24035306E+03
      2.68599996E+03     -1.81480423E+02     -1.33819195E+03
     -4.79820834E+02     -2.91704406E+01     -7.78938236E+01
      1.93268287E+03      8.04563699E+02      1.58559657E+03
      2.45648250E+03     -2.37085127E+03      9.57988690E+02
     -3.17847885E+02     -7.81019257E+02     -1.87965192E+01
     -1.42199238E+02      4.68345923E+02     -6.70459723E+02
     -7.75713873E+02     -1.88272421E+01     -1.06935580E+03
     -2.08332208E+02      1.09235334E+01      5.74236909E+01
     -7.34814318E+02     -1.11427765E+03      6.97197775E+02
     -1.24332631E+03     -1.63261491E+03      9.25435353E+02
      2.52336717E+02     -1.67936804E+02     -3.22469384E+02
      2.58551421E+02      2.72443607E+03      1.90599277E+03
     -5.69335306E+02      9.55544266E+02      9.86310016E+02
      2.81394086E+02      2.89604188E+02      1.85920487E+02
      2.52617345E+03     -9.47345339E+02      7.34559034E+02
      1.09643682E+03     -4.36066862E+01      9.26342157E+02
     -4.24807864E+02      5.05998636E+02     -1.31548807E+02
     -1.03730603E+03      1.15391382E+03      1.68526140E+03
     -9.80065728E+02      1.80274354E+03      1.17563304E+02
     -5.85556946E+01      9.68233132E+01     -4.97002421E+02
     -3.95425699E+02     -9.81741041E+02      1.30363132E+02
     -7.11118525E+02     -6.69437118E+02      6.00958640E+02
      7.83912914E+02      1.05904076E+01     -8.58970007E+02
      8.86487220E+03      3.76754347E+03      2.64624351E+04
      1.02443400E+03      4.00478081E+00     -2.53986764E+03
     -2.44205776E+03      1.49844924E+03      2.29217431E+03
      1.00847411E+02      9.70498622E+02      3.86879198E+02
      6.47611447E+02     -3.64333314E+02     -4.57169717E+02
      6.12415787E+02     -3.33388631E+02     -1.20261336E+03
     -2.14999560E+03      7.46069718E+02     -2.78680334E+03
     -5.98029258E+02      3.21799995E+02      6.93762226E+01
      3.20340346E+03     -2.10195541E+03     -4.48536195E+02
     -1.46617440E+03     -2.81833648E+03     -7.64594393E+02
      3.94131709E+01     -5.82675082E+01      3.45908763E+02
     -2.39362128E+03      3.91186199E+03     -6.67152004E+02
      8.86970520E+02     -1.58461005E+03     -2.24368517E+03
     -4.46277814E+02     -4.22193912E+02     -3.99983752E+02
     -2.62063175E+03     -2.20210314E+03     -1.65556056E+03
      1.47951191E+03     -1.52199935E+03     -7.88046950E+02
      1.04705166E+02     -3.90187852E+01      1.11971383E+03
     -2.44016623E+03      3.32007088E+03     -8.27306101E+02
     -2.27203123E+03      1.31843867E+03     -3.56049047E+02
     -1.02517950E+03     -1.74836346E+02     -8.15071009E+02
      1.35537378E+03     -1.74471106E+03     -2.09642590E+02
     -1.03664900E+03     -5.24142866E+02      9.66895217E+02
      3.41313926E+02     -7.25585734E+02     -6.17497644E+02
     -1.96139866E+03      7.33057236E+02      1.33466468E+03
      1.54044767E+03     -1.44398803E+03     -9.66675782E+02
      2.05063026E+02     -3.65655575E+02     -4.27349322E+02
      1.03410962E+03     -1.22062370E+02     -1.28064085E+03
     -7.07457625E+02      2.90336124E+03     -7.89915600E+02
     -8.80971779E+01     -2.35815701E+02     -5.23853939E+02
      2.62862524E+03      1.40096475E+03     -3.94548703E+02
      6.08129820E+02     -1.28121992E+01     -5.25667682E+02
     -9.88163783E+02     -4.43880841E+02      6.19987305E+02
     -5.78519164E+02      1.23979765E+02      4.47926791E+02
      8.90088572E+02      3.81456401E+02     -1.79838794E+02
      6.27890438E+02     -1.31494065E+03      9.89612625E+01
     -7.84876619E+02     -3.52773777E+02      1.98654728E+03
     -1.44365493E+02     -9.68511865E+01      2.25329787E+02
      1.15246949E+03     -2.44880522E+03     -1.40427093E+03
      2.86193312E+03      1.42760478E+03     -4.68597336E+02
     -3.22712528E+02      2.75580462E+02     -2.78212905E+02
     -1.39731938E+03     -3.44497332E+02     -1.41958409E+03
      5.71162799E+02     -1.34151300E+03     -1.76824586E+03
     -6.72873233E+02      2.92414197E+02     -9.05454093E+01
     -2.00099930E+03     -3.51189524E+01     -4.18890843E+01
     -1.33238815E+03     -1.04242423E+03     -2.82793666E+03
      9.49321384E+01      3.19972138E+02     -9.20722501E+01
     -2.81317904E+02     -1.84160460E+03      1.05059423E+03
     -4.94459033E+01     -1.30770040E+03      5.82006047E+02
      4.60156474E+02     -2.43902059E+02     -3.30672883E+02
      2.45238513E+03      2.89817077E+03      1.04445067E+03
     -1.66927118E+03      4.87526482E+01      2.05531142E+03
      3.38608056E+02     -1.39550883E+02      2.64193560E+02
     -1.77804761E+03      1.80009790E+03     -7.18407768E+02
     -1.54785497E+03      1.41639471E+02     -1.75728838E+03
     -1.66751530E+02     -4.14247275E+01     -2.65216478E+02
      2.71015152E+02     -1.00368578E+03     -6.90928140E+02
      1.36486432E+03     -5.54795001E+02     -8.49735479E+02
     -8.60193504E+02     -4.20511840E+02      3.79364852E+02
     -1.14140396E+03     -4.75420177E+02     -9.09107727E+00
      9.16265752E+02     -2.84001720E+02      1.14126517E+03
     -7.54539789E+02      2.71116041E+02     -5.18644522E+00
      3.74923949E+02      2.71154364E+02     -1.54357105E+03
     -3.33136638E+02      3.89023576E+03     -2.97127392E+02
      8.15662476E+02     -7.47693886E+02      1.11505305E+03
     -2.78116980E+02      7.48259336E+02     -9.17137800E+01
     -1.80070309E+02      2.97885095E+03      1.04629718E+03
     -2.80995356E+03     -3.20121723E+02      1.69815691E+03
      1.02271565E+02     -1.43744585E+03     -2.07511319E+02
      1.58519497E+01     -9.45297898E+02     -1.96974925E+02
     -7.39273843E+02      9.04532862E+01     -6.72683933E+02
      4.18999255E+01     -7.16401171E+02     -1.60013504E+03
      1.09639603E+02      1.65775619E+01     -4.55877053E+02
     -4.02465407E+02      4.02929261E+02     -3.60855060E+02
      5.46401659E+02      3.45914587E+00      2.43117113E+02
     -2.94876530E+01      3.24041483E+02     -5.13362799E+02
     -9.73326498E+01      5.62755048E+02     -1.31049687E+03
      2.11460478E+03     -4.21521019E+02      9.54673921E+02
      1.05727519E+03      1.02727656E+02     -7.73348581E+01
     -2.47371871E+03     -1.77748565E+03      5.83705397E+02
      2.59791799E+03     -2.04044665E+02     -1.84635844E+03
      3.15613089E+02      4.45190506E+02     -2.32773403E+02
     -4.62008124E+02     -1.64153655E+02      1.62560882E+02
     -2.82832937E+03      8.14092610E+02      2.49493263E+03
     -3.69500356E+02      5.41423769E+02     -5.78411674E+02
      5.93405466E+02     -1.90104483E+03      9.76274771E+02
     -1.43315121E+03     -7.74279790E+02      1.47118774E+03
     -3.64490801E+02      5.77313377E+02     -1.33159770E+03
      4.60706844E+03      1.76002670E+02     -1.32918561E+03
     -1.23994727E+03     -1.65017435E+03      2.96245367E+02
      6.08913812E+02     -1.37568844E+02     -3.07881938E+01
      6.15245732E+01      2.64177889E+03      1.62703883E+03
     -8.22592525E+02      2.44249600E+03     -1.57630370E+03
      1.01108630E+02     -4.45669908E+02      6.36827621E+02
      1.97046471E+02      1.19376940E+03      4.44883865E+02
     -1.01437175E+03     -2.66610992E+03      2.75827451E+03
     -2.78729175E+02      2.72774869E+02     -8.63726535E+02
     -4.66683099E+02     -2.39434691E+02      4.10763402E+02
     -1.06151556E+03      1.10721618E+03     -2.53068466E+02
     -1.11923585E+03     -7.34098171E+02      1.32842759E+03
      1.83273066E+02     -4.25605286E+02     -1.72818469E+03
     -1.00906081E+02      5.35124274E+02     -8.81867220E+02
      1.82995480E+03      1.41976130E+03     -3.31999256E+03
     -1.46272807E+03     -1.92109281E+01     -6.43990232E+02
     -2.04361092E+02     -1.45406924E+02     -6.00330333E+00
      1.46714691E+02      1.16979459E+03      9.20083058E+02
      1.82973622E+03      1.68878400E+03     -1.40038721E+03
      1.42306535E+02     -1.67589747E+02     -4.04961436E+02
      9.16697486E+02      1.60318295E+02     -1.06856521E+03
      3.11417442E+02      1.30755593E+03      3.23830110E+01
     -1.09486039E+03     -5.12072816E+02     -2.88203199E+02
     -2.13268853E+03      3.25054931E+03      1.74966196E+03
      3.91908139E+02      9.11009247E+02      5.67202490E+01
      5.56722150E+02     -5.74745321E+02     -1.46787550E+02
      1.99987341E+03     -3.63485987E+03      2.02256667E+01
     -1.59306212E+02     -9.28623985E+02     -2.31218736E+02
     -4.70679771E+02      5.52374810E+02     -3.67180064E+02
      3.04574487E+02     -1.88290874E+03     -1.12884725E+03
      1.10675699E+03      2.82478791E+03     -3.47425915E+02
      7.04680116E+02     -4.10169924E+02     -1.97577696E+00
      4.94075263E+02     -1.43873747E+00     -4.69721240E+02
      4.67369875E+02     -1.17964672E+03      1.83057741E+03
     -2.14894638E+02     -2.38519823E+02     -3.59621417E+02
      1.05405395E+03     -5.34320123E+02     -3.32547707E+03
     -5.12191764E+02      8.88218434E+02     -2.22794368E+03
     -2.71507521E+02     -1.86051963E+02      7.69675390E+02
      6.16231862E+02      1.75569635E+03      9.99840579E+02
     -1.52174266E+03      6.21291095E+01     -1.99016823E+02
      1.06405892E+03     -1.05811006E+03      9.38097309E+02
      2.65140122E+02      1.02627340E+03     -8.03867312E+02
      1.04169042E+02      1.13105243E+03     -1.52224323E+03
     -8.96687881E+02      7.52148606E+02     -8.75177688E+02
     -1.05804016E+03      1.75047392E+03      2.46398803E+02
      6.48437417E+01      2.96835599E+01     -4.81009355E+02
      1.52431250E+03     -3.25358695E+03      1.40083323E+02
     -3.05124107E+02      2.54666999E+02     -1.42099195E+03
      1.70381112E+02      2.24920663E+02     -4.58365372E+02
     -2.10183267E+02      7.38440576E+01      1.48135140E+03
     -3.55802980E+03      1.11137784E+03      6.97951683E+02
     -4.70710564E+02     -4.08097267E+02      2.70150946E+02
      3.46199655E+03     -1.53308057E+03     -1.12392148E+03
     -2.21553257E+03      1.99023583E+03      6.25995681E+02
      3.80353450E+01     -1.50777400E+02     -1.34752692E+02
      1.17412340E+02     -2.11226307E+03     -4.15861941E+02
     -2.30931562E+03     -2.37691242E+03     -1.74249959E+03
     -6.87271868E+02     -7.50869282E+01     -7.75021691E+02
      3.01625646E+02     -9.60816530E+02      2.18744087E+03
      1.28836120E+03      1.62981083E+03      8.78902887E+01
     -4.29355787E+02     -1.66758807E+02     -2.58196582E+02
     -5.72022038E+02      1.26064399E+03      2.72210046E+02
     -1.50411071E+03     -1.10316684E+03     -7.33748432E+02
     -1.84181140E+02      2.64725881E+02     -1.11688097E+03
      2.53300541E+03      1.06860857E+03     -1.83700310E+03
      9.74461602E+02      6.00278757E+02      7.93567634E+02
      4.81283355E+02      2.74783435E+02     -8.11976038E+02
     -1.40454683E+03      2.29889631E+03      3.63737673E+02
     -9.32692124E+02     -1.63813599E+03     -1.24181637E+03
     -3.74005271E+02      3.21021849E+02     -6.82895001E+02
     -1.10181993E+03      2.06554324E+03     -1.64801892E+02
      5.21684181E+02     -1.44405024E+03      8.46343138E+02
      2.12022059E+02     -1.46615653E+03     -1.54620844E+03
      5.07032050E+02      3.27312139E+02     -1.51792112E+02
     -1.66942826E+03     -3.04891234E+02      1.37023176E+03
     -2.10383248E+03      2.61607718E+03     -1.58338644E+03
      1.23183785E+03      3.93939897E+02      9.84971086E+02
  }
}

Hamiltonian = DFTB {
  SCC = Yes
  SCCTolerance = 1e-6
  MaxSCCIterations = 200
  ForceEvaluation = Dynamics
  MaxAngularMomentum = {
    C = "p"
    H = "s"
  }
  Charge = 0.0
  SpinPolarisation = {}
  Eigensolver = Standard {}
  Filling = Fermi {
    Temperature [Kelvin] = 300.0
  }
  SlaterKosterFiles = Type2FileNames {
    Prefix = "../../pbc-0-3/"
    Separator = "-"
    Suffix = ".skf"
    LowerCaseTypeName = No
  }
  KPointsAndWeights = {
    0.0000000000000 0.0000000000000 0.0000000000000 1.00000000000000
  }
  Dispersion = LennardJones { 
    Parameters = UFFParameters {}
  }
}

ParserOptions = {
  ParserVersion = 3
}
