Geometry = GenFormat {
<<< "system.gen"
}

Driver = VelocityVerlet{
  Steps = 50000
  TimeStep [fs] = 0.2
  MDRestartFrequency = 25
  Thermostat = None {
    #InitialTemperature [Kelvin] = 300.0
  }
  Xlbomd{ 
    IntegrationSteps = 6 
    MinSccIterations = 2
    MaxSccIterations = 200
    SccTolerance = 1e-6 
  }
  Velocities [m/s] {
      1.09966675E+03      1.09834008E+02     -5.12092282E+02
     -1.88887578E+03      4.11725879E+02      1.00871411E+03
      1.25194595E+02     -8.39051666E+02      1.93625371E+03
      6.06441636E+02     -4.34040449E+02      2.09144183E+02
     -2.94553042E+03     -1.66067942E+03      1.78621999E+03
     -1.48182203E+03      1.69957076E+03      1.02427465E+03
     -2.29035748E+02      9.55455136E+01      4.75591431E+02
      1.76730837E+03      1.85555920E+01     -8.63789832E+02
     -2.56845286E+02      3.19357801E+03     -2.38374833E+01
     -3.48162519E+02      1.97717565E+02     -4.87091988E+02
      1.50183257E+03     -2.81025751E+02     -4.30694885E+02
      3.25575877E+02     -2.09658590E+02      2.49060919E+02
      1.42690735E+02     -1.08858077E+02     -9.86370065E+01
     -1.40045298E+03      4.91438382E+01     -1.16045377E+03
     -1.09884079E+03      1.45473969E+03      1.16985105E+03
     -2.57983928E+02     -5.16674265E+02     -4.15655637E+02
     -2.30177292E+03     -1.77064515E+01      1.74947054E+02
      1.80764385E+02      1.72277576E+02     -1.42757245E+03
      3.41733359E+02      3.57147994E+02     -2.35234854E+02
      1.43273780E+03      9.14864940E+02      1.77007805E+03
      2.23759504E+03     -6.74779598E+01     -2.07754196E+03
      2.26330935E+02     -3.85403740E+02      1.98876416E+02
     -2.35234668E+03      3.28771655E+03      4.68761085E+02
      6.67357115E+02      3.41712738E+02     -8.41903530E+02
      6.12092469E+02      4.39758410E+02      4.18337579E+02
     -9.36998210E+02      3.19807318E+02     -1.14388704E+03
      3.14830331E+02     -8.66797142E+02      2.03292604E+02
     -1.07924374E+03     -4.21174749E+02      1.32851823E+03
      9.55783609E+02     -2.68836189E+02      6.25962766E+02
      1.43969100E+03     -1.08189422E+03     -7.29014003E+02
     -6.02627532E+02     -8.76084226E+02      1.62551378E+03
     -1.64561139E+03     -1.58546469E+03     -3.62649168E+02
      1.86751075E+02     -2.43343903E+01      7.28168091E+02
     -1.59557145E+03      1.77517703E+02     -6.76467709E+02
     -5.64565611E+02     -2.38607723E+02     -4.13036595E+02
     -6.34220520E+02      1.57504896E+02      2.32296307E+02
      4.73615701E+02     -1.35459457E+02      1.58084185E+03
     -8.02733646E+02      1.49311740E+02      3.23405145E+03
     -4.63893696E+02     -9.44982748E+00     -2.45119233E+02
      1.50294846E+03     -1.76007803E+02     -4.46197014E+02
      1.02444667E+03     -7.38325588E+02      5.07479851E+02
      1.63740665E+02     -9.80017577E+02      1.03352639E+03
     -4.18227051E+02      1.14440299E+03     -1.29306191E+02
      1.78408226E+02      1.65055697E+03      6.25164115E+02
     -1.70506184E+02      6.38527393E+02      2.37354942E+02
      8.99421521E+02     -1.87597952E+03     -1.13732434E+02
      1.45154136E+03      1.41436376E+03      8.08091791E+01
     -2.07055479E+02     -3.05479357E+02      1.15072107E+03
      2.22135213E+03      2.21948633E+03     -1.54747165E+03
     -2.36525421E+03      3.88911270E+02     -2.43871342E+03
     -1.29225827E+02     -3.16450833E+02     -8.53997178E+01
     -2.63219407E+01      2.54715163E+02     -1.27380549E+03
      1.73353832E+03     -1.46076624E+03      9.60067022E+02
      8.91408666E+01     -9.73537694E+01     -6.60407594E+02
     -6.78105530E+02     -9.54206526E+02      1.70545336E+02
     -2.20961590E+03      1.90598684E+02     -4.54144711E+02
      5.28719206E+02     -1.25651662E+02      3.05580596E+02
     -8.97521042E+02      8.17869082E+02     -6.68089528E+02
      1.39551397E+03      2.41467901E+03     -2.06394394E+03
      4.56675510E+03     -3.07352313E+03     -2.89932114E+03
      3.05307652E+02     -4.79934951E+02      3.43319350E+02
      1.11336125E+02      2.16466456E+02     -1.48596821E+03
      8.19913531E+02     -2.88023439E+03      9.99658114E+02
     -1.39779650E+02      3.69686998E+02      3.59780723E+03
      8.03432517E+02     -3.47731818E+02      1.91794009E+02
      5.60232659E+02     -7.65479024E+02     -1.86200691E+03
     -2.27990718E+03      1.65379925E+03      4.99269251E+01
      1.02273881E+02     -5.56281462E+02     -2.54749907E+01
      2.36849396E+03      1.17914374E+03      2.84403142E+03
     -2.87707492E+03     -4.95342184E+02     -3.10980150E+02
      4.55360922E+02      3.10713731E+02      8.63769461E+02
      1.35097961E+03     -1.52857752E+03      9.72512388E+01
      7.30957068E+02     -2.03564782E+03      7.98608154E+02
     -4.48249552E+02     -1.63319067E+02      1.43077623E+02
      2.78109112E+03     -9.31109640E+02      6.81157435E+02
     -1.78095345E+03     -2.55184459E+03      1.45085297E+03
     -7.15888406E+02      1.89213300E+02     -3.25064895E+02
      6.09280253E+02      4.95558943E+02     -2.00239121E+03
     -1.68019524E+02      5.54571723E+02     -1.48654299E+02
      3.99546959E+00      1.00063271E+02     -4.23850878E+01
     -8.71865843E+02     -2.78328518E+02      1.25917262E+03
      8.98334875E+02      3.48611408E+02      8.04570532E+02
      2.20980349E+02     -2.30161102E+02     -8.72592633E+01
      8.78048871E+02     -4.43202001E+03     -2.34763159E+03
      2.82872161E+02     -5.85457580E+02     -1.41432699E+03
      1.04014392E+03     -3.99715866E+02     -7.48866349E+02
      8.95959665E+02      4.18543365E+02      6.02843313E+02
      1.66695868E+03      1.15060733E+03     -6.37702311E+02
     -3.73802391E+02      1.12850381E+03     -1.46757059E+02
     -2.13860047E+02      3.45592618E+02      1.60094169E+03
      2.65897293E+02      1.07367381E+03     -3.47259246E+03
      2.36225595E+03     -1.02333795E+03      9.37623169E+02
      8.39855246E+00     -2.63616740E+02      1.43199522E+02
     -1.68838976E+03     -1.84858754E+03      1.73066007E+03
     -7.44127286E+02     -2.52060161E+03     -4.48650965E+02
     -7.24504455E+02     -1.42150887E+02      2.92934806E+03
     -6.31241628E+02      3.80290919E+02     -3.07597046E+02
     -7.26232145E+02      2.52417501E+03     -2.27480165E+03
     -3.55683481E+03     -8.65821078E+02      9.61263560E+02
      2.02250650E+02     -1.04431481E+03     -6.52047195E+02
     -3.07122483E+03      4.53431802E+02     -1.32572155E+03
      1.65969266E+03      1.83596733E+03      3.63143861E+02
     -8.98090305E+01     -7.49331785E+02      4.88475653E+01
     -6.92033374E+01     -2.38942577E+02      3.78623649E+02
     -6.64685943E+01      1.53124143E+03     -8.81116044E+02
     -3.57634941E+02     -8.04911276E+01      8.27392319E+02
      1.53742609E+03     -6.27691221E+02     -1.31474522E+03
      2.26392710E+03      7.60081141E+01      1.36791965E+03
     -6.09310862E+01     -5.91934780E+02      1.44320137E+02
      1.32978280E+03     -1.90712883E+03      1.52088737E+03
     -2.01524117E+02     -6.29642381E+02      1.08791194E+03
     -5.06795516E+02      2.96324430E+02     -1.92604863E+02
      2.42510385E+03      1.28888134E+03     -1.12128133E+03
      2.31981440E+03     -1.48186788E+03     -1.01182491E+03
      2.77534938E+02      6.94058200E+02      4.81464119E+02
     -7.02595579E+02      1.45532922E+03      1.11174337E+03
     -3.58004292E+03      1.35288559E+03      4.92289511E+02
      1.88676425E+02     -1.04288091E+03     -6.87684373E+02
     -2.59407601E+03     -1.26953587E+02      1.19234694E+03
      1.87874750E+03      2.47731978E+03      5.08319068E+03
     -4.44941077E+02      1.89861134E+02      8.30833013E+01
      2.19625141E+02      2.37394692E+02      1.49601195E+03
      2.99957816E+03      1.04949609E+03      4.37830424E+02
      8.71913989E+02      3.07933513E+03     -1.98755064E+03
      4.39133701E+02     -4.98613927E+02      3.36954332E+02
      6.99308578E+01      1.06530923E+03     -2.98192592E+03
      1.89366618E+03     -4.17328983E+02     -7.81409189E+02
     -5.09200839E+00      5.25736079E+02      1.75468981E+03
     -5.82081947E+02     -4.75907182E+01      2.49441608E+02
     -9.51583705E+02     -5.21523329E+02      1.14481750E+02
      8.48761073E+02     -1.08712161E+03      1.30307569E+03
     -7.52583648E+01      3.37181212E+01      1.78687585E+02
      2.47029547E+03     -1.76023882E+03      1.39960005E+03
      5.70898752E+02     -9.74813864E+02     -1.05984816E+03
     -8.98882822E+02      1.28719437E+02     -3.79341662E+02
      1.51342904E+03      1.41086513E+03     -8.42111155E+01
     -1.30816610E+03     -3.10967980E+02     -1.57365331E+03
      2.26815492E+02     -1.98347736E+02      3.95722875E+01
     -1.51403376E+02      7.47551862E+02     -1.79752841E+03
      1.41393253E+03     -2.71607805E+03     -1.24299586E+03
      4.61403492E+02     -2.74408261E+02     -2.28724437E+02
      4.36815877E+02     -1.28282237E+03      1.68547654E+03
      3.24948511E+02      2.13023568E+02     -3.70236028E+02
      1.94078515E+02     -7.69883961E+02      1.19112332E+02
      1.11354860E+03      4.99740022E+02      6.71023333E+02
      3.58122453E+03      1.32685620E+02      1.61329036E+03
     -2.07951436E+02      3.33113108E+02     -4.60327938E+02
      2.37948172E+03     -8.37933036E+02      4.68051246E+01
      1.93535287E+03     -1.41940410E+03      3.56022220E+02
      1.19332999E+02     -4.42188098E+02     -1.46779932E+02
      2.44002473E+03      1.82310671E+03      1.04591822E+03
     -3.39521486E+02     -2.31408356E+02      1.46165428E+03
      4.56740494E+02     -7.58903311E+02     -3.46920865E+02
     -1.53157364E+03     -9.19011983E+02     -5.40122034E+02
      2.80318687E+03      2.76447538E+03     -4.95163466E+02
      1.01919248E+02      5.84404963E+02      7.87849175E+02
      1.00929553E+02     -6.72992854E+02     -2.25582886E+02
      8.47043294E+02     -9.18714060E+02     -6.41572538E+02
     -4.78782637E+02      1.90849075E+03      3.03141531E+02
      2.03610448E+03      8.71189560E+02     -2.59353112E+03
      3.59747556E+01     -1.14219801E+02     -4.58897480E+01
      2.09080468E+03     -9.47414128E+02      4.16952369E+03
     -2.40332714E+03     -2.96100027E+02      1.32586581E+03
      4.27479723E+02      3.16049632E+02      5.24852518E+01
      8.18575577E+02     -1.92192725E+02      2.15809103E+03
     -9.27207853E+02      1.28790026E+03     -1.49727509E+03
     -8.21227932E+01     -3.59941756E+02      4.92586140E+02
     -2.87788290E+02      2.22609759E+02     -2.39244913E+03
     -1.76990419E+03      1.90587843E+02     -2.34201848E+03
      3.60551492E+02     -6.27304826E+02      5.49333630E+02
      5.86202381E+02     -8.13868927E+02      6.88966097E+02
     -7.69045219E+02     -3.14599684E+01      5.03958228E+02
     -2.33917968E+02      2.49007677E+02      2.87321820E+02
     -1.22124397E+03     -5.64312598E+02      6.86460245E+01
     -1.01134165E+03      2.52924290E+03     -2.26958357E+02
     -2.11557304E+02     -3.75302616E+02      5.22941772E+02
     -5.41781778E+02      1.50192340E+03      1.35235118E+03
      3.54435265E+02     -2.20062933E+03      2.44921690E+03
      3.91194432E+02     -7.30793376E+01     -1.62427140E+02
     -9.69247627E+02      1.32697659E+03     -9.18221632E+02
      1.84918738E+03     -1.48043594E+03     -1.67939246E+03
      4.21369729E+02     -2.41757920E+01      4.52917669E+02
      1.12057367E+03      2.09190272E+03     -2.51975068E+02
      9.55258066E+02     -3.45387977E+03      1.44227149E+03
      1.01258799E+02     -5.93712773E+02     -2.07923691E+02
      2.27603109E+01     -1.64502234E+03      2.30412230E+03
     -5.69963289E+02     -9.37647771E+01     -7.01017542E+02
      1.93711840E+03     -1.44438387E+03      1.23385087E+02
      3.66685672E+01      5.37032355E+01     -1.21984845E+02
      2.24571686E+03      1.34161571E+02      1.07481515E+03
      2.21031296E+02     -6.05948803E+02      1.27714354E+03
      1.65596990E+02      6.78463345E+02      1.55125717E+03
     -7.88529978E+01     -6.17387483E+02      1.18653206E+03
     -1.85729925E+03     -1.77953676E+03      1.93416120E+03
     -2.52512789E+03     -1.50614052E+03     -1.15299405E+03
     -5.62326549E+02     -5.03371756E+02      6.79386835E+02
     -2.80026033E+03     -1.39066559E+03      2.00650936E+03
      1.92671440E+03     -1.46070519E+03     -3.00826764E+03
      2.08246560E+02      2.81006954E+02      4.85091496E+02
      1.27324378E+03     -8.92117891E+02     -1.65244252E+03
     -3.26151659E+02      8.57641686E+02     -9.26130404E+02
     -4.16787215E+02     -1.07298715E+03      6.17329666E+02
      1.12066441E+03     -1.47802072E+03      1.69043118E+03
     -4.54910826E+02     -1.54925591E+03      1.22725666E+03
      2.89818313E+02     -1.00703710E+03      1.07955454E+03
     -1.21291324E+03      2.34321800E+02     -1.52499378E+02
     -3.00011287E+03      9.28278948E+02      4.76025630E+02
      1.97310409E+02     -5.82302744E+01      5.41236762E+02
      1.59571855E+02     -2.90204914E+03     -2.95888622E+03
      8.89282301E+02      1.03075660E+03      3.74619590E+02
     -6.13557387E+02      3.57048977E+02      3.22454473E+02
     -1.59084704E+03     -1.42720779E+03     -8.36870091E+02
      1.61574785E+03     -2.47066644E+03     -1.36734043E+03
      6.58564812E+02      1.21376239E+03      2.85706088E+02
     -1.77653709E+01      8.91553423E+02     -2.00338053E+03
     -5.05273543E+02     -1.27116895E+02      6.13481906E+02
      9.44869067E+01      3.09391650E+02      5.92730582E+02
      1.43445629E+03      3.67486869E+02      1.33208717E+03
      2.27314263E+02     -1.99430945E+02      3.49861696E+02
     -2.20852226E+03     -6.85777963E+01      1.43949801E+02
      7.81968452E+02      1.57067609E+01     -8.11572182E+01
     -3.87785582E+02     -5.43062372E+02      1.44280069E+03
     -1.09606285E+03     -6.71997564E+02     -2.26140244E+03
     -3.50424763E+02     -1.64521796E+03     -1.21937630E+03
      5.53311764E+01     -7.45144707E+02     -1.11297006E+02
      5.18241597E+02     -3.51520572E+02     -9.68745060E+02
     -4.09083689E+02      1.11923635E+03     -4.01757455E+03
      7.14397661E+02     -5.11908969E+02     -2.10992209E+02
      5.76323122E+02      2.04988630E+02      5.73279281E+02
     -1.86670707E+03     -2.86786130E+03      1.85096934E+03
      8.42702865E+02     -2.28758411E+02     -4.23283918E+02
     -8.56105202E+01     -8.76792088E+02     -1.11436992E+03
      1.21009477E+03      1.93524693E+03     -2.66577636E+00
      3.16421884E+02      1.54033478E+02      8.27390611E+02
     -1.13309327E+03     -2.41186118E+03     -8.67289281E+02
      1.20636476E+03      4.15588756E+02     -3.55227104E+02
      7.88527987E+01      3.28450856E+02     -5.10909456E+02
      2.50857377E+02      4.50401246E+02      3.41732818E+02
     -2.79141267E+03     -6.96705185E+02      2.37603049E+03
     -2.23674638E+02     -1.10310966E+03      1.18637993E+02
      1.14441949E+03      5.52804363E+02     -1.64081059E+03
     -2.46655999E+03      1.19286176E+03     -2.06697397E+03
      7.35794078E+02      4.14689715E+02      3.02163973E+02
     -5.22031765E+01      9.85790511E+01     -2.23568681E+03
     -3.17171118E+02      1.83220836E+01      3.51303002E+02
     -5.23984759E+02      5.14862744E+00     -2.09024851E+01
      2.06930208E+03     -3.92227785E+02      3.58940256E+02
     -1.92730491E+03     -2.33616681E+03     -4.66803866E+02
     -1.12207809E+02     -9.01779367E+01      3.85585678E+02
      2.10119716E+03     -4.99855283E+02     -1.84701131E+03
      7.78084878E+02      5.48712324E+02      5.53888791E+02
     -2.75920663E+03     -2.06940045E+03      7.91717344E+02
     -2.79650912E+02     -1.20668316E+02     -4.95815498E+02
     -2.88913013E+01      8.00968539E+02     -6.42292089E+02
     -2.97544671E+02      3.37388545E+02      2.26730220E+02
      2.01031153E+03      4.15900681E+03     -1.21052980E+03
     -1.03229850E+03      4.82876345E+01      2.89856280E+02
      3.40060637E+03     -2.04718051E+03     -4.68490058E+01
      9.56290690E+02      2.52043509E+02     -9.00539439E+02
     -4.83180633E+02     -2.02220437E+02     -7.04646654E+02
      1.98649981E+03      2.23910957E+03     -3.64785549E+02
      4.85683015E+02     -4.42278897E+02     -2.38023382E+03
      3.98311685E+02     -4.07828724E+02      2.19393717E+02
      1.58275471E+03      2.28028832E+03      1.66953479E+03
      6.81913954E+02      2.36315320E+02      3.70581368E+02
     -5.05036241E+02      8.51809180E+01     -3.58672198E+02
      2.32592880E+03      3.48084210E+01      1.06663007E+03
      3.51582237E+03      2.32191517E+02      2.90656597E+02
      8.06222469E+02     -6.74174970E+02     -1.96633769E+02
      1.36352705E+02     -9.46356772E+02     -1.09126115E+03
      5.90849058E+02     -4.21516314E+02      1.22561111E+03
      2.02425602E+01      1.39760305E+01     -3.97407770E+02
     -1.73556133E+03     -5.78386069E+01      1.60830161E+03
     -5.80937907E+02      1.75434795E+03      9.61274151E+02
      3.17751441E+02      1.08857711E+02     -3.61311372E+02
     -2.72579003E+03      3.53697009E+02      8.47691288E+02
      5.07174085E+02     -1.08635677E+03      1.91578808E+03
     -4.49152513E+02      4.63540686E+00      3.53564891E+02
      3.79831369E+03      1.42004965E+03     -1.27314730E+03
      2.39037350E+03      5.97280176E+02     -8.46225359E+02
     -3.50708824E+02     -5.43956587E+02     -5.67119031E+02
      1.39306050E+03      3.71561073E+03      4.58276339E+03
      5.44358357E+02     -2.60776942E+03      5.87836042E+01
      1.06058541E+03      3.82034633E+02     -5.46606123E+02
      3.44312079E+02     -2.06807893E+02      7.82225841E+01
      5.11357889E+02     -2.56413312E+03      2.26512185E+03
     -9.84622123E+02      2.48223076E+02     -2.01412323E+02
      3.17556895E+03     -3.30223008E+03     -1.81884239E+03
     -7.30115154E+01     -3.61122159E+02     -2.54377804E+02
     -2.30310092E+03      4.81908068E+03      2.85762927E+03
     -5.49925237E+02     -1.07943058E+03      1.29288507E+03
     -2.60935131E+02      1.31129252E+02     -2.06756598E+02
     -1.14588497E+03      1.99015982E+03      1.62731184E+03
      1.10797541E+03      1.10457742E+03     -1.39534795E+03
      6.12351980E+01      7.64533390E+02     -1.95809184E+02
      5.93271006E+01     -1.12849907E+02      2.04047784E+02
     -1.51342251E+02     -9.16332132E+02     -5.55140787E+02
     -7.82465210E+01     -9.37758585E+02      7.42246171E+02
      1.88242691E+02      1.39527041E+03      3.08179559E+02
     -2.80255104E+03     -1.34486566E+02     -1.79635520E+03
      1.77918944E+01      4.20874140E+02      3.90056144E+02
     -6.36893692E+02      1.23444426E+03      9.81388793E+02
      1.42595100E+02     -4.18299215E+02     -2.63925745E+03
      4.62745649E+02     -5.80075361E+02      2.09402956E+02
     -1.72111875E+03      2.65676097E+03     -1.85797582E+03
     -2.58624676E+02      9.48065083E+02     -1.29014083E+02
      1.95538492E+02     -4.53591032E+02      5.92970717E+02
      2.73050804E+02      3.01460711E+02      8.91967403E+01
     -1.00428259E+02     -2.87296652E+03     -1.31978075E+03
      1.28609016E+03      7.65197717E+02      5.12015006E+02
      7.15413616E+02     -3.43690655E+03     -5.44284800E+02
     -5.25583028E+02      1.92067990E+03      6.39537052E+02
     -8.15175777E+03      1.59072548E+04     -1.23747163E+04
      2.05036602E+03      1.58514577E+03      4.00333928E+02
     -2.22358370E+03     -4.30142895E+02     -1.92867205E+02
     -1.22025107E+03     -1.51331368E+03     -1.60664184E+02
      1.91415152E+02      7.95942418E+02      9.19620472E+02
      3.47283499E+02     -1.74629162E+03      2.18556110E+03
     -7.44540491E+02     -2.03711287E+03      2.76064017E+02
     -5.83652417E+02      7.08203623E+02      1.23329707E+03
     -5.91935520E+02     -8.20089114E+02     -6.84334322E+01
     -2.26192714E+02     -9.21725611E+02      6.80426437E+02
      1.53818063E+03     -5.85590773E+01     -4.29930135E+02
      1.10664712E+03      6.17412344E+02      4.21937919E+02
      2.69085814E+03     -2.36946836E+03      3.36571030E+02
      1.26666810E+03      1.61732759E+03      2.52033074E+03
     -7.48467501E+02      1.77749022E+02     -9.69706019E+02
     -5.47018113E-01     -2.92137271E+02      6.62934051E+02
      1.13587362E+03      5.14135782E+02      2.94352990E+03
     -5.17023560E+02     -4.84686234E+02      1.34492190E+02
     -6.49968972E+02     -7.39567761E+02     -1.47506865E+03
     -6.80991275E+02      1.01756553E+02      1.86194465E+03
     -4.40357248E+02      2.20570673E+02     -5.56243507E+02
     -1.22217129E+01      5.24849718E+00      2.59154239E+03
     -7.73798313E+02     -1.90009525E+03      2.29498582E+03
      7.45250020E+02     -5.70476173E+01     -1.25665118E+02
     -2.19202831E+03     -2.85387101E+03      7.84871140E+02
     -7.82226324E+02      3.30493834E+03     -2.54736257E+02
     -3.65519405E+02      3.97317360E+02     -8.55618864E+01
     -8.61388660E+02      2.98355871E+03     -1.28633738E+02
      3.59097008E+02     -7.55333825E+02      3.38471225E+03
     -1.25683841E+03     -9.12538060E+02      1.39341462E+02
      1.59812037E+03     -7.66470294E+02      8.05025871E+02
     -4.93588703E+02     -1.02661175E+03      6.57831895E+02
      1.04373553E+02     -7.54529841E+02     -2.55630904E+01
      2.25969264E+03     -1.11595357E+03      3.19595163E+02
     -1.42011288E+03      1.73016287E+03     -4.34462128E+02
     -9.68699086E+02     -7.16047096E+01      3.46082620E+03
      1.92269030E+02      1.59048878E+02     -4.17212505E+00
      2.13924569E+03     -2.90575722E+02      5.11698187E+02
      6.83137840E+02      1.69487347E+02      1.92807402E+03
     -6.44682679E+02      8.74376356E+02      1.31351088E+03
  }
}

Hamiltonian = DFTB {
  SCC = Yes
  SCCTolerance = 1e-6
  MaxSCCIterations = 200
  ForceEvaluation = Dynamics
  MaxAngularMomentum = {
    C = "p"
    H = "s"
  }
  Charge = 0.0
  SpinPolarisation = {}
  Eigensolver = Standard {}
  Filling = Fermi {
    Temperature [Kelvin] = 300.0
  }
  SlaterKosterFiles = Type2FileNames {
    Prefix = "../../pbc-0-3/"
    Separator = "-"
    Suffix = ".skf"
    LowerCaseTypeName = No
  }
  KPointsAndWeights = {
    0.0000000000000 0.0000000000000 0.0000000000000 1.00000000000000
  }
  Dispersion = LennardJones { 
    Parameters = UFFParameters {}
  }
}

ParserOptions = {
  ParserVersion = 3
}
