Geometry = GenFormat {
<<< "system.gen"
}

Driver = VelocityVerlet{
  Steps = 50000
  TimeStep [fs] = 0.2
  MDRestartFrequency = 5
  Thermostat = None {
    #InitialTemperature [Kelvin] = 300.0
  }
  Xlbomd{ 
    IntegrationSteps = 6 
    MinSccIterations = 2
    MaxSccIterations = 200
    SccTolerance = 1e-6 
  }
  Velocities [m/s] {
     -9.53074819E+02      5.75911693E+02      1.77483520E+02
      7.59231900E+02     -1.62537183E+03      1.69396997E+03
     -3.07598079E+03      9.03882481E+02      5.81892990E+02
      3.18744141E+02      5.18596248E+02      2.82753923E+02
      4.49736464E+03      6.17330693E+02      7.07941715E+02
      7.63105243E+02      1.23499843E+03     -1.77784733E+03
      5.36064669E+02      4.87498124E+02     -1.86735089E+02
     -5.50379047E+02     -7.32412679E+02     -1.22137186E+03
     -5.81086369E+01      2.27142444E+03     -1.35197010E+03
      6.54608979E+02      5.46869938E+02     -3.33821359E+02
      1.89925426E+03     -1.14700188E+03      2.06543704E+03
     -8.67361138E+02      1.89000484E+03     -6.09330136E+02
      2.31679867E+02      5.03063146E+02     -9.98922604E+01
      2.09675649E+03     -1.45738037E+03      2.13942763E+03
     -7.28468473E+02     -2.48849845E+03     -1.64201602E+03
      2.63925771E+02     -4.87587016E+02     -4.66775412E+02
      4.16194911E+02      1.04225080E+03      5.29162639E+02
      2.97336893E+02     -1.28940859E+03     -3.04116676E+02
      8.92532008E+01     -2.85831974E+02     -6.00206620E+02
      2.85038439E+03      3.49954843E+02     -1.93780775E+03
     -1.15366794E+03      1.05613763E+03      1.06998762E+02
     -8.69757630E+02     -8.14525402E+01     -6.33800653E+02
     -3.73074780E+02     -8.58324204E+02     -1.28878844E+03
     -1.40541112E+03      1.78494659E+03     -1.92975555E+02
     -9.31562023E+01      1.08974257E+02      1.76489551E+02
      4.27510937E+02     -2.00479361E+02      2.10174559E+03
     -1.38712484E+03      2.06911582E+03     -1.25559294E+03
      6.59951734E+02     -1.74683753E+02      2.25889179E+03
      2.76741694E+02     -5.90129845E+02     -4.70644602E+02
      3.23209236E+03     -9.22215202E+02      4.53507616E+02
      1.12818003E+03     -2.90774958E+03     -7.07490660E+02
      3.77285917E+02     -1.38718279E+03      9.74198750E+02
      5.16613952E+02     -2.21825404E+00     -4.62594645E+02
      3.31275818E+03     -5.02507900E+02     -1.32279439E+03
     -9.55072550E+02      5.66668119E+02     -4.89099034E+02
      6.12354183E+01     -3.30296955E+02     -1.44513686E+02
     -8.11022192E+02      2.28684175E+03     -2.50656557E+03
      2.68378756E+02     -2.06542022E+03      3.31193423E+02
     -7.17535423E+02      6.97418548E+01      8.52458361E+00
     -6.72522018E+02     -4.16814806E+02      8.69468601E+02
      2.74558125E+03      2.16288560E+03      1.65931232E+02
      2.14716066E+02      4.93138545E+02      3.44590721E+02
      7.67090777E+02     -1.12626599E+03     -9.73401903E+02
      2.65263250E+03     -1.37746503E+03      9.15757797E+02
     -6.08050561E+01      4.01115984E+02     -7.84562601E+02
      1.34095788E+03     -1.42302771E+03     -3.87214789E+02
     -3.02359511E+03      3.14810101E+03      8.21145340E+02
     -3.14311546E+02      2.67243541E+02      1.40555899E+02
      2.83149197E+03      1.21561929E+03     -1.37265576E+03
      4.32005322E+02     -1.92763089E+02      8.93568337E+02
      4.75920434E+02     -8.22052879E+02      3.13610378E+02
     -8.48217852E+00     -1.04786110E+03      1.65752439E+02
      2.34190503E+02     -1.02875249E+03      5.45897022E+02
     -3.42469531E+02     -1.70814094E+02     -2.54222199E+02
     -1.58680960E+03     -7.48522788E+02      2.37124685E+03
     -1.21477315E+02      4.17434174E+02      1.19372428E+03
      3.14514180E+02     -2.01733741E+02      9.28801510E+01
      5.66812395E+02     -1.03195565E+02     -7.61648493E+02
     -2.17906550E+03      2.15699423E+03     -1.09901846E+03
     -1.39910090E+03     -1.18628801E+03      1.44368710E+03
     -5.50318968E+01      6.72025852E+02      4.11333140E+02
     -8.78114067E+02     -4.17063776E+02     -1.98698635E+03
      7.56507453E+02     -2.15776852E+03      1.04549687E+03
     -1.60467732E+03      1.64917230E+02      5.34950108E+01
     -3.12558575E+01      5.54338628E+02     -1.42844229E+02
      1.66407477E+03      2.13118962E+03     -3.95851959E+02
     -2.45834603E+01     -9.70333331E+01     -5.75211902E+02
     -2.05173897E+02     -4.87011222E+02      5.89945038E+02
     -2.04784760E+03     -2.53647770E+03     -4.52605821E+02
      3.27409854E+02     -1.59009770E+02     -9.25862687E+02
      1.01583437E+02     -1.67627227E+02     -6.25908104E+02
     -1.00324735E+03      9.40978101E+02     -1.60436740E+01
     -1.41152979E+03      2.85825677E+03     -1.51942438E+03
     -5.30028064E+02     -1.01770565E+02      1.93594276E+01
     -2.54173309E+03      6.41058883E+02     -8.02269577E+02
      3.11891211E+02     -1.06522395E+03      2.45374837E+02
      4.21287514E+01      5.31098361E+02     -1.11667758E+02
      1.41934425E+03      6.44094997E+02     -3.06738169E+02
     -1.59546901E+03      4.19758074E+03     -1.29321737E+03
     -5.81327699E+02      6.68670584E+02     -1.14954169E+02
     -1.03931559E+03     -2.10285399E+03     -1.73860754E+03
      2.73788145E+03     -4.34820162E+02     -2.00671306E+03
     -5.51262079E+02      6.84501484E+02     -2.55915616E+02
     -7.73445520E+02     -2.32933059E+03      4.59179611E+02
     -7.43266947E+02      5.63436560E+02      2.06924134E+03
      3.83516259E+02      8.64027539E+02     -5.02454992E+02
      5.42031049E+02      7.08556232E+02      2.64017658E+03
      4.04891618E+03      1.20783051E+03      1.05676120E+03
      5.13338294E+02     -5.42420958E+02      2.38228194E+02
     -2.16182986E+03     -4.22398311E+02      1.36005902E+03
      1.06931315E+03     -2.70144432E+02      2.41606036E+03
      2.06503715E+02      1.41381061E+03      1.35538827E+03
     -5.31973971E+02      1.10869014E+03      1.02016921E+02
     -1.81349978E+02      1.05461576E+03      2.26499954E+03
     -1.71581594E+03     -8.24016300E+02     -2.10793988E+03
      8.30212788E+02      1.04014290E+02      1.40349445E+03
     -3.61376811E+02      2.63319173E+02      4.45981024E+02
     -1.53309898E+03      7.47972363E+02      4.39207425E+02
      7.66815532E+02      5.20734278E+01      2.82481543E+03
     -2.38384983E+02      3.19111738E+02     -4.71733898E+02
      1.70389653E+03     -1.55273969E+03     -1.07942025E+03
      3.91314786E+02     -1.75043035E+03     -5.75998872E+02
     -2.75867544E+02      4.94735985E+00     -2.41675964E+02
      2.39222924E+03     -5.97466029E+02     -4.28726839E+02
     -2.85716094E+03      1.16486890E+03     -2.41939603E+03
      2.36340085E+02      5.67720522E+02     -9.67437530E+01
     -3.38368474E+03     -1.16654876E+01     -8.37945426E+02
     -3.44692961E+02     -5.71624595E+02      1.71213308E+03
      8.86328773E+01      7.32201420E+02     -7.40591460E+00
     -2.37460189E+02      3.34696411E+02      7.52646217E+02
      6.19868837E+02     -1.98473619E+03     -8.76151875E+02
     -9.51292323E+01      1.14941314E+02      2.12677558E+02
      1.10154519E+03     -2.77942310E+03      4.40112258E+02
      8.56148939E+02     -8.86195822E+02      1.66210490E+03
      1.10150904E+02      7.64461464E+02      2.07316555E+02
      2.02584848E+02     -6.68333081E+01     -2.21926343E+02
      7.76768810E+02      2.44325037E+02     -4.78765319E+02
     -3.00432400E+02      8.43518603E+02     -1.15588923E+02
     -8.22400816E+02     -1.29999304E+03     -1.00041542E+03
      1.33658495E+03     -2.04875282E+02     -8.65754077E+02
      3.51833597E+02      2.88430489E+02      4.75758942E+02
      1.17850634E+03      4.20355100E+01     -1.07010201E+03
      2.36015355E+03      2.12231556E+03     -3.82822080E+02
     -4.76058282E+02      8.70317330E+01     -3.07632212E+03
      9.65738227E+02      1.18941521E+01     -1.15822535E+02
     -2.94643287E+01      3.73197827E+03     -2.92896162E+03
      2.52810515E+03      1.86654926E+03      2.03400955E+03
     -8.19756227E+02      1.85505377E+03      7.03285269E+02
     -6.57786582E+02      3.08773494E+02      4.21507145E+02
      1.58968676E+03      1.19885305E+03     -4.47917594E+01
     -1.38979868E+03      1.03269404E+03      6.41049210E+02
     -9.95904975E+00      9.84422832E+02     -3.95272359E+01
      2.83333633E+03      1.64002291E+03      2.38904263E+03
     -1.70417262E+03     -1.59077735E+03     -2.01165748E+03
     -5.13455929E+02      1.03424401E+02      9.06586465E+02
      6.85549295E+02      3.01306222E+03      1.08305428E+02
     -1.74301847E+03      1.64742683E+03     -1.11875407E+02
     -9.59961678E+01      5.96954577E+01     -3.93771820E+02
      1.73386161E+03     -1.77148963E+03     -2.75358558E+02
      9.56874105E+02     -1.16063928E+03      2.76350084E+03
      8.60585420E+01      1.48493975E+02     -5.82651077E+01
     -1.66863738E+03     -1.40855132E+03      2.14723959E+03
      1.28641573E+03      3.64110693E+03     -1.18600770E+03
     -4.68239904E+02      3.82105553E+02     -4.07431782E+02
      8.22530760E+02      1.10128311E+03      1.14651560E+03
     -1.03189489E+03      8.95864487E+02     -2.89413279E+03
     -1.38463425E+02      3.96006494E+02      4.85619771E+02
     -3.68379028E+02      1.79733218E+03      7.25991563E+02
     -5.92698846E+02     -1.18648788E+03     -4.73881376E+02
     -3.39480325E+02      1.06500670E+03     -8.62883085E+01
     -9.03201373E+02      5.75805493E+02     -2.25709115E+03
      1.06915947E+02      6.55732319E+02     -1.72935764E+03
     -1.00072886E+02     -2.97521626E+02      3.79476912E+02
     -2.21230393E+03     -5.69927875E+02     -1.27665743E+02
      2.37450960E+01     -1.26579840E+03      1.93107932E+02
     -3.28969635E+03     -1.90976956E+03     -5.01130758E+02
     -1.73457965E+02      1.59792931E+02     -4.56988138E+02
     -9.72903918E+02     -1.19078491E+03     -1.80712661E+03
      1.32741666E+03     -4.15333113E+02      1.15165827E+01
     -2.70545506E+02      1.32095356E+03     -5.28880663E+02
      3.00802316E+02     -1.26719878E+00      6.84278899E+02
      8.36510011E+02     -7.42860836E+02     -2.72601807E+02
     -6.69160794E+02      1.88926042E+01     -2.80293106E+03
     -7.61988835E+02      1.42868240E+02      7.16212608E+02
     -1.49961608E+03     -9.65331060E+02      4.94465928E+02
     -1.13673716E+03      3.18804031E+03      1.45146634E+03
      2.93985173E+02     -4.06817818E+02      3.62349288E+02
      1.10532877E+03     -3.85966595E+03     -2.11804162E+03
      4.65149333E+02      1.68770576E+03      4.39633468E+01
     -3.94293798E+02     -7.81874880E+01      9.36733354E+01
     -1.17215439E+03     -5.43220202E+01      9.13922435E+02
      8.15011232E+02     -1.06618571E+03      8.74675168E+02
      9.52500310E+01     -1.17752553E+02     -2.74035716E+02
     -9.59309794E+02      1.03514259E+03     -5.72930744E+02
     -1.11026138E+03      2.16870390E+03      2.07451096E+02
      3.23520371E+02     -7.21227954E+01      4.54180923E+02
     -3.29614170E+02     -8.02703247E+02      1.28599338E+03
     -2.81993117E+03      6.44670848E+02     -3.59943870E+02
      5.59252460E+00      4.50050186E+02     -1.19353095E+01
     -9.32019707E+02     -7.64331082E+02      2.63898603E+03
     -8.57809215E+02      2.59666383E+03      1.11330946E+02
      4.73859294E+02      9.42610641E+02      2.58306968E+02
      3.31099496E+02     -1.71744695E+02     -9.18495703E+02
      5.45664983E+01      4.95209412E+02     -1.82445940E+02
     -8.48468355E+02      7.21911266E+02      5.49457230E+02
      5.54663627E+02      1.67720330E+03      2.90904845E+03
      5.17358652E+01     -8.38441803E+02      1.94863823E+03
     -2.23973378E+02      1.16027504E+03     -3.33131618E+02
     -5.00002546E+02     -7.61088893E+01     -2.05485651E+02
     -1.18056919E+03     -1.05625787E+03      8.50898387E+02
      4.26737902E+03     -1.32334528E+03      8.39663289E+01
      1.79777357E+03      1.24532682E+03     -2.49368111E+03
      2.73802788E+02     -5.23747204E+00     -6.85493727E+02
     -2.68447216E+03      1.14621026E+03      6.93543164E+02
      3.59627717E+02      3.15726188E+02      2.53737144E+03
     -4.32549535E+02     -7.64426381E+01     -3.83831394E+02
     -1.43504117E+03     -3.16751502E+03     -1.20475708E+03
      1.18194248E+03     -1.33269649E+03     -7.38737492E+02
     -6.44555565E+01      6.11828967E+02      2.13316122E+02
      3.91573356E+02     -1.94467349E+03     -6.85070514E+01
      3.28087356E+01      4.54013133E+02      1.14363849E+02
      1.86002807E+01     -8.45190705E+00      1.00453862E+03
     -2.34550604E+03     -2.29632938E+02     -1.85530445E+02
     -1.47310868E+03     -7.33751872E+01      1.53121225E+02
     -8.90523753E+00     -1.77930609E+02     -2.24511634E+02
      8.31444761E+02     -1.02369492E+03      2.22784184E+02
      4.50136191E+02     -1.22097085E+03     -1.34236242E+03
     -4.87770643E+02     -2.73752046E+02      1.16091622E+02
     -2.65084842E+02     -2.45352517E+03     -5.58581185E+00
     -1.71104850E+02      1.36359996E+03     -5.73684651E+02
     -2.83726657E+02      4.51640951E+02     -4.98473148E+02
      2.98200569E+02      1.89412678E+03      1.24501892E+03
     -1.67526607E+03     -1.73769903E+03     -6.70512910E+02
     -8.85359058E+01      4.42044692E+01      1.73193069E+02
      1.23952291E+03     -4.33845072E+03      8.70120865E+01
      2.28986564E+02     -1.66120667E+03     -1.55559579E+03
     -2.54936570E+02      1.14850086E+02      2.92306761E+02
     -8.58530518E+02     -1.04113640E+03      1.24194132E+03
     -4.36084586E+02      1.83222299E+02     -1.74662543E+03
      1.45687043E+03     -8.04590883E+02      4.35001267E+02
     -1.32591547E+02      1.76046125E+02     -6.62816437E+02
     -1.58663386E+03      2.13698127E+02      3.89036833E+02
      4.14120426E+03      1.89720010E+02      4.30177798E+02
      5.73576510E+02      1.66091805E+02      2.02895335E+03
     -3.50125618E+02      5.60455039E+02     -2.08057373E+02
      1.96216130E+02     -1.42428983E+03     -9.03128931E+02
      8.03083356E+01      3.32982894E+03     -1.30360125E+03
      6.82554803E+02      4.56790427E+02     -1.58738031E+02
      5.45027837E+02     -1.42779174E+03     -5.26626573E+02
      2.27110702E+03      3.40827235E+02      8.40030493E+02
     -1.13705533E+03      5.93526180E+02     -5.98220919E+02
      4.24790553E+02     -7.86950708E+01     -1.01086965E+03
     -4.16175297E+02      1.18495692E+03     -1.17775298E+03
      5.17928703E+02      8.55413868E+02      5.20231391E+02
     -3.88489901E+02     -2.87491131E+03      1.97101021E+03
     -6.30673387E+02      9.81150991E+02      9.40884926E+02
      2.14653608E+02      3.69000935E+02      3.03276193E+02
     -6.11993853E+02     -6.00736773E+02      1.33421646E+03
      1.89990744E+03      8.06402644E+02     -1.75244789E+03
      1.25110664E+02      3.91261315E+02      4.20717584E+02
      2.65703039E+03      1.89880126E+02      1.24226263E+03
      3.85624393E+02     -1.14410347E+03     -1.46998853E+03
     -4.52975390E+02      2.33190233E+02     -4.57737885E+02
      1.49756816E+03      2.67176277E+03     -1.53971689E+03
      8.97125388E+02      1.19228640E+02      1.68351091E+03
     -3.35886625E+02      3.49666934E+01      2.09797529E+02
      1.18264373E+03     -1.15070723E+03     -2.38288406E+03
     -1.12999506E+03     -2.10175032E+03      1.16357796E+03
      1.54106832E+03     -4.10925909E+02     -3.29888791E+02
      6.27809915E+02      7.21666395E+02      1.93835939E+03
      1.51290805E+03      2.62978813E+03      1.68743642E+03
     -1.20659731E+02     -1.95633204E+02     -1.71393222E+03
      2.62598198E+02     -1.77378667E+02     -1.37884378E+02
      3.33278667E+03     -1.50754723E+03     -2.68206642E+03
      2.49024160E+03      1.22043343E+03      8.32152791E+02
      5.64565066E+02     -4.99382867E+02      2.73880771E+02
     -5.43060393E+02      3.90605645E+02     -9.86164733E+01
      2.57091205E+02     -2.93178123E+03     -1.95132810E+03
     -2.03477621E+03     -3.73058313E+02      5.01822500E+02
     -2.33858354E+02     -9.29999881E+02      9.08424233E+02
     -1.48599157E+03     -1.92459030E+02     -2.46677052E+03
     -2.38757855E+03      3.87217962E+02      3.21193375E+03
      5.06702879E+03     -2.01889835E+04      6.16004362E+03
      1.26200542E+03     -1.19681338E+03     -1.87126068E+03
      1.16071160E+03      1.32606651E+03     -1.94023698E+03
      3.91372152E+02      2.59853721E+02      4.31381099E+02
     -2.44044388E+03     -7.86275984E+02     -2.24804873E+03
      1.90058051E+02      2.28314759E+03     -9.19812763E+02
      1.65914479E+02      3.91703543E+02     -4.76469951E+02
      7.25864856E+02     -2.90559796E+03     -7.92318955E+02
     -1.76242405E+03      1.83632181E+03      7.14350673E+02
      1.88162606E+02     -6.12049424E+02     -3.10988684E+02
      6.04268728E+02     -9.40580104E+01      2.09596318E+03
     -4.51674460E+02      1.00373772E+03     -7.01220812E+02
      1.71708761E+02      1.24958713E+02     -1.74041117E+02
      2.47080695E+03      8.28888899E+02      1.00241310E+03
      1.32028870E+03     -2.58489365E+03     -8.90561410E+02
     -1.99532221E+02      2.11457138E+02     -4.19708096E+02
     -1.03566976E+03      1.18312790E+03     -9.46920089E+02
     -1.52837141E+03     -1.32249384E+02      1.35807848E+03
      6.74339330E+01      5.52526480E+02     -3.21097031E+01
     -1.03384932E+03      9.97521559E+02      8.00822393E+02
     -1.61601115E+03     -5.51816879E+02      1.24919847E+03
     -3.91678002E+01      3.00923815E+03      8.16045767E+02
      6.79410216E+02      1.65691649E+02     -3.37246620E+02
     -3.85966345E+03      1.77959865E+03      2.11122369E+03
      2.17531689E+03      1.63212294E+02     -1.16304713E+03
     -5.45810698E+02      1.02827610E+03     -1.45295062E+03
      5.84477703E+02     -8.97047604E+01     -1.53096281E+03
      1.04512110E+03     -2.49034673E+03     -5.64895048E+02
     -2.00036258E+03      1.14452807E+03      1.25871645E+03
      3.53168845E+01      3.35608558E+02     -3.13402044E+02
      4.23779966E+02      1.89770148E+03     -8.50325084E+02
     -5.43416806E+02     -1.84231941E+03     -2.07012174E+02
      3.06713622E+01     -3.90083751E+02      2.47082124E+02
     -2.32225465E+03      9.36196987E+02     -2.08483375E+03
     -3.48306468E+02      5.63904596E+02      1.08590386E+03
     -2.91089375E+02      6.32110151E+02     -1.14370760E+02
      2.60746291E+03     -1.32190979E+03     -2.12081403E+03
      2.38509335E+03     -2.75158864E+02      6.60587952E+02
     -3.34037439E+02      1.77402230E+02      2.36797729E+02
      1.73781813E+02     -3.25573313E+02     -7.60616662E+02
     -2.67418328E+02      1.78868664E+02     -1.10284463E+03
      1.73494577E+02     -1.11253018E+02      3.16838867E+02
     -1.19770926E+03      4.54087838E+02     -1.89346526E+02
     -2.00352026E+02     -5.26738872E+02      1.94477091E+03
      1.63501590E+02     -2.51340396E+02     -6.06510283E+02
      9.29766372E+02     -8.85401684E+01     -3.25472196E+01
     -2.14958979E+02      8.10481330E+02     -5.12728811E+03
     -4.80740919E+02      7.46639050E+02     -2.55649084E+02
     -4.10551117E+03     -2.75723451E+03     -1.24902548E+03
      1.76906333E+03     -1.83011675E+03     -8.62619931E+02
     -6.82124707E+01      5.34606494E+02     -1.70805895E+02
      6.57486084E+02      2.28412262E+03      2.05581516E+02
      9.36196301E+02     -2.51637788E+02      2.05529738E+03
     -6.29155113E+02      2.55365489E+03      8.42749322E+01
     -1.98494548E+02      8.02877610E+02      5.30953842E+02
     -1.11662788E+03      5.32324072E+02     -1.58743194E+03
     -1.32448677E+03      3.12915151E+02      4.74079776E+02
     -2.41360234E+03      1.42713471E+03     -9.07171078E+02
     -1.14292955E+02     -2.56837789E+02     -4.02960539E+02
     -1.02130800E+03     -1.68982021E+03      4.33539822E+02
      3.47111297E+02      7.08672966E+02     -1.12819263E+03
     -3.64125270E+02      1.42821207E+02     -2.15506203E+02
     -2.25958793E+03     -1.32410642E+01     -2.35143162E+03
     -1.68450285E+03      1.77547694E+03     -2.55288884E+02
     -2.93253479E+02     -4.59253973E+02      3.00961342E+02
      2.46515526E+02     -1.07566114E+03     -2.32039486E+02
      3.34566928E+02      2.52439869E+03      7.23974791E+02
     -5.69953491E+01     -8.43965023E+02     -2.01618579E+02
     -2.13623124E+02      1.33987241E+02      1.94667520E+02
     -1.60889268E+03      1.25493329E+03     -1.20546196E+03
     -8.55649263E+02      3.50141385E+02     -5.65733770E+02
     -1.91505301E+03     -8.59150335E+02      1.24200450E+02
     -1.61997111E+02     -1.53009464E+03     -8.42970318E+02
     -6.27627537E+02     -4.51716725E+02     -1.59952960E+01
     -1.97079089E+02     -3.75913942E+02     -6.54936164E+02
     -1.45746435E+03     -1.83418280E+03      1.55551678E+03
      2.95437457E+02     -5.74598309E+01     -8.59314177E+02
     -3.41150294E+02      2.44747423E+02     -1.25424370E+03
      2.34310796E+03     -1.10221354E+03      1.53845974E+03
      2.09110725E+02     -3.59005959E+02      4.50758657E+02
     -1.17644631E+03      2.33900882E+03      1.02126484E+02
     -1.38996000E+03      1.66140258E+03     -1.80511882E+03
     -1.79336362E+02      8.71339957E+02      5.37164244E+02
     -1.54227129E+02      3.71821545E+03     -3.54791494E+02
      1.31102251E+03      1.47542428E+03      3.39772463E+02
      2.52627849E+03      2.44109025E+02     -7.56540694E+02
      5.60965509E+02     -1.21408771E+02     -3.02220224E+02
      1.56419707E+02      2.61070305E+03     -5.61809678E+02
      8.83370876E+02     -1.97915165E+03     -5.88900017E+02
     -2.09351334E+02      5.85416053E+02     -1.07051470E+03
  }
}

Hamiltonian = DFTB {
  SCC = Yes
  SCCTolerance = 1e-6
  MaxSCCIterations = 200
  ForceEvaluation = Dynamics
  MaxAngularMomentum = {
    C = "p"
    H = "s"
  }
  Charge = 0.0
  SpinPolarisation = {}
  Eigensolver = Standard {}
  Filling = Fermi {
    Temperature [Kelvin] = 300.0
  }
  SlaterKosterFiles = Type2FileNames {
    Prefix = "../../pbc-0-3/"
    Separator = "-"
    Suffix = ".skf"
    LowerCaseTypeName = No
  }
  KPointsAndWeights = {
    0.0000000000000 0.0000000000000 0.0000000000000 1.00000000000000
  }
  Dispersion = LennardJones { 
    Parameters = UFFParameters {}
  }
}

ParserOptions = {
  ParserVersion = 3
}
