Geometry = GenFormat {
<<< "system.gen"
}

Driver = VelocityVerlet{
  Steps = 50000
  TimeStep [fs] = 0.2
  MDRestartFrequency = 25
  Thermostat = None {
    #InitialTemperature [Kelvin] = 300.0
  }
  Xlbomd{ 
    IntegrationSteps = 6 
    MinSccIterations = 2
    MaxSccIterations = 200
    SccTolerance = 1e-6 
  }
  Velocities [m/s] {
      8.39352359E+02      9.72045082E+01     -2.85637964E+02
     -7.41060429E+02      1.12616403E+03     -1.53703093E+03
      7.80509690E+02      3.34777699E+03     -5.41491902E+02
     -6.21479297E+02      7.75273105E+02     -5.17291508E+00
     -4.31814151E+02      1.63234199E+03      6.65156253E+02
      2.79177489E+03     -1.58515108E+03     -4.78182679E+02
     -1.94915168E+02     -5.18426247E+02      2.36735658E+02
      1.18670358E+02      1.71325797E+03     -2.66516070E+02
      1.00606187E+03     -2.90823322E+02      1.30766922E+03
     -2.46856132E+02      3.50461471E+01      4.44356496E+02
      2.68908146E+03      3.88553934E+03      9.34906869E+02
     -1.12663144E+02      5.31820046E+02     -6.48220093E+02
      6.90260455E+02     -3.80497678E+02      6.12368584E+02
     -1.66155255E+03      1.74612676E+03     -1.13896522E+03
     -2.05070716E+02     -2.22041611E+03      1.33545427E+03
      3.47344345E+02      4.52411423E+02     -1.92579539E+02
     -2.05119696E+02      2.70551380E+03      7.48003246E+02
      8.35380850E+02     -2.20420886E+03     -1.45100286E+03
      5.19457153E+02      1.62002695E+02     -8.21262118E+01
     -2.69335015E+02      1.59593520E+03     -1.79852589E+03
     -2.01628642E+03     -7.70344339E+02      1.73686025E+03
     -3.02966298E+02      1.22099589E+02      9.05380138E+02
      3.11695992E+02     -5.86674055E+02      2.22142958E+03
      3.94908300E+03     -9.38437732E+02     -1.17852457E+03
     -1.10457449E+04     -1.62830967E+04     -9.35382609E+03
      6.47919981E+02      1.01142049E+03     -3.60997214E+03
      7.00930712E+02     -2.31935253E+03     -5.12891523E+02
     -1.79690048E+03     -2.48316152E+02      4.75917451E+02
      7.12928680E+02     -4.99735232E+02     -3.30018872E+02
     -1.41855405E+03      1.28046491E+03      2.35037929E+03
      8.96458996E+01      8.88905892E+02     -6.11620536E+02
      6.02303367E+00      1.22365635E+03      1.90324049E+03
     -8.77369735E+02      4.41111372E+02      5.10802119E+02
      1.92448025E+03      1.53140028E+03     -4.69970680E+01
      2.18561633E+03      9.94756202E+02      1.68603140E+03
      4.98959083E+02      1.62167137E+02      4.71096203E+02
     -6.30179308E+01      1.64957844E+03      2.81912804E+02
     -7.13583821E+02      2.32461361E+03      1.17500467E+03
      1.13955718E+02      5.82115231E+01      3.27916929E+02
      2.46820801E+02      4.01601411E+02     -9.84429840E+02
      1.57818049E+03     -1.65845997E+03     -4.32134345E+01
     -1.62683301E+02     -4.22537848E+02      8.36590605E+01
      1.39456888E+03     -2.88944514E+03     -9.24414178E+02
     -9.16915580E+02      1.37634761E+03      1.32694371E+03
     -9.39873228E+01      8.71062497E+02     -1.79429025E+02
      2.54640239E+03      1.15366115E+02     -1.31286700E+03
      2.10263599E+03      1.61897917E+03     -8.42328751E+02
     -4.25554144E+02     -1.56196405E+02     -3.43109918E+02
      1.49179205E+03      4.20261366E+02      7.03437584E+02
     -1.65868849E+03     -1.04963612E+03      1.52965316E+03
      3.69146415E+02     -4.71539696E+02      7.33518556E+01
     -1.53621121E+03     -4.95388761E+02      2.80528265E+03
      6.51063164E+02      1.83064268E+03     -2.74248058E+02
      5.31018860E+02      4.82840796E+02      3.83999253E+02
      2.33696273E+02      2.04627818E+03     -1.20775408E+03
     -2.54643782E+03     -3.28034379E+03      1.47148421E+03
     -2.48538155E+02     -8.65323582E+01      1.62220585E+02
      2.17758235E+03      1.47593729E+03      1.98864732E+03
     -1.87644505E+03     -2.24913562E+02      2.64742473E+02
      6.53181517E+02     -1.64255747E+03      1.55061566E+03
     -3.34736793E+02     -4.84907136E+02      1.74496274E+02
      1.34541674E+03     -1.11224503E+03     -3.24432435E+02
      2.72984773E+02      2.77930604E+03      2.63568890E+03
      8.58380108E+02      5.27229935E+03      1.31629703E+03
      8.87642567E-01      8.20890426E+01     -2.37767780E+02
     -1.02951066E+02     -2.91538293E+03     -1.51463433E+03
     -1.43994642E+03      1.02023650E+02      3.34779157E+03
      5.25769887E+02      3.57296769E+02      3.36143011E+02
     -1.70936082E+03     -2.43053345E+03     -1.57780072E+03
     -1.18114093E+03     -1.86038593E+03     -6.03397525E+02
     -2.42271156E+02     -1.20736733E+03      4.37567117E+01
      3.59361135E+02      1.71025967E+03      4.81871040E+01
      2.08295820E+02      9.88227055E+02      6.71030358E+02
      2.16002040E+02      4.53352541E+02     -6.48038049E+02
      8.33948513E+01      6.24215988E+02     -2.35011284E+02
      1.50149944E+03     -6.31032129E+02      7.97493210E+02
     -5.05599486E+02     -5.82540951E+02     -1.32633516E+02
      1.76637892E+03      1.90915679E+03     -8.95133806E+02
     -1.60481650E+03     -1.71842781E+03     -8.27812474E+02
      4.66388100E+02      2.13309840E+02     -4.02056361E+02
     -4.39110422E+03      1.42925280E+02      8.60138034E+02
      8.56534241E+02     -1.89566964E+03     -1.90134484E+03
     -4.32764939E+01      3.85900030E+02      5.06249986E+02
      2.01907883E+03      3.36355634E+01     -6.96588309E+01
     -1.37717901E+03     -5.90660682E+02     -6.45647035E+02
     -6.43799327E+02      5.02128947E+02      3.12267028E+02
      1.55650596E+03     -3.78854434E+02      3.75322818E+02
      4.44406837E+02      1.35939347E+03     -2.20595880E+02
      4.76509960E+01     -1.30020632E+02      6.68087061E+02
      2.64103742E+03      2.86194477E+03      3.51372922E+03
      8.08651632E+02     -4.52484605E+02      1.81066164E+02
      3.64864588E+02      1.51347251E+03     -1.51265348E+02
     -5.08868490E+01      5.10020586E+02      4.71632226E+02
      1.55619345E+02      6.80816940E+02      1.45437559E+03
     -7.36740334E+02     -3.50378763E+02     -1.29976137E+02
     -3.54215324E+02      2.21830394E+03      6.38982846E+01
      8.61315670E+02      7.61367608E+02      4.27123332E+02
     -1.54778701E+03      2.51803546E+02      3.55541828E+03
      3.76222161E+02     -1.73202390E+03     -6.94398524E+02
     -3.37286754E+01      4.83765091E+02      7.75951779E+01
      1.80021215E+02      7.67863328E+02      2.55838672E+03
      1.29752489E+03      4.31112291E+02      1.09157890E+02
      6.20953728E+02      5.91510292E+02     -5.31820378E+02
      1.93904024E+03      5.99484199E+02      3.18185291E+02
      2.27928940E+03     -1.77821878E+03      1.10298267E+03
      8.21623003E+02     -2.30879457E+02      4.76284747E+02
      2.86886600E+01      1.84652873E+03     -1.32128879E+03
      1.88857041E+03     -1.46133448E+03     -5.74043987E+02
      3.75179998E+02      6.64017348E+02     -4.13181989E+02
     -1.58041478E+03      2.35917997E+02     -7.54861260E+02
      7.73365641E+02     -1.37718357E+00     -1.14832657E+03
      2.59508438E+02      3.74392211E+02      4.72369521E+02
     -4.31982578E+02      1.37900455E+03      1.81284932E+03
     -3.04509478E+03      7.13679305E+02     -7.74613303E+02
     -5.12172353E+02     -3.83402707E+02     -5.39705277E+02
     -4.01203676E+03     -5.62632757E+02      4.22938351E+03
      3.43146685E+03      4.79194885E+02      3.55026731E+02
     -8.41567387E+02      3.29541876E+02     -1.16768836E+02
      1.36040299E+03     -2.20767804E+03     -1.55189345E+03
     -1.09835796E+03     -9.66755417E+02     -2.79274916E+03
      5.12584734E+02     -4.83280198E+02     -3.36593058E+02
     -8.77416257E+01      1.39217176E+03     -8.80934118E+02
     -9.92119564E+02      2.58745178E+03     -1.56253839E+03
     -1.67573823E+03     -3.09721812E+02      2.39925208E+03
      1.28702137E+03      1.38984150E+01     -2.05563943E+02
      1.05855953E+03      2.85831652E+02      2.79692043E+03
     -3.44580584E+03     -3.47193569E+03     -4.34977223E+02
     -1.97766424E+02      2.02277493E+03      2.83042936E+02
     -4.28463758E+02      2.34070555E+02      1.19009200E+02
     -2.27275557E+03     -6.41441125E+02     -1.70465035E+02
      1.68991322E+03      2.11774068E+03      1.15903070E+03
     -7.36135525E+00     -8.31254846E+02      2.40127234E+02
      7.40985847E+01     -2.68664459E+03      5.48577407E+02
     -9.67495551E+02     -1.89245550E+03      1.73626880E+03
     -6.34498965E+02     -3.72279770E+02      4.19069141E+02
      1.52390438E+03     -2.62314792E+03     -1.56042388E+03
      1.90945288E+03      4.70108976E+01     -2.65087765E+03
      3.47398578E+02     -8.52891848E+02     -1.95109761E+02
     -1.13626086E+03      7.22803541E+02      2.71806209E+03
     -1.51903836E+03     -7.35125231E+02      2.55773501E+03
     -3.13382443E+02     -7.81221210E+02      3.04621910E+02
      1.39175309E+03      8.31552428E+02     -1.44502553E+03
      2.70580905E+02     -9.48792399E+02      7.49231965E+01
      1.95475650E+02      7.34869446E+02     -3.15928468E+02
     -1.75253660E+03     -1.20649926E+03     -1.44047139E+03
     -2.19683928E+03     -1.05849044E+01     -1.31893926E+02
      5.66999880E+02      4.05675428E+01     -2.71677910E+01
     -3.06036151E+03      8.13757954E+02     -2.17527447E+03
      1.68262622E+03     -1.49885192E+03      3.34251340E+02
     -8.14379114E+01     -3.04333350E+02     -6.95276433E+01
      2.95943580E+03     -1.18956939E+02     -4.07765773E+02
     -1.15961229E+03      1.18589252E+03     -2.58817821E+02
     -3.16110467E+01      7.66755319E+02     -3.51584092E+01
      1.81775069E+03     -5.75540762E+02      1.61230233E+02
      1.68105188E+03     -1.19987447E+03     -1.84401402E+02
      2.65209698E+03      1.51501246E+03     -3.57250061E+02
      5.44939532E+02      3.76708277E+02     -2.09333884E+02
     -1.06999067E+03      4.15569958E+02     -2.98235383E+03
      8.10040152E+02      3.08338952E+02      1.57811315E+03
     -3.90920415E+03      1.21546059E+03      1.70014803E+03
     -4.00538680E+01      4.51045101E+02      2.50726208E+02
     -1.09193185E+03      1.52059014E+03     -2.70465020E+03
      2.38250432E+03     -1.24827656E+03      9.83428746E+02
      1.99596853E+02      1.25054053E+03     -8.42336376E+01
      3.77445230E+03     -5.80465111E+02      7.75151971E+02
     -1.53763643E+02     -1.71248412E+02      7.95501485E+02
      9.53395852E+02     -5.86738713E+02      3.95708411E+02
      1.06676206E+03      2.04857764E+03     -1.93619543E+02
     -3.14393957E+03      9.32283890E+02      3.90923779E+02
      8.28846105E+02     -1.91845217E+02     -5.54748631E+02
     -8.50399630E+02     -4.36530135E+03     -9.32857728E+01
     -2.47347957E+03      7.83288106E+02     -1.70748135E+03
      7.74628240E+02      3.01529721E+02      1.54529379E+02
     -3.69942753E+02      2.28750085E+02      6.67310733E+02
      3.26165967E+02     -3.26406549E+03      5.14153078E+02
     -7.85399987E+02      4.12456393E+02     -2.96012378E+02
     -1.02126292E+03      2.48575188E+03     -8.83854407E+02
      1.46673612E+02     -1.87634080E+03      1.48910220E+03
      1.32694347E+02      4.38528193E+02      2.14226912E+02
     -7.21481493E+02     -1.11503304E+03     -2.56029115E+03
      1.79064176E+03     -1.19938822E+03      1.23817499E+03
     -3.37381798E+02      2.35273128E+02     -3.56512436E+01
      2.04230996E+03     -7.58229213E+02      2.72164292E+02
      1.14809832E+03      1.63786335E+03      1.64562554E+03
     -5.04004404E+02      6.45666941E+02     -3.83844759E+02
      1.72464472E+03     -1.33679850E+03      4.76230899E+02
      5.20445414E+02      1.09447762E+03      4.60286488E+02
      6.90347419E+02     -1.73318059E+03      2.13092107E+03
      4.53973790E+01      8.15021590E+02      3.92506484E+02
     -1.33672904E+03     -8.26708947E+02      1.25228890E+03
      2.40381620E+03     -7.17778141E+02      5.33880443E+02
     -4.85449018E+02      1.73172125E+03     -3.77758546E+03
      1.12071020E+02      5.95749566E+01     -1.30444973E+02
      3.48263708E+03      3.61271955E+02      1.25947835E+03
     -2.27730147E+03      6.34682272E+02      8.99947803E+02
     -9.54197275E+02      4.13374900E+02     -4.13892390E+02
     -7.17618981E+02      1.59381188E+03     -1.93728292E+03
     -1.50336915E+03     -6.59013146E+02     -9.42765197E+02
     -2.11883270E+02     -3.38567107E+02     -3.30588395E+02
      7.57453009E+02      4.91087822E+01      9.80293306E+02
     -4.68418135E+03     -5.57865360E+02     -1.26096946E+03
      9.11757608E+01      7.99467911E+01     -4.94186609E+01
      6.40330468E+02      1.61133800E+03      4.05626487E+02
      1.33712432E+03      2.07558824E+03      2.90636787E+01
     -2.51607171E+02      9.99430542E+02      1.98883883E+02
     -1.92150539E+03      3.10163080E+03      5.49092117E+02
     -1.73735201E+03      8.28918746E+02     -7.15676688E+02
      2.47475630E+02      2.04962895E+02     -8.20355573E+01
     -1.00036691E+03      2.86019516E+03      3.63565434E+02
     -1.43951824E+03      2.82638682E+02      5.75464403E+02
     -3.11534454E+02     -6.19851077E+02      6.65708703E+02
      1.84423965E+03      1.77150037E+03      1.37174875E+03
      1.85774824E+03      7.85412039E+02      4.15219387E+02
     -9.18302655E+01     -2.48611308E+02      9.31940999E+00
     -1.31825700E+03     -8.36326558E+02      8.66906832E+02
     -3.95116034E+02      1.51017253E+03      4.29376036E+02
     -1.51601637E+02      2.93177951E+00      4.76202521E+02
      2.07882193E+03     -4.67985655E+01     -3.41240942E+03
     -1.17471322E+03      7.23889779E+01     -2.59808141E+03
     -2.56048389E+02      4.14293009E+02     -8.49619262E+01
      9.66496694E+01      2.05986763E+01      2.23666459E+02
      2.28256860E+03     -2.27050632E+03      7.81953376E+02
     -1.18329702E+03      1.25755650E+03      2.33482153E+02
     -2.06458154E+03      1.25531691E+03      2.15715591E+02
     -4.20181865E+02     -1.63711293E+02      8.04742590E+01
      1.79636886E+03     -9.42784512E+02     -9.55954470E+02
     -1.08543550E+03     -9.23527642E+02      1.06681640E+03
     -5.64869913E+02      6.16331068E+02     -1.76648272E+02
      2.25807270E+03     -2.86546716E+03      7.76286074E+02
      5.14454298E+03      1.47125553E+03      2.11871699E+03
      1.28881123E+03      4.06768377E+02      4.53309016E+02
     -3.17358376E+03     -7.58907245E+02     -8.00331959E+02
     -1.19238862E+03     -1.24942058E+03      2.08430033E+03
     -3.63344413E+02      1.29030953E+02      3.35190091E+02
      3.86239017E+03      1.46053006E+03      1.88169496E+03
     -8.75060548E+02     -3.16294525E+03      1.35783709E+03
      3.69944507E+02      3.32365456E+02     -1.68542211E+02
      3.56850552E+03     -1.90803311E+03     -1.25777007E+02
      5.01218840E+03      6.80137783E+02      1.95385177E+03
     -4.20904405E+02      7.10084977E+01      2.26511817E+02
      1.23935222E+03      1.67741302E+03      1.01270835E+03
     -1.02933312E+03      5.49014936E+02     -1.10651682E+03
     -1.16437379E+03     -2.02701764E+02     -3.63013604E+02
     -2.17562160E+03     -2.39098155E+03     -9.36667364E+02
     -1.45098964E+03      9.37130861E+02     -4.93547128E+02
      6.47494132E+02      4.07506615E+02     -3.26177185E+02
     -2.45683384E+03     -2.02939825E+03      2.06712582E+02
     -1.37685876E+03     -6.26421262E+02     -1.22064978E+03
     -3.32055501E+02     -3.67512708E+02     -4.26053858E+02
     -1.14654778E+03     -2.58414250E+02      1.39830864E+03
     -8.97445943E+02      7.39888279E+02     -1.16577716E+03
      3.03908387E+02      7.31485850E+02      2.01321954E+02
      2.41774548E+01      3.51654590E+02     -5.22106091E+02
      9.80638486E+02     -2.29635471E+02      7.59515032E+02
      1.76410828E+03      1.44059603E+01      1.03874599E+03
     -7.85324184E+02     -2.74862748E+02     -2.41403624E+03
      8.56889859E+02     -1.81107088E+02      3.51861524E+02
      6.31916018E+02      9.27819332E+02      1.20833633E+03
     -2.39858877E+03     -5.63943196E+02     -1.45288829E+03
      1.41808758E+02      6.21048588E+02      1.92599671E+02
      1.08035810E+03     -1.39861939E+03      6.99026303E+02
      3.43172405E+02     -7.57861350E+02      1.36656202E+03
     -1.05108610E+02      2.40675795E+02     -1.32200236E+02
      2.16691581E+03     -1.23219363E+03      2.12461530E+03
      1.45106993E+02     -5.92213490E+02     -1.84161206E+03
      3.58966521E+02      3.22990961E+02      1.16564022E+02
      4.39709676E+02     -1.82937600E+03     -1.15315804E+03
      1.59540618E+02      1.48684744E+03      2.04846826E+03
     -2.55506104E+02     -6.14105452E+02      5.43874323E+02
     -1.41229243E+03      3.29423920E+02     -2.09718079E+03
     -2.40933221E+03      3.95932161E+02      4.42591142E+02
     -7.10437935E+02      6.11370389E+02      2.40097639E+02
      7.18981500E+02      1.33160484E+03      1.78727160E+03
     -1.11092878E+03      1.15771599E+03      1.67227705E+03
     -5.54855750E+02     -4.96493220E+02      5.32288744E+02
      1.62400488E+03      5.35767904E+02      2.78950392E+03
     -6.27123819E+01     -2.74819795E+02     -6.73053672E+02
     -3.31122442E+02     -4.95851451E+02      3.43927725E+02
     -4.94316730E+02     -1.13556640E+03      1.86140646E+03
     -3.97504495E+02     -5.94639540E+02      2.27786301E+03
      5.07188403E+02     -5.86715402E+01      7.08104118E+02
      1.49180358E+03      1.26804431E+03     -1.75668279E+03
      1.20158010E+03      8.45716646E+01     -7.29049626E+02
      2.29922806E+03      3.33001407E+02     -2.33944285E+02
      9.16079547E+02     -1.42189519E+00     -6.94534663E+01
     -2.98988296E+03      2.47234437E+02      1.52689751E+03
     -7.99222008E+02     -1.04842752E+03      2.37911959E+03
     -9.04446331E+02     -6.30584649E+02     -8.97444850E+02
      1.17990391E+03      8.84763224E+02      1.43022820E+03
     -1.61690844E+03     -1.32721290E+02     -2.20323624E+02
      2.09557932E+03      1.22684357E+03      5.88934769E+01
     -2.83097541E+02      4.91662409E+02     -1.35252209E+02
      2.70785745E+03      8.46152875E+02     -1.60115382E+03
     -7.01233485E+02      1.64948416E+03     -1.90772204E+03
     -2.53722508E+02      1.52230551E+03     -1.52426027E+02
      9.34570592E+02      5.77541839E+02      6.30063559E+02
      1.66311125E+03      3.44741811E+03     -9.12863459E+02
      1.42283294E+02      6.52394216E+02      5.74059987E+02
      2.99645996E+02      5.20947791E+02     -1.45550317E+02
      3.24169762E+03      1.09156824E+02      1.31754529E+02
      2.01946498E+02      3.90033265E+02     -4.85427416E+02
      4.14857485E+02      6.73827943E+02     -2.59232787E+03
      5.43417541E+02      5.28939737E+02      1.81727231E+03
     -3.44001611E+02      9.10481148E+02     -5.87925241E+02
      1.20319399E+03     -1.09635284E+03     -1.34779403E+03
     -1.78421218E+02     -1.58077260E+03      2.68474350E+02
     -6.58783743E+01     -1.93710964E+02      5.08079462E+02
     -2.40824784E+03     -1.25882024E+03      2.97694719E+02
      2.94794989E+03      2.07775046E+03     -7.75748766E+02
      4.48625222E+02      1.69102768E+02      1.36493470E+02
      3.51287093E+03     -1.55191637E+03     -6.99268969E+02
     -7.88430537E+02      7.94709918E+02     -8.30917170E+02
      1.00400436E+03     -3.39435923E+02      6.21298287E+02
      1.48095292E+03      8.60536506E+02      1.86596282E+02
     -3.61463735E+02      9.19011681E+02     -3.41364959E+03
      1.23998824E+03      7.38724068E+01     -1.50100186E+03
      3.83477679E+02     -9.46111324E+02     -1.35435713E+02
      7.01097673E+01     -1.11043068E+03     -1.83634491E+03
     -7.50432182E+02     -2.17889319E+02     -1.19175238E+03
     -3.17431395E+03      1.05531371E+02     -7.06066291E+02
     -1.42952196E+02     -2.98067201E+02      9.75872706E+02
      1.78746254E+03     -6.06237239E+02      5.12464527E+03
      3.95545829E+02      1.03675026E+03     -1.08229326E+03
      3.96497533E+02      3.79181403E+02     -4.60192450E+02
     -1.73107822E+03     -1.64719192E+03     -2.23885675E+03
      1.51747587E+03     -7.97491950E+01     -3.91812052E+03
      1.57545497E+02      4.56746882E+02     -4.44655275E+02
     -1.34374561E+03      2.04251950E+02     -1.45720109E+03
      1.45316969E+03      2.29100682E+02      1.62428035E+02
      1.98705239E+02      5.04562634E+02     -7.95947843E+01
     -8.22203380E+02      1.37075652E+03      4.38877131E+02
     -5.94310701E+02     -2.00310659E+02     -1.58226115E+03
      1.59610714E+02     -2.23525063E+02      5.48951160E+02
     -2.47660664E+03      9.68486348E+02      2.71310464E+03
      2.85431983E+02     -1.28526590E+03      2.56121142E+03
      7.10056732E+02      5.26989742E+01     -3.01030201E+01
     -1.10858960E+03      5.51827008E+02     -4.85912784E+02
     -6.90806134E+02      4.66044507E+02     -3.48542491E+02
      4.89157735E+01      5.55401662E+02     -5.57550930E+02
      6.06809564E+02     -9.61820026E+01     -1.02420524E+03
     -3.63294301E+02     -2.90112577E+03      1.68452197E+03
      7.69699500E+02      3.57640659E+02      2.37448798E+02
      1.47278123E+03      7.86124381E+02     -1.08389393E+03
      1.25786347E+03      8.93081932E+02      1.42742865E+03
      1.65627011E+02      1.19647777E+02      3.62397135E+02
      4.66225862E+02      1.25978845E+03      2.32895922E+02
      3.78047722E+02     -7.95500395E+02     -8.88034440E+01
      3.66660448E+02      1.33426692E+03      1.57848461E+03
     -4.52860226E+02      1.35842181E+02     -8.50625850E+02
     -9.75640813E+02      4.85379192E+00      5.02255344E+02
      5.85931364E+02      2.35560317E+03     -1.46675296E+03
     -8.71936740E+02      6.32484734E+02     -1.99713791E+03
  }
}

Hamiltonian = DFTB {
  SCC = Yes
  SCCTolerance = 1e-6
  MaxSCCIterations = 200
  ForceEvaluation = Dynamics
  MaxAngularMomentum = {
    C = "p"
    H = "s"
  }
  Charge = 0.0
  SpinPolarisation = {}
  Eigensolver = Standard {}
  Filling = Fermi {
    Temperature [Kelvin] = 300.0
  }
  SlaterKosterFiles = Type2FileNames {
    Prefix = "../../pbc-0-3/"
    Separator = "-"
    Suffix = ".skf"
    LowerCaseTypeName = No
  }
  KPointsAndWeights = {
    0.0000000000000 0.0000000000000 0.0000000000000 1.00000000000000
  }
  Dispersion = LennardJones { 
    Parameters = UFFParameters {}
  }
}

ParserOptions = {
  ParserVersion = 3
}
