Geometry = GenFormat {
<<< "system.gen"
}

Driver = VelocityVerlet{
  Steps = 50000
  TimeStep [fs] = 0.2
  MDRestartFrequency = 5
  Thermostat = None {
    #InitialTemperature [Kelvin] = 300.0
  }
  Xlbomd{ 
    IntegrationSteps = 6 
    MinSccIterations = 2
    MaxSccIterations = 200
    SccTolerance = 1e-6 
  }
  Velocities [m/s] {
     -4.45434558E+02      2.46839636E+02     -5.79784064E+02
     -1.43615593E+03     -1.64174730E+03     -2.69250456E+03
      1.00976991E+03      7.81427821E+02     -1.01880798E+03
     -2.41886697E+01      1.38221142E+02     -3.72012721E+02
     -1.51486904E+03      9.80547958E+02      5.98954522E+02
     -1.69885509E+03     -7.80705446E+02     -1.26419162E+02
     -5.63276332E+02     -3.20726388E+02     -5.12472512E+02
      5.37831228E+02     -6.66889963E+02     -7.67673206E+02
      7.85122969E+02      2.14177485E+03      1.18541142E+02
      5.81982612E+02     -3.14813003E+02     -9.03337989E+01
      1.16652094E+03     -8.52317896E+02      4.21473671E+03
     -8.43814133E+02     -1.07470822E+03      2.34965968E+03
     -6.42823240E+02      3.17324600E+02     -4.36558958E+02
     -2.52791210E+03      6.84952275E+02     -1.13737061E+03
     -2.13423309E+03     -6.85143697E+01      8.64277623E+02
      3.06409002E+01     -4.89285427E+02      5.71406744E+02
      6.42783137E+02      2.34746998E+02      1.12520406E+03
     -8.09087852E+02      3.68645473E+02      2.45461559E+01
     -4.08015452E+02      1.33920126E+02      1.57487657E+02
     -1.42482494E+03     -1.33149870E+03     -1.13430025E+03
      4.61164379E+02     -1.77843551E+03     -8.22794292E+02
     -1.24724391E+02     -7.32200162E+02     -2.13512360E+02
      2.48692730E+02     -2.50486608E+03      1.62058544E+02
     -3.36359279E+02     -2.12514275E+03     -8.27305168E+01
      3.44428642E+02     -3.26118123E+02     -4.62339376E+02
      6.40633628E+02     -2.07820829E+03     -1.27927578E+02
      2.50116946E+02      1.25824436E+02      1.67857893E+03
      6.43226559E+02     -1.78723605E+02      8.80114605E+02
     -2.78132000E+02     -2.67992955E+02     -2.29076103E+02
     -2.60631025E+03      9.93719555E+02     -8.32858793E+02
      1.43571213E+03      8.52840652E+01      1.34648234E+03
     -7.19713516E+02      1.07210898E+02      1.70453255E+03
     -1.82114143E+02     -3.86810960E+02      5.77324968E+01
      2.82293264E+02      7.39156385E+02     -2.23513591E+02
     -1.32753370E+02     -9.62043378E+02      1.33482750E+03
     -1.03843909E+02     -2.71011498E+02      4.28923849E+02
      1.11015680E+03     -3.76138234E+03     -1.50490339E+03
      1.19947955E+03     -2.13853250E+03     -5.40374438E+02
     -3.89401354E+02      1.95278665E+02     -3.21504707E+02
     -3.25324405E+02      5.93708502E+02     -1.74050928E+03
      6.33796161E+01     -3.63369669E+02     -1.75603842E+03
     -4.34720650E+00      1.12430014E+02      2.51279969E+02
      2.01370640E+03      2.21100576E+03      5.77291358E+02
     -1.20017947E+03      4.00949145E+01      1.99540282E+03
      3.89938466E+02     -4.76369717E+02      6.91864870E+01
     -1.82639698E+03     -2.26680064E+03     -8.31510991E+02
      2.89419456E+01     -1.41505835E+03     -6.17483427E+02
      2.74258856E+02     -2.64835638E+02      1.54689030E+02
     -1.57650325E+03     -7.93590794E+02     -6.51955645E+02
     -2.87004232E+03      3.47451370E+02      4.43364224E+02
     -6.95214583E+02     -6.82880677E+02     -2.31170075E+02
      6.34165438E+01     -3.80314299E+03     -2.85381847E+02
      3.06806130E+03     -6.40603202E+02      8.35973416E+02
     -3.85404481E+01     -2.52067223E+02     -5.92931226E+02
      1.85529933E+03      1.22069282E+03      1.02609416E+02
     -7.70497203E+01     -5.48235432E+02      1.11150009E+03
      1.51136799E+02     -5.59105759E+02      3.57410518E+01
     -1.80503459E+03      3.80331396E+02     -1.29651061E+03
     -2.32004305E+03      2.88311223E+02     -3.88581416E+02
      1.24485737E+03     -2.91877945E+03     -2.13866599E+03
      9.14014244E+02     -4.98358427E+02     -1.88934794E+02
     -2.55246562E+02      9.66919419E+02     -6.09051019E+02
      2.14313614E+03     -2.74988825E+03      1.25839849E+03
     -4.25691207E+02     -1.29360401E+03     -9.13474608E+01
      3.90339165E+02     -7.91614321E+01      1.14264372E+02
      1.20263297E+02      1.60789220E+03     -1.17647146E+03
      5.33777770E+02      2.01379666E+03     -1.57931331E+03
     -5.03093525E+02     -1.45975107E+02     -3.39590040E+02
     -9.35299741E+02     -2.08502040E+03      4.54858167E+02
     -2.36053780E+03     -1.93580702E+03     -2.15436287E+03
      2.69214386E+02     -4.45213749E+02     -4.06785662E+02
     -2.29432529E+03     -6.87196912E+02     -1.97115811E+03
     -1.60189983E+02      1.40345925E+03     -2.12171789E+03
      1.85061491E+02      2.07425572E+02     -4.95366578E+01
     -6.87330972E+02     -5.09855843E+03      1.96163836E+03
      1.01377042E+03     -9.87052070E+02      2.48952600E+03
      5.45350541E+02     -5.38539464E+02     -5.91966211E+01
      6.46153443E+02     -1.51022029E+03     -8.60142989E+02
      3.25536179E+02      2.20480527E+03      2.49454852E+03
     -4.81632957E+02      3.23028235E+02     -3.94857191E+02
      1.83552799E+03      6.48972174E+02      8.84287635E+02
     -1.72008890E+03     -8.08076836E+02     -7.00335128E+02
     -6.02636465E+02     -4.09382944E+02      4.65780578E+02
      1.05160477E+03     -1.93733939E+03     -2.09764801E+03
      1.57456374E+03     -3.47629078E+03      1.03301510E+03
      5.00060633E+02      2.75493354E+02     -7.79504249E+02
      1.44888221E+03     -2.37300872E+03      2.69566377E+03
      1.09635524E+03      2.64094587E+03      8.68677604E+02
     -2.86586950E+02     -4.11539558E+02     -1.60193457E+02
      2.29216531E+03      1.38842786E+03      2.50026809E+03
     -3.17557793E+02     -5.96192335E+01      1.94834851E+02
      1.16785139E+02      1.07683734E+03     -3.39178408E+03
      5.58805721E+02     -1.78078874E+02     -2.40837606E+02
      2.63391839E+03     -1.46946164E+03      1.16445384E+02
     -1.12252759E+02     -3.14271254E+03     -1.69437735E+03
     -1.24901487E+03     -7.69436604E+02     -1.31608359E+02
      8.82856545E+01     -2.10345710E+02     -1.93286941E+02
     -9.57027172E+02     -1.16372604E+03      3.29937653E+01
     -2.30560558E+03     -1.43022384E+03     -1.97566789E+02
      6.26554610E+01     -3.82874240E+02     -3.66621738E+02
     -3.90552992E+02      2.11983234E+03      2.09292094E+02
      9.65493429E+02     -3.07068593E+02      7.75564977E+02
     -5.83524485E+02      3.84831155E+02     -3.75416556E+02
      1.63780424E+03      1.27656234E+02      2.29548281E+02
      6.85857161E+02      9.78388736E+02     -1.54428273E+03
     -7.80358257E+02      3.60092038E+01     -1.70144390E+02
      6.17784220E+01      1.81917760E+03     -4.31512062E+01
      1.93709339E+03     -1.77260418E+03      2.75109782E+02
      4.48515516E+01     -3.08845813E+02     -1.84562552E+02
      1.42216860E+03     -5.49242323E+02      6.98455435E+01
     -1.39773765E+03      3.00248084E+03      1.40122440E+02
      5.24128239E+02     -4.56070723E+02     -1.96862987E+02
     -2.70246628E+02      4.66644822E+02     -7.48175639E+02
      3.04412420E+02     -7.72307747E+02     -6.01019387E+01
      8.19315727E+02      3.57256745E+02     -2.67662801E+02
     -2.32515665E+03     -1.20098589E+03     -3.23826940E+02
      2.31592235E+03     -2.29512916E+03     -2.00723022E+03
      6.96457368E+01     -1.23512650E+02      7.08755176E+02
     -1.18976081E+03      7.58057097E+02     -1.71017561E+03
     -1.56563070E+02     -3.89862495E+02     -4.70181905E+02
      4.41902965E+02      3.32513825E+02     -2.58786957E+02
     -1.25810079E+02      1.68679660E+03     -7.92431104E+02
      1.91194442E+03     -1.12377270E+02      5.60229474E+02
     -1.76832851E+03     -1.05075814E+03     -4.88813815E+02
      9.32867836E+02     -3.36590891E+02     -3.57937581E+01
      2.60924797E+02      2.01611147E+03      6.15720606E+01
     -2.58876367E+01     -1.23982162E+03      2.59518087E+02
      1.17912665E+03      3.29584572E+03     -1.21550557E+03
     -5.65494069E+02      8.85174388E+02      6.45943682E+01
     -5.62756185E+01     -4.52379668E+02      3.41890276E+02
      2.26177119E+03      1.99019127E+03      1.07734455E+03
     -6.95845522E+03      9.31767502E+03      1.84461846E+04
     -4.84221712E+02      3.73652875E+03     -1.48224381E+03
      1.04939381E+03      1.03925603E+03      1.27511539E+03
     -3.88522059E+02      2.85778206E+02     -3.74897717E+02
     -3.27369058E+03      5.65547738E+02      2.83332320E+03
     -6.51146995E+02      8.28778879E+02      1.70424475E+03
     -7.69724912E+02      1.17651462E+02      1.47590775E+02
      1.21553927E+03      2.28722637E+03      3.35619924E+02
      2.12645103E+03      2.56082483E+01     -1.79658877E+02
      1.25008428E+02      1.55654537E+02     -4.78059771E+02
      1.86922881E+03      8.43615532E+02      1.32896272E+03
      2.57803315E+03      1.72295394E+03      8.85204329E+02
      5.56569271E+01      2.01434851E+02     -4.30992226E+02
     -1.03784447E+03      4.61261790E+02      3.07630695E+02
      3.15003218E+02     -1.62292318E+03     -1.81319320E+03
      7.67913496E+02     -9.93334866E+01     -7.45294642E+01
     -1.03552549E+03     -6.72423777E+02     -1.82831973E+03
     -9.44379840E+02      1.59443584E+03     -3.68550586E+03
     -2.30002182E+02      2.98252008E+02     -8.59564689E+02
      1.15626973E+03     -8.39640812E+02     -7.31153468E+02
     -2.78546387E+02     -2.67200690E+03     -2.06643391E+03
     -3.31997902E+02      5.31479134E+02      2.76839503E+02
      7.96393169E+02     -2.18894541E+03     -8.18768492E+02
      8.77044095E+02     -5.63021410E+02     -3.08248000E+03
      2.11138771E+03     -1.59034719E+03     -2.03603395E+03
     -9.61350092E+01     -9.00693818E+01      2.34529267E+02
      1.04882677E+03     -5.47940038E+02     -1.63378692E+03
      1.29104135E+03      6.35902919E+02     -3.10344183E+02
      9.33865377E+02      1.13693135E+03      1.80543980E+03
     -1.80596286E+02     -3.57766929E+02      4.10963460E+02
      2.95000225E+03      1.37828995E+03     -7.04912715E+00
     -3.62578216E+03     -1.68193768E+02      1.99403176E+02
      1.77981269E+01     -5.52266544E+02      5.72668668E+01
     -1.61188486E+03     -6.58980562E+02     -7.75441473E+02
      2.45775438E+03     -6.03986049E+02     -3.44157521E+03
      1.44323703E+02     -7.15044423E+02      1.52838685E+02
     -1.03135208E+03      1.63274637E+03     -2.78839459E+02
     -2.66741595E+02     -5.92665442E+02     -1.33605143E+03
      9.86186581E+02      1.18646274E+02      3.48196568E+02
      2.65344838E+03      1.86048197E+03      1.00000841E+03
     -2.01844423E+02     -1.04194003E+03     -6.48686492E+01
      6.51489283E+02     -1.40765874E+03     -3.59082454E+02
      5.43825661E+02     -8.22249552E+02     -2.34109521E+03
      2.16500912E+03     -6.64481605E+02     -5.22794376E+02
      1.09301451E+03      1.77347346E+02     -1.20797308E+03
      2.57623334E+02      2.03322261E+03      1.07030160E+03
      1.24925034E+03     -2.11222422E+03     -4.45187468E+02
     -2.89870651E+02     -8.30441026E+02      9.05902995E+01
     -2.03085947E+03      7.01231741E+02     -1.37762868E+03
      2.02841520E+03      2.19657283E+03     -2.24513548E+02
      3.43136503E+02     -6.78984016E+02      7.60146819E+02
     -2.95205402E+02     -4.32276034E+02     -1.17768803E+02
     -7.02818404E+02      3.44109845E+01     -1.28676980E+03
      2.05791311E+02     -3.35493264E+02      2.99044635E+02
     -1.41775855E+03      2.00145963E+03     -1.41407338E+03
      1.64957694E+03      4.41009164E+02      6.48009849E+01
     -1.92110228E+03     -4.50723444E+02      9.44117216E+02
      1.39429278E+02     -5.61428558E+01     -1.56281090E+02
     -2.53396747E+03     -5.19580895E+01      1.03047321E+03
      2.21277462E+03      2.47881495E+03      2.47302989E+03
      2.12183900E+03      1.86045024E+02      9.21106815E+02
      4.74570003E+02     -2.95847498E+02     -1.31078890E+02
      1.60207734E+02     -1.54501143E+03      1.34558905E+03
     -2.66576671E+03     -2.88792551E+03      2.20599768E+03
     -1.40486537E+02     -3.66740920E+02     -6.23197354E+02
      2.16777971E+03      1.70346832E+03      8.10727095E+02
     -1.40698252E+03      8.81055559E+02     -1.72502537E+03
      1.62183475E+02      4.71448814E+02     -4.14643536E+02
     -3.95925119E+02      1.10243624E+03     -1.98239464E+03
      3.80236366E+02     -2.31567197E+03     -1.82128821E+01
      1.64369822E+02     -7.80574404E+02      2.68273438E+02
     -1.71602482E+03      1.27453139E+02      2.54937771E+03
      5.53179963E+02     -2.04024160E+02      6.87829297E+01
      1.27462408E+02     -1.10028034E+03     -6.60558349E+02
     -2.26218250E+03      1.64137669E+03      9.62509775E+02
      1.55163829E+03      1.16334711E+03      1.45037348E+03
     -8.00648003E+02     -4.53096671E+01     -4.48838011E+02
     -2.09667494E+03     -4.94189038E+03      4.18592190E+02
      1.31580133E+03     -3.25482183E+02     -4.43086849E+02
     -2.82126434E+02      1.49934978E+02     -3.52298922E+01
      1.05197336E+03     -1.23777401E+03      1.40063302E+03
      2.75058365E+03      6.57046643E+02      6.80075491E+02
      8.77391423E+02      3.00449763E+02      7.44528562E+02
     -4.45089629E+02      2.19890412E+03      1.76562239E+03
     -1.20040481E+03      3.45565514E+02     -4.29795171E+02
     -2.75194600E+02     -4.36500519E+02      1.25179151E+02
     -7.59282352E+02     -2.18354415E+03      1.28962718E+03
     -7.12130284E+02     -1.67221681E+02      8.31860345E+02
      7.25055067E+02     -1.58917598E+03      3.67717015E+02
      3.09791579E+02     -3.07493135E+02     -1.45765229E+02
     -2.49774083E+01      8.50128352E+01     -4.53735899E+03
     -1.40464113E+03     -1.41088388E+03      1.50156809E+03
     -5.10441784E+02      9.22142925E+02     -3.93641063E+03
      1.98003746E+02     -1.22130883E+02     -2.26226800E+02
      2.56189170E+03     -1.05555805E+03      2.48939884E+02
      2.27744552E+03      8.60757637E+02     -3.17396036E+03
      2.51125312E+02     -5.70366177E+02     -3.09504179E+02
     -1.63151408E+02     -5.46313794E+02      6.10651026E+02
      1.77367923E+02      1.64460468E+03      2.90236588E+03
      6.94121638E+02     -4.26532671E+02     -1.54613095E+02
      2.05172329E+02     -8.95172185E+02     -8.74843356E+01
      4.94201310E+02      1.05805074E+03      1.25632132E+03
      6.89302390E+02     -3.85315246E+01     -2.73368958E+02
     -4.73972115E+03      1.42862728E+03      1.06863590E+03
      2.14307519E+02      2.24108774E+03     -9.71144508E+02
      4.13332699E+02      1.85738532E+02     -4.05678791E+01
      8.81630272E+02     -1.55671293E+03      8.20827280E+02
      2.40310698E+03     -1.45551349E+03      5.53065341E+02
     -2.27394295E+02      7.29263135E+02     -7.87917530E+02
     -3.17801487E+02      1.94037148E+03      1.55189647E+03
      1.99452237E+03      1.27748524E+03      2.49708600E+03
      1.04067375E+03      7.34176153E+01     -1.43226547E+01
      2.38013836E+03     -2.19605281E+03     -4.14139186E+03
     -2.56292071E+03      2.67569522E+03      1.75136182E+03
      4.64399034E+02      5.85206629E+01     -1.78282676E+02
     -2.89615009E+01     -1.24951420E+03     -3.39636712E+02
     -3.56751282E+03     -1.63558627E+03     -1.16101571E+03
      1.58556344E+02      7.50758281E+02     -1.39343661E+03
      3.19377760E+02     -1.75252082E+02      5.93372045E+01
     -1.50827978E+03      1.63237429E+02     -1.74705972E+03
     -7.68071312E+02      1.33404450E+03      2.50165574E+02
     -6.84927268E+02      1.77626403E+02      4.38398033E+02
      5.61810177E+02      6.81575942E+02      2.49051525E+03
     -9.29059939E+02     -3.25371394E+03     -7.44714594E+02
      9.07118170E+02     -3.05541346E+03     -3.45954110E+03
     -5.52061876E+00     -1.71754293E+03     -5.00419379E+02
      1.07503758E+00      1.75194833E+03     -2.57255869E+02
      1.71054231E+03     -1.93709573E+02     -4.03205225E+02
     -2.20640358E+02      6.24822336E+02     -2.07953643E+02
      8.92632994E+01     -5.70406638E+02     -2.36375003E+02
      1.65482628E+03      3.20637300E+03     -7.74056769E+02
      1.41183418E+02     -3.55625818E+02      4.60015399E+01
      1.36875053E+03     -3.04330625E+02     -4.33793557E+03
     -7.21321219E+02     -2.69496807E+03      3.05816300E+03
     -6.03603860E+02      2.56461974E+02     -7.75995343E+01
     -1.37170334E+03      1.16297762E+03     -1.56892669E+03
      2.20157231E+03     -1.05216852E+03     -1.15830665E+03
     -3.47384874E+02      1.13792168E+03      1.25694732E+02
      2.56365135E+02     -3.59163032E+02      8.81375969E+02
     -1.00334806E+03     -6.01375716E+02      3.79325994E+02
      3.33345687E+02      3.85565386E+02     -6.21316606E+02
      4.01806799E+02      2.36574874E+03      1.30997682E+03
      4.01583761E+03     -1.18732905E+02     -2.19906589E+03
     -6.19461931E+02      1.42839414E+02     -5.51672460E+02
     -6.17221381E+02     -2.71998982E+03      2.22459792E+03
      1.10927104E+03      2.89543013E+01     -4.68050880E+02
      1.01041079E+02     -8.87573329E+01     -3.85413045E+02
     -2.78433228E+02     -3.57487823E+02     -3.02695783E+03
     -2.84994875E+02      2.19103145E+03      1.37686312E+03
      9.29335365E+02      2.75633418E+01     -3.13843299E+02
     -1.89061236E+03      5.46767392E+02      1.00046497E+03
      1.07027963E+03      3.08615644E+02      5.32609468E+02
      8.50477282E+02      2.14378752E+03      3.83789925E+02
     -1.30156385E+02      2.18100486E+02     -2.35866364E+02
     -2.63374061E+03     -1.93653355E+03     -3.14861713E+02
      2.33484549E+03     -1.30224334E+03     -1.14638570E+03
      2.38701989E+03      6.55301203E+02      3.48515533E+02
      3.52056543E+02     -1.31340437E+02     -2.94175327E+02
     -6.07982589E+02      3.02671819E+02     -2.41921120E+02
      1.36508122E+03      8.73947663E+02      2.09668806E+03
      1.08124375E+01     -2.00318776E+02     -5.02398559E+02
     -5.08870136E+02      3.94101338E+03     -2.48475213E+02
      5.28390758E+02      2.24364231E+03      1.03925254E+02
     -2.08963351E+01      1.18234662E+02      1.40163464E+02
     -1.99966006E+03      1.71818306E+03     -4.46397458E+02
     -6.37146327E+02     -2.38328875E+03      1.02501469E+03
     -3.07290684E+02      4.33114293E+02     -7.99282025E+02
     -1.15117071E+03     -1.80697416E+03     -6.28652375E+02
      3.25296241E+03      2.88563105E+03     -1.73422500E+03
      6.33394188E+01      2.08953651E+02      1.09017758E+01
      5.36779353E+03      2.03168179E+03      4.36911626E+02
     -2.66640933E+03     -1.03477002E+03     -3.66174869E+03
     -1.33815865E+02      1.19802057E+03      2.83314018E+02
     -3.18569284E+03     -1.77804369E+03      1.00487699E+03
     -1.99648917E+02      5.80228552E+02     -2.47787898E+03
      4.69136328E+02      3.09583659E+01     -8.16096815E+02
      9.34681830E+02      2.31107165E+03     -6.79505897E+02
     -2.24163636E+02     -3.93970528E+02     -2.62421843E+03
      2.97692064E+00      5.62627086E+02      1.67443640E+02
      2.39249534E+03      9.46704552E+02      7.48255835E+02
     -1.34637996E+03      1.66231516E+03      1.74586453E+03
      2.32065989E+02     -1.10227408E+02      5.56036448E+02
      6.47489314E+02      1.11333942E+03     -6.18515073E+02
      2.00996664E+03      1.59214226E+03      2.90520434E+02
      2.23936021E+03     -1.42372788E+03      3.14779218E+03
     -5.11585064E+02      2.06942090E+02     -5.56954679E+02
      1.54630155E+03      1.50465045E+03     -2.01255867E+01
     -1.37164402E+03      1.27407683E+03     -2.80036497E+02
     -2.29647001E+03     -2.88057423E+02      2.10194795E+03
     -2.40080015E+02     -5.48401899E+02     -8.40499486E+01
      2.06098572E+02     -1.19711867E+03      1.40666774E+03
      2.58023161E+03      4.14020575E+03     -9.25460596E+02
     -1.80355766E+02     -1.21735118E+02     -2.66844322E+02
     -1.57880093E+03      3.73009056E+02     -1.30260750E+02
      1.34634631E+03     -3.67117192E+03      2.69453759E+02
      3.54960952E+00      2.30884215E+02     -5.60812924E+02
      3.36528260E+03     -1.60985117E+03      8.96925079E+02
     -1.05215196E+03     -2.29855957E+03     -5.74446987E+02
      3.63458264E+02     -4.72270962E+02     -1.69265363E+02
     -8.36230637E+02      1.88005130E+03     -2.68297959E+03
     -1.04233792E+03      7.67564333E+02     -1.90488138E+02
     -6.82917352E+02      4.30505408E+02      2.13876386E+02
     -4.19073623E+02     -2.62007997E+03      2.27429810E+03
     -2.04127655E+03     -1.82155086E+03      3.50858426E+00
     -6.23771223E+00      6.27853938E+02     -2.24746235E+01
     -2.14516741E+03     -2.72938976E+02     -2.36960385E+03
     -4.01016605E+02      7.48298217E+01      6.10932751E+02
     -1.11378357E+02     -4.82262066E+02      1.06381783E+02
      7.93820568E+02      1.13232326E+03     -3.99058071E+03
     -1.99946280E+03     -2.84368540E+03      7.49216956E+01
      9.42311901E+01      3.39097270E+02     -1.12221792E+02
     -2.15287958E+03     -1.24608742E+03     -6.75151390E+02
     -9.66565916E+02      6.42886873E+02     -2.23207130E+02
     -1.04783398E+02     -8.66537514E+00      5.43304024E+02
      2.89739573E+02     -2.31539155E+03     -1.94731434E+03
      1.28459589E+03     -9.61745087E+01     -5.59990634E+03
     -2.54916926E+01     -5.19846361E+02     -6.62702853E+02
      3.58349542E+02      3.55085816E+02      3.39434940E+02
     -3.87358554E+03     -7.86082172E+02     -3.35418870E+02
      6.49101389E+02      3.25467984E+03      1.22883151E+03
     -3.78672545E+02      3.08485575E+02      1.74945556E+03
  }
}

Hamiltonian = DFTB {
  SCC = Yes
  SCCTolerance = 1e-6
  MaxSCCIterations = 200
  ForceEvaluation = Dynamics
  MaxAngularMomentum = {
    C = "p"
    H = "s"
  }
  Charge = 0.0
  SpinPolarisation = {}
  Eigensolver = Standard {}
  Filling = Fermi {
    Temperature [Kelvin] = 300.0
  }
  SlaterKosterFiles = Type2FileNames {
    Prefix = "../../pbc-0-3/"
    Separator = "-"
    Suffix = ".skf"
    LowerCaseTypeName = No
  }
  KPointsAndWeights = {
    0.0000000000000 0.0000000000000 0.0000000000000 1.00000000000000
  }
  Dispersion = LennardJones { 
    Parameters = UFFParameters {}
  }
}

ParserOptions = {
  ParserVersion = 3
}
