Geometry = GenFormat {
<<< "system.gen"
}

Driver = VelocityVerlet{
  Steps = 100000
  TimeStep [fs] = 0.2
  MDRestartFrequency = 5
  Thermostat = None {
    #InitialTemperature [Kelvin] = 300.0
  }
  Xlbomd{ 
    IntegrationSteps = 6 
    MinSccIterations = 2
    MaxSccIterations = 200
    SccTolerance = 1e-6 
  }
  Velocities [m/s] {
      9.73936558E+02     -3.07210864E+02     -4.44988518E+02
     -2.04206424E+02     -5.66746988E+02     -9.50985569E+01
     -4.95220935E+02     -1.62444310E+03      1.86911714E+03
     -1.69842525E+02     -1.85497560E+01     -5.26011930E+02
     -1.13558419E+03     -2.06681988E+03     -2.23461038E+03
     -1.36736269E+03      6.92031977E+01     -5.14800266E+03
     -5.64896840E+02      8.76498730E+02     -6.45377928E+02
      8.12211367E+02      1.61620259E+02      3.86303698E+03
      1.76307916E+03     -6.42962782E+02      2.24536766E+02
     -1.08310614E+02      2.84274103E+02     -4.46639695E+02
     -1.51820420E+03     -1.35029779E+03     -8.03154263E+02
      3.40477237E+03      1.03129779E+02     -2.25429801E+02
      7.41295088E+01     -3.32562245E+02      1.19409678E+02
     -8.95373970E+02      2.25566928E+03      3.01632098E+03
     -1.92885849E+03     -1.36874491E+03      3.54488282E+02
     -1.44948385E+02      6.85843334E+02     -2.32395085E+02
     -4.69617962E+02     -6.27927233E+02      1.38391495E+03
      3.77783394E+02     -5.36538971E+02     -2.75410698E+02
      3.88216292E+02     -1.70234215E+02     -7.87571100E+02
     -2.62240016E+02     -1.02927930E+03      2.57915824E+03
     -9.99096763E+02     -1.70929724E+03     -1.89947847E+03
     -6.04203534E+02     -9.16834707E+02      2.71363853E+02
     -1.37756373E+03     -3.39232409E+01     -1.33926831E+03
      3.91515175E+01      4.54003734E+02     -8.31931216E+02
     -4.31574468E+02     -2.88455313E+02     -1.95047666E+02
     -7.31083238E+02     -2.57246895E+03     -1.11522087E+03
      3.51817101E+03     -3.58594893E+03     -1.77477806E+03
     -7.25367776E+02      1.58152628E+02     -2.52666635E+03
      1.97550008E+02     -3.37181809E+02     -7.23326355E+01
      1.51513911E+03      2.09087289E+02      1.51217314E+03
     -2.18165011E+03      6.37999868E+01      1.12182476E+02
      1.47903018E+03     -3.80022373E+03      1.64079562E+03
     -2.30143856E+02      1.05747455E+02      5.04068751E+01
      7.58203358E+02      8.81639406E+02     -4.33316131E+02
      1.78904262E+03      1.89017119E+02     -3.84744237E+02
     -2.00457869E+02     -3.15528272E+02     -3.36779605E+02
      1.82772848E+02     -1.16656281E+03     -1.23429873E+03
     -2.41859181E+03      1.28419016E+03      2.10444003E+02
      2.78268290E+02     -4.55053123E+02      1.59967412E+02
     -9.08131616E+02      1.64219993E+02      1.84629435E+03
     -1.59718456E+03      5.45956992E+00     -2.51079576E+03
      2.97194999E+02      5.36288646E+02      3.25594765E+02
     -1.12289912E+02      1.18534765E+03      1.92101773E+03
     -3.85578913E+02     -3.20198830E+03     -3.41638881E+02
      2.74995416E+02     -5.49372690E+02      2.12166057E+02
      2.22905453E+03     -2.42555749E+01      4.85071769E+02
      1.85171486E+03      9.85898538E+02     -1.38904330E+03
     -4.36183211E+02      3.50031822E+02      2.34296015E+02
     -7.77635237E+02     -2.01757758E+03      1.51385657E+03
     -7.13826403E+02     -2.25284073E+03     -1.26275080E+03
      9.29665804E+02      9.58797533E+01      5.48495843E+02
      4.57160302E+02      2.00015396E+02     -7.52831948E+02
      1.72431906E+03     -3.07881166E+02      1.60844599E+03
      6.87514046E+02      2.50636295E+02     -1.18471974E+03
     -3.38460472E+03     -2.79263926E+02     -7.96206630E+02
     -1.54822615E+03     -6.32166672E+01      1.92979748E+03
     -4.57531014E+02      3.48096592E+01      1.49100034E+01
      2.74312110E+03      1.76541921E+03     -6.54018646E+02
      1.64072209E+03     -1.94191922E+02     -1.85782799E+03
      1.00977757E+03     -3.23585616E+02      2.99398587E+01
      4.01709132E+02      2.39872684E+02      2.20101835E+02
     -4.41336516E+02      1.48739359E+03     -1.40728912E+03
     -9.93121747E+02     -9.62544670E+02      6.35617608E+02
      1.31619793E+03     -4.42703766E+03      1.59556083E+02
      6.18670301E+02     -1.16923148E+02     -1.89088105E+02
     -1.95921427E+03     -2.64794026E+03      1.05289489E+02
     -1.06785773E+03      7.29017922E+02     -2.87804205E+03
     -2.61036099E+02     -1.57166398E+02     -1.46690250E+03
      1.52418189E+03      3.21153038E+02     -6.87927545E+02
     -9.56111383E+01      1.72667178E+03      1.65925062E+03
      2.50154932E+02      1.18064305E+02      1.74273196E+01
      3.39874644E+01     -1.55335492E+03     -8.15045846E+02
     -1.93969122E+03     -1.50583981E+02      5.21185722E+02
     -1.83044226E+02      3.16056776E+02      6.28272318E+01
     -2.05266554E+02      4.54553331E+02      3.22286357E+03
     -5.41247543E+02      1.01268396E+03     -1.78632239E+03
      1.51753012E+03     -1.44955663E+02     -3.35571319E+02
     -1.00459174E+03      2.36669745E+03      2.53042888E+03
     -1.28651939E+03     -1.10937765E+03     -1.33710952E+02
     -1.20378960E+02      2.03489992E+02      2.94580757E+02
     -4.97899452E+02      1.18873307E+03     -2.52327416E+03
      9.96080121E+02      8.92933859E+02     -6.19412296E+02
      5.55248117E+02     -3.90377723E+01     -2.62103605E+02
      5.81562155E+02      3.71817686E+02      2.46688483E+03
     -3.25222987E+02     -2.31078097E+03     -1.76424016E+03
      3.17267132E+02     -3.34825621E+02     -6.09835327E+02
      5.18660757E+02     -1.80741244E+03      2.63509233E+03
      1.21515919E+02     -2.06676760E+03      1.44434301E+03
     -2.09728444E+01      2.66602495E+02      3.34702243E+02
      1.12141596E+03     -7.83326525E+02      6.00040893E+02
      4.48561570E+02      1.84080760E+03     -1.38943705E+03
      3.25130147E+01     -2.45101048E+03      1.13352223E+03
      8.60921033E+02      3.18623487E+02      3.15648886E+02
      1.18640599E+02      2.62567480E+02     -1.25989423E+03
     -1.40926255E+03     -6.45192913E+02      2.56271519E+02
      1.24319943E+03     -2.44824259E+02     -1.89155447E+03
      5.50476505E+02     -1.77472775E+02     -2.83963538E+02
      3.59745691E+03     -4.02096046E+02      1.50674339E+03
      4.70086225E+02      9.79226065E+02     -3.07028430E+03
     -2.66269670E+02      3.62231040E+02     -5.07599017E+02
      2.40361502E+03     -1.64025059E+03     -1.03709216E+03
      2.37325893E+02     -6.83995572E+02      2.28853832E+03
      5.13569810E+02      5.80020188E+02      5.12069646E+01
     -1.13671660E+03      2.84883196E+03     -6.01973435E+02
      1.24738353E+02      2.12637176E+03     -8.02572746E+02
      1.02595591E+03      2.25806742E+02     -7.41894322E+02
      1.59518027E+02      7.63053182E+02      1.90167952E+03
      2.57598510E+03     -7.29956936E+02     -9.53818428E+02
      7.02875686E+02     -7.99580178E+01      1.19256244E+03
     -1.86115818E+03     -1.33512683E+02     -2.46197968E+03
     -8.01304542E+02      1.20302591E+03     -3.53254394E+03
      8.48580705E+02     -9.07438267E+02      6.08707585E+02
     -1.23405587E+03     -1.36390901E+03     -1.26710819E+03
      1.21681591E+03     -7.01924982E+02      5.64947472E+02
      8.33499058E+02      4.46133953E+02      1.51656227E+02
      8.76608217E+02      7.30714797E+01     -4.50339946E+02
     -4.33483862E+02     -8.60053535E+02      3.26441169E+01
      9.08948311E+01      1.91569816E+02      1.53441246E+02
      4.02908002E+02     -1.68666139E+03      1.84071902E+03
      3.14668315E+01      1.00881859E+03     -1.45792092E+03
      3.42626437E+02      1.98446650E+02      1.56186702E+02
     -3.57378794E+02      7.42597306E+02      8.23304920E+02
     -3.30943289E+02     -7.85074893E+01      1.46616396E+02
     -9.07939806E+02     -9.48002021E+02      2.07635884E+03
      2.14934994E+02     -1.20421815E+03      2.30407602E+01
      1.53521813E+03      1.71334942E+03     -1.32723815E+03
      1.40266899E+03      3.80537240E+02      4.66961391E+01
     -1.50870469E+03      1.19273551E+03      1.86020687E+03
     -1.64567088E+02     -8.64268153E+02     -6.41645081E+02
     -1.23939608E+03     -2.02461405E+03     -1.40260929E+03
      1.73988489E+03     -8.15248580E+02     -4.76850345E+02
     -1.26798081E+02      3.62927475E+02     -7.85572838E+02
      2.02806513E+03      6.28981721E+02     -1.69186732E+03
     -2.18541448E+03     -4.77968371E+02     -1.76057167E+03
     -1.65098728E+01     -1.41688546E+02     -3.06804198E+02
      9.75256425E+02     -6.15002720E+02      1.22551320E+03
      9.63411744E+02      8.38869696E+02     -2.40329273E+03
      6.78221338E+02      2.55038955E+02     -1.16268516E+01
     -2.39169664E+02     -7.22817353E+02     -2.12478024E+03
     -9.07881672E+02      3.97522921E+03      4.10646882E+01
      8.76395382E+02      9.68122412E+02      3.82360095E+02
     -7.71062737E+02     -2.38464172E+03     -2.82666040E+02
      1.16604328E+03     -2.88578987E+03     -1.11033940E+03
     -1.78743707E+02     -3.33617417E+02     -3.69772224E+02
     -8.40533653E+02      1.30297480E+03     -2.67399308E+03
     -1.90847713E+02     -2.20316356E+03     -9.69407013E+02
     -3.26795080E+02     -1.95872571E+02      4.96240647E+02
      4.60022130E+02      1.77047920E+03      5.78453525E+02
      1.44651485E+03     -1.97881288E+03     -2.13013391E+02
      3.98274406E+02      7.06402453E+02      4.79436274E+01
      1.65645216E+03     -2.88208687E+02     -5.27493866E+02
     -1.48497355E+03      1.60348939E+02     -2.67088039E+02
      5.74162739E+02     -2.34921500E+02     -3.76404355E+02
      1.91585461E+03     -5.86954768E+02      1.07593771E+03
      5.09118955E+02     -5.94988987E+02     -2.17530378E+03
     -7.05411641E+02      1.48390664E+02      2.75990111E+00
     -1.06187481E+02     -1.03271936E+03     -3.90234452E+01
      3.37867815E+02      1.26578687E+03      3.71698463E+03
      1.25116175E+02     -1.22965816E+03     -1.86001991E+02
     -1.37184268E+03      2.34264177E+03      2.79550548E+03
     -2.55911707E+02     -2.32910543E+02     -2.40450767E+02
     -1.21469461E+03      1.47247525E+03     -9.27428220E+02
      2.35655158E+03      2.07166314E+03     -1.44408826E+03
      9.14453078E+01     -1.89143320E+02      7.52057091E+01
     -3.39975138E+02     -2.07725857E+02      1.00773119E+02
     -1.86280689E+03      2.15817238E+03      7.37976527E+02
      2.57289782E+02      1.39464414E+02      3.18322092E+02
      3.93382008E+02      1.27048904E+03     -1.67943110E+03
      3.10977409E+03     -9.21643670E+02     -1.98570414E+03
      3.61190762E+02     -9.01161950E+02     -1.12304038E+02
      4.42663271E+02     -7.63340942E+01     -1.99317641E+03
      2.19648573E+03     -9.19559753E+02     -3.23061160E+03
      2.33853757E+02      7.28304496E+02     -6.17842969E+02
      5.22644725E+02      1.44398474E+03      5.15832512E+01
     -1.91041912E+03      6.62721361E+02      2.63865136E+03
     -8.63690810E+01     -3.68055728E+01     -8.31980853E+01
     -2.55177837E+03      1.16860795E+03      4.36878984E+03
      5.89209722E+02     -4.61711084E+03      4.06544275E+02
      1.43888320E+02     -2.88198313E+02     -2.50950839E+01
      6.51097837E+02      2.55525256E+03      1.23227798E+03
      1.34963510E+03      2.73280236E+03     -2.56876752E+03
      4.47535164E+01     -8.07151713E+02     -7.71775810E+02
     -1.89365303E+03      2.96857003E+02      6.99450716E+02
      1.44550544E+03      3.65034295E+02     -7.40022813E+02
      3.89155468E+02      2.94257416E+02     -5.52786851E+02
      8.56375582E+02      1.89992615E+02      4.25681666E+02
     -1.44538289E+03      5.24043193E+02     -1.22150339E+02
      3.32243718E+03      3.85916502E+03     -7.88893770E+02
     -1.40634205E+02      7.01195864E+02      3.33925313E+01
      3.74252852E+03     -1.32993611E+03      1.97257808E+03
      9.60981434E+02     -1.87871493E+03     -1.36718051E+03
      2.60404664E+03     -2.63242635E+02     -7.04641097E+02
     -4.63234734E+01      8.94055529E+02     -3.98049398E+02
      1.25582792E+03      1.20111539E+03      9.05582985E+02
      9.66940086E+02     -2.38118289E+03      3.52842197E+03
      2.01981967E+02     -1.89868318E+02      1.12173683E+02
      2.48205415E+03     -1.12768610E+03      1.11501431E+03
     -3.01264427E+02      2.09800488E+03      3.10855683E+02
      2.95861909E+02     -5.75528581E+02     -2.54215543E+02
     -1.07797562E+03     -2.47538174E+03      8.02067122E+02
     -2.48810992E+02      1.16808335E+02     -2.40897341E+03
      3.28265007E+02     -7.11644358E+02      1.12322917E+03
     -1.62784895E+02     -6.66172324E+02      1.78841256E+02
      6.94629988E+02     -2.60384274E+03     -3.78168526E+03
     -3.92010373E+02      1.59536114E+02     -6.16843184E+02
     -2.37979270E+03      8.97345071E+02      1.68371303E+03
     -8.35838814E+02      8.84970368E+02      3.18767276E+03
      5.55384876E+02     -6.91607358E+01     -2.93647041E+02
     -1.05657503E+03     -8.16330377E+02      3.26027183E+03
     -1.10747766E+03      1.64117544E+03     -6.69269626E+02
      3.23099126E+02      7.06513955E+01     -6.22919553E+00
      8.10267653E+02     -1.55585873E+03     -8.17220634E+02
      2.91296875E+03     -1.38142272E+03     -3.18742081E+02
      1.91438793E+02     -2.05817185E+02      3.57782999E+02
      7.61576633E+02     -1.67307049E+02      9.47729153E+02
      1.46686737E+03      5.44473943E+02     -1.15554405E+03
      2.23673038E+02      8.53652108E+01     -1.77319920E+02
      2.81187232E+03      2.75507344E+03     -2.78979049E+03
      6.51567807E+02     -1.51211190E+02      1.81105430E+03
     -6.87503782E+02      6.18595803E+02      4.39516945E+02
     -4.97082819E+02     -3.12383258E+02     -1.34922467E+02
      3.25276477E+03     -1.33129047E+02      2.06113535E+03
     -8.68690039E+02     -4.91106453E+02      3.66763241E+00
     -6.65642553E+02     -1.29482392E+02     -4.92809638E+01
      2.69014815E+02      4.52705192E+02      1.55486695E+02
     -4.87053097E+02      2.69592717E+02      2.23196975E+03
      1.61590939E+03      2.06919130E+03     -1.04084332E+03
      6.32922450E+01      3.67632608E+01     -9.44490463E+02
      6.36052074E+02      3.09185323E+01     -2.77418169E+03
      3.74668896E+02      2.72425489E+01      1.09249241E+03
      1.11345201E+02     -1.86261079E+02     -1.16301222E+02
      2.00214513E+02     -6.26443914E+01     -2.69815354E+03
      7.19120730E+02     -6.15711902E+02      1.88239196E+03
      1.36590302E+02     -1.00008610E+02      3.18093957E+02
      3.19459932E+03      1.95893502E+03     -7.32923875E+02
      9.05979826E+02      7.97442629E+02      1.20422831E+01
     -6.47154800E+02     -5.18958380E+02     -6.73082560E+02
      1.08651152E+02      7.89548867E+01     -1.42812734E+03
      3.01256824E+03      2.87308784E+02     -1.10118780E+02
     -1.53635976E+02      3.38710062E+02     -3.82178129E+02
      3.22904172E+03      1.03610557E+03      1.30691976E+03
      1.35834670E+03      2.11369239E+03     -2.08993873E+03
     -8.77412828E+02     -6.19566560E+02      3.87904449E+02
     -1.15479565E+03      4.33206606E+03     -1.46064481E+02
     -3.07241194E+02      1.18407709E+03      1.01606466E+03
      7.95737086E+02     -7.09343284E+02     -3.59332287E+02
      7.34075316E+02      1.33464067E+03      2.28999212E+02
      6.25529857E+02      5.39764893E+02      2.66948971E+02
     -2.75293058E+01     -1.02706949E+02     -6.22724920E-01
      1.59570312E+03      3.18127985E+02      2.25020740E+01
      9.89842349E+02     -1.38849952E+03      2.63668927E+02
      3.57690761E+01     -1.41866512E+03     -4.71613961E+02
      2.85762896E+02     -3.98993763E+02     -1.17026947E+01
     -2.16149823E+03     -1.86220984E+03      2.25168290E+03
      1.71093025E+03      2.35826999E+03      2.86835937E+03
      3.90457356E+03      2.00670732E+03     -1.00641499E+03
     -7.28654168E+01      1.47698425E+02      2.94752915E+02
      5.51122864E+02     -1.33887192E+03     -7.50167712E+02
      1.45986412E+03     -1.06158258E+03      5.87103346E+02
      4.50241399E+02     -2.64229465E+02     -2.62454866E+01
     -2.99638702E+03      4.44300703E+02      3.08331127E+02
     -1.97481063E+03      1.65071941E+03      8.39587904E+02
      3.29126050E+02     -5.04480511E+02      4.89984777E+02
     -4.55651635E+01      3.19925253E+02     -2.04066512E+03
     -1.22727160E+03      9.66975359E+02     -9.37686460E+02
     -2.61428370E+02     -6.94585113E+02     -4.59854034E+02
      1.56351903E+03     -2.40232241E+03     -1.19630539E+03
     -1.97318519E+03      1.91377736E+03      2.31017239E+02
      1.11680728E+03      8.24979980E+02     -5.27268887E+00
      1.16033573E+03     -8.27630050E+01     -3.45108904E+03
     -7.53842301E+02     -3.56467814E+02     -2.31184688E+02
      1.87715496E+02      1.98817300E+02      3.58448159E+02
     -1.22785509E+03      5.64717385E+02      1.40137577E+03
      3.08883261E+02     -1.10793543E+03     -9.70103222E+02
      3.16812716E+02     -4.50378102E+01      4.71275094E+02
      4.54006490E+02      9.55655137E+02      7.51770572E+02
      3.89781447E+02      2.67260324E+03      1.59615804E+02
      5.75139853E+01      3.94427446E+02     -7.39245172E+01
      7.88740597E+02      3.92334095E+03     -2.04798788E+03
      7.18887628E+02     -1.30632869E+03     -2.07378958E+03
     -8.37153834E+02      5.26779705E+01     -1.47087068E+02
      8.89976407E+02     -2.81090148E+03     -1.14254375E+03
     -7.27497162E+02     -1.68735839E+03      6.14404927E+02
      7.06443681E+00      4.14256075E+02     -1.39674860E+02
     -2.20501508E+04      6.35057457E+03      1.62183597E+04
      5.41976123E+02     -2.41688772E+03     -1.81834132E+03
     -8.46066381E+02     -5.29578891E+02     -1.97295684E+03
     -1.61073640E+02     -9.07810356E+01      1.98546144E+03
      7.14106133E+02     -7.88330902E+02     -6.30809972E+02
      2.95038385E+03      2.54479355E+03      9.86730645E+02
     -1.90125627E+03     -3.27088939E+03     -1.67634316E+03
     -6.25940484E+02      2.26764569E+00     -7.72366780E+02
     -1.48128028E+03      5.87697098E+01     -1.70585423E+03
      3.02408621E+03      8.84044366E+02     -6.82135590E+02
      1.35426126E+02     -3.69084383E+02     -8.30686570E+01
      4.97726714E+02      3.06356628E+03     -9.80850280E+02
      1.47499214E+03      4.35713581E+02     -3.96628420E+02
      3.58519781E+02     -1.90503504E+02     -9.13903484E+01
      5.64859883E+02      1.92868834E+03     -5.25634510E+02
     -5.78177440E+02     -6.78847614E+02     -4.31443713E+02
      2.15868081E+02      2.44217823E+02     -4.24480287E+02
     -3.90449968E+02     -5.04723192E+02      3.01567401E+02
      2.28239275E+03      5.17234059E+02     -2.63109460E+03
      8.90372810E+02     -2.39877735E+02     -2.97742877E+02
      2.68438768E+03      2.46915895E+03      2.56458070E+03
     -1.99933650E+03     -2.04752832E+03     -4.40682574E+02
     -3.28680542E+02     -3.12924439E+02     -1.86116489E+02
     -5.37579361E+02     -5.13288123E+02     -6.26919077E+02
     -6.04005023E+02     -5.48560717E+02      1.47408728E+03
     -7.04936710E+02     -1.27809737E+02     -8.08418131E+02
     -3.20971947E+03     -1.25928116E+03      4.32386912E+03
      3.70220762E+02     -1.09188401E+03     -1.36375351E+03
      8.65021962E+01     -4.56907910E+02     -5.83123892E+02
      1.54300961E+03      7.76266057E+02     -1.34994559E+03
      3.84089196E+03      1.42602174E+03     -7.87418238E+02
     -4.89114438E+02     -1.84116037E+02      2.69138989E+03
      1.05697573E+02     -2.29520119E+02     -4.66122463E+02
      8.38056330E+02      3.29094239E+02      1.02114920E+03
     -2.46417759E+02     -4.08015733E+02      2.24531209E+03
      2.16621909E+02      5.85775841E+02      1.00830572E+03
      1.51869663E+01      9.59941237E+00     -3.86871975E+02
      1.86829944E+03     -2.32901732E+03      2.45670688E+02
      4.02155408E+02     -1.67355256E+03     -3.69890022E+03
     -6.00829839E+02     -2.81505568E+02     -5.59479453E+02
      9.41570333E+02     -3.25612007E+02     -4.68550643E+02
      4.69776789E+02     -2.12318999E+02      3.17787077E+03
     -9.11647177E+02     -9.11576054E+01     -2.85234446E+02
      2.88086341E+02      5.70773477E+03     -1.39365009E+01
      3.47482450E+03      2.42820588E+03      7.72078804E+02
      1.18690265E+02     -8.56652499E+02     -1.40816952E+02
     -2.35687243E+03      8.48234323E+02      7.61719917E+02
     -8.70657494E+02      1.43950187E+03     -5.44774817E+02
      6.28787594E+02      2.45991945E+02     -2.80220656E+02
     -2.14508671E+02     -1.10818356E+03     -3.95324327E+02
     -1.19815322E+03     -1.29240881E+03     -6.69887112E+02
     -2.38263009E+02      5.37653899E+02      6.41348979E+01
     -3.57973356E+02     -1.42665491E+02      1.05313043E+02
     -2.24723486E+03     -8.35177682E+02      1.11687095E+03
      7.76350985E+02      3.67474914E+02      8.95068238E+01
     -7.20602455E+02      1.66388882E+03      5.21412007E+02
      7.96296311E+02      6.81016000E+02      2.45487708E+02
      8.30303204E+02      5.28069186E+02      5.55662795E+02
     -1.12103831E+03     -1.10836081E+03     -4.55193369E+03
     -2.39513947E+03      1.17669223E+03      4.92576732E+02
      1.94842512E+02     -2.68484062E+02     -3.34509277E+02
      2.02082023E+03      1.69143314E+03     -1.69732638E+03
      2.92586043E+03     -2.51490119E+03      1.02519490E+03
      3.32327399E+01      3.41374003E+03     -1.98491918E+03
      1.45873565E+03     -5.14797776E+02     -1.31584275E+02
     -7.78988332E+02     -6.90627616E+02      1.45703494E+03
     -4.00757350E+03      6.66134815E+02      1.47693150E+03
     -1.46388154E+03      1.58097741E+02     -1.78424409E+03
  }
}

Hamiltonian = DFTB {
  SCC = Yes
  SCCTolerance = 1e-6
  MaxSCCIterations = 200
  ForceEvaluation = Dynamics
  MaxAngularMomentum = {
    C = "p"
    H = "s"
  }
  Charge = 0.0
  SpinPolarisation = {}
  Eigensolver = Standard {}
  Filling = Fermi {
    Temperature [Kelvin] = 300.0
  }
  SlaterKosterFiles = Type2FileNames {
    Prefix = "../../pbc-0-3/"
    Separator = "-"
    Suffix = ".skf"
    LowerCaseTypeName = No
  }
  KPointsAndWeights = {
    0.0000000000000 0.0000000000000 0.0000000000000 1.00000000000000
  }
  Dispersion = LennardJones { 
    Parameters = UFFParameters {}
  }
}

ParserOptions = {
  ParserVersion = 3
}
