Geometry = GenFormat {
<<< "system.gen"
}

Driver = VelocityVerlet{
  Steps = 50000
  TimeStep [fs] = 0.2
  MDRestartFrequency = 5
  Thermostat = None {
    #InitialTemperature [Kelvin] = 300.0
  }
  Xlbomd{ 
    IntegrationSteps = 6 
    MinSccIterations = 2
    MaxSccIterations = 200
    SccTolerance = 1e-6 
  }
  Velocities [m/s] {
     -6.29687017E+02      2.71893946E+02     -3.42862214E+02
     -2.20245502E+03      3.12419649E+02      2.51697017E+03
     -2.10830327E+03     -2.30483585E+02      2.61706673E+02
     -1.22437598E+02     -6.61963927E+00      2.74931990E+02
     -1.84130047E+03      4.14772806E+03     -1.73915056E+02
      6.54131718E+02     -3.16357157E+02     -3.87435963E+02
     -1.84210052E+02      3.04689591E+02      3.72112682E+02
      1.12943951E+03     -2.42850000E+02      9.60748539E+02
      2.10125825E+03      7.75771774E+02     -2.63908088E+03
     -2.53415409E+02      8.54717140E+02      3.32673848E+02
     -1.25388420E+03     -1.31619927E+03     -8.87159707E+02
     -5.09956489E+02     -1.72012717E+03     -8.65042255E+02
     -4.82351609E+02      3.72268778E+02     -1.37449836E+02
      3.01577942E+01     -6.30577201E+02     -1.26119445E+02
      2.07533706E+03      2.69193567E+03      2.95452226E+03
      1.02252422E+03      3.19978165E+02     -1.57174634E+02
      6.59231459E+02      1.53885912E+03     -5.31912190E+02
      4.91123598E+02      9.95836011E+02     -6.93039121E+02
      4.01747040E+02     -2.63157562E+01     -2.57903560E+02
      8.94998395E+02      6.96068500E+02      1.65868533E+03
      1.09190857E+03      1.56382180E+03      2.09763008E+03
      7.23477828E+02      2.77162321E+02      2.51388731E+02
     -7.89912376E+02      2.57596869E+02      8.50985256E+02
      2.28460561E+03      8.13523581E+02      5.35389094E+02
     -5.16989578E+01      8.56383260E+02      7.96210017E+01
     -1.78994803E+03     -1.18997882E+03     -1.34425693E+03
     -6.79683237E+02     -6.58035446E+01     -2.69836357E+01
     -2.11607938E+01     -2.42081690E+03      2.75809648E+03
      3.95190294E+02     -3.52046922E+02      1.59249763E+02
      9.03481263E+02     -1.12045181E+03     -4.14115460E+02
      7.33701833E+02     -1.59301957E+03      2.74609515E+02
      9.47689230E+02     -1.28566675E+02     -6.35542915E+02
     -2.59291980E+02     -4.60521719E+01      2.37346251E+02
      7.01262566E+02      2.26176570E+03     -2.65447283E+03
     -1.61685412E+03     -1.75232821E+03     -5.47139220E+02
      1.61969687E+02      4.27474875E+02     -3.65216884E+02
      1.12419447E+03      1.02061756E+02     -1.86721768E+03
      2.01150057E+03      1.19908108E+03     -6.80156819E+02
     -1.12401049E+02     -3.74715421E+02      5.11209250E+01
      1.37896085E+03      2.25493227E+02      2.36180327E+02
      1.31636030E+03      8.03221475E+02     -7.82271601E+02
      9.17436789E+01      2.11418847E+02      8.63637074E+02
      2.10988540E+02     -7.27985375E+02      7.59500826E+02
      1.46493919E+03     -1.00114399E+03     -4.40516826E+02
      2.87374895E+02      5.59119279E+01      4.55817365E+02
      1.26910828E+03      1.26525235E+03      3.69070356E+02
     -3.50342932E+02      2.91462162E+03      1.87726928E+02
      3.14041078E+02      5.35520373E+02     -2.23026555E+02
     -1.23775131E+03     -8.27081449E+01      2.30424678E+00
      7.65107406E+02      9.78655254E+02      1.20826384E+03
      1.52092332E+03     -6.26475612E+02      1.48859493E+02
     -9.37307535E+01      1.90867329E+03     -3.35553374E+03
     -1.13940720E+03     -1.95439050E+03      1.75367415E+03
     -8.34343404E+01      1.51674942E+02     -6.48978634E+02
      3.50633713E+02     -3.23559350E+03     -2.05448543E+02
     -1.75306490E+03      7.92937205E+02     -2.25240676E+02
      3.25040815E+02     -4.75889545E-01      1.10138064E+03
      1.74506246E+03     -1.61944991E+03     -3.21570033E+02
     -8.31068797E+02      7.11693094E+02     -1.41869508E+03
      5.60570465E+02      3.26168469E+02     -1.29084220E+03
     -4.78084046E+01      8.71173745E+01     -2.49476870E+02
     -6.56564711E+02      1.72178627E+03      2.53575145E+02
     -1.48530535E+03      1.22033425E+02     -1.46693229E+03
      2.36592676E+00     -1.30703252E+03      2.65059513E+03
      2.68985615E+02     -3.20764805E+02     -5.62356312E+02
      6.93534746E+02      1.56942944E+03     -1.55558860E+03
     -1.26667410E+03      1.78541831E+03     -4.89265942E+02
      7.02092565E+02     -9.91132603E+01     -2.97511376E+02
     -1.04022069E+03     -1.96915763E+03      6.92141013E+01
      7.80954977E+02      2.26914631E+02      1.14619267E+02
      3.13923439E+02     -1.95372735E+02      1.68829575E+02
      3.20860405E+03     -1.40235515E+03     -8.97093652E+02
      1.90815678E+03     -1.32362356E+03     -1.45675163E+03
      2.77365013E+02     -1.55067811E+02      3.71462521E+02
     -3.62885080E+02     -3.34740951E+03     -1.37840574E+02
      1.02623013E+03      1.20382075E+02      4.56991255E+02
     -4.23528496E+02      2.88558760E+02      6.39387366E+02
     -2.05847751E+03     -3.95239182E+03     -1.96540002E+03
      1.80444825E+03     -1.08788546E+03      3.88557508E+02
      3.01358626E+02      1.28268560E+02      7.42109743E+02
      1.15787075E+03      3.18362527E+02     -3.38139360E+03
     -5.09960709E+02      1.10114596E+02      3.08081165E+02
      2.32408359E+02      3.19420901E+01      3.93755215E+02
      1.03390445E+03      1.91769250E+03      2.04199329E+03
      1.44023919E+02      1.29108321E+03      1.34027120E+03
     -5.50946364E+01      4.72883573E+02      6.20668936E+02
      3.56052220E+02     -1.29761989E+03      7.25993301E+02
      3.45330690E+03      8.41469619E+02      1.62644335E+03
      6.51241424E+02     -4.45508954E+02      1.74450520E+02
      1.32417546E+03     -1.52034978E+03     -3.65730410E+02
     -2.14462783E+03      6.27211352E+02     -2.14063181E+03
     -6.03715758E+02      4.24977473E+02     -1.98836767E+03
      1.10255803E+02     -1.00731881E+02      3.00678575E+02
     -3.29846158E+03      4.38290840E+02      7.21349542E+02
      4.98975234E+01      8.25180343E+02      5.10333416E+02
     -2.16529784E+03      3.17289895E+03     -1.00857520E+03
      8.00301137E+02      5.83865516E+02      2.57213589E+01
      2.99321894E+03      4.48947043E+03      8.68862679E+01
      3.35734590E+03     -4.40225043E+03      6.26201199E+02
     -4.46799140E+02      5.00159382E+02      8.19481837E+02
     -1.01908534E+03      1.48291727E+03      1.59543522E+01
     -2.16573957E+03     -8.58167981E+01      2.82723888E+03
      2.42350647E+02      4.10905158E+02      2.24396318E+02
     -3.97068911E+02     -2.03647997E+03     -1.28825372E+03
      1.71006933E+02      1.75416715E+03     -1.35205094E+03
      5.71121856E+02      8.20586064E+02     -1.67567757E+01
      9.56875495E+02     -1.21332059E+03     -7.06226806E+02
      1.69352155E+03      5.55502604E+02      7.76435235E+02
     -6.59139028E+02     -5.83257998E+02      1.16937674E+02
      1.03428429E+03      1.43280265E+03      3.99755799E+02
     -4.93857926E+02      1.83180638E+02     -7.63833403E+02
      9.58908561E+02      2.65101010E+02     -3.44784322E+02
     -1.19078302E+03     -5.17624858E+02     -8.70936589E+02
     -6.49984685E+02     -1.01383068E+03      1.16802675E+03
      2.28657076E+02      3.79907596E+02      6.04348381E+02
     -1.63114791E+03      6.05627435E+02     -4.53986191E+02
     -2.97176863E+03     -3.11211646E+03      2.58009958E+02
     -1.74250784E+04     -9.36192040E+03     -9.00384387E+03
      9.03097980E+02      3.45429395E+03      9.50120017E+02
      2.16267869E+03      1.22969081E+03     -8.02469983E+02
      4.97338166E+02      2.92383264E+02      3.53008702E+02
      2.40242454E+03      2.60681313E+02      1.55681956E+03
      2.28324687E+02     -1.31848243E+03     -5.20837368E+01
      6.67620125E+02     -1.67695557E+03     -3.74188028E+03
     -5.40928027E+02     -3.38734316E+02      2.51949581E+02
      5.61236625E+02      2.44694754E+02      3.23447817E+02
      6.45421474E+02      4.32211239E+02      8.11571750E+01
      1.12720785E+03      9.29651713E+02     -4.07361706E+02
     -6.52701126E+01      1.28784029E+02     -5.65928943E+01
     -4.88279392E+02      8.51876685E+02     -3.59613263E+03
     -3.51676652E+02      2.37952670E+03     -3.20245796E+03
      1.14077166E+03     -5.68379247E+02      4.20580987E+02
      1.68062617E+03      3.80130754E+02     -3.41216194E+02
      1.12040610E+03     -2.15642558E+03      1.18434038E+03
     -9.63930279E+02     -5.49476924E+02     -1.93434148E+02
      1.63854773E+03     -9.91947734E+02      3.29173171E+01
     -1.76841665E+03     -1.27788721E+03     -3.50644661E+03
      3.12359245E+02     -6.21657154E+02     -9.05845798E+01
      1.61364666E+03     -3.31079650E+02      9.56457981E+02
      2.33078803E+03      2.32236573E+03      1.62071188E+03
      1.44571843E+02      6.58451186E+02      4.65950697E+02
      6.16196468E+02      1.43093460E+03      3.85057467E+02
     -1.89999235E+03      1.25261880E+03     -5.58204170E+02
      3.00482236E+02      3.04487502E+02     -8.30482251E+00
      1.84948868E+03     -1.81975997E+03     -2.46634109E+03
     -7.51520566E+02     -1.37419974E+03     -2.08759765E+03
     -2.77313709E+00     -1.42967640E+02     -5.13049342E+02
      4.47322373E+03     -2.05636054E+03      2.24638650E+03
      1.69877200E+03      2.01946215E+03      1.37459611E+03
     -3.13068498E+02     -3.14853205E+02      3.60372745E+00
      2.41853232E+02     -6.08450469E+02      3.28436145E+02
     -1.35307481E+03     -3.22431054E+02     -2.28209178E+02
     -5.79966665E+01      2.67538978E+01      4.25364541E+02
      1.39135098E+03      8.15796649E+02     -2.58268479E+03
      1.37344962E+03      8.45986766E+02     -1.14363880E+03
      4.99055642E+03      2.08199305E+03      9.71649632E+01
      7.33456051E+02      5.09392117E+02     -1.85048232E+02
     -8.78681725E+02      1.56315753E+03      8.47392436E+01
     -2.04992079E+03      2.40257446E+03     -1.78564648E+03
      1.97658652E+03     -1.64603757E+02     -5.66703641E+02
      5.77167054E+02     -1.24728007E+02      1.05862664E+02
      1.89281745E+03      5.07967588E+02      3.49306208E+03
     -1.89480849E+03      1.79201524E+03      4.18293493E+02
      3.89325253E+02      9.31557026E+01      7.32950399E+02
      1.06851883E+03     -2.39768101E+03     -1.32226639E+03
      1.57616936E+03      1.53818238E+03     -5.38559592E+02
      7.42800723E+02      4.74732455E+02      1.58617523E+02
      1.78089458E+03     -2.65848950E+02      3.38882040E+03
      9.48782180E+02      6.49195728E+02     -5.53296661E+02
     -3.34468629E+02      2.13388918E+02     -4.95084874E+02
      1.87083023E+02      1.77072535E+03     -1.89532756E+02
     -1.72846921E+03     -5.43725589E+02     -4.21482175E+02
      1.87323122E+02      1.27371249E+02     -3.73612422E+02
      5.52785100E+01     -1.24522722E+03     -3.83453528E+03
      3.52791827E+03     -5.35201670E+02     -2.95734299E+03
     -2.38404435E+02     -3.45953353E+02     -1.22560189E+02
     -1.60864854E+02     -7.83339595E+02      5.80640269E+02
      1.59659857E+03     -4.31991277E+02      1.89320370E+03
     -2.95645648E+02     -5.72784876E+02     -4.66212967E+02
      2.04808832E+03      9.18328485E+02      1.34655578E+03
     -1.21042069E+03      1.48524707E+03     -4.23964780E+02
     -6.35932359E+02      1.06559609E+03     -4.58366239E+02
      9.66100232E+02      1.88705527E+03      2.11110748E+02
      5.49208200E+02      1.56256489E+03     -3.86751473E+03
      1.02118451E+02      2.05614392E+02      2.86109620E+02
      6.30875149E+02      3.11017960E+03      2.88765370E+03
     -1.43555464E+02     -2.50517387E+02      4.46807368E+02
     -4.14505575E+03      1.75486890E+03     -1.26955681E+03
      1.14711586E+02      4.08234286E+02     -3.84384322E+02
      5.52459377E+02      2.35922905E+02      1.14077802E+03
      4.81679626E+02     -1.31443449E+03      1.79657144E+03
     -1.70003523E+03      8.01310146E+02      3.07324309E+01
     -8.97734805E+01      1.91862838E+01      2.39895286E+02
     -3.02476512E+02      1.16654891E+02     -1.41187557E+03
     -3.79726198E+02      1.68006301E+03     -7.72992835E+02
      7.41446112E+02     -7.24760878E+02      5.74476849E+02
      9.74971679E+02      3.15630691E+03     -1.09989326E+03
     -2.45543205E+03     -1.95210966E+03     -3.74962398E+03
     -2.86617568E+02     -5.36925174E+02      3.00641635E+02
      2.18933955E+02      2.52521286E+02      4.57419975E+02
      1.27382216E+03     -1.72261018E+03      3.35622279E+03
      1.23419980E+02     -2.38210806E+02     -1.10773336E+02
     -1.16357488E+03     -7.58572180E+02     -1.12923032E+03
     -8.81286881E+02      1.32920663E+03     -1.44389304E+03
      9.87851911E+02      3.91887613E+02     -2.48988827E+02
     -8.39995865E+02     -1.12946302E+03     -1.10467002E+02
     -1.02330214E+02      2.64648582E+02      2.05555238E+02
     -1.51141156E+03     -7.88529696E+02     -5.12086857E+02
      1.08703329E+03      1.02571546E+03      1.08699487E+03
      4.25393305E+02     -2.27093716E+03      1.79444937E+03
      7.42211189E+02      3.64963383E+02     -2.15061523E+02
      3.17416024E+02      1.86857052E+03     -2.15135574E+02
     -5.86135942E+02     -1.53196540E+03      2.26347707E+03
     -4.76793852E+02     -3.29680310E+02     -7.15004532E+02
     -7.88028741E+02      4.68221366E+02      6.40554261E+02
      1.68949219E+03     -2.62451937E+03     -4.06691348E+02
     -3.26709177E+02      4.20638404E+02     -8.01421427E+01
     -1.78574926E+03     -1.86428146E+03     -3.48583776E+03
      4.15988383E+03      2.18350170E+01      1.82930583E+03
     -1.51811265E+03      1.11372422E+03      1.84004527E+03
     -2.94586682E+02      7.94217076E+02      3.84477626E+01
     -1.82704061E+03      2.37941923E+02      3.01076439E+02
      1.84176620E+03     -7.09495688E+02     -1.92251021E+03
      2.37775374E+03      1.36245766E+03     -6.99137128E+01
      4.36027683E+02     -4.02914959E+02      1.35967141E+00
     -1.02390448E+03      1.80932586E+02      1.74979150E+03
      2.68920798E+03     -1.25929233E+03     -2.04529109E+03
      7.23077764E+02     -3.48503139E+02     -5.60508672E+01
      1.88098140E+03     -1.01609684E+02     -9.86777883E+01
      7.70773186E+02      3.27974080E+02      1.08839439E+03
      1.13023022E+02      5.40930127E-02      3.93637611E+02
      2.23106362E+02      1.27904176E+03      1.07130701E+03
      8.74758495E+02      1.86361391E+03     -9.45592295E+02
      3.11836027E+02      6.77677123E+02      1.92016672E+02
      1.31120704E+03      1.32111240E+03      8.36785264E+02
      1.50561108E+03     -2.60408770E+02     -2.05663053E+03
      3.45333451E+02      2.26070831E+02     -2.27349750E+02
     -3.20128722E+03      1.63386025E+03      1.80488044E+03
      3.94547974E+03     -7.30583601E+02     -7.47870999E+02
      4.88148101E+02     -2.34167002E+02     -9.58686769E+01
     -4.60093231E+02     -1.77478065E+03      5.72889919E+02
     -1.03249509E+02      1.02022872E+03      3.79092246E+02
      2.65474610E+02      2.04322477E+02     -5.43985715E+02
     -2.25591209E+02      1.52711229E+03      1.70767671E+03
      2.86708568E+02     -6.55857267E+02     -2.12858534E+03
     -5.02443419E+02     -4.60824032E+01      7.88910134E+02
     -2.59891059E+01      3.90424080E+02     -1.52504569E+03
     -5.92551446E+02     -5.63456068E+02      3.69561351E+03
     -4.16324247E+02      7.75584902E+02     -4.77180197E+02
     -3.62989811E+01      4.52448252E+03     -2.84848281E+02
     -9.26748181E+02      1.25051777E+03     -2.73274731E+02
     -3.09917252E+03     -2.69275612E+03      8.82823088E+02
      2.50398578E+02     -4.33480107E+02      8.98775215E+01
     -2.24990823E+03      1.80043094E+03     -5.94257417E+02
     -4.26880627E+02     -8.14097785E+02      1.76000346E+03
     -1.89980964E+03     -3.35537352E+02     -4.83361037E+02
      1.94699878E+02     -2.49214000E+02     -4.78091945E+01
     -4.94828874E+02     -2.00107123E+02     -1.17016704E+03
      2.12269620E+03     -1.01337063E+03      9.79757299E+02
     -3.82290085E+02      3.89741753E+02      7.40467751E+02
      2.13400798E+02     -3.11867110E+03     -3.12706270E+02
     -6.49575312E+02     -3.93967285E+03      1.87163047E+03
     -5.95995735E+02     -2.45239183E+02     -3.36699346E+02
     -2.48405846E+03      6.23450282E+02      7.76253268E+02
      4.18370667E+02      2.76561245E+02      2.29490338E+03
     -2.08871853E+01      1.17925175E+02     -9.86363741E+02
      5.32542076E+02      2.24253602E+03      1.09305518E+03
     -1.42587256E+03      1.51007454E+03     -1.48715521E+02
      1.02983822E+03      1.17319596E+03      7.47197413E+01
      1.92387951E+03      4.29832253E+01     -7.59970068E+02
     -2.81457093E+03     -2.80521228E+03      9.52183635E+02
     -4.60191980E+02     -2.04257086E+02      1.29963367E+01
      1.89518024E+03     -2.28717064E+03     -1.91532767E+03
     -1.21933429E+03      2.00616714E+03     -4.29511244E+01
     -2.58794848E+02      5.95635637E+02     -2.54043966E+02
     -4.75447632E+02     -1.06398702E+03      2.71989441E+03
     -1.09179239E+03     -1.10416203E+03      1.25496506E+03
     -2.40866644E+02      2.16975199E+02      4.78349679E+02
     -7.83709525E+01     -4.77753810E+02      3.11052524E+02
      1.42672826E+03     -6.22696771E+02      5.19810131E+02
     -1.19201048E+03      2.38401144E+02     -1.40761225E+02
      1.69128711E+03     -3.88650442E+01      6.09850179E+01
     -9.20873139E+02      2.26581421E+03      1.24819980E+03
      9.75450695E+02     -3.48179579E+02      3.29780759E+03
      3.18987245E+02      1.42541882E+02      1.68235097E+02
      4.27043115E+01      5.20921357E+02      1.24239105E+03
     -8.77460824E+02     -2.20341947E+02      2.09987190E+03
      1.03233871E+03      1.87223667E+02      5.74380356E+02
      1.52653282E+02      6.84082487E+01     -1.97279728E+02
      2.20231532E+03     -1.49308039E+03      1.95576001E+03
     -7.11720140E+01     -1.32504387E+03     -1.17434741E+03
      5.10851708E+02      1.96166675E+02      4.08591604E+01
      1.76283943E+03     -2.16351688E+03      1.55177828E+03
      2.32384061E+02      2.17920401E+03      8.00981561E+01
      1.61529803E+02      7.25456197E+01      1.96488740E+02
     -2.09354323E+03     -6.88079693E+02      3.76324164E+02
      1.44690708E+03      8.35481299E+02     -1.37128919E+02
      5.16359988E+01      5.62436014E+02     -4.81096086E+02
     -5.79551951E+02     -1.88715501E+02     -2.65836229E+03
      1.09080567E+03     -2.17216533E+03     -1.64314060E+03
      8.98800338E+01     -4.19821823E+02      2.83614619E+02
      3.41105798E+03     -9.67204429E+02      2.60862550E+03
     -3.26218273E+03     -1.87064111E+03     -2.24870125E+03
     -5.98933432E+02      5.05240606E+02      3.80147296E+02
      1.89113978E+03      2.08182104E+03      2.07596122E+02
     -2.02127467E+03      1.00363247E+03     -2.02321029E+03
      8.51327606E+01     -3.58663598E+02     -4.72463903E+01
      4.61624192E+02      2.88656797E+03      1.89001827E+02
      2.59593732E+03     -1.66431656E+02      1.42745460E+03
     -2.23033515E+02      2.78772780E+02      5.13083746E+02
      1.29486323E+03     -2.76897551E+03     -6.36506625E+02
      1.16560635E+03      2.08094961E+03      3.50272255E+03
      2.53733949E+02     -2.54730540E+02      1.84899384E+02
     -1.26397440E+03     -7.19304031E+02      2.65048943E+03
      1.12848358E+03      1.54691731E+03      1.69585750E+03
      2.96641116E+02      7.86270951E+02     -8.19930740E+01
      1.50076933E+02     -9.40310979E+02      1.49998268E+02
      2.76021353E+02      1.64954825E+03      1.55787014E+03
      1.16852443E+03     -2.32583699E+03      7.75067902E+02
     -1.56177083E+02     -1.51261048E+03     -2.12095442E+03
     -2.18779981E+02      7.81273767E+02     -9.81813640E+01
      4.10446597E+02      4.43152271E+02      2.30359597E+03
      2.10102966E+03      2.07067878E+03      1.92444608E+02
      7.96454804E+02      3.54940386E+02     -4.89499546E+01
      8.88723164E+02     -3.01985141E+03     -9.05774441E+02
     -1.52950739E+03     -7.29026972E+02      1.58290824E+03
      3.01942059E+01      6.47698516E+02      6.34148244E+02
      1.48659288E+03     -3.48932854E+03      7.38332078E+02
      3.15873433E+02      5.21438533E+02     -2.00625263E+03
      2.78449050E+02     -8.51139699E+01     -1.82377312E+02
     -2.28930338E+03     -1.09874704E+03      1.93581270E+03
     -7.23563846E+02      5.90221496E+00     -2.86449778E+01
      8.00465614E+02     -5.13936455E+02      3.11217723E+02
      3.35648070E+03      1.79313125E+03      3.64574171E+03
      2.78740502E+03      1.10932416E+03     -1.18598768E+03
      3.91898920E+02     -1.18212524E+02     -5.27691664E+02
     -1.62534527E+02     -3.87729107E+03     -2.22030497E+02
     -3.28570357E+02     -2.45852558E+03      1.75712217E+03
     -2.02689613E+02     -9.02064170E+02      5.84306028E+02
     -1.32580900E+03      5.85800275E+02     -5.34434407E+01
      1.03788506E+03      7.44418823E+02     -6.59507130E+02
      5.67633910E+02      3.67268702E+02      2.95405525E+02
      2.05423217E+02     -8.52579263E+02      3.90064987E+02
      7.31920337E+02     -2.38279983E+03      7.71161746E+02
      2.45856464E+02      2.57235752E+02      5.08776636E+02
      6.28410558E+02     -9.16495666E+02     -1.17606767E+03
      3.07487850E+02      9.62175468E+02      2.51088344E+03
     -9.39193403E+02      5.01325810E+02     -1.40512173E+03
      2.00535686E+01      1.24534665E+02      7.80303367E+02
      2.71300049E+03     -2.21577041E+01     -9.64835257E+02
     -1.96858594E+03      4.43843645E+02      8.44492154E+02
     -3.90499534E+02     -2.37953302E+03     -8.96087921E+02
  }
}

Hamiltonian = DFTB {
  SCC = Yes
  SCCTolerance = 1e-6
  MaxSCCIterations = 200
  ForceEvaluation = Dynamics
  MaxAngularMomentum = {
    C = "p"
    H = "s"
  }
  Charge = 0.0
  SpinPolarisation = {}
  Eigensolver = Standard {}
  Filling = Fermi {
    Temperature [Kelvin] = 300.0
  }
  SlaterKosterFiles = Type2FileNames {
    Prefix = "../../pbc-0-3/"
    Separator = "-"
    Suffix = ".skf"
    LowerCaseTypeName = No
  }
  KPointsAndWeights = {
    0.0000000000000 0.0000000000000 0.0000000000000 1.00000000000000
  }
  Dispersion = LennardJones { 
    Parameters = UFFParameters {}
  }
}

ParserOptions = {
  ParserVersion = 3
}
