Geometry = GenFormat {
<<< "system.gen"
}

Driver = VelocityVerlet{
  Steps = 50000
  TimeStep [fs] = 0.2
  MDRestartFrequency = 25
  Thermostat = None {
    #InitialTemperature [Kelvin] = 300.0
  }
  Xlbomd{ 
    IntegrationSteps = 6 
    MinSccIterations = 2
    MaxSccIterations = 200
    SccTolerance = 1e-6 
  }
  Velocities [m/s] {
      1.16194392E+03     -4.60163136E+01     -3.85852184E+02
      4.66431169E+02     -6.47409141E+02      1.28995132E+03
      7.79803662E+02     -7.67952874E+02      1.51483429E+01
      6.76202110E+01      6.60208042E+02     -3.17528795E+01
      1.77122557E+02      1.80592256E+03     -1.41443838E+03
     -5.06018375E+02     -9.09861886E+02     -5.59006511E+01
      1.44376616E+02      3.58195767E+02      1.68343140E+01
      1.01088026E+03     -2.90745556E+02     -2.53776028E+03
      2.00001663E+03     -1.36513223E+03      1.84625396E+03
      6.89594001E+02     -3.89859179E+02     -2.87618096E+02
      1.41598194E+03     -6.76470059E+02     -3.96711661E+02
      1.30995846E+03     -1.01185269E+03      1.66537729E+03
     -3.24263055E+02     -5.19635671E+01     -5.64972780E+02
      2.24329629E+02     -8.02838260E+01      7.71588919E+02
      3.37727664E+02     -1.91585493E+02     -6.62574732E+02
     -3.08941283E+02      3.90590047E+01     -4.47486240E+02
     -1.70992580E+03     -2.11164329E+02      1.33719608E+02
      1.59845565E+03      2.37503181E+02      1.37107167E+02
     -1.76955072E+02     -4.77853799E+02      3.50849505E+02
     -6.07859795E+02      1.22999086E+03      1.72049259E+03
     -6.61295800E+02     -1.35216026E+03     -5.20342272E+02
      4.99310502E+02      6.76610096E+02      9.22940638E+01
      5.89527055E+02     -9.10030513E+01      8.42918719E+02
     -7.63494725E+02      2.69383346E+03     -3.97822368E+02
     -5.03379090E+01     -8.22587377E+01      4.93629100E+02
      5.41467019E+02     -1.01951494E+03     -2.26018271E+02
      2.11194793E+03     -1.12718259E+03     -6.76306963E+02
     -3.49600030E+02     -5.80324787E+02     -6.73050791E+01
      5.02414644E+02     -1.86861550E+02      4.31682441E+02
      4.30720680E+03     -1.25208830E+03     -6.73773285E+01
      1.07389180E+03     -7.78049848E+02      4.60061441E+02
     -8.89935611E+02     -2.40357220E+03      9.15728454E+01
     -6.77619323E+02     -4.20812131E+02      7.66725857E+01
      2.28379509E+03     -1.16628999E+02      6.36304543E+02
     -1.37594353E+03      2.69850171E+03     -2.26570345E+03
      8.67782663E+02     -7.41496813E+02      2.08012123E+02
      5.01253766E+02      2.38941894E+03      1.99814729E+03
      2.14837994E+03      1.61194920E+03      5.51329037E+02
     -2.23840481E+02     -3.35758364E+02      2.04142999E+02
     -1.63259021E+03      5.95698156E+02     -1.12786632E+03
      1.55842648E+03     -9.21836159E+02      1.11541346E+03
     -2.47961645E+02     -1.30714501E+03     -2.50662141E+02
      2.09696168E+03      1.19174608E+03     -2.00620403E+03
      3.09145592E+03     -4.45477904E+02     -1.10908580E+03
     -5.72385384E+02     -2.39856653E+02     -2.67423812E+02
     -1.31779755E+03      1.47180924E+02     -1.31283883E+03
      6.39372441E+02      1.31836259E+02      7.11731677E+02
     -3.52564594E+01      1.83542752E+02     -6.50743433E+02
     -1.83989214E+03      3.23836220E+03     -6.29343510E+02
     -1.54715894E+03     -9.08771021E+02      2.45128688E+03
      2.16406518E+02      5.86837284E+02     -8.28521158E+02
      1.93520283E+03      6.92850019E+02      4.00928140E+02
      2.18181895E+03     -2.81555340E+03     -1.35071536E+03
      5.67386183E+02     -2.87162702E+02      3.35313387E+02
     -1.83004184E+03      2.63891309E+03      8.63552496E+02
      1.08819751E+03      7.16888528E+02     -1.77357136E+03
     -7.01232346E+01     -3.85154662E+02     -3.58189547E+02
      4.26861572E+02     -5.35242700E+02     -1.94045272E+03
     -8.00069156E+02     -1.67192223E+03     -1.99758499E+02
     -2.16060077E+03     -2.19611507E+03      3.35004302E+02
     -6.45950355E+01     -8.66404764E+02     -3.32900860E+02
     -6.05511144E+02      2.15318414E+02      4.43613567E+03
     -2.20619841E+03      2.14297826E+02      1.09258291E+02
      4.12194856E+03      2.02691644E+03     -3.71072479E+03
     -3.73254345E+02     -4.77409434E+02      6.03652907E+02
      1.63961632E+03     -2.73336718E+03      3.27792096E+03
     -9.39608039E+02      3.30296620E+03      1.42255477E+03
      4.10726561E+02     -1.07960362E+02      6.55646825E+01
      2.77047430E+03      3.28992073E+03     -5.82464048E+02
      3.77693938E+01     -1.52297014E+02     -2.62503760E+02
      3.70036332E+02      1.03684974E+03      1.42158582E+02
     -1.32814305E+03     -5.51384808E+02      7.19463573E+02
      1.28864394E+03      8.96259967E+02     -2.83753789E+02
      1.64663453E+02     -8.60922235E+02      1.25085894E+02
      3.51590736E+02     -7.37318136E+01     -1.82198869E+03
      5.26365054E+02      6.60698651E+02      1.38549740E+03
      8.73516780E+02     -8.09298586E+02     -3.55468432E+02
      2.15480743E+03      2.20331354E+02     -2.25001888E+03
      1.60187884E+03     -6.13538665E+02      1.49063221E+03
      2.72710784E+02     -8.30280400E+02     -4.27215772E+02
     -5.15131211E+02     -4.99775335E+02     -2.26079812E+01
     -1.04044437E+03      2.29760770E+03     -2.09675386E+03
     -1.87049467E+02      6.32834421E+02      2.57334006E+02
      8.32569728E+02      2.05261907E+03      6.24453434E+02
      1.03538804E+03     -1.80550017E+03      5.11238224E+02
      4.06694732E+02     -3.12377597E+01      4.61397208E+01
      6.76390964E+02     -2.95848441E+02      1.19252036E+03
      2.56280586E+03      8.51581753E+01     -1.95002541E+02
     -4.63907410E+02      3.21637627E+02     -3.89463923E+02
      7.05421432E+02      6.55779502E+02      1.55827219E+03
      1.49983119E+03      6.43265318E+01     -2.55299657E+03
     -3.07577967E+03      1.60818235E+03     -2.07368430E+03
      2.10180457E+02     -3.14750507E+02      1.17991258E+03
     -2.19581735E+02     -1.20190743E+03     -1.42896122E+03
      2.35252925E+03     -3.17828588E+03     -2.09801527E+03
      1.83172683E+03     -2.44237888E+03     -4.32771493E+02
      1.34611964E+02      2.63813050E+02     -1.47094783E+02
      9.82009928E+02      8.14321240E+02      8.00177971E+01
     -1.76598222E+02      5.78047528E+02      1.63048135E+03
      1.27683902E+03     -2.69536222E+02      2.64448029E+02
     -2.06711077E+02      3.15805713E+02      3.79912132E+03
     -1.05205974E+03     -9.79339149E+02     -1.79922838E+02
      1.40812960E+02     -1.82431531E+02     -1.08312560E+03
     -6.04746773E+02     -8.12991719E+02      2.05606959E+02
      3.09281921E+03      8.06256002E+02     -5.66164829E+02
     -1.13842045E+02     -5.35081898E+02     -1.19165190E+03
      1.64241903E+03      2.12186581E+03      7.41072534E+02
     -1.20684656E+03      6.02524628E+02      1.58653140E+03
      4.76127493E+02     -3.46772580E+02      2.49188421E+02
      1.07618138E+03      8.06211485E+02      3.66392064E+02
      9.42023692E+02      7.37524460E+02      1.02754046E+03
     -5.11285690E+01      2.06215345E+02      1.32734166E+02
      1.90973539E+03      9.71025029E+02     -1.49465130E+03
      2.87047687E+03     -1.93344984E+03     -7.37984687E+02
      7.06772486E+02      5.90056871E+02     -4.41872540E+00
     -1.48982446E+03      6.26997336E+02      3.05212311E+03
     -1.34873454E+03     -5.15215124E+02      2.57371790E+03
      1.20473558E+02     -2.30567559E+02      3.45839951E+02
      1.45580389E+02      1.12270915E+03     -1.87205855E+03
      3.24957142E+02     -1.70293786E+03      7.60305113E+02
      5.70676057E+02      1.70796439E+02     -4.80200667E+01
      6.49244122E+02      1.68449139E+03     -5.20932357E+02
     -5.82826774E+01     -1.60419080E+03     -8.81387493E+02
      1.36728775E+03     -9.48549767E+02     -3.12389966E+03
     -3.50851904E+02      4.80733812E+02      5.14248361E+02
      5.12223988E+02     -1.85104653E+03     -6.65786446E+02
     -1.57338314E+03     -2.59550341E+03      8.62809857E+01
      2.93925120E+01      4.05433390E+02     -3.92966032E+03
      4.45553960E+02     -1.38220333E+02      6.30522212E+01
      1.40190777E+03      2.23247813E+03      6.77421397E+02
     -9.33569496E+02      1.07668495E+03     -1.17043023E+03
      7.76437327E+02     -2.42998583E+02     -1.38164633E+02
     -3.52287877E+03      2.71966809E+03      5.29152954E+02
     -1.44760422E+03      3.45809568E+03     -8.10872601E+02
      6.62304829E+02      9.58127237E+02     -3.30265207E+02
     -6.06745422E+02     -1.21617019E+03     -1.55370778E+03
     -7.14505714E+02      1.16460759E+03      1.90030914E+03
      6.41737210E+02     -2.54059915E+02     -1.21593928E+02
      1.83876165E+02     -3.92847325E+02     -4.86544754E+02
     -1.68199364E+03      4.58666149E+02     -6.55852023E+01
     -9.93409253E+01      5.09050290E+02     -3.27091776E+01
      4.37636534E+02      1.36635266E+03      1.33611449E+03
     -1.51223304E+03     -3.69712103E+03      6.15105882E+01
      2.90893125E+02      5.56376376E+02      1.70566498E+01
     -1.44270025E+03     -1.98637081E+03     -2.90072855E+03
     -5.55982503E+02      1.95574540E+03     -4.98694750E+02
     -1.12589888E+02     -3.19826037E+02      1.42466049E+02
      1.46726454E+03      5.63060282E+03     -4.20053605E+03
      6.07260131E+01      3.30270289E+03     -3.11599800E+02
      5.29852452E+02     -3.11585851E+02      6.80779402E+02
     -7.32465897E+02      6.63018109E+02      2.49458624E+03
     -8.09922238E+02     -1.05069620E+03      9.14301847E+02
      5.49342275E+02     -3.79452782E+02      4.58871059E+02
     -4.98170136E+02     -1.49681704E+03     -6.34871280E+02
     -2.99660986E+02      7.11456369E+02     -6.24159120E+02
      2.00421264E+03     -2.01305656E+03     -8.63801422E+02
     -4.15532216E+02      8.28506977E+02     -7.94083300E+01
     -3.74389991E+02      9.04013794E+02      1.96673007E+03
     -1.31088656E+02     -1.13523029E+03     -2.63484734E+02
     -7.03732672E+02      1.29664578E+03      8.33822163E+02
     -4.87078471E+02      7.38233363E+01     -1.96592752E+01
      3.65581131E+02      4.83353492E+02      1.93356657E+03
      7.56185708E+02     -1.43665002E+02      1.64873839E+03
      7.09722614E+02      1.32204952E+02      1.72091112E+01
      2.44862570E+03     -1.66214898E+03     -1.05548071E+03
     -5.68315990E+02     -2.95443810E+03     -1.95586278E+03
      3.28719161E+02     -3.11334023E+02     -1.65106266E+02
     -1.59166513E+03      4.06830986E+03      1.65330881E+03
      2.06508699E+03     -2.51584331E+03      8.26852025E+02
     -1.21594082E+01      4.87074577E+02     -9.25369634E+01
     -2.77413562E+03      4.40647084E+02      1.77905057E+03
     -1.85283116E+03      3.37954148E+03      6.64830979E+02
     -1.36829685E+02     -1.23429713E+02      1.12731804E+02
      8.49500590E+02     -1.43240713E+03      3.64481916E+03
     -9.48056205E+02     -1.08207863E+03      1.48151264E+03
      2.52707417E+02     -2.11398699E+02      3.17687857E+02
     -4.28712526E+02     -8.69832004E+02      4.21820374E+02
      8.82119644E+02      8.32399036E+02     -1.64551268E+02
      5.71226083E+00     -6.61106985E+02      8.22827014E+01
      4.35957138E+03      2.89662639E+02      2.72422764E+03
     -4.40068493E+02     -1.70044946E+03     -1.90553186E+02
     -2.86396040E+02      4.78656738E+02     -1.97666409E+02
     -3.61737903E+02     -1.09046657E+02     -3.26578641E+03
     -1.20047002E+03      1.33331225E+03     -1.15018825E+03
      3.18067534E+02      2.18313898E+01      1.91455115E+02
     -1.31057239E+03     -6.37552321E+01     -3.54831461E+02
     -1.63355160E+01      2.26421643E+03      3.14690238E+02
     -2.69010574E+02      2.00437303E+02      1.29258981E+03
      4.70697160E+02     -2.16985660E+02     -2.03896813E+02
      6.48124762E+02      1.25597778E+03      2.92963267E+03
     -2.80207615E+02     -1.77385352E+03     -8.85556254E+02
     -1.17965284E+03      6.63579280E+02      3.34117493E+03
      1.56194716E+02      7.61893836E-01     -2.85368495E+01
     -7.18721160E+02      1.43600655E+03      1.62799915E+03
     -1.51657645E+02      1.33139230E+03     -1.45251279E+03
      2.41857543E+02     -2.76707106E+02     -3.79537520E+01
      1.86237247E+03     -7.89743917E+01     -6.72749415E+02
     -2.02293187E+03     -1.56563671E+03     -1.96678675E+03
      1.86641666E+01     -2.33830299E+02      2.60142076E+02
     -4.27948675E+02     -3.49600729E+03     -1.31546284E+03
      1.39393667E+02     -1.56596938E+02     -2.57491212E+03
     -3.79059627E+02      7.53362586E+02     -7.32658590E+02
      1.12246603E+02     -1.29427435E+03     -1.00223372E+03
     -8.63334852E+02     -1.77569537E+03      2.40299200E+03
      2.09250922E+02     -6.30939471E+02     -2.20847901E+02
      9.93491776E+02     -2.28963190E+03      2.15011207E+02
     -9.33578447E+02      7.77450876E+01     -3.65768303E+02
      3.60961100E+02     -6.12705159E+02      4.83276844E+01
      8.39298809E+02     -7.95466625E+02     -1.68285520E+03
     -9.67899266E+02      2.06133593E+03     -3.11059506E+02
     -6.65597724E+02     -2.79754763E+02     -1.85802831E+02
      1.37540001E+03      1.32381745E+03      7.14362158E+02
      1.63477625E+03      5.23967486E+02      1.57611639E+03
     -3.03189959E+02     -2.60078897E+02     -4.68624095E+02
     -1.68728218E+02     -5.57493879E+02      1.55330509E+03
     -1.26840804E+03      1.73732325E+03     -7.06062047E+02
     -3.57043158E+02      1.03728559E+02     -6.21447157E+02
      1.15275820E+03      5.57044582E+02      7.94189050E+02
     -6.41269277E+02     -7.91289244E+01     -1.24575594E+03
      6.29183559E+02      1.11504481E+03      2.14450751E+03
      1.22586727E+02      4.90707804E+00     -4.33093876E+02
     -6.75430196E+02      1.34936738E+03     -1.20328954E+03
      1.11307859E+03      8.76768638E+02     -1.17439935E+02
      4.05840102E+02      3.45952783E+02     -1.19595433E+03
     -6.34006658E+00      2.84325991E+02     -5.36941504E+02
      2.60357033E+02      1.64617865E+03      2.80003800E+03
      1.15763978E+03      7.37850879E+02     -1.56852899E+03
      6.99369570E+02     -6.64033406E+02     -1.32993582E+02
      1.22285818E+03     -1.57752740E+03     -1.49784604E+03
      6.86362572E+02      6.28713619E+02      4.16985766E+02
     -1.04711883E+02     -6.63635971E+02     -1.81453804E+02
      3.27218501E+02      1.86555078E+03     -2.83177985E+03
     -1.51581980E+03     -6.24342634E+02     -4.30002014E+02
     -2.38440471E+02      2.25174622E+02     -6.42602143E+02
      2.82125991E+03     -2.29423108E+03      4.75574390E+01
      1.43958838E+02     -1.03265314E+03      6.02996534E+02
     -8.55138468E+02     -3.58893936E+02     -5.30187403E+02
      7.57319846E+02      1.67132368E+03     -3.15625264E+03
      1.60308696E+03     -2.16287455E+03     -1.27526648E+02
     -2.04206054E+02     -5.89509863E+02     -3.06158576E+02
      2.38059291E+03     -7.00720494E+01      1.65723204E+03
     -2.01730818E+03     -2.19843829E+03     -8.73094696E+02
     -3.44141698E+02      9.46242918E+02     -4.10746927E+02
     -2.45004880E+02     -4.86255581E+02     -7.38540506E+02
     -9.92836515E+02      2.18207878E+03      4.17592400E+02
      5.20991702E+02     -7.64292093E+02      2.46935166E+01
      9.86523412E+01      4.46426471E+02     -1.48012778E+03
     -2.04236276E+03     -6.81360692E+02     -9.94908542E+02
      9.42300881E+02      8.87016561E+02      9.96038998E-01
      1.02710041E+03     -7.81274047E+02     -1.84167928E+03
      1.57543621E+03      1.70209028E+03      6.50945837E+02
      1.57665030E+03     -1.07662893E+03     -2.21961759E+03
      2.25719072E+02      3.71823971E+01      1.10369778E+03
      1.41878108E+03      3.71434108E+03     -7.91744160E+00
      1.06538219E+03     -2.81855697E+02      3.10849365E+02
      9.31040334E+01      2.85223014E+03      3.89912812E+03
      4.41307175E+02     -2.03916379E+02      1.58290486E+02
     -1.60229477E+02     -7.89743769E+02     -5.03754052E+02
     -1.29789055E+03     -1.37554828E+03      1.05480619E+03
      2.31569708E+02     -3.65710296E+02     -3.35987014E+02
     -1.12736771E+03     -9.13259852E+02     -2.13784708E+03
     -2.38553386E+02      1.88237863E+03      1.15167689E+03
      9.02626070E+02     -3.18009925E+02      1.51398312E+02
     -4.01072291E+02     -2.20274882E+03     -1.77963354E+03
      1.60227658E+03     -7.09651356E+02     -1.27058958E+03
      6.85082159E+02     -2.65580702E+02      3.65999886E+02
      9.65344207E+02      8.65518953E+02      7.56382380E+02
      7.15998206E+02      2.43785992E+02     -1.10913114E+03
     -2.47665120E+02     -3.74816782E+02     -8.42730048E+02
     -1.16292915E+03      6.12055310E+02     -2.51347312E+03
     -6.27641057E+01      1.50645525E+03      8.75963064E+02
      1.26945829E+02     -5.59394382E+01     -4.37220490E+01
     -8.60420400E+02     -9.36176273E+02      1.39611628E+03
      2.51972352E+03      1.45068839E+03     -1.13578226E+02
      2.68532052E+02     -8.27398388E+02      6.17805831E+02
      6.59373238E+02     -3.21646946E+03     -4.09648211E+02
     -5.36388225E+02      2.95426466E+03      1.00136690E+03
      1.24326890E+02      4.33952436E+02     -4.58215386E+02
      8.70617305E+02      1.71828721E+01     -2.09835454E+03
      7.24867974E+02      1.49823661E+03      8.65944251E+01
      5.70298078E+02      7.67891556E+02     -3.28394694E+02
      1.78081041E+03      3.33374992E+02      2.45788327E+03
     -7.85158497E+02      2.83384825E+03     -7.72482965E+02
      6.00960227E+02      6.73753792E+02     -6.81946752E+02
      7.41174347E+02     -8.82452268E+02      2.88907100E+02
     -3.09974132E+03      8.59926505E+02      1.31262046E+02
     -1.08125665E+03     -2.31815515E+03      1.57425171E+03
      1.93132758E+03     -1.03483374E+03      3.87975327E+02
     -1.53927021E+02     -1.20907227E+02      3.89701258E+02
      4.50974485E+02      3.27095170E+02     -4.04659190E+02
      1.51154860E+02      2.57594208E+03     -1.32085588E+03
      1.36796114E+02      8.40788834E+01     -6.31375603E+02
      8.74064860E+02      9.23414520E+02     -6.43951670E+02
      1.92883844E+03      8.50750501E+02     -6.30532237E+02
     -2.23666387E+02     -2.31352766E+01      1.07700846E+02
     -9.15862667E+02      8.42278782E+02      3.36644575E+02
     -4.47539059E+02      2.46973070E+03     -9.26351508E+02
      9.57666112E+01      6.67531762E+01     -2.44415341E+02
     -1.20412962E+03      2.23033120E+03     -1.47327025E+03
     -1.72943485E+03     -9.06379139E+01     -7.12400835E+02
      1.77900718E+02      6.56013685E+02     -4.43088414E+02
     -9.38922625E+02      1.84027075E+02      1.91532964E+03
      4.14494480E+02      2.12607223E+03     -3.92787183E+03
     -1.27556214E+02     -5.48168076E+02     -7.65285256E+01
      1.54492595E+03     -3.66696930E-02     -9.48358142E+02
     -9.26490436E+01      5.84517821E+02      7.28032275E+02
     -3.56248256E+02      5.19165616E+02      1.18311566E+02
     -1.80619450E+03     -1.74863129E+03     -4.46771718E+02
      6.00515004E+02      6.27143724E+02      2.60123960E+03
     -4.78021086E+02     -2.66791163E+02     -4.12598422E+02
     -2.96557460E+03      1.50202521E+03     -2.00447031E+03
      1.00153428E+03     -1.20893340E+03     -1.54456173E+03
     -5.23616660E+02      3.92634999E+02      1.81956037E+02
     -1.87636962E+03      1.01332790E+03      4.49928125E+02
     -2.32973511E+02      2.14803628E+02      1.01934414E+03
     -9.51757146E+00      7.84417522E+02      1.59043532E+01
     -1.86860659E+02      7.97309648E+01     -4.66944516E+02
      3.70493714E+03     -1.31673394E+03      1.13925727E+03
      1.74916840E+03     -7.47822622E+02     -2.55837728E+02
     -4.49714122E+02      1.76479301E+03      5.29432474E+02
      3.32049195E+02      5.45035963E+02      9.02883672E+02
      4.18810701E+03      1.09879157E+03      1.56697253E+03
     -8.36744839E+02     -2.09723921E+02     -1.27884624E+02
      2.76850424E+02     -1.09535097E+03     -8.78562672E+02
     -7.77232993E+02      9.78259219E+02     -3.52751985E+02
      1.21468214E+02      7.90907861E+02     -1.07456357E+03
      4.03808232E+02     -8.02950998E+02     -1.66404761E+02
      4.65468414E+02     -3.18497411E+02     -6.11773830E+02
      1.89608184E+03     -2.72465129E+03     -5.97218581E+02
     -2.43355603E+02     -6.67435655E+02      8.06681250E+01
      1.11820160E+03     -6.82713671E+02     -3.09000369E+02
      1.83555039E+03      7.52804275E+02      2.53949225E+03
     -1.93226611E+04      5.14466309E+03      8.80773171E+03
      2.20478683E+03      9.49624115E+02     -2.77567077E+03
     -2.59052857E+02      1.08622069E+03     -8.07379283E+02
     -2.04521485E+02     -2.66183003E+02      5.49391292E+02
      1.34770403E+03      4.89561788E+02     -6.14495001E+02
      2.04413556E+03      4.46814220E+02     -1.02853876E+03
      6.33701109E+02      3.57256271E+01     -9.90469652E+02
      1.41229911E+03      2.52859298E+02     -2.45627076E+03
     -1.47041372E+03      1.40567521E+03     -1.18189613E+03
     -4.56959046E+02      1.35884705E+02     -1.72784843E+02
      1.15403976E+03      4.73682268E+02     -2.08591557E+03
      8.65346556E+02      1.41978783E+03      3.14474954E+02
      3.31984901E+02      1.23859399E+02      4.69230055E+02
      2.84941385E+03      1.41867918E+02     -1.17102547E+03
     -3.45382257E+03      2.70626789E+03      3.14900610E+03
      5.50924580E+02      4.46923633E+01      2.44960502E+03
      3.71428490E+02      2.29912075E+02      1.65249094E+02
     -1.60473034E+03     -1.76208791E+03     -1.96243816E+03
     -2.00026277E+03      2.63968592E+02     -6.70385116E+02
     -9.98219108E+02      2.38517439E+02      1.19806556E+03
  }
}

Hamiltonian = DFTB {
  SCC = Yes
  SCCTolerance = 1e-6
  MaxSCCIterations = 200
  ForceEvaluation = Dynamics
  MaxAngularMomentum = {
    C = "p"
    H = "s"
  }
  Charge = 0.0
  SpinPolarisation = {}
  Eigensolver = Standard {}
  Filling = Fermi {
    Temperature [Kelvin] = 300.0
  }
  SlaterKosterFiles = Type2FileNames {
    Prefix = "../../pbc-0-3/"
    Separator = "-"
    Suffix = ".skf"
    LowerCaseTypeName = No
  }
  KPointsAndWeights = {
    0.0000000000000 0.0000000000000 0.0000000000000 1.00000000000000
  }
  Dispersion = LennardJones { 
    Parameters = UFFParameters {}
  }
}

ParserOptions = {
  ParserVersion = 3
}
