Geometry = GenFormat {
<<< "system.gen"
}

Driver = VelocityVerlet{
  Steps = 100000
  TimeStep [fs] = 0.2
  MDRestartFrequency = 5
  Thermostat = None {
    #InitialTemperature [Kelvin] = 300.0
  }
  Xlbomd{ 
    IntegrationSteps = 6 
    MinSccIterations = 2
    MaxSccIterations = 200
    SccTolerance = 1e-6 
  }
  Velocities [m/s] {
      6.37300997E+02      8.69237899E+02      8.01104944E+02
      1.42031093E+03     -2.41329057E+01      1.68175380E+03
      1.58316304E+03     -5.31330210E+02     -1.44948309E+03
     -6.09535948E+02     -3.73325588E+02     -3.74144356E+02
      3.37110012E+03      2.82206050E+02     -1.96469969E+03
      1.01558439E+03      1.72005231E+03     -3.52794927E+02
      2.07579120E+02     -2.95974588E+02      4.20454685E+02
     -1.60407578E+03      1.94963748E+03      2.97530819E+03
     -3.85007552E+02     -1.32058262E+03     -6.71128939E+02
      4.79461641E+02      3.76765458E+02      3.17111047E+02
     -3.85777074E+03     -5.23257243E+02      1.63785369E+03
      1.22939987E+02     -3.70376237E+03      1.68537954E+02
     -7.58595451E+02      3.77358241E+01      2.51098568E+02
     -1.33018583E+03      1.36542643E+03     -1.12391610E+03
      8.65141698E+01      4.04021379E+02     -1.22019379E+03
     -4.50762105E+02      3.25430339E+01     -2.59166260E+02
      2.15569010E+03      1.67772770E+03      3.97383612E+03
      5.35340798E+02      2.09010681E+03      1.22782439E+01
     -4.03551435E+02      2.49655954E+02      4.36166019E+02
      5.10488914E+02     -2.84294177E+02      5.19394502E+02
      3.76176798E+02      1.06286657E+03      1.90908723E+03
      1.55719060E+02      4.03608716E+02      2.86751392E+02
      1.43474590E+03      2.23195693E+02      4.53790877E+01
      3.67613397E+03      1.06661493E+03     -1.13510939E+03
      9.94813245E+02      4.06901522E+02      4.26531181E+02
      9.47639907E+02      3.88371787E+03      2.88271158E+03
      1.38720285E+03     -1.72397303E+03     -4.85745844E+02
     -1.48120125E+03     -1.28746158E+03     -1.97380339E+01
      7.74747744E+02     -5.53649973E+01      4.08220852E+01
     -2.64836977E+02     -1.37182392E+03     -1.23572207E+03
     -6.24836030E+02     -1.17718395E+03     -1.37259988E+03
      4.05330834E+03      5.06076845E+02      2.30861624E+03
     -1.25843449E+02      3.47126298E+02      2.97581988E+02
     -4.89325505E+02     -1.13691000E+03     -1.82457804E+03
     -1.46801627E+03      4.98380107E+02     -5.39321938E+02
     -5.52969075E+01     -1.32267392E+02      1.45647815E+03
      2.82936709E+02     -2.07396798E+03     -1.30756912E+02
      1.43832781E+03     -1.55052474E+02     -2.64069376E+03
      5.19351458E+02      7.35183653E+02      8.82734640E+02
     -2.76170923E+03     -1.02801534E+03      2.50168600E+02
      1.28190124E+01      1.39231793E+03      2.90836333E+03
      2.83841846E+01     -3.76346401E+02      1.21804079E+03
      1.97911604E+03     -7.36603313E+02      8.89516386E+02
     -4.57801867E+02      4.86588748E+02      3.55808768E+03
      4.32222203E+02     -3.47118387E+02      5.09946590E+02
      1.17193076E+03      4.27200554E+02     -8.56569910E+01
     -8.40168450E+02      3.36320367E+03      1.04694734E+03
      4.81724969E+02     -1.24132336E+02     -8.50111488E+01
      3.43903433E+02      1.32957906E+02     -3.41350018E+03
     -3.38002004E+03      2.41761042E+03     -2.89476203E+03
      6.76006774E+02     -7.69269068E+02      1.14100926E+03
      9.10528526E+02      9.43311362E+02      1.05083955E+03
      1.10425532E+03      1.00215600E+03     -1.10331400E+03
      2.08052529E+02     -1.52347190E+02      5.42335301E+02
      2.01187297E+03     -3.19142037E+02      1.19795583E+03
      2.15640929E+03      2.84802710E+02     -1.51495587E+03
      3.44788836E+01     -1.45211661E+02      8.01380760E+01
      8.12249464E+01      1.26568356E+03     -7.70817801E+01
      2.79382579E+02      2.52386858E+03      1.05974443E+03
      1.00140804E+03      2.12832465E+02      8.90132636E+02
      3.65651830E+02     -6.90201068E+02     -4.90068678E+02
     -8.78604982E+02     -5.70379765E+02     -2.36674586E+03
      2.10799477E+03      5.23019766E+02      5.45306145E+02
      1.17762273E+02     -2.63994780E+02     -2.94904874E+03
      1.88858139E+02      1.20588869E+02      4.38280144E+01
      1.35160191E+03      2.89823830E+02      1.37996655E+03
     -9.37672094E+02     -2.65030615E+03     -4.07299931E+02
      2.43670429E+02     -1.63681375E+02      1.15481173E+03
      7.70491503E+02      1.51825242E+03      3.41126750E+02
     -9.86459050E+02     -3.35855637E+03      1.78472938E+03
     -1.11571246E+02     -9.42473319E+01      6.53574129E+02
     -1.46962240E+03      2.32066178E+03     -7.76252242E+02
     -6.21488236E+02     -2.69954310E+03      2.48546244E+03
     -2.18508274E+02      6.45674243E+02      7.75672478E+02
      1.00247155E+03      9.09993890E+02      1.37315256E+03
     -6.10662255E+02      1.08254862E+03     -2.06991486E+03
     -1.14170457E+03     -2.52473493E+02      1.26415028E+02
     -7.55366293E+02     -1.69466837E+03     -2.89892211E+03
     -1.38524334E+03     -3.46791421E+03      1.09344878E+03
     -5.28054144E+02     -2.62760791E+02      1.15271895E+02
     -3.23944633E+02      6.11384946E+02      6.64063621E+02
      1.78579668E+03      6.25707584E+02      1.27909218E+03
      1.73731868E+02     -4.10858459E+02      4.05952744E+02
     -6.96105339E+02      4.32021160E+02     -6.76873952E+02
     -2.70979303E+02     -7.12036171E+02      1.00740098E+03
      7.25788690E+02      4.64957630E+01      7.52087114E+02
     -8.13208130E+02      7.30309816E+02     -7.29053020E+02
     -1.11162938E+03      1.10403266E+03     -1.44544214E+03
     -8.86784679E+02      3.28140067E+01      2.56887120E+02
     -1.89492022E+03     -3.51575707E+01      4.34311435E+02
     -6.37365064E+02     -1.27637519E+03     -5.30452192E+02
     -1.72262488E+03      1.34167702E+03     -3.47075201E+03
      3.34923187E+02     -5.67250365E+02      1.84087542E+02
      9.73915937E+02      2.04644842E+03     -1.35217779E+03
      9.00713223E+02      3.89848905E+03     -7.93409689E+02
     -3.26614414E+03     -4.33961988E+02      3.75564841E+03
     -8.27772507E+02      5.54838996E+02     -6.81428393E+02
     -1.22257327E+03      1.12765633E+03     -1.38144723E+03
      2.98426908E+02      2.19599608E+03     -1.51497218E+02
     -1.40820512E+02     -9.13479596E+01      4.22098414E+02
      2.54790038E+03      8.68771611E+02     -2.33147241E+03
      1.09427720E+02     -1.71560157E+03      7.67770879E+02
      1.05380609E+03      5.62077508E+01     -4.29357508E+02
     -1.82244932E+03     -1.79835828E+03     -3.72713092E+02
      3.27343405E+03      2.14544524E+03     -5.43280812E+02
     -5.96754267E+02     -7.15504862E+01      2.99961010E+02
     -2.94855825E+01      2.09590391E+03     -1.55731628E+03
     -3.09478585E+03      3.51866792E+02     -1.23124747E+03
      5.94666663E+02     -3.16929613E+02     -2.95063280E+02
      1.31364282E+03     -2.88157953E+03     -4.62078993E+02
      6.55530918E+02     -1.31069989E+03     -4.39324550E+02
      8.27951996E+02     -1.21407921E+03      2.75420862E+02
      1.27890986E+03      3.31001497E+03      4.56682696E+02
      1.74114865E+03     -1.20764377E+03     -1.15982984E+03
     -8.07404989E+02     -6.77914590E+02      5.47992253E+02
      2.89680175E+03     -5.77921195E+02      2.51364853E+03
     -1.00488941E+03     -2.10801652E+03      3.33988040E+03
      3.48988741E+02     -3.64411394E+02      8.50097740E+02
     -2.00989731E+02      1.30150104E+03     -2.64530766E+03
      1.20033695E+02     -2.31004675E+03      5.50509787E+02
     -1.34539164E+02      4.15101881E+02     -1.97965333E+02
     -1.25935146E+02     -2.52387656E+03      6.48171085E+02
      9.41017579E+02     -2.38379101E+03     -7.27759950E+02
      2.21944987E+03      1.56174201E+03     -6.38527589E+02
      2.28538675E+02      1.25250932E+01     -2.43699729E+02
      1.22850518E+02     -8.60035610E+02     -2.37752184E+03
      9.11528970E+02      1.28306080E+03     -5.50174685E+02
     -6.17480818E+02     -1.33468602E+03     -8.78116168E+02
     -6.07401141E+02     -4.24375591E+01      1.20594663E+03
     -2.74007988E+02      9.65178763E+02     -7.59494679E+02
      1.40938496E+03     -1.13245558E+03      5.46987278E+02
      3.21888037E+02     -5.34857246E+02     -3.60796753E+01
      1.66244765E+03     -7.05468663E+02     -1.60862978E+03
      8.25300603E+02      4.26419476E+03     -1.05206113E+03
     -5.87093359E+02     -4.06084298E+01      2.46527544E+02
     -3.00534623E+03     -1.57425356E+03     -1.20286301E+03
     -1.56404813E+03     -1.49343577E+03      6.20636771E+02
     -6.75265280E+01      3.59431075E+02     -1.05030569E+02
      4.11575093E+03      1.41112472E+03     -9.57597712E+02
      1.68291841E+03      1.57017079E+02     -1.29887141E+03
      2.24764312E+02      3.27793060E+02      7.68618535E+02
      2.11156830E+03      1.77980171E+03      2.38535603E+02
      9.54580623E+02      1.44707734E+03      9.31992916E+02
     -3.29564061E+02      2.08731343E+02      9.00956436E+02
     -1.64151795E+02      7.42119828E+02     -1.47102958E+01
     -5.17694552E+02      2.11691788E+02     -1.36795858E+03
     -9.14474970E+02     -2.66556125E+02      8.42109310E+02
     -8.82850980E+02     -2.33908938E+03      3.40776912E+03
      2.16606029E+03      4.79337107E+02      1.20973878E+03
      5.54657753E+02     -5.22009341E+02     -6.37811387E+02
      2.77202726E+03     -2.39767992E+03      2.04309078E+03
     -1.32952692E+03      4.78538728E+02      6.79323844E+02
     -1.56389401E+02      2.63855176E+02      9.62841341E+02
     -7.32152636E+00      9.12154136E+01     -6.92860209E+02
      1.36655407E+03      1.30290204E+03     -1.28620405E+02
      2.02693869E+00      1.67958756E+02      3.54683555E+03
     -1.82810782E+02      1.71644239E+02     -1.01440269E+02
     -1.78387314E+03      3.01169702E+03     -7.42261504E+02
     -1.53857204E+03      1.26659302E+02      2.19851380E+03
      1.22374026E+03      1.21130937E+03      1.93055389E+03
     -2.14425576E+02      1.50439803E+01      4.40538273E+01
      8.74187885E+02      1.32636500E+03     -1.71876785E+03
     -2.03538248E+03     -1.30435665E+03      1.40886185E+03
      7.66193330E+02      3.44818241E+02      1.22732455E+03
     -1.72479155E+03     -4.53264768E+03     -2.42717533E+03
      2.21509448E+03      6.29948782E+02      9.85909036E+01
      3.56397161E+02      1.16183977E+03      1.58004365E+02
      2.59486831E+03     -2.05529137E+03      6.95381174E+02
      5.86775924E+02      2.33867250E+03     -4.10368861E+03
     -1.96501341E+02      4.88196767E+02      6.40237312E+02
     -1.42505388E+03     -5.64578147E+02      1.99045347E+03
      9.39481143E+02      7.47940417E+02      2.80068881E+03
     -1.85790735E+02      9.31373615E+01      5.63457483E+02
     -2.82449194E+03      1.52282447E+02     -7.69948048E+02
      1.69235852E+03     -2.51673200E+03      9.42366452E+01
      3.56864680E+02      6.01294356E+02     -3.29355579E+02
      4.97480392E+02     -9.06352629E+02      2.37322929E+03
      7.96488932E+02      1.19838417E+02      2.06293644E+02
      1.35235212E+01      1.51716018E+02      1.77503813E+02
      5.14486956E+02     -1.94365226E+03     -2.87682514E+02
      5.62507535E+02     -5.38911817E+02     -2.63043750E+03
     -7.58691526E+02      9.25728223E+02     -6.90336445E+02
      1.90038997E+03     -1.54186287E+03     -8.05873081E+02
     -3.61835410E+02     -1.12330648E+03      1.86665941E+03
      5.75771975E+02     -2.83900036E+01      1.38649945E+02
      2.28714752E+02     -2.51182065E+03      1.23549922E+03
     -8.34985324E+02     -1.53918594E+03     -4.65745339E+03
     -2.42809009E+03     -2.53958883E+03     -7.02443129E+02
     -3.89190218E+02      3.02285751E+01      6.36266778E+02
      2.49436982E+02      1.90641243E+03     -6.08865547E+02
     -4.93774303E+02      1.53128258E+02      7.09386079E+02
      1.04874642E+03      7.76642824E+02     -2.71414903E+02
     -7.76807431E+02     -1.67228925E+02      3.22259787E+02
      1.57257397E+03     -8.72930423E+02      1.07444846E+03
     -2.83178459E+03     -2.61402577E+01     -3.67691492E+02
     -1.89462420E+02      7.02827297E+02      6.73281086E+02
      7.17903091E+02     -2.83851363E+02      9.93454867E+01
      2.67308946E+03      9.47858617E+02     -1.86233622E+03
     -1.20157782E+02      1.88118540E+02      3.93366233E+02
     -1.39205300E+03     -1.47850581E+03      1.37757353E+03
      1.38959914E+03      1.95159965E+03      3.44426346E+02
      4.89470321E-01      2.99863923E+02      2.57638421E+02
      1.54886866E+03     -2.57138017E+02      9.72442864E+02
     -5.51615568E+02      1.62033584E+01     -5.56807182E+02
     -4.14733429E+02     -6.53054987E+02     -3.30598843E+02
      1.88399755E+03     -7.56139496E+02     -1.65823611E+03
     -3.60284454E+02     -6.51906823E+01      1.99581400E+03
     -6.40307125E+02      4.09276439E+02      1.08206686E+03
     -1.70015483E+03     -2.62572998E+03      2.30535127E+03
     -4.79374665E+02     -8.86614932E+02     -1.15578983E+03
      5.47049871E+02      4.09500143E+02      5.13281718E+02
      7.73181940E+02     -6.17681738E+02      8.10623876E+02
      7.89833563E+02      1.52497998E+03     -5.98360771E+01
      5.54173027E+02      4.19469535E+02     -8.02510416E+02
      8.38575097E+02      1.02531663E+03     -8.05406442E+02
      1.77522297E+03     -3.70914222E+01      1.78891937E+02
      4.98217916E+02     -3.41178940E+01      2.33810854E+02
      2.74019028E+03      1.19822459E+03      8.31398716E+02
     -1.42404525E+03      1.56039656E+01      3.76673277E+02
      1.16082477E+03      2.66955712E+03     -3.18907725E+03
      2.42130773E+02      1.42570156E+02     -6.43471545E+02
     -1.62355235E+03     -2.96053591E+02     -9.46882809E+02
      1.35018800E+03     -5.45600629E+02     -2.73410072E+03
     -2.41778409E+03     -1.31140656E+03     -3.86893358E+01
     -3.78242082E+02     -6.69347472E+02      5.32282610E+02
     -3.11678908E+02     -1.63057289E+03      6.89854568E+02
      4.41020087E+02      1.98271050E+03      1.64622369E+03
     -8.47864333E+01      1.04387655E+03      9.46474498E+01
      1.88160565E+03      2.44057385E+02      9.61901802E+02
      1.35621447E+03     -8.49852911E+02      9.99552134E+01
      1.45977575E+02      2.54243629E+02      5.93922264E+02
     -5.27206171E+01      1.07341885E+02     -2.10509157E+03
      3.52359865E+02      1.01979291E+03     -1.32246661E+03
     -1.74163143E-01      5.83786196E+02      3.97247493E+02
      1.38276822E+02      4.40546433E+02      1.49603601E+03
      3.81889186E+02     -2.61494725E+02      1.58275817E+03
     -1.38050854E+02      8.96055517E+02     -3.43283679E+02
      2.88549932E+02     -2.19575771E+03      1.53157894E+03
      5.22060845E+02      2.57568047E+02     -1.02438742E+03
      5.16420140E+02     -5.32650346E+02     -3.88850867E+02
     -1.30253232E+03      2.11441223E+03      3.77048701E+02
     -8.18306505E+02     -1.93292503E+02     -3.67870816E+01
      4.17827907E+02     -3.10801205E+02      2.66367984E+02
     -2.21349414E+03      1.06032814E+03      3.90518181E+02
      2.07606111E+03     -5.00991747E+02      2.17249448E+03
      3.94384793E+02      5.03417475E+01      1.32539455E+02
     -1.44383828E+03      1.53682480E+03      1.35133878E+02
     -4.08812377E+03      3.24194343E+03     -2.53974327E+03
     -1.09613777E+02      3.59915298E+02      2.53867594E+02
      3.17871660E+03      1.42851641E+01      2.64384148E+03
      1.58313128E+03      1.79789275E+03     -3.96312396E+02
     -2.17817460E+03      6.71972282E+02      1.35792438E+03
     -2.68780219E+02      3.78798874E+02      8.30904886E+02
     -1.83116384E+03      8.23702454E+02     -1.20973091E+03
      7.46960988E+02     -4.33894162E+02     -6.61124628E+02
     -1.65438363E+03      3.78310189E+03      1.73779904E+03
      1.05264136E+03     -5.12077841E+02      1.78824297E+03
      1.79295154E+03      1.13353615E+03      3.16511842E+02
     -2.16691414E+03      6.41726340E+02     -2.60442010E+02
     -3.98282281E+02      4.60870842E+01      5.51141219E+02
      5.93153410E+02     -3.23007571E+03     -1.39178974E+03
     -1.22418981E+03     -1.40166307E+02     -2.21212572E+02
     -5.92437704E+02      4.76053964E+02      2.44709402E+02
     -2.86140757E+02     -2.42854341E+03      5.59586022E+02
     -1.36020566E+03     -5.30958998E+02     -9.90291670E+02
      3.37609116E+02     -1.36744710E+02     -1.56973023E+02
     -4.05978322E+02      1.24510394E+02     -2.56956292E+02
     -1.09838016E+03     -7.16779165E+02     -1.80188791E+03
     -2.24487162E+03     -9.65320756E+03     -3.17547383E+04
     -8.75242021E+02     -2.75144205E+02     -3.49699939E+02
      1.61006951E+03     -2.95308310E+03      4.67687322E+02
     -6.87181960E+02     -3.44712479E+02      1.31023519E+02
     -9.74289922E+01     -3.48828221E+03      1.22422934E+02
      2.93241794E+03      1.62678875E+03      1.21679408E+03
      1.44128832E+01     -5.78377728E+02      5.88795382E+02
     -5.28300159E+01      2.52468628E+03     -1.22717981E+03
     -1.14127372E+03      8.40588537E+02     -1.98741099E+03
     -2.41176937E+02      2.21802258E+02     -3.82049764E+02
     -4.87593946E+01     -1.17483307E+03      5.78094256E+02
     -6.32511434E+02      1.91228586E+02      3.61337503E+02
     -1.56756731E+02      2.50843286E+02     -4.77912933E-01
      8.82990869E+02      2.03791576E+03     -5.58120907E+02
     -1.57874348E+03      1.31962463E+03      2.95071869E+02
     -1.24039681E+03     -2.07682332E+03      7.23768501E+02
     -5.98443546E+02      3.12144155E+02     -8.65594793E+01
      1.48864861E+03      2.50601558E+03      1.48056681E+03
     -1.94888574E+03      2.31201376E+02      2.61601539E+03
      7.26258004E+02      2.36166750E+03      2.15728970E+03
      4.75566699E+02     -1.23189540E+02     -1.80150366E+02
     -9.63213491E+02     -2.74012927E+03      1.53620128E+03
      1.08703243E+03     -6.95447520E+02      2.55284762E+03
      2.91302910E+02      7.26126942E+02      3.05069636E+02
      1.83871750E+03      1.93572089E+03     -6.01664134E+02
     -8.64361886E+02      1.92529547E+03      1.05325537E+02
     -4.56226680E+01     -2.80169727E+02     -2.07569600E+02
      1.80767466E+03      7.44607993E+01     -2.24842280E+03
     -5.02790074E+02     -7.18333981E+02      2.77387787E+02
      4.81258165E+02      7.18753248E+02      2.72333982E+02
      6.65947856E+02     -1.46814050E+03      1.89056483E+03
     -8.78056036E+02     -4.79005500E+02     -2.31526021E+03
     -5.38861271E+02     -5.78001629E+01      2.17205891E+01
      2.88477364E+02      1.86684503E+03     -1.70134090E+03
      2.04021906E+01      2.46737113E+03     -1.52936968E+02
     -4.88925742E+02      4.39419611E+02      3.65450830E+02
     -9.73397939E+02      9.75530818E+02      2.85428024E+03
      1.31988040E+02     -1.81320439E+02      1.38712770E+03
     -1.65427634E+02      4.25286720E+02      5.24973518E+02
     -9.12788815E+01      2.47154126E+03     -1.02854055E+03
      2.20974015E+03     -2.16523717E+03     -3.25741841E+03
      3.70045507E+01      3.96520983E+02     -1.35942058E+02
     -2.29352597E+03     -2.42413731E+02     -7.48030338E+02
      6.83966496E+02      1.28877594E+03      2.59717314E+03
      4.65152762E+01      6.18428356E+02     -4.85687874E+02
     -7.23129135E+02     -3.88199874E+02      2.74753144E+03
      2.53790576E+03      4.34713543E+02      1.03734019E+03
     -1.77966366E+03      1.06825899E+03      1.67762294E+03
     -3.65729868E+02     -6.71654802E+02     -9.52749510E+00
      1.23853753E+03     -1.14375958E+03     -3.84180802E+02
      2.74831148E+03     -1.57803988E+03     -8.04577153E+02
      2.37986185E+03     -2.85601217E+03     -1.35122840E+03
      1.35535376E+02     -1.16950740E+02     -6.38507533E+02
     -1.17183649E+03     -3.75112325E+02      8.80888344E+02
      1.34298371E+03      1.15698576E+02      5.65158759E+03
      1.63512722E+01      8.20568880E+02      4.74753458E+02
     -8.35243951E+02      1.04379102E+02      9.81891798E+02
      2.59038105E+01     -6.53084004E+02      2.02343838E+03
     -7.23717017E+01      1.04482785E+01      6.14598664E+02
     -2.26725384E+03     -1.93775888E+03     -1.70968016E+01
     -8.39518919E+02     -1.97695668E+03      1.47824765E+03
     -7.24003814E+02      2.33001430E+00      6.34860851E+02
      7.31202717E+02      1.92773538E+03     -1.79735143E+03
     -4.23547231E+01     -1.07249450E+03      7.09886548E+02
     -6.87529498E+02      2.45369800E+02      3.38704057E+02
     -4.94562128E+02     -1.70435280E+03      1.79528645E+03
     -1.91642238E+03      1.65350475E+03      2.24219153E+03
      2.58569455E+02      2.03326691E+01      1.81870125E+02
     -9.28310521E+02      1.14357283E+03     -3.34484466E+03
     -3.81061429E+02      1.41685066E+03      7.88687989E+01
      4.59954231E+01      6.91185572E+02      6.24566452E+02
      4.99092951E+02     -1.33136796E+03      2.11326944E+03
      2.41460213E+03      1.69542370E+03      2.50144948E+03
      1.06283953E+02      1.65273920E+02      3.52302127E+02
      8.39131493E+02     -4.27686700E+02      8.06250473E+02
      6.50906952E+02     -1.62405980E+03     -4.33242512E+03
      2.06988294E+02      1.91030476E+02      5.71955447E+02
     -3.83510934E+03     -1.58486670E+03     -1.07040202E+03
      1.06568232E+02     -3.11415615E+02     -6.74186463E+01
      1.49222593E+03      1.64251847E+03      2.07671367E+02
      3.67054285E+02      2.04466909E+02      2.98785379E+02
     -1.49430175E+03     -1.24663984E+03      8.05654662E+02
     -1.71799216E+03     -2.17535847E+03      6.90985130E+02
     -2.70105294E+02      1.36939194E+03      1.50710452E+03
  }
}

Hamiltonian = DFTB {
  SCC = Yes
  SCCTolerance = 1e-6
  MaxSCCIterations = 200
  ForceEvaluation = Dynamics
  MaxAngularMomentum = {
    C = "p"
    H = "s"
  }
  Charge = 0.0
  SpinPolarisation = {}
  Eigensolver = Standard {}
  Filling = Fermi {
    Temperature [Kelvin] = 300.0
  }
  SlaterKosterFiles = Type2FileNames {
    Prefix = "../../pbc-0-3/"
    Separator = "-"
    Suffix = ".skf"
    LowerCaseTypeName = No
  }
  KPointsAndWeights = {
    0.0000000000000 0.0000000000000 0.0000000000000 1.00000000000000
  }
  Dispersion = LennardJones { 
    Parameters = UFFParameters {}
  }
}

ParserOptions = {
  ParserVersion = 3
}
