Geometry = GenFormat {
<<< "system.gen"
}

Driver = VelocityVerlet{
  Steps = 50000
  TimeStep [fs] = 0.2
  MDRestartFrequency = 25
  Thermostat = None {
    #InitialTemperature [Kelvin] = 300.0
  }
  Xlbomd{
    IntegrationSteps = 6
    MinSccIterations = 2
    MaxSccIterations = 200
    SccTolerance = 1e-6
  }
  Velocities [AA/Ps] {
1.47761757 6.17338435 3.31959194
0.50445920 5.75492765 18.94991396
12.36181434 13.34943107 24.81673757
8.27039455 -10.98021036 -0.20073746
-29.39322088 -44.97147823 30.03984456
-12.67516422 23.40242469 -13.73013603
-2.55703691 -0.27130599 5.79010531
6.78481126 3.33159277 2.46693700
25.94474381 -0.85067071 -20.54045371
-11.28204987 4.17933954 1.84246730
-31.79283933 -66.07077438 -16.95134241
6.40165025 19.56317273 -6.04709869
-2.63287332 -2.66309022 -9.25975492
-7.98779580 23.11971918 2.36820141
-4.76620310 -10.23402127 -0.54526007
2.05028053 -1.05044427 -1.38396721
-32.85595766 -7.37305582 -6.30180256
-22.16080971 27.75589789 -24.61824885
-6.81568014 2.00273134 2.93731201
6.17090363 -18.26111301 -25.39512844
-0.85649662 -8.31284909 -9.80095295
-5.97745752 0.85040424 -2.60249139
32.83272456 17.14787110 -4.60502728
-36.30119699 2.11461325 9.03232904
1.22771965 5.40061884 8.14791295
0.76127724 21.54467386 -19.86406556
12.49100986 -38.46991502 -8.27935419
-32.55666767 -17.22088048 23.49033823
-1.18567009 -1.67382170 11.30008682
-57.20880977 -1.46937314 -44.65301646
-46.90772987 -26.38292535 13.42987833
20.35032425 17.63954802 32.18064402
-2.25857499 3.77435041 -6.14816978
19.96736186 8.29950580 -27.79235064
-17.04950630 32.20501165 -16.54182951
2.30515636 -7.56084099 8.57085691
-3.55174919 -12.77125582 26.28416251
-17.10812682 11.38964341 9.69315584
-6.90433160 -1.43472180 -2.97687601
23.32085594 0.40276907 -21.45872237
-15.09876714 -9.30694938 -3.89572459
-9.94079819 3.76093086 0.84555871
28.14822355 -8.07902365 -8.57413037
39.52075909 -36.82138091 -1.52583051
-9.59452852 -3.68742505 6.36113077
29.92085987 6.23018582 -24.29159324
-18.19317798 6.67400430 -1.28084183
-5.29251177 -1.03518275 8.03956370
4.12597805 6.61224703 21.22311928
2.96537247 -3.67072589 11.33314662
7.85713521 -4.16556084 -1.40125498
-11.93376526 -15.41662548 -26.52754875
18.45836052 3.49568640 10.66190517
-5.19650049 3.19951046 -0.46456766
-9.93031509 25.14319207 27.55973938
-25.39595169 35.98743181 -20.08910814
12.94614320 9.70990358 -7.83286137
4.97776754 -0.10066153 14.82290125
9.53957620 12.00068011 56.23306562
3.07197231 12.58567910 5.42953407
2.23294767 -4.40698447 0.62058876
-14.64275992 18.53691626 -30.14538918
9.53501896 -55.03822040 -20.32756951
-0.07077895 7.36857171 7.45145358
5.64000486 -0.63517532 2.73039912
13.05577433 13.29652627 85.32016503
14.61281328 -3.06222933 -0.40623517
4.66106018 -5.75884412 9.08825401
8.39690790 9.03464293 16.53403435
-11.96431284 -15.74462315 14.04742548
-0.72151453 -2.70205614 -6.13368746
10.80631857 -50.84827225 0.06719767
71.43592238 -40.11591231 -30.94675926
-19.65752607 0.07798347 -11.67047687
-20.42776901 -1.87597679 -2.64320296
-29.59552481 -28.09285836 -22.69957108
-10.34791713 3.12775912 13.03943345
10.76256637 -24.67507602 -11.79357010
14.76119755 12.22672641 -32.77339577
-4.02872756 2.60148579 10.05418332
-18.58540515 7.52884443 -8.63980530
38.91285019 7.73628326 -41.54535892
1.10695645 -14.79232551 -0.07726274
46.27125029 4.17749844 -3.90803970
-27.35671155 12.27691876 39.44088052
-11.69645673 9.07773916 7.05994711
-17.17908058 -17.14878536 -31.41507057
43.53733824 19.97546969 33.73701241
5.55205191 0.50784850 -2.27831935
-0.26929991 25.90708055 38.87116939
23.02015686 -21.32712286 -2.09818478
-4.42377544 4.69768538 10.73626116
2.01097455 -9.73171411 -0.57428895
-8.00520939 33.45046067 6.56160440
12.72913300 -21.12484868 57.14114785
0.02919881 -17.89670038 9.10240519
-10.27825466 5.87496554 -0.61178349
24.39320550 -3.43211021 5.11684260
13.44196768 -24.28846375 11.35714194
11.69137079 -6.79247729 -11.85458268
6.94339729 -8.48672437 -14.47313969
-1.48972392 9.69754721 -15.72869852
-3.06845674 4.73133465 -4.42193805
0.19354799 -15.29408213 -44.89943564
26.25557275 -8.61435422 -28.32681944
1.54107976 6.62434563 -11.88075640
-17.49688434 55.91485741 25.47587703
-16.33086914 -0.26222028 19.14999664
2.72253840 -3.09633825 1.34580884
-21.41348190 -3.32201936 -11.17216636
-14.13546314 -15.54748337 7.94677621
1.70505051 -6.04769350 -0.64977535
15.13380070 22.10546245 -4.56276376
-12.23658005 28.52337091 5.46337665
6.65956988 -0.75640601 6.18608749
33.78703098 -17.58834413 -17.71661433
7.02324771 31.95532572 -22.02702178
10.48500536 3.83028317 -12.40740029
-5.52682743 16.16814321 7.35024684
-16.16087346 11.74884712 -0.26407906
-3.04548195 13.71846516 -8.27065572
-31.77840113 -0.65645744 0.60030153
14.05255753 8.04304293 32.60045935
10.04901066 42.32528141 -19.44795990
14.19847518 -5.73569981 -6.61331057
6.32850884 21.42078405 10.17610976
25.65370254 -14.62753254 -15.86872402
-9.93454750 -0.44530406 -8.54592647
-4.00620436 0.61765027 -0.96233740
11.06086310 2.91645316 12.40062922
-14.77044835 -22.69198051 -21.50739671
-5.51496007 -9.96716368 -5.44480542
6.13781255 7.06134051 33.26320740
16.89482199 -2.99585852 9.71323459
7.06091652 -2.98124533 2.17034273
42.92336250 39.30504051 -18.61513769
35.80040088 -20.43650620 -15.87353974
6.58754258 5.85804958 -0.64856548
-16.89589340 9.67196304 30.54186197
-13.91300270 21.36792824 19.13123870
-1.43872100 2.86009074 2.51129991
27.87093840 -28.03552663 0.92449972
2.06952638 -2.99926142 38.58130876
-0.59353407 -7.02484720 -4.53859233
-14.85978428 -11.78901256 -32.77467674
20.39919324 11.24315320 2.58398686
-11.40775261 2.50288771 -5.67977961
-37.15490191 -1.85750198 -5.39887803
1.19542702 2.94625764 -7.95651134
-2.57912650 -1.94086570 2.06085907
2.79817813 -23.33029528 -12.06139318
-10.92818937 -7.54188850 -13.00205878
9.91436180 3.65936322 14.88764887
10.01129472 2.13711068 32.11192118
19.22654876 -8.43576942 14.34031747
-7.70982628 -24.74979863 14.03141598
1.66633987 -4.68855536 4.76396140
-3.94631200 13.90534708 -8.17606441
29.64750151 -6.56402312 16.44967507
17.01151646 4.32393761 -5.18474176
8.34617217 1.76275962 -0.38292070
39.53441538 -16.33772264 6.51138200
10.01794286 28.25015324 -0.76010309
9.13673971 -4.44577486 11.69861982
-24.50132011 1.26841143 -6.55995117
10.96970238 21.72010800 13.61260666
3.02633701 4.97690613 -5.35916269
-14.37934458 -29.78474767 -40.48447102
29.46109304 -4.60485757 -6.98924529
8.02193719 -3.25457322 -0.35695937
-10.90011778 6.32379932 18.94341252
25.54227838 33.69736788 -25.94607557
0.76926134 -0.42881789 6.52986087
-8.02699061 -64.27827333 -7.78916631
-41.95770321 -10.51943539 -0.65187139
0.29213149 0.15156183 4.47268846
-28.80456523 17.02951571 -0.20762468
-23.50023307 18.10742182 16.94077154
-4.05568794 -13.24685312 11.32375176
-16.76943887 -56.20259873 -35.12536417
-15.57269965 11.32484645 15.45091170
2.15129329 3.02713929 -3.50342703
37.38599321 -2.93336944 -4.33786954
-43.14449797 -55.78814749 -11.25796769
0.84585502 11.66535753 -7.19765349
5.35029657 18.91801922 -38.83562646
-4.53137909 -7.74982153 3.85995937
-27.58725521 -53.83041249 36.47820517
0.39448541 -7.46924338 -1.58141861
-23.95172218 -44.74748109 28.18776102
-9.79960319 29.26797881 -28.28737388
-3.66238558 31.94633138 13.18508372
9.71084203 -4.44793433 5.28480896
-22.72567508 27.88587203 12.85014471
9.47633750 -9.37268902 6.84026963
2.25549311 7.76440285 3.35306917
-5.77338377 1.12662866 -25.96630314
-16.17928334 -16.09307408 -1.96446315
-5.20217694 -3.19273057 3.71964096
-2.87122211 -10.49711711 9.29762335
8.78311164 7.89826164 34.01297697
11.45546986 9.31462002 1.94262816
-12.08301149 -5.89470864 -27.23013438
-15.75273330 -1.11429652 8.42508763
5.77651158 5.10612678 8.29860414
21.03879314 -33.23571576 -16.01429127
-44.52950766 30.21820295 5.98869603
-10.08983274 5.02633954 4.54020958
-5.80787684 19.96748290 -2.07150144
-5.76779596 -11.72586112 27.24480746
-1.65742981 -2.87883401 -0.49395492
6.01348534 -5.13388684 11.37500321
5.26496703 13.80628065 -34.94523382
0.26665114 4.06880418 -1.96283521
9.32127223 -1.08162814 -10.70069048
15.05846073 13.83642855 22.70278105
1.96510037 -3.69484826 3.19480049
17.52810597 10.87921127 -37.87320056
-46.39468969 1.38255718 -9.43240792
-18.48382167 24.76463027 43.20456686
-0.80208670 -5.30682989 -7.14981209
2.14063727 -30.68272793 -9.78474239
-0.03781998 -43.30353369 9.55044220
-15.94634828 16.68798462 15.64364615
5.35873384 0.90234195 -9.11236876
8.81691570 -15.31047286 26.97457608
-10.67150892 39.93147692 42.55343966
-5.21615395 0.79071628 2.03845588
34.83950625 -6.98520855 -20.60649062
3.86501011 -25.50921107 20.46270722
5.35882972 -2.23602822 7.14630000
0.17793372 1.68547934 33.79399958
21.21167727 11.22440781 -1.70562984
-9.83076916 -0.64418985 -2.71017120
6.54647182 -38.77295229 8.70989885
15.30903850 -7.27195583 -15.59840333
-10.02075476 -3.05185739 5.12040667
-3.40789113 -34.37751945 27.78414028
0.07806419 13.60284201 -35.85062761
-15.07935721 -1.12458287 -8.17832823
14.96595641 -5.40733916 14.60388443
-16.50545311 -25.96228139 -11.53657925
2.88863078 -4.54531650 -2.46242680
28.07457377 -20.70397581 -42.67902712
22.89624744 5.89977473 13.71465987
5.01010875 1.45096223 -12.04282370
2.61094478 6.75722396 8.48479174
-22.91266303 -25.38061687 19.37816043
3.52212080 -7.33928403 8.77161185
45.79474057 8.15804423 -35.88799251
12.33230377 -0.78879171 9.50426560
-21.03559068 -18.97173219 -10.09116479
4.17981064 0.85505352 -7.68120556
20.10366041 -4.44063279 -23.85024241
-24.37237969 -8.53897787 7.06067296
36.00371788 1.16999340 -5.67389733
-3.89535604 2.30739478 -3.82658374
43.20640447 4.04515905 -13.69591487
22.60733007 -21.99901292 -56.25736609
-6.40494332 10.02487616 2.78041447
0.50874203 -11.79987356 -47.80492033
-44.63243427 6.61398041 4.77070489
-6.71651565 -10.56820376 6.19719487
17.58100310 0.87993106 -57.18366008
6.55818232 4.69266756 2.12387387
4.37217710 0.29389213 5.46948733
-1.15655644 -25.56405210 -5.85311363
36.73871358 -0.05132186 53.41665781
-2.89249199 6.41818408 -4.31022038
-16.81573785 -27.40718898 -41.02777167
-16.89647903 20.33932052 48.53943659
14.06919227 -7.44274080 1.04389133
-5.93655973 17.05367544 14.02516261
-40.02018378 9.76709756 58.08086066
-13.25992339 2.55853557 10.81539159
-5.82969902 -48.03754826 14.91127380
24.75786711 24.77640855 -24.01679152
-6.12252317 -0.42998362 -3.88726756
-0.98585545 8.53609769 31.59678506
34.46169588 2.90206492 -22.01134796
-6.40962736 5.76280158 0.69181139
6.03873359 -12.82200511 -27.98784827
13.12848576 20.35804073 25.38483823
17.39726661 11.34472818 -5.77866476
-2.26513708 11.18064067 13.90760122
-36.40723206 9.82811257 20.79110074
-13.46865384 5.85807502 -14.49945056
-22.37900444 16.55744868 2.52715182
0.06253917 4.78970364 2.67623313
14.36599697 -23.15548901 8.14153415
-18.98549706 4.88543304 26.67692018
7.16526899 -1.11998771 4.86570844
-27.61511329 -16.68680054 10.25642921
22.92810544 -3.41237479 -3.92187859
2.23825599 -1.39688910 2.31449629
26.47606582 19.03827068 11.12343971
9.66477237 -18.14667472 -2.15331556
-0.68710733 4.87460298 3.08685621
-5.17681274 29.07170256 24.20843936
22.52239428 -5.16643628 -16.23995422
-4.86617198 2.30208856 -13.32196344
29.28697787 19.97738157 8.38558005
10.96273956 16.27280429 -4.13347729
-2.66404217 -0.01761585 -14.35330520
-5.27736680 7.21729910 -32.63873231
4.97666110 8.90571259 -4.01681134
-0.19321262 -3.30255347 -0.79703702
-2.31121033 -18.99714139 15.34208793
-3.51597783 6.58042546 12.17809503
0.65742536 1.10894783 0.58934958
53.32600551 22.96536658 15.39494024
10.61895920 -28.68085925 -29.93666892
-5.08957804 -0.10676967 10.64770954
-2.10706684 -2.31371990 2.00276399
4.21164527 8.46762978 -16.01564641
12.74328079 20.42109406 6.02019177
-3.69873678 11.03095230 0.09611989
-12.64950156 25.11234044 28.43907186
16.86979016 14.19159614 10.27472366
36.53969032 0.67338764 1.59996761
-4.11897638 -2.36919299 -4.00899799
-29.81713115 -15.14808917 -2.50888139
-29.96497752 1.07943504 -29.11183386
-3.66211576 1.05278926 -2.75445611
-8.27989261 -4.17634102 -34.14624437
21.08842973 -22.98971258 32.58812608
-7.35383130 0.01211077 -11.32191475
24.45647400 33.82242734 -12.32272550
-8.17971942 -3.46319985 28.12799977
9.46213024 6.52339337 -2.43136082
-43.32598085 2.24532551 2.99440567
42.94851695 -16.15982530 -12.68823303
5.42516995 11.08630570 -6.68145250
44.65934624 16.30481940 -7.07904891
-18.39528106 -8.00408190 -30.81595448
9.29700372 2.84750666 -10.33744818
-16.40496058 19.45546255 -2.52561228
-12.35288914 -31.85560065 -30.68744463
0.05242985 -2.32528131 -6.25779771
32.78774503 -20.94752178 2.76656236
4.41405954 -29.53986426 -4.79601153
9.12596995 -2.85471275 6.06138781
5.06729935 10.78462265 -22.94598806
-42.82449749 20.23482497 19.17501748
-5.89104276 -0.93890504 -4.87219823
-4.17143347 -30.91034879 6.52822681
0.87791691 -26.44558370 -7.01405842
6.56985174 -7.23784596 20.58543167
-0.40272583 -0.91217410 -8.70126910
1.29231308 -7.12207815 -12.29064711
-7.64392199 28.72276256 28.48811740
-30.96087671 13.81133694 -10.18613480
  }
}

Hamiltonian = DFTB {
  SCC = Yes
  SCCTolerance = 1e-6
  MaxSCCIterations = 200
  readinitialcharges = yes
  ForceEvaluation = Dynamics
  MaxAngularMomentum = {
    C = "p"
    H = "s"
  }
  Charge = 0.0
  SpinPolarisation = {}
  Eigensolver = Standard {}
  Filling = Fermi {
    Temperature [Kelvin] = 300.0
  }
  SlaterKosterFiles = Type2FileNames {
    Prefix = "/usr/workspace/troup1/second_set/real_data/decane_run_first_50/pbc-0-3/"
    Separator = "-"
    Suffix = ".skf"
    LowerCaseTypeName = No
  }
  KPointsAndWeights = {
    0.0000000000000 0.0000000000000 0.0000000000000 1.00000000000000
  }
  Dispersion = LennardJones {
    Parameters = UFFParameters {}
  }
}

ParserOptions = {
  ParserVersion = 3
}
