Geometry = GenFormat {
352  S
C  H
1 1    0.3664479260E+02    0.3399938658E+02    0.4082649241E+02
2 2    0.3582462379E+02    0.3470459442E+02    0.4056675495E+02
3 2    0.3611404883E+02    0.3304168693E+02    0.4090925849E+02
4 1    0.3778199627E+02    0.4942198479E+02    0.3976631076E+02
5 2    0.3787520279E+02    0.5057454923E+02    0.3955784430E+02
6 2    0.2207382922E+02    0.4905684240E+02    0.3872648434E+02
7 1    0.3905598252E+02    0.4861835671E+02    0.4014046163E+02
8 2    0.2322188232E+02    0.4778447693E+02    0.4068035333E+02
9 2    0.3961467011E+02    0.4916499132E+02    0.4088656150E+02
10 1    0.2462104802E+02    0.4810894390E+02    0.3895421438E+02
11 2    0.2537299048E+02    0.4741078492E+02    0.3942096155E+02
12 2    0.2523876897E+02    0.4883879799E+02    0.3852862467E+02
13 1    0.3922953154E+02    0.4705894015E+02    0.3808046794E+02
14 2    0.3975654596E+02    0.4718766832E+02    0.3708765340E+02
15 2    0.3816477439E+02    0.4740357964E+02    0.3800409904E+02
16 1    0.2405719962E+02    0.4560414070E+02    0.3855370803E+02
17 2    0.2313653118E+02    0.4502972575E+02    0.3829663622E+02
18 2    0.2404948392E+02    0.4549473964E+02    0.3975910124E+02
19 1    0.4073313692E+02    0.4503247047E+02    0.3799310720E+02
20 2    0.4158965830E+02    0.4571553292E+02    0.3826314582E+02
21 2    0.4069800529E+02    0.4506503824E+02    0.3689605516E+02
22 1    0.4111111053E+02    0.4366255708E+02    0.3847441202E+02
23 2    0.2646118283E+02    0.4308332986E+02    0.3778517764E+02
24 2    0.2487695268E+02    0.4311297843E+02    0.3843937732E+02
25 1    0.3702603706E+02    0.3451565232E+02    0.4224460966E+02
26 2    0.3745917057E+02    0.3383330981E+02    0.4295056525E+02
27 2    0.3771965265E+02    0.3535464655E+02    0.4219249195E+02
28 2    0.3606424905E+02    0.3477375486E+02    0.4275069932E+02
29 1    0.4170869920E+02    0.4347911648E+02    0.3979580011E+02
30 2    0.4271859368E+02    0.4395351152E+02    0.4006020345E+02
31 2    0.4116337008E+02    0.4394501542E+02    0.4063033234E+02
32 2    0.4189746195E+02    0.4245348860E+02    0.4006311890E+02
33 1    0.2688564873E+02    0.3430663698E+02    0.3613645481E+02
34 2    0.2609413016E+02    0.3347608288E+02    0.3637493046E+02
35 2    0.2723028151E+02    0.3473311442E+02    0.3716016672E+02
36 1    0.2802608271E+02    0.3381724151E+02    0.3512031117E+02
37 2    0.2906327360E+02    0.3427729012E+02    0.3542333345E+02
38 2    0.2789628544E+02    0.3418280419E+02    0.3409194654E+02
39 1    0.2815646895E+02    0.3229028672E+02    0.3498624989E+02
40 2    0.2846964022E+02    0.3174024330E+02    0.3584391962E+02
41 2    0.2904018637E+02    0.3222827335E+02    0.3421293750E+02
42 1    0.2689255578E+02    0.3153561652E+02    0.3441431140E+02
43 2    0.4192274532E+02    0.3217387811E+02    0.3353386583E+02
44 2    0.2607048431E+02    0.3164559470E+02    0.3517315790E+02
45 1    0.2697675295E+02    0.3015602062E+02    0.3384063943E+02
46 2    0.2729334813E+02    0.2945616078E+02    0.3457888096E+02
47 2    0.4306594187E+02    0.3011354546E+02    0.3297180481E+02
48 1    0.4095566844E+02    0.2979541049E+02    0.3333432436E+02
49 2    0.4017210689E+02    0.3020952756E+02    0.3403915832E+02
50 2    0.4089332433E+02    0.2866153723E+02    0.3341025731E+02
51 1    0.2513594797E+02    0.3002323115E+02    0.3187104112E+02
52 2    0.2578216938E+02    0.2941207490E+02    0.3112676407E+02
53 2    0.2529925447E+02    0.3109827446E+02    0.3142595813E+02
54 1    0.3898294784E+02    0.2953787833E+02    0.4708660692E+02
55 2    0.3837905351E+02    0.2995526624E+02    0.4788905580E+02
56 2    0.3900061278E+02    0.2839864133E+02    0.4728217378E+02
57 1    0.2593624952E+02    0.3542663763E+02    0.3544990701E+02
58 2    0.2510054172E+02    0.3563450062E+02    0.3611789835E+02
59 2    0.2638125894E+02    0.3643037018E+02    0.3527366739E+02
60 2    0.2547232246E+02    0.3508335181E+02    0.3448079400E+02
61 1    0.2313711647E+02    0.2970063277E+02    0.4564052126E+02
62 2    0.2365545897E+02    0.2897234582E+02    0.4490014937E+02
63 2    0.2202119225E+02    0.2955605605E+02    0.4551290701E+02
64 2    0.2346664138E+02    0.3071719192E+02    0.4542315253E+02
65 1    0.3746242970E+02    0.4222041310E+02    0.3626306221E+02
66 2    0.3774877867E+02    0.4271166434E+02    0.3732808593E+02
67 2    0.3702227663E+02    0.4126012373E+02    0.3654195830E+02
68 1    0.3614560401E+02    0.4294775136E+02    0.3575596570E+02
69 2    0.3658024350E+02    0.4403511549E+02    0.3548186686E+02
70 2    0.3549769455E+02    0.4326092018E+02    0.3663215839E+02
71 1    0.3551624506E+02    0.4213448377E+02    0.3463215388E+02
72 2    0.3453463310E+02    0.4177831176E+02    0.3530105818E+02
73 2    0.3625334080E+02    0.4136064193E+02    0.3443320940E+02
74 1    0.3514710355E+02    0.2774390078E+02    0.3337139060E+02
75 2    0.3582428777E+02    0.2874708236E+02    0.3342220372E+02
76 2    0.3416004770E+02    0.2821516313E+02    0.3349835413E+02
77 1    0.3493627617E+02    0.2685381892E+02    0.3218934338E+02
78 2    0.3440162880E+02    0.4122927274E+02    0.3272035166E+02
79 2    0.3603908287E+02    0.4179650660E+02    0.3195301269E+02
80 1    0.3409231196E+02    0.2740465082E+02    0.3101465692E+02
81 2    0.3460154892E+02    0.2812782144E+02    0.3044034255E+02
82 2    0.3317112086E+02    0.2786941976E+02    0.3144021282E+02
83 1    0.3367659008E+02    0.2618052614E+02    0.2991211085E+02
84 2    0.3277183124E+02    0.2577427715E+02    0.3052389371E+02
85 2    0.3437301915E+02    0.2527438102E+02    0.2975934462E+02
86 1    0.3328038810E+02    0.2659512787E+02    0.2853973676E+02
87 2    0.3249119713E+02    0.2735341760E+02    0.2858384285E+02
88 2    0.3297513493E+02    0.2568432052E+02    0.2803107465E+02
89 1    0.3875058658E+02    0.4242231673E+02    0.3535005474E+02
90 2    0.3917377091E+02    0.4351327133E+02    0.3525826099E+02
91 2    0.4075808092E+02    0.4168094587E+02    0.3542070483E+02
92 2    0.3845741911E+02    0.4211427116E+02    0.3436743871E+02
93 1    0.3451538523E+02    0.2697905493E+02    0.2771655136E+02
94 2    0.3491581771E+02    0.2613755057E+02    0.2724543800E+02
95 2    0.3421844788E+02    0.2778830145E+02    0.2702232276E+02
96 2    0.3534958575E+02    0.2742677858E+02    0.2838402338E+02
97 1    0.2634199048E+02    0.3157622126E+02    0.4254034064E+02
98 2    0.2529070948E+02    0.3165610014E+02    0.4201144013E+02
99 2    0.2699861254E+02    0.3128306753E+02    0.4162594035E+02
100 1    0.2663597450E+02    0.3292167948E+02    0.4312635361E+02
101 2    0.2752639999E+02    0.3306801007E+02    0.4367128443E+02
102 2    0.2586615544E+02    0.3312109921E+02    0.4391353755E+02
103 1    0.2680791844E+02    0.3392488296E+02    0.4192370859E+02
104 2    0.2598733418E+02    0.3471412315E+02    0.4181392805E+02
105 2    0.2708873063E+02    0.3341515048E+02    0.4097355730E+02
106 1    0.2810414614E+02    0.3473293527E+02    0.2686446382E+02
107 2    0.2896096906E+02    0.3407448514E+02    0.2720423008E+02
108 2    0.2801722618E+02    0.3537146846E+02    0.2781431897E+02
109 1    0.2852647154E+02    0.3561467695E+02    0.2560343656E+02
110 2    0.2785692034E+02    0.3648964456E+02    0.2575913636E+02
111 2    0.2797518082E+02    0.3521218440E+02    0.2470758041E+02
112 1    0.2998596511E+02    0.3580335369E+02    0.2527257816E+02
113 2    0.3005375964E+02    0.3640205734E+02    0.2435564840E+02
114 2    0.3048514174E+02    0.3478818044E+02    0.2513888358E+02
115 1    0.3074347890E+02    0.3662854630E+02    0.2634278884E+02
116 2    0.3113980377E+02    0.3586639173E+02    0.2704180181E+02
117 2    0.3014042418E+02    0.3727488364E+02    0.2696237002E+02
118 1    0.3176471882E+02    0.3752840345E+02    0.2569139721E+02
119 2    0.3221745322E+02    0.3828812432E+02    0.2637491212E+02
120 2    0.3118580816E+02    0.3828754753E+02    0.2502529651E+02
121 1    0.2624630700E+02    0.3048661993E+02    0.4360521626E+02
122 2    0.2593058561E+02    0.2955755589E+02    0.4322496004E+02
123 2    0.2723697399E+02    0.3031718227E+02    0.4418074788E+02
124 2    0.2544286015E+02    0.3085064211E+02    0.4431786820E+02
125 1    0.3281271457E+02    0.3679673505E+02    0.2493368922E+02
126 2    0.3333802085E+02    0.3597637295E+02    0.2538497273E+02
127 2    0.3240669584E+02    0.3640962378E+02    0.2391382931E+02
128 2    0.3367149807E+02    0.3742365393E+02    0.2469907444E+02
129 1    0.4291146782E+02    0.3736904100E+02    0.3062928318E+02
130 2    0.4225089918E+02    0.3823496811E+02    0.3099034015E+02
131 2    0.4361055510E+02    0.3730717786E+02    0.3156946600E+02
132 1    0.4206582896E+02    0.3604629112E+02    0.3038869255E+02
133 2    0.4273657089E+02    0.3515809788E+02    0.3047516178E+02
134 2    0.4169612536E+02    0.3615586543E+02    0.2935367574E+02
135 1    0.4086436685E+02    0.3578798951E+02    0.3133415463E+02
136 2    0.4040557673E+02    0.3676105531E+02    0.3134458521E+02
137 2    0.4124569766E+02    0.3563505689E+02    0.3240577190E+02
138 1    0.3983683128E+02    0.3463541596E+02    0.3103745352E+02
139 2    0.4049416841E+02    0.3369614839E+02    0.3081667077E+02
140 2    0.3936027362E+02    0.3483997524E+02    0.3003105709E+02
141 1    0.3883684029E+02    0.3442024989E+02    0.3215956428E+02
142 2    0.3841433117E+02    0.3550510655E+02    0.3209100063E+02
143 2    0.3942766146E+02    0.3432731099E+02    0.3304038731E+02
144 1    0.3783214425E+02    0.3333274053E+02    0.3181786973E+02
145 2    0.3840336301E+02    0.3246709013E+02    0.3165289176E+02
146 2    0.3730340633E+02    0.3354588829E+02    0.3094201841E+02
147 1    0.3680424011E+02    0.3301346548E+02    0.3317352696E+02
148 2    0.3670037789E+02    0.3389164024E+02    0.3395716755E+02
149 2    0.3732438950E+02    0.3217016145E+02    0.3366907664E+02
150 1    0.3540575474E+02    0.3258310288E+02    0.3258950592E+02
151 2    0.3479503845E+02    0.3351132526E+02    0.3228392496E+02
152 2    0.3479755560E+02    0.3217527303E+02    0.3342901890E+02
153 1    0.4380184580E+02    0.3764755654E+02    0.2938258043E+02
154 2    0.4428692580E+02    0.2133898946E+02    0.2920366582E+02
155 2    0.4328586106E+02    0.3789798845E+02    0.2844553269E+02
156 2    0.4457183833E+02    0.3847000801E+02    0.2957298202E+02
157 1    0.3542683515E+02    0.3146175384E+02    0.3157733160E+02
158 2    0.3603210452E+02    0.3167508641E+02    0.3063544732E+02
159 2    0.3597002995E+02    0.3060704223E+02    0.3199171680E+02
160 2    0.3443188522E+02    0.3110706522E+02    0.3133989668E+02
161 1    0.4641459698E+02    0.3133838982E+02    0.3302057982E+02
162 2    0.4729037029E+02    0.3208670335E+02    0.3326730846E+02
163 2    0.4554535481E+02    0.3200400174E+02    0.3291856135E+02
164 1    0.4660045912E+02    0.3084206308E+02    0.3164865261E+02
165 2    0.4738939549E+02    0.3007831394E+02    0.3157648601E+02
166 2    0.4682293598E+02    0.3174379967E+02    0.3095666342E+02
167 1    0.4536099764E+02    0.3011200633E+02    0.3107413289E+02
168 2    0.4449489037E+02    0.3073201090E+02    0.3066277176E+02
169 2    0.4483973752E+02    0.2937779730E+02    0.3187785414E+02
170 1    0.4600226957E+02    0.2911333926E+02    0.2997466269E+02
171 2    0.4687864718E+02    0.2852294597E+02    0.3036032726E+02
172 2    0.4651220499E+02    0.2968832668E+02    0.2917044698E+02
173 1    0.4500677611E+02    0.4359173597E+02    0.2926162464E+02
174 2    0.4552314836E+02    0.4308261941E+02    0.2840040572E+02
175 2    0.4428463169E+02    0.2911030342E+02    0.2872777151E+02
176 1    0.4425422335E+02    0.4251412847E+02    0.3001826130E+02
177 2    0.4395446587E+02    0.4297256888E+02    0.3112500368E+02
178 2    0.4489207931E+02    0.4162213124E+02    0.3030244884E+02
179 1    0.4297467483E+02    0.4204232076E+02    0.2935427063E+02
180 2    0.4308556112E+02    0.4150662482E+02    0.2841491673E+02
181 2    0.4234889180E+02    0.4297209228E+02    0.2904077886E+02
182 1    0.4198594493E+02    0.4111043665E+02    0.3012218861E+02
183 2    0.4244880535E+02    0.4031340963E+02    0.3074047572E+02
184 2    0.4132623387E+02    0.4054593601E+02    0.2939704056E+02
185 1    0.4629009227E+02    0.3038365518E+02    0.3415622909E+02
186 2    0.4681102042E+02    0.2948630657E+02    0.3403519582E+02
187 2    0.4654789150E+02    0.3074792724E+02    0.3514736812E+02
188 2    0.4537197713E+02    0.2986017918E+02    0.4965001612E+02
189 1    0.4113974132E+02    0.4171335091E+02    0.3123505578E+02
190 2    0.4179410033E+02    0.4222013480E+02    0.3200853849E+02
191 2    0.4027688606E+02    0.4231053313E+02    0.3074067862E+02
192 2    0.4062886196E+02    0.4080452829E+02    0.3161268882E+02
193 1    0.3653299432E+02    0.2231002046E+02    0.4361396217E+02
194 2    0.3547622307E+02    0.2269140327E+02    0.4390875993E+02
195 2    0.3638396679E+02    0.3667563328E+02    0.4309067313E+02
196 1    0.3725580875E+02    0.2355264388E+02    0.4301752497E+02
197 2    0.3819985690E+02    0.2310528131E+02    0.4268094421E+02
198 2    0.3756734359E+02    0.3950101009E+02    0.4380824377E+02
199 1    0.3650735884E+02    0.2422998539E+02    0.4172606698E+02
200 2    0.3559057030E+02    0.2470327762E+02    0.4207748079E+02
201 2    0.3640576683E+02    0.2343781110E+02    0.4083518324E+02
202 1    0.3755387214E+02    0.2530418658E+02    0.4130785377E+02
203 2    0.3785113325E+02    0.2585364914E+02    0.4228434092E+02
204 2    0.3701929758E+02    0.2615147424E+02    0.4076024027E+02
205 1    0.3900081287E+02    0.2499844151E+02    0.4073351074E+02
206 2    0.3939364638E+02    0.2428378556E+02    0.4152736929E+02
207 2    0.3950055344E+02    0.2597571078E+02    0.4074559041E+02
208 1    0.3900324539E+02    0.2438708642E+02    0.3928244585E+02
209 2    0.3864281448E+02    0.2518939188E+02    0.3860395700E+02
210 2    0.3822173299E+02    0.2358520537E+02    0.3917849864E+02
211 1    0.4047209428E+02    0.3915268239E+02    0.3887770822E+02
212 2    0.4127158555E+02    0.3977330117E+02    0.3936870722E+02
213 2    0.4071074396E+02    0.3922182581E+02    0.3782507889E+02
214 1    0.4078127072E+02    0.3764497412E+02    0.3930529886E+02
215 2    0.4094984616E+02    0.3751914078E+02    0.4033330190E+02
216 2    0.4173958552E+02    0.3752411797E+02    0.3877007829E+02
217 1    0.3730615077E+02    0.2199356895E+02    0.4494098271E+02
218 2    0.3729174118E+02    0.2266391203E+02    0.3051720979E+02
219 2    0.3705740411E+02    0.2094123364E+02    0.2996789452E+02
220 2    0.3835330923E+02    0.2180070981E+02    0.4466294248E+02
221 1    0.3971679752E+02    0.3670468016E+02    0.3886309579E+02
222 2    0.4003649019E+02    0.3565658479E+02    0.3911484786E+02
223 2    0.3865974861E+02    0.3681288622E+02    0.3911387426E+02
224 2    0.3963059339E+02    0.3670826677E+02    0.3767891918E+02
225 1    0.2952791546E+02    0.4196499867E+02    0.4084036832E+02
226 2    0.2937382110E+02    0.4289532830E+02    0.4147891766E+02
227 2    0.2885706239E+02    0.4209576723E+02    0.3996673932E+02
228 1    0.3097657981E+02    0.2670161436E+02    0.4015858137E+02
229 2    0.3175827423E+02    0.2705148907E+02    0.4087833735E+02
230 2    0.3092017361E+02    0.2756631704E+02    0.3943360664E+02
231 1    0.3142060532E+02    0.4077984215E+02    0.3936494971E+02
232 2    0.3049696520E+02    0.4042336189E+02    0.3876881867E+02
233 2    0.3169250132E+02    0.4009707810E+02    0.4028272145E+02
234 1    0.3278533899E+02    0.4088459689E+02    0.3854417485E+02
235 2    0.3282495780E+02    0.3988502690E+02    0.3794053766E+02
236 2    0.3368523263E+02    0.4097199890E+02    0.3915173564E+02
237 1    0.3281397536E+02    0.4200293554E+02    0.3738204528E+02
238 2    0.3353361138E+02    0.4147559912E+02    0.3668945337E+02
239 2    0.3317856303E+02    0.2761339510E+02    0.3790602345E+02
240 1    0.3158630150E+02    0.4230536081E+02    0.3663627118E+02
241 2    0.3101944086E+02    0.2777820665E+02    0.3701867981E+02
242 2    0.3078901811E+02    0.2622945081E+02    0.3670028245E+02
243 1    0.3178091434E+02    0.4254946945E+02    0.3511782169E+02
244 2    0.3264632592E+02    0.4320769679E+02    0.3496303399E+02
245 2    0.3085122631E+02    0.4310116404E+02    0.3482190083E+02
246 1    0.3186959934E+02    0.4121736864E+02    0.3439114672E+02
247 2    0.3144648281E+02    0.4037304536E+02    0.3498542787E+02
248 2    0.3288877780E+02    0.4082017955E+02    0.3413030351E+02
249 1    0.2929251786E+02    0.2537654521E+02    0.4162813400E+02
250 2    0.3013309580E+02    0.2528595382E+02    0.4237523653E+02
251 2    0.2835938475E+02    0.2540821804E+02    0.4208289697E+02
252 2    0.2946277033E+02    0.2448739019E+02    0.4099302252E+02
253 1    0.3103844863E+02    0.4119196665E+02    0.3310344107E+02
254 2    0.3092396897E+02    0.4017526402E+02    0.3267061783E+02
255 2    0.3015341036E+02    0.4186544020E+02    0.3327263312E+02
256 2    0.3159891278E+02    0.4173248712E+02    0.4764339742E+02
257 1    0.4761963373E+02    0.3789844278E+02    0.4666559263E+02
258 2    0.4760798810E+02    0.3852152062E+02    0.4764361259E+02
259 2    0.4656952511E+02    0.3757252298E+02    0.4638028117E+02
260 1    0.3984825287E+02    0.4164539856E+02    0.3592068471E+02
261 2    0.3482451431E+02    0.3802334749E+02    0.3427874315E+02
262 2    0.4006647169E+02    0.4119534331E+02    0.3695838738E+02
263 1    0.3423700374E+02    0.3817634092E+02    0.3510248485E+02
264 2    0.3372422280E+02    0.3912128667E+02    0.3499665811E+02
265 2    0.3350093923E+02    0.3737562389E+02    0.3497146717E+02
266 1    0.3514011738E+02    0.3813850143E+02    0.3634011041E+02
267 2    0.3459301195E+02    0.3819077122E+02    0.3732071629E+02
268 2    0.3580951606E+02    0.3907034388E+02    0.3644722159E+02
269 1    0.3624345734E+02    0.3695179227E+02    0.3646146840E+02
270 2    0.3585469875E+02    0.3596368743E+02    0.3646415762E+02
271 2    0.3658035407E+02    0.3702790687E+02    0.3757540379E+02
272 1    0.3732712822E+02    0.3704191516E+02    0.3533050178E+02
273 2    0.3688440119E+02    0.3655025927E+02    0.3450919440E+02
274 2    0.3824240749E+02    0.3644364530E+02    0.3574505116E+02
275 1    0.3787489492E+02    0.3847466932E+02    0.3511454743E+02
276 2    0.3789539563E+02    0.3908156468E+02    0.3601841637E+02
277 2    0.3726306903E+02    0.3904171119E+02    0.3444926498E+02
278 1    0.3932787375E+02    0.3839358871E+02    0.3459599975E+02
279 2    0.3967534429E+02    0.3744954451E+02    0.3439370245E+02
280 2    0.4000563303E+02    0.3889768083E+02    0.3540416754E+02
281 1    0.4881710100E+02    0.3781683863E+02    0.4586723129E+02
282 2    0.4863863228E+02    0.3715310780E+02    0.4505565184E+02
283 2    0.4938960597E+02    0.3875344642E+02    0.4553165188E+02
284 2    0.4948958691E+02    0.3720595970E+02    0.4648534861E+02
285 1    0.3963640047E+02    0.3924276087E+02    0.3326575883E+02
286 2    0.4078684867E+02    0.3936040916E+02    0.3305894788E+02
287 2    0.3929871318E+02    0.3870729299E+02    0.3241239437E+02
288 2    0.3914997887E+02    0.4024624076E+02    0.3347347991E+02
289 1    0.2977697021E+02    0.3173425268E+02    0.3870453735E+02
290 2    0.3025575547E+02    0.3276313245E+02    0.3900388769E+02
291 2    0.2993177714E+02    0.3159238778E+02    0.3755224554E+02
292 1    0.3054548829E+02    0.3050510159E+02    0.3928017044E+02
293 2    0.3166775163E+02    0.3045257089E+02    0.3898223283E+02
294 2    0.3007106523E+02    0.2961997944E+02    0.3885141547E+02
295 1    0.3043581702E+02    0.3049724518E+02    0.4082287629E+02
296 2    0.3084024034E+02    0.2956565835E+02    0.4131108704E+02
297 2    0.2942319331E+02    0.3049324335E+02    0.2574002567E+02
298 1    0.3114149021E+02    0.3154313055E+02    0.2630093006E+02
299 2    0.3093448193E+02    0.3137119697E+02    0.4268415803E+02
300 2    0.3073806113E+02    0.3250902601E+02    0.2602050998E+02
301 1    0.3263951868E+02    0.3170457246E+02    0.2637579304E+02
302 2    0.3287180182E+02    0.3264992172E+02    0.2699276811E+02
303 2    0.3319394181E+02    0.3189002491E+02    0.4071467648E+02
304 1    0.3334825839E+02    0.3054751332E+02    0.2706774546E+02
305 2    0.3266396744E+02    0.2975520371E+02    0.2680305657E+02
306 2    0.3340177928E+02    0.3066399716E+02    0.2819765056E+02
307 1    0.3477984483E+02    0.3025814967E+02    0.2660151317E+02
308 2    0.3523821381E+02    0.2967293015E+02    0.2742073044E+02
309 2    0.3535073598E+02    0.3120509018E+02    0.2651358231E+02
310 1    0.3498045646E+02    0.2956880944E+02    0.2525010738E+02
311 2    0.3498873149E+02    0.3024932989E+02    0.2438606990E+02
312 2    0.3436677029E+02    0.2876711192E+02    0.2492459128E+02
313 1    0.2834201230E+02    0.3179669137E+02    0.3902256865E+02
314 2    0.2792133568E+02    0.3278989111E+02    0.3888887012E+02
315 2    0.2775281394E+02    0.3118451571E+02    0.3838394038E+02
316 2    0.2805886620E+02    0.3141447164E+02    0.3998383438E+02
317 1    0.3640450439E+02    0.2896962392E+02    0.2531411916E+02
318 2    0.3673674991E+02    0.2882296046E+02    0.2427069781E+02
319 2    0.3724052691E+02    0.2953034081E+02    0.2574513021E+02
320 2    0.3644581252E+02    0.2803044762E+02    0.2589502993E+02
321 1    0.2921299403E+02    0.3902574109E+02    0.2153093328E+02
322 2    0.2886649477E+02    0.3963223496E+02    0.2242695760E+02
323 2    0.3019030339E+02    0.3939471239E+02    0.2119634754E+02
324 1    0.2928225719E+02    0.3757963677E+02    0.3737498553E+02
325 2    0.2842804448E+02    0.3697784739E+02    0.3703687411E+02
326 2    0.2910986313E+02    0.3758047456E+02    0.3848182478E+02
327 1    0.3051307122E+02    0.3687845328E+02    0.3688927104E+02
328 2    0.3148527858E+02    0.3743397979E+02    0.3705942701E+02
329 2    0.3035958326E+02    0.3704031932E+02    0.3571878792E+02
330 1    0.3062191530E+02    0.3538988655E+02    0.3723622691E+02
331 2    0.2963262138E+02    0.3498316947E+02    0.3722379447E+02
332 2    0.3089514442E+02    0.3542413921E+02    0.3831924162E+02
333 1    0.3160620191E+02    0.3453167837E+02    0.3639544633E+02
334 2    0.3157607639E+02    0.3460354754E+02    0.3529999116E+02
335 2    0.3119703549E+02    0.3350922548E+02    0.3665296257E+02
336 1    0.3317650054E+02    0.3456712179E+02    0.3685611260E+02
337 2    0.3336201042E+02    0.3443898254E+02    0.3790496003E+02
338 2    0.3366475144E+02    0.3562208738E+02    0.3645983551E+02
339 1    0.3397512245E+02    0.3344021744E+02    0.3614971460E+02
340 2    0.3507669185E+02    0.3375397071E+02    0.3608242763E+02
341 2    0.3370780472E+02    0.3315855012E+02    0.3504587547E+02
342 1    0.3390827347E+02    0.3218182986E+02    0.3697733812E+02
343 2    0.3292191655E+02    0.3160050360E+02    0.3686583904E+02
344 2    0.3403480135E+02    0.3243081251E+02    0.3802392256E+02
345 1    0.2828556900E+02    0.3919431169E+02    0.2040622498E+02
346 2    0.2726933322E+02    0.3873143657E+02    0.2038466420E+02
347 2    0.2812669245E+02    0.4027130580E+02    0.2019007259E+02
348 2    0.2867770925E+02    0.3868893716E+02    0.1951106097E+02
349 1    0.3490733328E+02    0.3111827546E+02    0.3659748975E+02
350 2    0.3493762121E+02    0.3092712067E+02    0.3551167232E+02
351 2    0.3596053561E+02    0.3141965050E+02    0.3679802893E+02
352 2    0.3471539326E+02    0.3023752422E+02    0.3713370540E+02
0.0000000000E+00    0.0000000000E+00    0.0000000000E+00
0.1532620600E+02    0.0000000000E+00    0.0000000000E+00
0.0000000000E+00    0.1532620600E+02    0.0000000000E+00
0.0000000000E+00    0.0000000000E+00    0.1532620600E+02
}
Driver = VelocityVerlet {
  Steps = 50000
  TimeStep [fs] = 0.2
  MDRestartFrequency = 25
  Thermostat = None {}
  Xlbomd = {
    IntegrationSteps = 6
    MinSccIterations = 2
    MaxSccIterations = 200
    SccTolerance = 1e-6
    PreSteps = 0
  }
  Velocities [AA/Ps] = {
1.47761757 6.17338435 3.31959194
0.50445920 5.75492765 18.94991396
12.36181434 13.34943107 24.81673757
8.27039455 -10.98021036 -0.20073746
-29.39322088 -44.97147823 30.03984456
-12.67516422 23.40242469 -13.73013603
-2.55703691 -0.27130599 5.79010531
6.78481126 3.33159277 2.46693700
25.94474381 -0.85067071 -20.54045371
-11.28204987 4.17933954 1.84246730
-31.79283933 -66.07077438 -16.95134241
6.40165025 19.56317273 -6.04709869
-2.63287332 -2.66309022 -9.25975492
-7.98779580 23.11971918 2.36820141
-4.76620310 -10.23402127 -0.54526007
2.05028053 -1.05044427 -1.38396721
-32.85595766 -7.37305582 -6.30180256
-22.16080971 27.75589789 -24.61824885
-6.81568014 2.00273134 2.93731201
6.17090363 -18.26111301 -25.39512844
-0.85649662 -8.31284909 -9.80095295
-5.97745752 0.85040424 -2.60249139
32.83272456 17.14787110 -4.60502728
-36.30119699 2.11461325 9.03232904
1.22771965 5.40061884 8.14791295
0.76127724 21.54467386 -19.86406556
12.49100986 -38.46991502 -8.27935419
-32.55666767 -17.22088048 23.49033823
-1.18567009 -1.67382170 11.30008682
-57.20880977 -1.46937314 -44.65301646
-46.90772987 -26.38292535 13.42987833
20.35032425 17.63954802 32.18064402
-2.25857499 3.77435041 -6.14816978
19.96736186 8.29950580 -27.79235064
-17.04950630 32.20501165 -16.54182951
2.30515636 -7.56084099 8.57085691
-3.55174919 -12.77125582 26.28416251
-17.10812682 11.38964341 9.69315584
-6.90433160 -1.43472180 -2.97687601
23.32085594 0.40276907 -21.45872237
-15.09876714 -9.30694938 -3.89572459
-9.94079819 3.76093086 0.84555871
28.14822355 -8.07902365 -8.57413037
39.52075909 -36.82138091 -1.52583051
-9.59452852 -3.68742505 6.36113077
29.92085987 6.23018582 -24.29159324
-18.19317798 6.67400430 -1.28084183
-5.29251177 -1.03518275 8.03956370
4.12597805 6.61224703 21.22311928
2.96537247 -3.67072589 11.33314662
7.85713521 -4.16556084 -1.40125498
-11.93376526 -15.41662548 -26.52754875
18.45836052 3.49568640 10.66190517
-5.19650049 3.19951046 -0.46456766
-9.93031509 25.14319207 27.55973938
-25.39595169 35.98743181 -20.08910814
12.94614320 9.70990358 -7.83286137
4.97776754 -0.10066153 14.82290125
9.53957620 12.00068011 56.23306562
3.07197231 12.58567910 5.42953407
2.23294767 -4.40698447 0.62058876
-14.64275992 18.53691626 -30.14538918
9.53501896 -55.03822040 -20.32756951
-0.07077895 7.36857171 7.45145358
5.64000486 -0.63517532 2.73039912
13.05577433 13.29652627 85.32016503
14.61281328 -3.06222933 -0.40623517
4.66106018 -5.75884412 9.08825401
8.39690790 9.03464293 16.53403435
-11.96431284 -15.74462315 14.04742548
-0.72151453 -2.70205614 -6.13368746
10.80631857 -50.84827225 0.06719767
71.43592238 -40.11591231 -30.94675926
-19.65752607 0.07798347 -11.67047687
-20.42776901 -1.87597679 -2.64320296
-29.59552481 -28.09285836 -22.69957108
-10.34791713 3.12775912 13.03943345
10.76256637 -24.67507602 -11.79357010
14.76119755 12.22672641 -32.77339577
-4.02872756 2.60148579 10.05418332
-18.58540515 7.52884443 -8.63980530
38.91285019 7.73628326 -41.54535892
1.10695645 -14.79232551 -0.07726274
46.27125029 4.17749844 -3.90803970
-27.35671155 12.27691876 39.44088052
-11.69645673 9.07773916 7.05994711
-17.17908058 -17.14878536 -31.41507057
43.53733824 19.97546969 33.73701241
5.55205191 0.50784850 -2.27831935
-0.26929991 25.90708055 38.87116939
23.02015686 -21.32712286 -2.09818478
-4.42377544 4.69768538 10.73626116
2.01097455 -9.73171411 -0.57428895
-8.00520939 33.45046067 6.56160440
12.72913300 -21.12484868 57.14114785
0.02919881 -17.89670038 9.10240519
-10.27825466 5.87496554 -0.61178349
24.39320550 -3.43211021 5.11684260
13.44196768 -24.28846375 11.35714194
11.69137079 -6.79247729 -11.85458268
6.94339729 -8.48672437 -14.47313969
-1.48972392 9.69754721 -15.72869852
-3.06845674 4.73133465 -4.42193805
0.19354799 -15.29408213 -44.89943564
26.25557275 -8.61435422 -28.32681944
1.54107976 6.62434563 -11.88075640
-17.49688434 55.91485741 25.47587703
-16.33086914 -0.26222028 19.14999664
2.72253840 -3.09633825 1.34580884
-21.41348190 -3.32201936 -11.17216636
-14.13546314 -15.54748337 7.94677621
1.70505051 -6.04769350 -0.64977535
15.13380070 22.10546245 -4.56276376
-12.23658005 28.52337091 5.46337665
6.65956988 -0.75640601 6.18608749
33.78703098 -17.58834413 -17.71661433
7.02324771 31.95532572 -22.02702178
10.48500536 3.83028317 -12.40740029
-5.52682743 16.16814321 7.35024684
-16.16087346 11.74884712 -0.26407906
-3.04548195 13.71846516 -8.27065572
-31.77840113 -0.65645744 0.60030153
14.05255753 8.04304293 32.60045935
10.04901066 42.32528141 -19.44795990
14.19847518 -5.73569981 -6.61331057
6.32850884 21.42078405 10.17610976
25.65370254 -14.62753254 -15.86872402
-9.93454750 -0.44530406 -8.54592647
-4.00620436 0.61765027 -0.96233740
11.06086310 2.91645316 12.40062922
-14.77044835 -22.69198051 -21.50739671
-5.51496007 -9.96716368 -5.44480542
6.13781255 7.06134051 33.26320740
16.89482199 -2.99585852 9.71323459
7.06091652 -2.98124533 2.17034273
42.92336250 39.30504051 -18.61513769
35.80040088 -20.43650620 -15.87353974
6.58754258 5.85804958 -0.64856548
-16.89589340 9.67196304 30.54186197
-13.91300270 21.36792824 19.13123870
-1.43872100 2.86009074 2.51129991
27.87093840 -28.03552663 0.92449972
2.06952638 -2.99926142 38.58130876
-0.59353407 -7.02484720 -4.53859233
-14.85978428 -11.78901256 -32.77467674
20.39919324 11.24315320 2.58398686
-11.40775261 2.50288771 -5.67977961
-37.15490191 -1.85750198 -5.39887803
1.19542702 2.94625764 -7.95651134
-2.57912650 -1.94086570 2.06085907
2.79817813 -23.33029528 -12.06139318
-10.92818937 -7.54188850 -13.00205878
9.91436180 3.65936322 14.88764887
10.01129472 2.13711068 32.11192118
19.22654876 -8.43576942 14.34031747
-7.70982628 -24.74979863 14.03141598
1.66633987 -4.68855536 4.76396140
-3.94631200 13.90534708 -8.17606441
29.64750151 -6.56402312 16.44967507
17.01151646 4.32393761 -5.18474176
8.34617217 1.76275962 -0.38292070
39.53441538 -16.33772264 6.51138200
10.01794286 28.25015324 -0.76010309
9.13673971 -4.44577486 11.69861982
-24.50132011 1.26841143 -6.55995117
10.96970238 21.72010800 13.61260666
3.02633701 4.97690613 -5.35916269
-14.37934458 -29.78474767 -40.48447102
29.46109304 -4.60485757 -6.98924529
8.02193719 -3.25457322 -0.35695937
-10.90011778 6.32379932 18.94341252
25.54227838 33.69736788 -25.94607557
0.76926134 -0.42881789 6.52986087
-8.02699061 -64.27827333 -7.78916631
-41.95770321 -10.51943539 -0.65187139
0.29213149 0.15156183 4.47268846