Geometry = GenFormat {
<<< "system.gen"
}

Driver = VelocityVerlet{
  Steps = 100000
  TimeStep [fs] = 0.2
  MDRestartFrequency = 5
  Thermostat = None {
    #InitialTemperature [Kelvin] = 300.0
  }
  Xlbomd{ 
    IntegrationSteps = 6 
    MinSccIterations = 2
    MaxSccIterations = 200
    SccTolerance = 1e-6 
  }
  Velocities [m/s] {
     -7.87917659E+02     -1.02726455E+03     -4.05129447E+02
      1.79078364E+03     -2.53329656E+03      2.66367957E+03
     -2.34707086E+03     -1.89245590E+02      1.07803934E+03
      1.74993888E+02     -5.03818481E+02      1.73927416E+02
      2.77351160E+02      2.41730112E+03     -1.53761434E+01
     -1.55163108E+03     -2.12051324E+03      1.06486598E+02
     -1.84583288E+02     -2.76442041E+02     -8.54754009E+02
     -3.59492972E+03      4.55115018E+02      5.95154548E+02
      1.02893955E+03     -6.77215303E+02      4.52042515E+02
     -1.13933935E+02      1.74400041E+01      6.10685298E+02
     -1.00256248E+03     -1.01663888E+03     -2.95017765E+03
     -1.92580535E+03      1.38838199E+03      1.20928519E+03
     -1.55613169E+02     -9.04627546E+02     -1.32767205E+02
      1.79461471E+03      1.95705913E+03      2.78797250E+02
     -4.11494941E+02      7.26068740E+02     -5.69677054E+02
     -5.01233746E+02      1.93620859E+02      1.98225828E+02
      2.72554242E+03     -1.73673782E+03      6.56635914E+02
     -1.71813029E+03     -2.06063137E+03      1.71881448E+03
      3.30271179E+02     -3.44471584E+02      5.11770470E+02
      2.39226355E+01     -1.93715074E+03      4.82966133E+02
      3.76617211E+02      1.41085161E+03      1.39525070E+03
     -3.32553025E+02     -4.67460872E+02      6.24591224E+02
     -7.45477369E+02      4.38474068E+02     -3.00072583E+03
      1.50216505E+03     -6.99713848E+02      1.38258637E+03
     -7.28091860E+02      2.01189370E+01      6.34813259E+02
      1.43019619E+03     -5.67862494E+02      2.14595222E+03
     -1.00662714E+03     -3.30849723E+02     -1.61888903E+03
     -1.83472227E+02      8.59478433E+02      9.69758651E+02
     -8.88489044E+01     -6.10907790E+02     -6.93512147E+01
     -2.98489558E+01     -2.72639005E+02     -8.40981902E+02
      1.20544546E+03      2.84937622E+03     -3.19536738E+02
     -1.71820855E+03      3.16686103E+02     -2.96794730E+02
      4.63553391E+01     -1.29392196E+02      1.16639985E+02
      1.04833307E+03     -4.95492387E+02      1.62298666E+03
     -1.13159572E+03     -1.28488751E+03     -5.65729507E+02
     -4.75326434E+02      4.56815218E+01     -4.89983523E+01
      1.26500440E+03      1.84233008E+03     -3.74376703E+00
     -7.70919723E+02      6.39544368E+02     -1.44948812E+03
      5.21451370E+02      1.00352864E+02      1.53179794E+02
     -2.60369256E+02      2.60694909E+03      9.94844540E+02
     -1.97610817E+03     -1.55925807E+03      7.88656933E+02
      3.12432070E+01     -7.69013055E+02     -3.42939562E+00
     -1.24300160E+03     -2.49898659E+03     -6.11178865E+02
     -1.93583319E+02     -6.27491313E+02      9.45831358E+02
      2.04342837E+02     -1.29306246E+02     -1.20070818E+02
      2.28044049E+03      1.08185009E+01      2.33049458E+03
      6.12578641E+02     -3.25532496E+03     -7.79389955E+02
      3.79553460E+02      3.69494848E+01     -2.51571122E+02
     -1.16429063E+03     -2.05503009E+03      7.32493061E+02
     -3.42586584E+02      2.28111141E+02     -2.06498968E+03
     -5.94972195E+02     -5.13292841E+02     -2.10976988E+02
     -1.58945948E+03      1.05606919E+03     -1.85615594E+02
      5.11000903E+03     -8.46309158E+02     -3.85375657E+02
     -4.12558587E+02      3.18617243E+02      2.68888553E+02
      3.90114458E+03     -5.35705780E+02     -1.47806922E+03
     -3.08166060E+02      1.41314280E+03     -8.88244756E+02
     -2.64731089E+02      2.17126618E+04     -1.27625767E+03
      1.27409968E+01      1.53648680E+03      3.45371421E+02
     -3.61487508E+03     -7.17677611E+02      2.06603859E+03
     -9.36903851E+02      2.63155259E+03     -1.65779744E+02
     -6.83190081E+02     -4.26120476E+02      1.04590359E+02
     -1.14228509E+03      2.22288302E+03      2.90339422E+03
      9.14340272E+02     -1.69184275E+02     -1.38566357E+03
      9.66366704E+02      2.34615684E+03      2.31934965E+03
     -1.13177732E+01     -5.36588963E+02     -9.12503900E+02
     -2.39938393E+03     -9.13837359E+02      8.58624356E+02
     -3.17649282E+02      1.60314872E+03     -2.98443421E+03
     -9.66465202E+02     -5.87423423E+02      4.18472048E+02
      1.65928000E+03     -1.60557113E+03      1.13684646E+03
     -1.62587453E+03      9.15701679E+02      4.69586024E+02
     -1.03858837E+03     -6.78177820E+02      3.43401614E+02
     -1.36279801E+03      2.52581738E+03      8.03688925E+02
      1.34288140E+03     -1.33146125E+02      5.87695405E+02
      6.48422672E+02      5.60545311E+01     -3.94821221E+01
      1.81157245E+03     -9.61725961E+02      8.26865373E+02
     -3.75715037E+02     -2.11915951E+03     -2.88532437E+01
      2.96445919E+02     -8.21592411E+02      1.56099717E+02
      1.80642621E+03     -3.21977754E+03      2.20674572E+03
      1.53244171E+03     -1.73377836E+02      4.57798208E+02
     -1.75043550E+02     -4.65555309E+02      2.94102284E+02
     -1.38367293E+03     -1.13766091E+03      3.91733420E+03
     -1.17685858E+03     -1.79744715E+03     -3.02180712E+02
      6.45916537E+02     -5.75649447E+02      7.88243395E+02
     -3.01513983E+02     -1.08823582E+03     -1.83650947E+03
      2.52242286E+02     -1.65879743E+03     -1.27682564E+03
      1.97338428E+02      3.02220565E+02     -9.06265998E+01
      1.60637159E+03      1.60618322E+03      1.42228228E+03
     -1.53352554E+03     -1.36942838E+03     -4.58386581E+02
     -5.90273363E+02      2.18762645E+02      6.90496727E+02
      3.38698386E+02     -1.24650919E+03      3.79729662E+02
      7.59083236E+02     -2.40777389E+02      3.21380305E+02
      9.82250539E+02     -8.45870984E+02      5.36987936E+02
     -9.77846536E+01      1.83189582E+02     -4.49760757E+02
     -3.68444587E+02     -3.02604356E+01      5.23487813E+02
     -2.45097741E+03     -2.68040501E+03      2.91163512E+02
      3.71728897E+03     -5.47382378E+02      8.63129048E+02
     -1.06276530E+02      2.59283392E+02     -2.07901698E+02
      1.18514925E+03     -6.99164716E+02      9.28069346E+01
      2.20206681E+03     -2.09311517E+03     -1.24165562E+03
     -2.89866806E+02      3.65225678E+02     -1.58628760E+02
      5.00413233E+02     -1.03482827E+02      1.71308697E+03
     -1.05014123E+03     -2.49127570E+03     -2.77725777E+03
      3.86395016E+02      5.64604584E+02     -5.09142627E+01
     -7.29252512E+02     -1.64674174E+03      9.83671840E+02
      1.43440021E+02     -2.00867585E+03     -8.06703122E+02
     -2.03570339E+02     -4.69506576E+02     -4.34938516E+02
     -1.81795719E+03      1.81995089E+03      1.64247170E+02
      1.95376289E+03     -1.37559985E+03     -8.32073276E+02
     -5.99073516E+02     -5.15789847E+02     -4.67162123E+02
      8.23013684E+02     -3.42018123E+03     -5.21368616E+02
     -4.74571514E+02     -2.59498283E+03     -3.25411102E+03
     -8.14079420E+02     -1.35394622E+02     -7.42098053E+01
      2.31158163E+03     -3.37738694E+02      1.18230772E+03
      7.84903945E+02     -1.75238807E+03      5.89445481E+02
      5.68616213E+02      1.10492324E+02     -2.91016220E+02
      2.88333660E+02     -5.64396305E+02      7.76400861E+02
      2.83111900E+03     -3.11626021E+02     -2.06267994E+03
      2.41518732E+02      6.33062860E+02     -5.41539091E+02
     -5.33683194E+02     -4.87008621E+02     -1.35437854E+03
      2.39448833E+02      2.09073923E+03     -4.06844460E+02
     -1.51733328E+02     -2.63683504E+02      5.28170385E+02
      5.45857961E+02     -1.45871348E+03     -6.83611461E+02
     -7.56456084E+01     -1.32783507E+03      2.13884338E+03
      1.01719677E+03     -2.52019166E+03      2.54621336E+03
      2.32112600E+02      1.19868634E+03     -4.37336405E+01
     -7.06480937E+02      1.18241720E+03      4.29497138E+02
     -9.89356862E+02     -4.61477012E+02     -2.50115224E+03
     -1.34668174E+03     -6.23258336E+01      1.83821173E+03
      5.08099832E+02      3.39313656E-01     -1.48456386E+02
      1.64107547E+03     -1.88976453E+02     -2.91168027E+03
     -1.69825908E+03     -9.31491682E+02     -4.99341462E+02
      1.43816290E+03      3.54106136E+01      6.80799340E+02
      5.79207591E+02     -1.34798896E+03     -1.95060388E+03
     -4.16134953E+02     -8.39143292E+01     -5.84369839E+02
      1.18664885E+02     -1.06530310E+03     -1.21739044E+02
      1.86317912E+03      3.88258538E+02     -2.61372456E+02
     -2.59428042E+03     -9.43117117E+00      5.56684539E+02
      2.25587731E+02      1.31620008E+02      5.07551138E+02
      6.84309508E+02     -6.24583020E+02      1.19836958E+03
      2.55167805E+02     -2.43469329E+02      1.75636745E+03
     -6.77898628E+02     -1.09622610E+02      7.77672312E+02
      7.01970080E+02      2.46176545E+02     -1.16632921E+03
     -4.96123422E+02      1.65108721E+03      2.80305952E+02
      8.09963811E+01     -8.31278064E+02      3.04509246E+02
      8.50532468E+02     -9.61795862E+02     -1.43535178E+03
     -1.99539281E+03      6.39252579E+01      8.77041935E+02
     -1.76006503E+02     -3.21677202E+02     -5.34429091E+02
     -1.66406107E+03      6.47792098E+02     -7.25011053E+02
     -3.58521164E+03      2.16665730E+03     -3.41809501E+03
     -1.28709679E+01      6.12756027E+01      1.46775745E+02
     -8.29946157E+02     -6.60366512E+02      7.97209573E+02
      2.42268433E+03      9.21171554E+02      6.10448890E+02
     -7.27730523E+02     -4.75879156E+02      1.98637656E+02
     -1.14677840E+03     -2.70251195E+03     -5.36653185E+02
      2.15810516E+03     -2.41013436E+03     -2.06723757E+03
      1.62814580E+03     -2.15442643E+03     -4.99450926E+02
      8.32002699E+02     -4.24144440E+02     -1.37771739E+02
     -1.64125849E+03     -7.98111700E+01      2.14707534E+02
      1.12124787E+03     -1.17306336E+03      9.31380739E+02
      1.71528221E+03      1.43594199E+03     -2.98882110E+02
     -1.07820548E+02     -3.86474991E+02     -2.22785499E+02
      8.57635432E+02     -5.06071264E+02      1.71996438E+03
      2.31424003E+03     -1.25208628E+03      1.51544632E+03
     -4.02334949E+02      1.37735359E+02     -3.15721475E+02
     -4.41030473E+02     -1.50552868E+03      4.97994622E+02
      4.09558154E+02     -3.24233072E+03      2.11211464E+03
      4.78248707E+02     -2.62860184E+02     -5.97424134E+02
      2.84685185E+03     -2.35115630E+02     -4.52816952E+03
      1.22776890E+03      9.98938375E+02      2.02696692E+03
     -8.99133732E+02     -2.34928302E+01      3.73210886E+01
      7.01204813E+02     -3.13658431E+02      4.14125796E+02
      1.50910398E+03      1.50719558E+03     -4.16545186E+02
      5.53785526E+02     -3.34246337E+02     -4.14729467E+02
     -2.57248950E+03      7.97399147E+02     -3.71995976E+02
      2.16606616E+03     -4.16003647E+01      1.41925767E+02
      5.21938606E+00     -1.13861826E+03     -5.68902762E+02
     -1.55603653E+03     -1.02206019E+03     -1.16633194E+03
     -5.17503833E+02     -1.11024450E+03      1.78312641E+02
      3.99633494E+02      3.12860603E+02     -6.73982530E+02
      7.11042987E+02      9.27661709E+02     -6.18974169E+02
      3.20406428E+03     -2.41902881E+03      1.52004560E+03
     -3.82741789E+02     -2.07095272E+02      7.07298505E+02
      3.17915791E+02      1.73734893E+03      1.74720024E+03
      5.67768297E+01      4.04111237E+02     -3.44964987E+02
     -3.29256243E+02     -7.64067942E+02      2.31877421E+02
     -2.34950180E+03      1.59938431E+03      8.27042525E+02
     -2.23574513E+03     -1.10213088E+03      4.21571837E+02
      9.54129507E+02      7.08982142E+02      1.99884727E+02
      2.26928824E+02     -7.75516701E+01     -3.24455695E+02
     -3.28175758E+02      1.07088200E+03     -2.20698906E+03
      1.25734696E+03      5.02053573E+02      3.61833866E+03
      3.02392090E+03      5.54496245E+02      1.05432197E+03
      1.01462123E+02      1.53987938E+02      5.85094288E+01
     -5.37364139E+02      1.42158131E+03     -2.64470445E+03
     -1.49462889E+03     -2.20318770E+03     -2.10287287E+03
     -2.71877913E+02      5.94287906E+02     -5.07194995E+02
     -2.39026594E+03     -5.07435918E+02      1.86667383E+03
      1.04174699E+03      4.16074343E+03      3.50894395E+03
      8.86142959E+01     -2.11053122E+02      9.51981618E+01
      1.09475469E+03     -7.37376365E+02      7.58763288E+02
      2.43419194E+03     -1.32544445E+03      1.60028834E+03
     -3.12691212E+02     -6.99066727E+02     -7.30698230E+02
      9.76427496E+02     -2.97161247E+03     -5.73659882E+02
      2.60564895E+03      1.36972989E+03      1.91068392E+03
      1.24930205E+02     -2.80218485E+02     -2.97077809E+02
      1.69921724E+03     -6.00943964E+02     -1.21461269E+03
     -4.17823479E+01     -6.62372977E+02     -1.23365844E+03
     -6.09470483E+02      2.68311077E+02     -5.43884399E+02
     -1.31127951E+03     -8.62481389E+02     -1.93395680E+03
      1.88711121E+03     -1.38235451E+01     -1.11479410E+03
      7.90953638E+02     -4.38163293E+02     -1.22822322E+02
     -1.78133270E+03      8.14519745E+02     -1.67794390E+03
      2.45822039E+02      5.41173735E+02      4.29890799E+02
      1.15132917E+03     -2.73812654E+01     -4.09406517E+02
     -2.55077031E+03      2.32249875E+01      3.35441329E+03
     -4.34790751E+02     -1.26439398E+03      1.53938753E+03
      2.88806197E+02     -3.95076918E+02      3.03419628E+01
     -3.46770583E+02     -4.14306371E+01     -8.93550722E+02
      3.67288267E+02     -1.86574180E+02      1.19538987E+03
      4.82134199E+02      2.33331660E+02      2.60430989E+03
      2.63156926E+02     -7.64041812E+01      1.02166806E+02
      1.71927935E+03      1.51383726E+03      9.59751780E+02
     -1.44227946E+03     -1.10908045E+03      7.04055376E+02
      1.15681175E+03     -2.14623618E+02      9.60334121E+02
     -1.21773124E+02     -1.46392013E+01     -6.48497994E+01
     -1.60685757E+03     -3.70873644E+03      5.50689482E+02
     -7.37262988E+02      7.50366931E+02     -3.80407079E+03
      6.45448956E+02      1.09626644E+03      1.35512154E+02
     -1.22568462E+03     -2.36434617E+03     -6.65418222E+02
     -2.01745234E+02     -1.29063621E+03     -2.11267266E+03
     -2.84521002E+02     -1.20481405E+02      2.86805696E+01
     -6.54666841E+02     -5.27069540E+00     -5.91549062E+01
     -2.77519670E+03     -1.30691512E+03      4.42171035E+02
      8.01707897E+02      2.12352740E+02      2.04360814E+02
      9.68131378E+02      7.00686544E+02     -1.71550422E+03
     -1.39299080E+03     -4.07587808E+03     -2.72800961E+03
      2.78130487E+02      9.24099805E+02     -2.15964706E+02
     -2.38880486E+03     -3.28444216E+03      4.55569742E+02
     -8.83987730E+02      8.27246231E+01     -1.04123523E+03
     -7.65221692E+01     -6.09998616E+02     -2.02502656E+02
      2.16403275E+03      2.47392884E+03      2.83097262E+01
     -6.61467784E+02     -1.74404910E+03      1.04388214E+03
     -6.78814024E+02     -3.87604816E+02      3.56982616E+02
      1.62564431E+03      5.67041652E+01     -1.05697063E+03
     -2.28637308E+03      3.39646818E+03      2.91028943E+03
      1.19054880E-01      1.19643227E+02     -4.82928757E+02
     -2.54387820E+02      6.45494364E+02     -3.53853571E+02
     -1.26482008E+03     -4.61503746E+02     -5.15205691E+02
      1.83093593E+02     -3.85981474E+02      3.41908436E+02
     -2.27786646E+02     -1.57381305E+03      4.65857808E+02
     -3.99336568E+02      8.13059034E+02      1.60131561E+03
      9.06373642E+02     -3.35495243E+03      5.45339546E+01
     -7.26965884E+01     -4.13732254E+02     -1.04417203E+02
      1.79467747E+03     -2.27521056E+03     -1.38294558E+03
      2.10984500E+03     -1.16919433E+03     -2.60934427E+02
     -1.69288243E+03      2.26532075E+02     -1.94284535E+03
     -9.47080006E+00     -6.38116140E+01      6.46762422E+02
     -1.59802197E+03     -7.86676985E+01     -6.22297482E+02
     -2.09766217E+02      3.94437964E+02     -1.83359196E+03
     -4.73812372E+02     -2.23904221E+02      8.55859423E+02
      3.44305871E+02     -1.85192808E+03     -1.66638359E+02
      5.97234951E+02      9.87134773E+02      3.27242561E+02
      7.82411014E+02      3.14688735E+02      4.17952746E+02
      1.36625780E+02     -6.52604335E+02     -1.28329885E+03
      1.34646570E+03     -1.35090767E+03     -1.67188875E+03
     -9.09726318E+01      1.36012336E+02      2.37240381E+02
     -1.66614384E+03      2.35960750E+03      1.10926639E+03
      1.53906274E+03      5.69555845E+02      1.85530370E+03
      3.60311650E+02     -4.79807922E+02     -3.14397976E+02
      1.53138034E+03      1.55210071E+03      1.06647350E+03
      2.05834331E+03      2.57356098E+03      1.35388161E+03
     -8.53746936E+00     -2.94105537E+02     -2.86911492E+02
      1.15793268E+03     -1.07179865E+01      6.78028089E+02
     -3.47002922E+02     -3.45777502E+02     -9.47498525E+02
      1.18550766E+02      9.14603503E+02     -1.74830750E+01
      7.09999291E+02      1.03481165E+03     -1.53787474E+03
      4.98755737E+02      1.53269381E+03     -7.97474267E+00
      2.39202259E+02     -4.70864480E+02      7.39550905E+01
     -1.36984052E+03     -1.22470625E+03      4.60650699E+02
     -9.58372947E+02      1.24054079E+03      8.38814049E+02
     -2.64485711E+02      4.88856404E+01      6.75843939E+02
     -2.75902818E+03     -4.56726166E+02      1.02387402E+03
      2.34427772E+03     -1.19353802E+03     -2.16209213E+02
      1.40246083E+01      8.17559622E+02     -1.49154532E+02
      6.00275544E+02      4.93068387E+02      2.07177534E+02
      7.40942946E+01     -5.14841225E+02      8.72477823E+01
      6.01795219E+03      7.43660645E+01      5.79446523E+02
     -4.53995053E+02     -1.40094400E+03     -4.52677097E+02
     -4.90698910E+02     -2.72100984E+02      3.51413809E+02
     -1.29146112E+03     -1.20983139E+03     -5.96166907E+02
     -1.33089109E+03     -2.50203978E+03      2.35184268E+03
      2.09923495E+02     -5.41750610E+02     -4.17930544E+02
     -4.34991541E+02      7.65203579E+02      9.39229494E+02
      1.45189615E+03     -5.61832774E+02     -1.79661134E+03
      3.53570507E+02     -6.28200009E+02     -2.62766756E+02
      1.76447120E+03     -2.15967137E+03     -1.73164091E+03
     -1.43780373E+03      1.05584401E+02     -1.43355967E+03
     -1.69214913E+02      2.79353382E+02     -3.86215111E+02
      3.36971712E+01     -1.64468141E+03     -1.14024105E+03
     -1.05475107E+03     -6.12297589E+02     -1.92709297E+03
      3.80137124E+02     -1.41161732E+01     -3.48891409E+02
      9.88284544E+02     -3.11879417E+00      8.41542509E+02
     -2.20470496E+03     -5.64262508E+02     -1.05287896E+03
     -1.37400448E+03     -6.61364204E+02      2.59045582E+02
      1.89575045E+02      2.40667538E+03     -6.04792988E+01
      3.43448619E+02     -2.37750222E+03      1.39797629E+03
      1.60869086E+02     -3.16212198E+02     -3.41253522E+02
      1.81633882E+03     -6.03844099E+02     -1.16273559E+02
      1.61517018E+03     -2.13413324E+03      2.45282599E+03
      6.25018407E+01      3.62996928E+02     -2.14997308E+02
      9.10042919E+02      5.37153307E+02      2.94224483E+03
      9.26031072E+02     -5.15449932E+02     -6.17388896E+02
     -3.33400771E+02     -7.16584061E+02     -2.80790352E+02
      1.09859943E+03     -1.20840142E+03     -1.03283923E+03
     -7.56858870E+02     -4.87446807E+02     -1.56956059E+03
     -1.92170399E+03      1.72476079E+02      1.66611323E+03
     -1.12007903E+03     -3.23221817E+02      2.87110460E+02
     -3.07281020E+02     -5.13599426E+02     -1.69137087E+03
     -4.03486001E+02     -1.43027759E+03     -3.85394168E+02
     -7.97415331E+02      9.89763196E+02     -1.36306194E+03
      6.69655067E+02     -2.59727527E+02      7.53957392E+02
      5.95828383E+02     -4.91908281E+02     -2.78053419E+02
      1.09229791E+03     -4.51768896E+02      1.02357154E+03
     -3.02668647E+02      6.39107774E+02      4.04651471E+02
     -5.42117970E+01      2.26790108E+03      9.97012686E+02
     -1.62902945E+03      8.79908125E+02     -7.41217531E+02
      3.42277224E+02     -7.51622490E+01      1.35884455E+02
      9.94380970E+02     -1.67405798E+03      2.08283455E+03
      1.51497973E+03      2.38838760E+03     -2.40161256E+03
     -2.07201854E+02      6.84595179E+02      1.94386797E+02
      1.44661044E+03     -3.65455664E+03     -1.70717895E+03
      1.90604457E+02      2.08432041E+02     -9.83606272E+02
     -3.91929085E+02      2.62883465E+02     -2.91803984E+02
      4.98360287E+02      5.64486218E+02     -1.27827111E+03
      1.00795719E+03     -3.60599573E+01      5.81763824E+02
      4.86149863E+02     -4.90529490E+02     -5.49823375E+01
     -2.51977889E+02     -1.09784433E+03      1.39475835E+03
     -1.06128621E+02     -1.31648288E+03     -1.39149009E+03
      4.93113402E+02      5.57195386E+02      4.21763970E+01
      1.98217499E+03     -7.35925262E+02      3.20587777E+03
     -3.92772897E+02      1.76180401E+03      1.91647508E+03
      2.06320548E+02      1.33295118E+02      1.95951141E+02
     -8.12323630E+01      2.59494974E+03     -7.10013311E+02
     -1.15222111E+03     -8.27437186E+01     -2.16213659E+03
     -5.62241903E+02     -3.61362686E+02     -6.86805977E+02
      1.01260556E+03     -4.77203613E+03      8.56150225E+02
      1.57827327E+03     -3.04932119E+03      1.95535663E+03
     -2.40281735E+03     -2.33649353E+03      6.92016212E+02
      3.88721143E+01     -3.06852482E+02      2.34722981E+02
      1.62243083E+02     -3.46219569E+02      6.81296369E+02
      4.46458800E+02     -2.25199219E+03      6.99616772E+02
      5.70189964E+02     -5.65636519E+02      1.38923557E+03
  }
}

Hamiltonian = DFTB {
  SCC = Yes
  SCCTolerance = 1e-6
  MaxSCCIterations = 200
  ForceEvaluation = Dynamics
  MaxAngularMomentum = {
    C = "p"
    H = "s"
  }
  Charge = 0.0
  SpinPolarisation = {}
  Eigensolver = Standard {}
  Filling = Fermi {
    Temperature [Kelvin] = 300.0
  }
  SlaterKosterFiles = Type2FileNames {
    Prefix = "../../pbc-0-3/"
    Separator = "-"
    Suffix = ".skf"
    LowerCaseTypeName = No
  }
  KPointsAndWeights = {
    0.0000000000000 0.0000000000000 0.0000000000000 1.00000000000000
  }
  Dispersion = LennardJones { 
    Parameters = UFFParameters {}
  }
}

ParserOptions = {
  ParserVersion = 3
}
