Geometry = GenFormat {
<<< "system.gen"
}

Driver = VelocityVerlet{
  Steps = 50000
  TimeStep [fs] = 0.2
  MDRestartFrequency = 5
  Thermostat = None {
    #InitialTemperature [Kelvin] = 300.0
  }
  Xlbomd{ 
    IntegrationSteps = 6 
    MinSccIterations = 2
    MaxSccIterations = 200
    SccTolerance = 1e-6 
  }
  Velocities [m/s] {
      1.20933653E+02      1.30269187E+03     -7.38816098E+02
      7.60746560E+02      1.00873842E+03     -8.72503821E+02
     -1.35165942E+03     -2.11111724E+03     -4.05828917E+03
     -1.77841146E+02      2.31621895E+02     -2.14994242E+02
      1.56460186E+03      1.93973234E+03      7.28478061E+02
      1.65870774E+03      1.73365743E+03      6.98899891E+02
      1.09670731E+02      6.20013147E+02     -1.12137751E+03
     -2.80217028E+03      1.38510316E+03      1.82055299E+03
      2.66122201E+03      5.33452843E+02      6.60180030E+02
     -4.03334601E+02     -8.04480655E+02      1.90433053E+01
      3.79956604E+03     -3.24888913E+00      5.77763584E+03
     -1.86260287E+03      6.91425244E+02      8.83001643E+02
     -8.70459907E+01      1.60349642E+02      4.00935717E+02
      1.40034418E+03     -1.09211589E+03      1.44584784E+03
     -9.74221188E+02     -1.68430956E+03      7.78963586E+02
     -3.34875656E+02     -6.65248164E+02     -7.47985157E+02
     -3.47618337E+03      3.89676774E+02     -3.76305026E+02
      1.04506517E+03      1.98118537E+03      1.11315424E+03
      1.52538945E+02      6.09619033E+02     -2.38371702E+02
     -2.72992217E+03      2.53358204E+02      8.22677354E+02
     -2.12260280E+03      2.59929806E+02      8.45240334E+02
      6.40351846E+02     -5.10060508E-01      6.79003531E+01
      1.39023471E+03      2.70770588E+03      1.96923605E+02
      5.50426117E+02     -6.24507644E+02      7.78114184E+02
     -7.46832786E+02      4.51389239E+02     -5.00667552E+01
     -8.89775512E+02      3.37413486E+03     -1.26736338E+03
     -6.44368943E+02      9.42431817E+02     -1.28021541E+03
      1.12084122E+03      6.15463007E+02      2.96454834E+03
      5.53101801E+02      2.03904713E+02     -2.49249531E+02
      5.34435618E+02     -1.35045500E+03      1.62595526E+03
     -4.36729499E+02     -1.87595188E+02     -1.43132620E+03
     -2.53032830E+03     -3.51457298E+02     -3.59446386E+02
      2.30147510E+02      3.85758186E+02      3.11014386E+02
      3.65464041E+02     -4.41011571E+02     -3.92903736E+02
      1.10432273E+03      1.50597125E+02     -5.87297569E+01
     -5.25997934E+02      3.68790946E+02     -2.83388098E+02
     -1.05923813E+03      1.17500920E+02      1.40654205E+03
      1.66597692E+03     -1.53193644E+03      1.64748345E+03
     -2.52288450E+02     -1.07529893E+02      2.76738161E+02
      1.77735339E+03     -4.25216953E+02     -5.73188332E+02
     -9.70619900E+02      2.80126024E+03      2.11788802E+03
      1.03102801E+02     -5.28250931E+02      2.25487890E+02
     -2.03430974E+02      9.93027951E+00      2.42156095E+03
     -1.00118119E+03      8.15150217E+02      5.89061341E+02
      3.67075753E+02      6.88381714E+02     -6.49848916E+02
      1.14746508E+03     -2.32030409E+03      2.69246157E+03
     -3.72471359E+02     -1.59073668E+03      2.26744681E+02
      2.54725799E+01     -3.93106068E+02     -4.68127850E+02
     -1.26898724E+02      5.21684059E+02     -6.43541165E+02
     -3.13858553E+03     -1.20727367E+03     -4.33388882E+02
     -1.22915855E+02      2.89809155E+02      5.00389859E+02
     -2.26038951E+03     -7.04290334E+02      1.70791012E+00
     -6.55962882E+01     -9.05972365E+02      6.21868766E+02
     -5.19414017E+02      2.08661404E+02      5.55628414E+02
     -3.07438398E+02      3.14751126E+02     -1.98277643E+03
      7.51703353E+02      2.46364840E+03      1.74406466E+03
     -9.65073072E+02     -4.02873129E+02      5.26983181E+02
      1.78765424E+03     -7.26015862E+02      1.78089281E+03
     -7.79297915E+02     -1.34895347E+03     -1.86273240E+03
     -1.02559260E+03     -1.06943869E+03      3.08276534E+03
      1.49124339E+02     -6.28080672E+02      1.00256297E+02
     -7.93326208E+02     -1.23974581E+03      2.35364496E+03
     -2.62227659E+02     -2.11137954E+03     -2.36219087E+03
     -5.58511526E+02      1.09288653E+03      3.74687698E+02
     -2.14344128E+02     -2.73043224E+02     -3.01071860E+02
     -1.37328296E+03      1.94245931E+03      1.43605710E+02
     -1.25288767E+03      9.98285044E+02      1.21897624E+03
     -3.75825634E+02     -3.75643489E+02      4.22747920E+02
     -2.60420497E+03      1.84782819E+03     -3.53895144E+02
      2.91827623E+03      1.73132797E+02      4.13497211E+02
      2.78943909E+02      1.19797727E+03     -4.64098161E+02
     -1.19724462E+03     -1.31285084E+03     -4.61210572E+02
     -2.46297216E+02      6.01003929E+02      1.40643592E+03
     -1.36216656E+01     -4.40776171E+02      2.97868883E+02
      4.95404422E+02     -6.57469545E+02      8.56997097E+02
      4.72449758E+03      3.55451067E+03      3.74754800E+00
     -5.66143623E+02     -7.88664793E+02     -3.73302415E+02
      2.84014953E+03     -7.28226335E+02      3.92657922E+00
     -1.50582723E+03      1.90748644E+03     -2.58500545E+03
     -3.79442114E+02      3.47905944E+02      4.07196547E+01
     -2.19927515E+02     -1.31187574E+03     -4.41507963E+03
     -2.31593741E+03      1.09250717E+02     -1.23348445E+02
     -2.08133193E+02      4.56782461E+02     -3.44416410E+02
      3.63504780E+02      1.88620925E+03      1.99083556E+03
      1.30866337E+03      2.34612714E+03      1.48683139E+03
     -3.31030874E+02      5.14794824E+02      3.96901963E+01
      2.12690087E+02      1.69057162E+03     -9.46236299E+02
     -1.78869534E+02     -7.91861664E+02     -1.08244499E+03
     -1.67422570E+02      4.57694849E+02      3.30544518E+01
      2.10021532E+03     -2.40423337E+02     -2.52714108E+03
      1.79991123E+02      1.79128250E+03     -2.07233647E+03
      1.34980274E+03      2.72673234E+03      1.19677432E+03
      7.16993951E+02      6.44033351E+02     -2.49677698E+02
      8.70922523E+02      1.38584862E+03     -1.48449888E+02
     -9.59618824E+01     -2.59882408E+02     -1.52289028E+03
      1.17124354E+03      2.04535389E+03     -8.39724253E+02
     -1.22605410E+02      1.18405433E+02     -9.60614044E+02
      1.90155185E+03      3.73987989E+02      3.73270156E+03
     -6.16062381E+02      3.52218370E+03     -2.50713594E+02
      7.67158397E+02     -4.30792341E+02     -7.84395583E+00
     -2.57201864E+02     -1.39363091E+03      1.06619398E+03
      2.98262068E+01     -6.41443208E+02      3.82044505E+02
      1.11088953E+02      1.94046785E+01      3.95937621E+02
     -2.04574177E+03      2.10364443E+03     -1.77158156E+03
      8.65367826E+01     -8.02860222E+02     -3.46050873E+02
      1.67525257E+02     -7.17816615E+02     -4.26086286E+02
     -2.69969657E+03     -1.02899986E+03      8.16294558E+02
     -1.26304630E+02     -2.30503914E+03      3.04325334E+03
      3.73933384E+02     -9.28578281E+00      5.15668398E+02
     -6.73078728E+02      3.17634504E+03     -2.62600846E+03
     -6.30002535E+02      5.72656169E+02     -1.85956374E+03
     -3.64889132E+02      5.46388340E+02     -2.09645566E+01
     -3.44589504E+02     -4.86961132E+01     -6.71886501E+02
      2.19204369E+03     -4.90758776E+02      3.87932388E+03
      3.88177313E+02      1.91059219E+02     -6.02822946E+02
      1.28864890E+03     -1.54979087E+03      1.70431360E+03
     -4.49032373E+02      1.35946986E+03      1.89774016E+02
      1.16966528E+03      8.24604247E+01     -3.92206258E+02
      5.45265329E+02     -2.00684926E+03      1.41044680E+03
     -1.49706352E+03      8.98789658E+00      1.25277263E+03
      7.20572296E+02      1.01014372E+03      1.23378634E+02
      1.42162279E+03      6.01443786E+02      1.33267285E+03
     -6.40638002E+02     -1.26048960E+03     -1.39446159E+03
     -1.26279107E+03     -9.19631285E+02      5.01022139E+02
      4.37123999E+01      7.09339722E+01     -2.50652379E+02
      1.06030008E+03      2.23945279E+03     -2.48014541E+02
      3.21590912E+03     -3.04500759E+03      8.16450651E+02
     -1.66759251E+03      2.90677179E+03      2.31997620E+03
     -6.05622401E+01      1.25210540E+02      9.11229709E+02
      1.25197109E+03     -1.07994850E+03      1.22586865E+03
      8.13294511E+02     -3.50386666E+02      1.56214923E+03
      9.17441958E+01      2.20798251E+02     -4.68962780E+02
     -2.43492974E+03      8.24058073E+02     -2.35199997E+03
     -5.50584148E+02     -2.92591368E+02      6.02152297E+01
      9.18721068E+01     -4.65714733E+02      3.22327304E+01
     -4.86159413E+01     -1.55590070E+03      2.46548134E+03
     -3.57371416E+03      2.52890755E+02      8.54592928E+02
     -5.83604163E+02      2.17051839E+01     -4.62663826E+02
     -2.44317892E+02     -3.86084202E+02     -5.45713522E+03
     -1.85684080E+03     -1.08156181E+03      8.12827622E+02
      4.17424939E+02      5.09985125E+02     -1.21069176E+03
     -9.73497315E+02     -6.72456807E+02     -1.01421483E+02
      2.31918273E+02     -2.92516552E+03      5.49437326E+02
     -1.53683448E+02      5.75812135E+02     -1.04288454E+03
      7.23073711E+02     -4.77244265E+02      1.51215826E+02
      3.21854919E+03      5.69116599E+02     -6.37707597E+02
     -2.24251721E+02      1.88152516E+02      4.28005256E+02
      3.68615416E+02     -1.41436287E+03      3.12705925E+02
     -4.53294620E+02     -5.16166559E+02     -2.00976678E+03
     -2.59155688E+02      2.70246702E+02      1.06328242E+03
      2.84477239E+03      6.66034452E+02      1.29076333E+03
      9.60176800E+02      2.95638327E+03      1.08369340E+03
     -5.62509504E+02     -3.16439842E+02      5.23086438E+02
     -1.01277232E+03      2.65456395E+03     -5.69697976E+02
      6.16699858E+02      2.76795083E+03     -1.29932358E+03
      1.28087893E+02     -7.40053254E+01     -2.28271030E+02
     -6.61104202E+02     -2.00002111E+02     -4.43751075E+02
      1.12535613E+02     -2.51073045E+03     -3.13108035E+02
      2.66439226E+03      1.59302077E+03      2.98463932E+03
     -1.81600577E+03      5.97707887E+02     -3.56401784E+03
      2.00757960E+02      6.26457361E+02      2.78157441E+02
      5.53383961E+01      1.11176728E+02      1.12423196E+03
     -1.99617874E+03      6.68008557E+02      2.04580474E+02
      3.34098416E+02     -3.21252884E+02     -3.01036277E+02
     -2.08822837E+02      6.51005301E+02      5.75719870E+03
      8.96144426E+02     -9.28185568E+02     -1.34837739E+03
      1.50988310E+02     -2.31046251E+02      2.92433473E+02
     -1.21601971E+03     -1.27349829E+03      8.01903473E+02
      8.26579048E+02     -8.15619538E+02     -1.07071324E+03
     -3.38737810E+02      6.59596407E+02     -2.27590710E+02
      6.68020261E+02      1.97392627E+03     -8.48395041E+02
     -5.72141359E+02     -1.34423282E+03     -1.64623578E+03
     -1.17148007E+00      4.47165323E+02      2.81114580E+02
     -2.80315721E+02      6.51915535E+02     -2.35237719E+02
      1.30512775E+03      2.08118908E+03      2.06963415E+02
      3.87305896E+02      5.20186549E+02     -4.10041086E+01
     -1.99948435E+03     -3.96618617E+02     -2.95362965E+02
     -1.69964132E+03      2.21659391E+03     -2.03751479E+01
     -2.21052815E+02     -1.12966460E+02      1.82857265E+02
     -1.53203691E+03     -1.89738110E+03     -5.96097588E+02
      4.81896404E+02     -4.32933144E+03      4.63063365E+02
      2.94036992E+02      1.18680232E+02     -2.15560991E+02
     -7.17645579E+02     -6.71427743E+02      1.17467516E+03
      7.90835994E+02      2.49936079E+03     -1.34702252E+03
      4.73945702E+02      1.72569122E+02      5.06095986E+01
      1.18664395E+03     -1.97802666E+02     -1.48540447E+03
     -7.89831472E+00      1.37957603E+03      2.47132579E+03
      1.33339929E+03      1.70239336E+03     -6.70145288E+02
      5.07530223E+02      5.60653644E+01      4.17803265E+02
     -1.57170165E+03     -7.89801457E+02      2.96485585E+02
      1.07057000E+03     -6.35418290E+02      3.15973807E+02
     -1.81192682E+03      8.75773989E+02      2.65876291E+02
      2.63893691E+02      2.21761207E+02      4.20511214E+02
     -1.06078250E+03      9.30038705E+02     -5.73123590E+01
      9.27591475E+02      3.66564300E+02     -8.88381266E+02
     -5.53749352E+01      3.85271896E+02     -1.19992144E+02
      1.55463931E+03      1.39348480E+03     -1.24379286E+02
      9.71560792E+02      2.73291896E+02      2.18345863E+03
     -2.43297301E+02     -2.33319090E+02     -4.79839983E+02
     -4.75006677E+03      4.43163756E+03     -1.56327394E+02
     -2.08170447E+03     -1.45757084E+03      7.89432616E+01
     -2.85818627E+02      1.72090554E+02     -3.31058940E+02
     -1.82580674E+03      2.35035748E+02     -1.25301704E+03
     -9.05136932E+02     -5.37681031E+02     -4.18489746E+02
     -1.73669622E+02      4.91949989E+02     -6.56657223E+02
      1.24867701E+03     -1.39249357E+03     -2.16586508E+03
      1.12243331E+03      1.83735860E+03      3.95901137E+03
     -4.91517628E+02      6.97731653E+02     -1.01447382E+02
     -5.30084391E+02      1.95355621E+03     -6.52342124E+02
      2.19492686E+03      4.14634511E+02      2.28637836E+03
      1.17230238E+03      3.66466143E+02     -9.15480082E+01
     -5.76398443E+02     -3.98630985E+02     -5.57735158E+02
      1.24817530E+02      4.06117901E+02     -2.16778368E+03
      8.95450583E+01     -1.09641627E+02      3.00760606E+02
     -2.99155734E+02      2.62988090E+02      2.15136358E+03
      5.94263394E+02      1.94956713E+03      1.23851120E+03
      3.58890321E+02      1.92303960E+02     -4.11812528E+02
     -3.73696826E+02      1.95790365E+02      8.65012048E+02
     -8.25122312E+02      9.49644773E+01      2.89211157E+02
     -2.06996741E+03      4.86232002E+02      1.35992167E+03
      1.13658532E+03     -4.28059376E+02     -1.09536670E+03
      1.00096068E+03      9.89655544E+02     -1.50283990E+03
      1.18744863E+03      1.30644148E+03     -2.66884878E+02
      8.31847817E+02     -1.06083276E+02     -4.33595852E+03
     -4.17736353E+02      4.08216862E+02     -3.99316877E+02
     -3.05361460E+03      8.22307931E+01      1.80725042E+03
      2.22098708E+03     -9.43474766E+02     -1.54458090E+03
     -2.56124341E+02      2.50822085E+02     -5.97246316E+02
      4.36090364E+03     -2.42099011E+03      8.30519025E+01
      4.89559216E+03      9.54641633E+02     -4.36770931E+02
     -1.20653916E+02      9.47322685E+02     -3.39059668E+02
     -1.38372448E+03     -3.29852203E+02      1.12653027E+03
      7.62312899E+02      1.17158513E+03      1.28809348E+03
     -6.34758161E+02      3.51376105E+02     -9.06274358E+02
     -1.69477686E+03      3.35369285E+02      1.97634413E+03
      3.07369920E+03      7.68841157E+02      3.56399737E+02
     -3.58891766E+02     -6.16632208E+02      2.04265540E+02
     -3.22879529E+02     -1.33783086E+03     -3.18510852E+03
     -1.28561881E+03      1.39942133E+03     -1.27754749E+03
     -2.08718353E+01     -6.51604028E+01      4.41672588E+02
     -1.22042686E+02      3.36466106E+03     -1.87212284E+03
      8.58103775E+02      4.65259905E+02      1.10272692E+03
      2.62887821E+02     -2.29473882E+02      2.96655198E+02
      6.72377562E+02     -1.70214708E+03      3.11907666E+03
      1.21064451E+03     -2.09883404E+03     -1.89350988E+03
      1.61272225E+02     -1.99767696E+02     -5.60449064E+01
      2.40390743E+02     -1.99773455E+03      9.79624978E+02
      2.87308961E+03     -5.64708583E+02     -1.26100771E+03
      5.41806241E+02      4.46574015E+01     -2.19353010E+02
     -1.16563714E+03     -6.42178538E+02      7.33456319E+01
     -1.75514764E+03      1.54795211E+03     -1.36219887E+02
      5.66045506E+02      4.78288029E+02      3.02492334E+03
     -5.24095450E+02     -3.84877666E+01     -9.33462700E+02
      1.08374713E+03      8.28225679E+02      2.82044513E+02
      1.26112813E+03      9.12248634E+02     -4.27213602E+02
      5.71535961E+02     -7.34858789E+02      2.78023434E+02
     -2.04839572E+02      4.45828029E+02      6.13586247E+02
      8.94172975E+02     -1.15826744E+03     -3.24202476E+03
     -2.74513956E+03     -1.03013599E+03      2.42428887E+03
     -8.84262522E+02      5.87016356E+02      8.39085360E+01
     -1.19886729E+03      6.31871571E+02      1.98031180E+00
      5.10193712E+02     -2.40800337E+02     -4.31873483E+02
      6.73314593E+02      7.01649701E+02      1.78394698E+01
     -3.36637941E+02     -2.23012320E+03     -5.84979422E+02
      1.78759037E+03      4.19661255E+02     -8.78886840E+01
      5.51139878E+02      5.58470234E+01      2.78441321E+02
     -2.87672860E+03     -2.70281444E+02     -2.18349582E+03
     -2.76512810E+02     -1.36560084E+03      1.25411948E+03
     -2.34218547E+02     -4.15879059E+02      1.03937605E+02
     -1.46307181E+03      1.76126073E+03     -2.52684070E+02
      1.56438647E+03      2.81022723E+03     -6.99696439E+00
     -5.96376206E+02      1.93266276E+02     -1.18940657E+03
      8.91313520E+02     -6.56391018E+02      1.67889715E+03
     -2.34785972E+02      1.60757360E+03      1.15118492E+03
      8.52535026E+02      1.63080250E+02      3.01505009E+02
      9.96157564E+02     -1.44368878E+03     -2.65879780E+03
      2.03437280E+03      4.07473835E+01      4.70884018E+02
      4.91303112E+02      7.42015868E+02     -5.07055135E+01
      2.48964716E+03      2.07606921E+02      9.71864718E+02
     -2.57550723E+03      3.91409534E+03      1.13729370E+03
     -6.66832595E-01     -2.66912015E+02      9.19669299E+00
      1.71020350E+02      4.68838743E+02      9.21461240E+02
     -1.55474355E+03      2.49102037E+03     -3.58439308E+02
      1.16707586E+03      8.37345843E+01      7.79041643E+02
      7.81954083E+02     -7.26637752E+01     -5.19877150E+02
      1.45582766E+02     -6.98057003E+02     -2.41548188E+03
      1.12038127E+03     -1.40628548E+03     -2.42016784E+03
     -2.30383598E+03     -5.73767516E+02     -3.63091956E+02
      7.50984884E+02     -3.01801162E+02     -8.66205323E+01
      3.28612154E+02     -1.48764095E+03     -8.27555137E+02
     -1.69262076E+03      4.75571518E+01     -3.70857105E+02
     -6.71237260E+02      3.87421107E+02     -6.82913242E+02
      3.37120993E+03     -2.82526168E+03     -2.10573780E+03
      1.04942523E+03     -4.64649349E+01      1.84811910E+03
      2.65650851E+02      1.53958151E+03     -4.31786032E+02
      5.09709795E+02      1.88838708E+03     -1.75694727E+03
      1.28441446E+02     -1.72795133E+03      5.21728132E+02
     -1.87133104E+02     -4.61369434E+01     -3.38165476E+02
      1.99271248E+02      1.60416983E+03     -3.89764253E+03
      7.40502945E+02     -1.70816599E+03     -3.02996516E+03
     -3.65723764E+03     -1.75604708E+04      1.23833879E+04
     -3.25715499E+03     -2.95078682E+03     -1.64878237E+03
     -1.61092853E+03      5.93265861E+02      3.03947599E+02
      3.29683511E+01      2.66291336E+02     -3.39522985E+01
      2.89245332E+03      7.68059526E+02     -1.45474942E+03
      1.50167431E+03     -7.08886672E+02     -1.26674800E+03
      3.99029162E+01     -9.40594611E+01      4.93501733E+02
     -8.27070224E+02      2.23096414E+03      2.16071433E+03
      3.56335372E+03      3.01166823E+02      8.15345232E+02
      3.82101141E+02      1.26542263E+02      1.98207824E+01
      7.74110214E+02     -4.44759016E+02     -1.18354619E+03
     -6.23587846E+00      3.37906977E+02      1.48768310E+03
     -6.40849379E+02     -2.63612354E+02     -1.39712472E+02
      4.92194803E+02     -7.80502119E+02     -1.65775842E+03
     -1.45137067E+03      1.43486487E+03      1.06407889E+03
     -8.25416586E+02      1.44538603E+03      3.15920801E+03
      3.66336990E+02      1.01737564E+02     -1.06944315E+03
      2.37128450E+02     -1.73689065E+03      5.41558361E+01
     -1.56711419E+03      2.18668018E+03     -1.73419013E+03
      3.41064687E+02     -1.64815468E+02     -8.52268343E+02
      1.97322517E+02      6.19235180E+02     -4.16421700E+02
     -2.47928890E+03     -1.09464485E+03     -7.51789932E+02
     -9.01367495E+02      1.37412185E+03     -1.57779504E+02
     -2.26722330E+02      7.77985087E+01     -1.00775039E+02
      1.41719240E+03      1.42604102E+02     -1.46089391E+03
      7.89225981E+02      7.12490899E+02      3.17605337E+03
      4.85152053E+01     -1.19101814E+03      2.41208398E+02
      5.71154823E+02     -3.90682398E+02      3.62917602E+02
     -8.69628532E+02      1.98712556E+03     -7.66353613E+02
     -4.59436107E+02      7.71022048E+02     -3.71849636E+01
      2.43656078E+03     -1.59672199E+03      1.79650796E+03
      1.64025752E+03      1.31460791E+03      1.05489782E+03
     -5.96403624E+02     -3.26319554E+01     -1.06911836E+03
      3.45259683E+02      5.33761677E+02     -2.55518739E+03
     -2.28198768E+03     -2.22410984E+03     -5.81650792E+02
     -2.11551593E+01     -1.70065905E+02      4.04517436E+02
      1.19921027E+03      1.81044671E+03      4.68210676E+02
     -9.95452049E+02      1.34475027E+03     -1.05323214E+03
      1.14409148E+03     -3.22772265E+02     -3.96204450E+02
      4.34793468E+02      8.98267442E+02      2.33427148E+03
      1.86133806E+03     -2.27356502E+02     -2.07419542E+03
     -2.37940119E+02     -1.02634497E+02      7.44749652E+01
     -3.42296572E+02      1.01863607E+03      2.17359603E+03
      1.14758009E+03     -2.19496916E+03      1.82744377E+03
     -1.03040247E+02      6.06012047E+02     -4.14646546E+02
     -1.52557130E+03      9.51378195E+02     -5.40395394E+01
      2.01088363E+03     -2.08034641E+03      2.95268252E+02
      2.31234797E+03     -1.56485201E+03     -7.45202185E+02
      1.77726109E+02      2.49601214E+02      1.32561558E+02
      1.73018355E+03     -4.65875296E+02     -4.75164798E+03
      6.28428469E+02     -2.81863750E+03     -5.10707171E+02
     -9.49448686E+02     -2.77737501E+02     -2.57834312E+03
  }
}

Hamiltonian = DFTB {
  SCC = Yes
  SCCTolerance = 1e-6
  MaxSCCIterations = 200
  ForceEvaluation = Dynamics
  MaxAngularMomentum = {
    C = "p"
    H = "s"
  }
  Charge = 0.0
  SpinPolarisation = {}
  Eigensolver = Standard {}
  Filling = Fermi {
    Temperature [Kelvin] = 300.0
  }
  SlaterKosterFiles = Type2FileNames {
    Prefix = "../../pbc-0-3/"
    Separator = "-"
    Suffix = ".skf"
    LowerCaseTypeName = No
  }
  KPointsAndWeights = {
    0.0000000000000 0.0000000000000 0.0000000000000 1.00000000000000
  }
  Dispersion = LennardJones { 
    Parameters = UFFParameters {}
  }
}

ParserOptions = {
  ParserVersion = 3
}
