Geometry = GenFormat {
<<< "system.gen"
}

Driver = VelocityVerlet{
  Steps = 100000
  TimeStep [fs] = 0.2
  MDRestartFrequency = 5
  Thermostat = None {
    #InitialTemperature [Kelvin] = 300.0
  }
  Xlbomd{ 
    IntegrationSteps = 6 
    MinSccIterations = 2
    MaxSccIterations = 200
    SccTolerance = 1e-6 
  }
  Velocities [m/s] {
     -6.41869878E+02     -1.35268852E+02     -5.67602715E+02
      2.03788033E+03      9.65405258E+02      7.81263541E+02
      1.11217247E+03      1.67190573E+03      6.47723187E+02
      6.09416636E+02     -4.96055233E+02      9.22765200E+02
     -1.10351697E+03     -8.83445793E+02     -2.55509294E+03
      3.98430124E+02      1.55859796E+03     -2.32242515E+02
     -8.94480490E+01     -1.83204893E+01     -2.91569770E+02
     -1.64264781E+03      9.46711208E+02      6.69363039E+02
     -9.21874096E+02      2.04973317E+03     -4.68344212E+02
      1.09531923E+03      6.64912465E+02     -2.44237221E+02
     -7.84039473E+02      3.23922812E+02     -5.75680552E+02
      5.88217198E+02      8.04890100E+02      1.99556501E+02
     -1.40557757E+02      1.15194764E+02     -1.81900697E+02
      3.01362809E+02     -1.07169760E+03      1.01543147E+03
     -1.94694165E+03     -2.40278166E+02      1.83580487E+03
      4.06525526E+02     -7.03697533E+02     -4.03334051E+02
      5.92955502E+02     -4.17305894E+02     -1.41754861E+03
      4.74722573E+03     -1.21499436E+03     -5.27131601E+02
     -2.28941525E+01      4.04692292E+02      2.12408960E+02
     -8.71061255E+02      5.62793863E+02      2.36496501E+03
     -3.89741994E+02     -2.19416840E+03     -5.71128028E+02
     -2.69760489E+02     -4.95129950E+02      7.83275128E+02
      2.12659159E+03      1.25210843E+03     -9.40754696E+02
      4.56841817E+02      5.38533419E+02      2.21683200E+03
     -3.78721280E+02      4.97919360E+02     -1.95145228E+02
     -1.70836901E+03     -7.15734004E+02     -1.20314057E+03
     -9.73763600E+02      1.39313650E+03     -2.60995749E+03
     -1.59655115E+03     -3.66061477E+00     -1.85898605E+03
      2.17401723E+02      1.08888924E+03      2.83994071E+00
      7.63997892E+02      1.92055888E+01      1.45362748E+03
     -2.11057312E+02     -1.66453785E+03      1.68645001E+02
     -7.72602446E+02      6.79004915E+02     -1.26113050E+02
      2.94780022E+02      4.32403802E+01      4.18735174E+02
     -1.45236300E+03     -2.47967343E+03     -1.45395588E+03
      9.26992170E+02     -3.97685875E+02      4.28341959E+02
      1.24318314E+03      3.38022687E+02      8.16261113E+02
     -2.52062341E+03     -2.30083842E+03      2.00288989E+03
      8.87757766E+02     -3.69022961E+02      2.79261821E+02
      1.84128542E+02     -1.82542091E+01      5.53325537E+02
     -3.41704473E+02      7.59175814E+02     -1.13271592E+02
      4.68259310E+01     -2.12712873E+03     -5.82265626E+02
      1.02044775E+03      4.44160920E+02      2.35223855E+02
      2.57779660E+03     -2.32519049E+03     -5.61656084E+02
      3.89670989E+03     -1.23010320E+03     -1.76669384E+03
      9.55675323E+02     -7.80316739E+02     -1.92069885E+02
      8.22062215E+01     -4.17887193E+02      1.93959421E+03
      9.11904987E+02     -5.49334995E+02      1.73140091E+03
      6.70263610E+02     -2.21261874E+02     -2.80377854E+01
     -1.03131042E+01      1.73385170E+03      2.63702063E+03
      2.72097512E+03      9.63524250E+02     -9.77606108E+02
      7.46827713E+02      5.52979328E+00     -6.78979123E+02
      2.00371447E+03     -3.12216523E+03     -5.09288665E+02
     -2.91095635E+03      2.84778953E+01      8.79720725E+02
      4.71345387E+02      1.87598015E+02     -1.65673709E+02
      2.11802296E+03     -2.07310523E+03      2.90904659E+03
      3.78386444E+01      1.32357572E+03      1.98929661E+03
      8.80686448E+02      8.86358654E+02     -4.00559713E+02
      1.07887266E+03     -1.02982537E+03      6.34155384E+02
     -2.09410803E+02     -1.80588376E+03     -1.94072131E+03
     -7.64093372E+02      4.26945907E+03     -3.81293772E+03
     -3.19717857E+02      3.87558786E+02      9.47880687E+01
      1.04037904E+03      8.94711949E+02      1.41721756E+03
      1.21365846E+02      1.78300276E+03      4.26258130E+02
     -1.03853668E+02     -5.72473669E+02     -1.10586932E+03
      7.66552255E+02      3.27429239E+02      6.13653763E+02
     -3.25514897E+03      4.33492818E+02     -2.23530938E+03
     -2.16315334E+03     -5.34506586E+02     -2.00326016E+03
     -4.52904026E+02      9.70712559E+02     -4.03455141E+01
     -1.54153482E+02      2.10977475E+03      1.27513553E+03
      9.09744784E+02      5.18731845E+02     -1.12445301E+03
      6.42718687E+02      4.66719890E+02      6.82361212E+02
      4.68481028E+03      5.05978511E+02      2.64768691E+03
     -9.97406364E+02      7.91406766E+02      1.92661075E+03
     -7.22743839E+02      4.09936623E+02     -5.54238022E+02
     -1.84919197E+03     -1.02523834E+03      3.05498567E+03
     -4.85910435E+02     -1.09957407E+03     -2.21085303E+03
      5.04468747E+02     -7.70951279E+02      6.59279040E+02
      3.22230645E+03     -1.11319190E+03     -6.40117523E+02
      1.68066717E+02      1.94453373E+03      1.23982248E+03
      8.61102960E+00     -3.71418019E+02     -1.46263919E+02
     -2.47748771E+03      9.15076619E+02     -2.56947752E+02
     -3.03692166E+02     -1.63810540E+03      9.42867694E+02
      7.41540123E+02     -7.41264621E+02     -1.54539777E+02
      8.36931981E+02      1.06098471E+02     -1.65440929E+03
      2.77401652E+03     -8.51250409E+01     -8.39894399E+02
      1.27210084E+02      3.26788327E+02     -4.97924409E+02
      5.73249011E+03      3.13934521E+02     -6.98108860E+02
      6.91151352E+02      4.59256196E+01     -7.01515699E+02
      7.14419569E+02     -3.73291700E+02     -4.24616218E+01
     -1.46943602E+01     -3.15401174E+03      2.28392192E+03
     -3.30071488E+02     -2.62740457E+03      1.40442020E+03
      8.28617113E+02     -2.31538838E+03     -7.54573341E+02
     -2.64725188E+02     -3.63839868E+02     -2.82131634E+02
      8.62814952E+02      7.34558404E+02      1.80772213E+02
      1.84547924E+03     -1.51425927E+03     -6.77236259E+02
      1.94534341E+02      2.30719594E+03      2.23824916E+03
     -3.35123059E+01      2.79031055E+02     -3.93315015E+01
      4.76194539E+02      3.00090985E+03     -7.41110510E+02
      3.04581901E+03      1.48638977E+03     -1.30032364E+03
      3.05728521E+01     -1.83769278E+02     -4.87188970E+02
      1.57327983E+03     -1.67274495E+03     -8.70189481E+02
      1.06140832E+03      2.07001336E+03     -8.83515774E+02
      2.22612697E+02      1.00901340E+02     -7.55137423E+02
     -8.80174524E+02     -1.99641682E+02      2.80601445E+03
      1.60088405E+03      4.10366380E+02      2.49557551E+03
     -6.33743903E+02      9.14503356E+00      2.93421136E+02
     -2.45267342E+03      5.93736760E+01     -3.42039192E+02
      2.14196744E+02     -8.92393548E+02     -2.44160443E+03
      5.83158038E+02     -3.79577025E+02      1.06367657E+02
     -5.10972763E+02     -2.16405461E+03      1.94424270E+03
     -2.37909246E+02     -8.80668237E+02      6.65861949E+02
     -4.39441973E+02      4.21688168E+02      4.80085045E+02
     -1.88250749E+03     -1.13737904E+03      4.00156229E+03
      1.58712347E+03     -1.66305700E+03     -1.39139902E+03
      4.41374600E+02     -3.51246896E+02      4.47161300E+01
      6.77629247E+02      3.99688435E+03      7.62520324E+02
      5.43478081E+03     -8.19349313E+02     -1.53801544E+03
      2.00755649E+02     -1.66624835E+02     -3.42180402E+02
     -4.66263831E+02      5.12892793E+02      1.76815104E+03
      1.02224654E+03     -1.45474238E+03     -4.26837601E+03
     -3.79792166E+01      2.51757269E+02     -4.48417298E+02
     -3.56339250E+03      8.09352680E+02     -4.04256944E+02
      1.11623933E+03     -1.19948923E+03     -3.81864297E+03
      9.75594342E+02     -1.01179319E+03      1.21114262E+03
     -3.67281852E+02     -3.04211631E+02     -5.31181784E+02
     -6.84198740E+02      1.11001948E+03      2.36369323E+02
     -2.64283846E+02     -1.05083771E+03      7.91038406E+02
      2.51217137E+03      3.96896475E+02     -8.69431762E+02
     -2.74273363E+02     -7.70933626E+02     -1.24169458E+02
      3.99521683E+02      8.42872490E+02      2.01596615E+03
      2.73366323E+03     -1.10274808E+03      1.12159134E+03
      1.27595179E+02      7.39494601E+02     -2.83538203E+02
      1.50811421E+03      1.06950385E+03     -2.53428591E+03
     -2.09948166E+02      1.04997729E+03     -8.71198032E+02
      3.71001068E+02      6.17005487E+01     -5.74473815E+02
     -4.75582756E+02     -2.25072834E+03     -5.29765402E+02
     -1.45842713E+03      6.85872323E+02     -2.41809584E+02
      2.23479133E+02      1.55563453E+01     -2.20581031E+02
      2.01335461E+03     -1.61754940E+03      3.63829854E+02
     -3.03916224E+03      8.39363739E+02      4.21056793E+02
      2.60749186E+02     -4.28980822E+02     -2.16912912E+02
     -1.23043615E+03     -6.18617152E+01     -1.38813696E+03
      1.56779703E+02      4.16174382E+02     -4.33501205E+02
      1.29393377E+03      4.82646002E+02     -1.75476684E+02
     -3.45725467E+02      7.94860585E+02      6.91690746E+02
      1.54146049E+03      2.56831676E+03      2.67046493E+02
      8.61205420E+02      6.17966334E+01     -5.20837945E+02
      2.42660671E+03     -1.42362994E+03     -2.62465158E+03
      1.09550343E+03      1.33814270E+03      8.04154003E+02
     -3.37054801E+02     -5.98632703E+02      6.71180041E+02
     -1.14160092E+03      4.68675966E+02      6.17975832E+02
     -4.99558772E+02      4.50047768E+02     -2.41923455E+01
      1.50985075E+02     -2.35715734E+02     -5.20662934E+02
     -3.66426269E+03      1.32784579E+03     -1.69590577E+03
      8.07273505E+02      2.96328754E+02     -6.63335775E+02
      1.62767857E+02      4.39949396E+02     -2.40369367E+02
      6.50950326E+02     -4.31255111E+02     -1.63840340E+02
     -3.31660274E+03      6.04605951E+02      9.64799528E+02
      1.18922448E+03      3.59330736E+03     -1.11105710E+03
     -1.02153312E+03     -2.23870788E+03      2.55752630E+03
      5.04752937E+02      6.59377515E+01      1.13776795E+03
      3.96245532E+02     -7.26661607E+02     -3.40749046E+02
     -1.70356068E+02     -2.17607513E+03     -2.98426655E+02
      3.24861447E+02     -2.35465840E+02      4.56065412E+02
     -1.88878435E+02      1.17958255E+03     -1.70369187E+03
     -1.40360342E+03     -1.87576923E+03     -1.61618653E+03
      3.95942743E+01     -3.19044487E+02      1.08132155E+03
     -2.95681730E+02      4.34673844E+02     -3.00990263E+03
     -1.64017565E+03     -1.34820178E+03      1.29456738E+03
      2.97439756E+02      3.36652063E+02      7.03163780E+02
      1.32731295E+03      1.46126525E+03     -2.38049996E+03
      1.02649071E+03     -1.46285779E+03      2.17830495E+03
     -8.81149983E+02     -2.89468839E+02      4.09588531E+02
      3.05871944E+03     -1.67838304E+03      2.48631881E+03
     -8.90508480E+02     -1.59792352E+03     -9.02652409E+02
      8.01665930E+02     -6.51532511E+01      5.35789559E+02
      7.15795348E+02      5.79856902E+02     -1.21380395E+02
     -5.82548453E+02      1.49600133E+03     -3.31633268E+02
      4.77613278E+02      2.20159594E+02     -2.44323189E+02
      2.55399778E+03     -1.59890950E+03     -9.79266179E+02
     -1.76168314E+03      2.78005236E+02      1.48247777E+03
      1.01815565E+03     -4.23296236E+01      1.92834205E+02
      1.62916029E+02     -2.03615714E+03      1.10018112E+03
      1.84179949E+03     -1.71845932E+03     -2.65516328E+03
     -4.41633690E+02      6.05804834E+02     -1.01151374E+03
      1.04875768E+03      1.48214255E+03     -1.20703453E+03
     -1.07322685E+03     -2.05032627E+03      2.45451559E+02
      2.81389898E+02     -2.52157637E+03      3.38545951E+03
     -1.27197353E+02      4.34449082E+02      2.42412074E+02
     -1.40429542E+03     -3.64349846E+02      2.88849447E+02
     -1.25892516E+03     -1.38796464E+03      2.12403252E+03
      6.97558852E+02     -1.39145473E+03     -1.42295686E+03
      5.30108518E+02      1.21338945E+02      6.22133882E+01
      1.28850260E+03     -2.55574763E+03     -4.12742677E+02
      3.88346646E+02      8.94711600E+02      5.08831619E+02
     -4.14363915E+02     -2.99148888E+02     -1.08989095E+03
      4.66070867E+02      1.06266098E+03      3.87825856E+02
      4.56408405E+02      1.65128032E+03     -2.97328629E+01
      8.56311931E+02      8.48796897E+02     -9.47422057E+02
     -3.06380897E+02     -2.09540889E+03     -1.58221151E+03
     -2.13029028E+02      2.23716299E+03      3.37742783E+03
      1.62718131E+02     -7.32822620E+02      3.33243687E+02
      1.18389902E+03     -2.37770466E+03      8.12973176E+01
     -1.67284749E+03      1.64145082E+03      1.00255677E+03
     -5.98451064E+02      4.10423591E+02     -5.95687096E+02
     -1.21718078E+03     -6.92626270E+02     -9.25034151E+02
      1.31751126E+02      1.74609210E+03      7.35772065E+02
      4.51890049E+02      4.94590169E+01      8.24814574E+02
      2.44227440E+03     -2.00412816E+03      5.97150059E+02
     -9.56283145E+02     -2.17414791E+03     -4.27238820E+02
     -5.36909248E+00      5.96091167E+02      1.11930561E+02
      4.37282736E+02     -1.15378982E+03     -3.44940609E+03
     -1.94347551E+03     -2.48047623E+03     -3.67076608E+02
      1.77423518E+02      6.69202590E+02     -8.77681027E+02
     -2.80809293E+02      8.69389624E+02     -8.16582974E+02
      1.88224207E+03     -7.46554959E+02      1.36195156E+03
      5.46862647E+02     -1.46687949E+02     -2.11691878E+02
     -3.06852535E+02     -9.45331039E+02      1.38672878E+01
     -2.23951891E+03     -8.79343262E+01      8.83394374E+02
     -3.63987582E+03     -2.49979282E+03     -5.21693625E+02
      4.50917042E+02      1.93063598E+02     -3.16605257E+02
      3.05530454E+02      1.47462558E+03      4.41287728E+03
     -2.15337142E+03     -7.92695424E+02      1.38942154E+03
     -9.23177715E+02      1.24265343E+02     -5.81954844E+02
      4.15948710E+02      5.93590740E+01     -2.89172046E+02
      1.20852429E+03      1.66868333E+03     -1.07310585E+02
      5.90482000E+02     -1.12451568E+03     -1.23153297E+02
      1.02061324E+02      7.07554997E+02     -5.27070799E+02
      3.51267097E+03     -2.15063028E+02     -1.90392000E+03
      9.31736364E+02      1.22391258E+03      4.29107777E+02
      6.85774103E+02      2.29623697E+02     -5.45461455E+02
      2.51508241E+03     -9.47222293E+02      2.02225602E+03
     -1.04199636E+02      5.56489803E+02     -1.98014160E+03
      6.14629756E+02     -7.32922318E+02     -3.32290726E+02
     -5.45824200E+02     -5.28758016E+02     -1.68751547E+03
     -8.68062539E+02      1.02956918E+03      1.58832745E+03
     -2.65546889E+02      4.85715181E+02     -2.82181427E+02
     -2.15341529E+02     -7.29606702E+02     -1.35204696E+03
      3.53728864E+03     -1.07937618E+03      1.96053603E+03
      5.88029262E+02      5.48646157E+01      4.86316765E+02
      1.24827629E+03      4.33316901E+02     -5.95779377E+02
      1.31477470E+03      2.43112239E+03     -2.48980212E+03
     -1.09871384E+02      1.09913633E+02     -9.05016475E+02
      1.32532782E+02     -3.58651556E+02     -5.54725389E+02
      2.20618292E+03      1.22046004E+03     -1.81537874E+03
      9.59264701E+02     -5.94696831E+02      3.92106641E+01
     -5.80635056E+02      3.64188334E+02     -2.07625674E+03
      4.21107192E+03      1.46480550E+03     -3.82447846E+03
      3.75724397E+02     -1.14700746E+02     -4.43616558E+01
      1.99610342E+03     -2.70866554E+01     -8.20506253E+02
      1.01714229E+02     -9.74756600E+02      1.19006994E+03
      4.22360710E+03      1.10515128E+02      3.31299671E+02
      2.72094101E+02      5.39419782E+02     -6.89821233E+01
      4.50302102E+02      6.43060146E+02      1.09425300E+02
     -2.12417484E+02      1.32873380E+03     -2.09632190E+03
      1.94148292E+03      2.96922143E+03     -5.17133478E+00
     -3.14153398E+02      1.91656604E+02     -2.50286205E+02
     -1.47585089E+03     -3.07376677E+03      1.25839516E+03
     -6.36369201E+02     -2.53963447E+02     -1.97344285E+03
     -6.61489606E+01      3.01969141E+02     -4.80652348E+01
     -1.98693235E+03     -6.47145846E+01      1.71585837E+02
     -4.87945710E+02      5.39307586E+02      1.75771415E+03
      6.03800610E+02     -6.27058240E+01     -3.55820782E+02
     -2.59275454E+02     -5.08773181E+02     -2.19972866E+03
      1.28030574E+03      5.72904709E+02      1.36890534E+03
      5.65408547E+02      7.29883083E+02     -2.55182961E+02
     -3.65685335E+02      3.04413051E+03     -3.67414854E+02
     -7.65687474E+02      1.24680075E+03      5.17681092E+02
      2.15562982E+02     -1.16764629E+02     -8.06964051E+01
      6.96707840E+02      8.54845029E+02      1.12480469E+03
     -1.76705053E+03     -1.85831443E+02     -1.48627047E+03
     -1.73790919E+02     -6.36706229E+02     -4.00980022E+02
     -3.20807405E+02     -9.46033744E+02     -3.34382951E+03
      1.40202541E+03     -8.32450554E+02      1.87091643E+03
     -2.61254806E+02      2.35960906E+02     -2.81824007E+02
     -8.58896654E+02      8.51791572E+02     -1.41872558E+03
      8.71463864E+02     -1.69408730E+03     -1.71555040E+03
      3.02006474E+02     -5.62643654E+02      1.17926610E+02
      2.60466793E+03     -2.60770515E+03      4.40138937E+02
     -4.80839293E+02      6.22263355E+02      1.30090906E+03
     -1.57399512E+02      3.09251918E+02     -9.43304882E+02
     -5.16837416E+02     -1.12491047E+03     -8.33414869E+02
      1.44770985E+03      3.09137269E+02      1.38558625E+03
      1.49391557E+03      9.82190245E+02      9.84241276E+02
      5.31822710E+01     -1.62321532E+02     -5.72105779E+02
      2.34158042E+03     -1.01584987E+03      1.04556361E+03
      3.86454761E+02     -2.07364178E+03      1.44636618E+03
      9.15889503E+02     -1.05408857E+03      1.03136309E+03
      2.32180651E+02      2.25921608E+02     -7.66881064E+02
     -3.95743405E+01      1.83343725E+02     -8.01851915E+02
     -8.26143059E+02     -1.42816218E+03      3.34975230E+03
      6.81790871E+02     -8.21174414E+02     -6.01822662E+02
      4.03839610E+01     -1.76456768E+03     -1.02704289E+03
     -9.93394174E+02      2.59362050E+02      2.49844903E+03
      2.14538389E+02      5.10876546E+02     -3.52222126E+02
      2.02008878E+03     -1.51631392E+03     -8.67008066E+01
      1.99899346E+03     -3.69242049E+02      1.57372876E+02
     -4.23074767E+02     -1.22452433E+02     -3.05876458E+02
     -9.01885225E+02     -1.35182557E+03     -1.94475863E+02
      1.22364098E+03     -2.77327790E+03     -1.39281766E+03
     -1.76905935E+02      1.59006845E+02      6.00955495E+02
      2.01462670E+03     -2.38389930E+03     -3.54752906E+03
      8.99335161E+02     -1.55305551E+03     -1.44986095E+03
      8.24372965E+02      1.45426935E+01     -4.63827313E+01
      1.04088019E+02     -1.83637521E+02      2.17369102E+03
     -3.49562213E+02      1.56671723E+03     -1.21102745E+03
      3.66917264E+02     -5.50775948E+02      9.27441805E+01
      3.00495539E+01      9.75254163E+02      7.55496543E+02
      1.41091910E+02     -2.41505765E+03      1.40968750E+03
      4.94006955E+01     -2.63103751E+02     -7.24496093E+01
      1.07666103E+03      1.58358016E+03     -3.01561112E+02
      1.07227140E+03     -3.06502167E+01      1.47815183E+03
      4.35534440E+02      7.43079693E+02     -4.15683452E+01
     -1.74620294E+03     -1.47039741E+03      1.15260035E+03
     -8.40505689E+02      1.27793378E+03      1.84617065E+03
      1.78017863E+03      4.29204788E+01      2.56159900E+03
     -2.44624768E+02      6.19890226E+02     -6.51609621E+02
     -3.30709415E+02      1.08126034E+03      5.96712911E+02
      1.65135321E+02      2.06274523E+03     -2.14130981E+03
      1.13741978E+03     -2.02919936E+03      1.69057800E+03
      9.40201008E+02     -1.40112526E+02     -1.95675845E+01
      5.70971832E+02     -1.24491857E+03     -1.50146175E+03
     -7.29933056E+02      8.37813581E+02      1.27539880E+02
      3.08661842E+02     -4.91326741E+02     -1.05026255E+02
     -1.05061178E+03     -1.66161013E+03     -1.94709187E+03
      1.25612989E+03      8.99553193E+02     -1.17255385E+03
     -5.97983151E+02     -4.63445329E+02      7.71965456E+01
     -4.22286851E+02     -2.32117166E+03      9.72915229E+02
     -1.71749870E+03     -7.21945530E+02      1.49697672E+03
      1.11411375E+03      8.28066172E+02      3.04739843E+02
      1.17501005E+03     -3.77191343E+03      1.01612473E+02
     -4.93942623E+02     -1.75538789E+02      2.14082455E+03
      4.07944609E+02     -6.34241149E+01     -2.23792491E+02
     -2.82782797E+03     -2.04131992E+02      2.20541124E+03
     -1.86776498E+03     -3.12878745E+03     -2.33814635E+03
      5.74506908E+02      3.91165351E+02     -4.99641283E+02
     -1.17530252E+03      1.12310649E+03      8.76107963E+02
     -3.18186777E+02      5.27448436E+02     -1.99362782E+03
     -3.75957844E+01     -5.27075876E+01     -4.84077966E+02
     -5.82426310E+02      1.96068440E+03     -2.16892317E+03
      6.00998598E+02      8.56627781E+02     -3.67572540E+02
     -3.10758828E+04     -2.70958880E+03      1.15348225E+04
      6.24629468E+02      2.06181625E+03      1.44422623E+03
     -5.00256625E+02      2.65182499E+03     -2.93092527E+03
      5.90887074E+01      1.20460835E+03      1.77761639E+02
      9.56636022E+01     -1.44944053E+03      6.72929467E+02
      1.66470262E+03     -2.30007139E+03     -1.08654218E+03
      2.93171715E+03     -9.70657925E+02      1.05831771E+03
      4.28109829E+02      5.06819881E+02     -7.91343184E+02
     -1.16053148E+03      1.80333481E+01     -7.95925189E+02
     -8.97479199E+02     -1.20098352E+03      3.40665780E+03
      1.57143512E+03      7.73243754E+01     -1.34709136E+03
  }
}

Hamiltonian = DFTB {
  SCC = Yes
  SCCTolerance = 1e-6
  MaxSCCIterations = 200
  ForceEvaluation = Dynamics
  MaxAngularMomentum = {
    C = "p"
    H = "s"
  }
  Charge = 0.0
  SpinPolarisation = {}
  Eigensolver = Standard {}
  Filling = Fermi {
    Temperature [Kelvin] = 300.0
  }
  SlaterKosterFiles = Type2FileNames {
    Prefix = "../../pbc-0-3/"
    Separator = "-"
    Suffix = ".skf"
    LowerCaseTypeName = No
  }
  KPointsAndWeights = {
    0.0000000000000 0.0000000000000 0.0000000000000 1.00000000000000
  }
  Dispersion = LennardJones { 
    Parameters = UFFParameters {}
  }
}

ParserOptions = {
  ParserVersion = 3
}
