Geometry = GenFormat {
<<< "system.gen"
}

Driver = VelocityVerlet{
  Steps = 100000
  TimeStep [fs] = 0.2
  MDRestartFrequency = 5
  Thermostat = None {
    #InitialTemperature [Kelvin] = 300.0
  }
  Xlbomd{ 
    IntegrationSteps = 6 
    MinSccIterations = 2
    MaxSccIterations = 200
    SccTolerance = 1e-6 
  }
  Velocities [m/s] {
     -7.75601909E+02     -8.30871867E+02     -2.55061762E+02
     -1.94626393E+03     -1.11479488E+03     -2.30117799E+02
      3.10452916E+02     -2.79539999E+02     -1.49616607E+02
      6.36957682E+02     -3.70525636E+02     -4.49967999E+02
      1.42526655E+03     -2.74361880E+03      1.45126034E+03
      8.65217802E+01      2.14939127E+03      1.29137738E+02
      2.65115815E+02     -5.50998900E+02     -6.56643862E+02
      7.75073770E+01      3.14636225E+03     -3.46709153E+02
     -7.47660780E+02      1.55277543E+03     -2.37362671E+03
     -8.34937463E+02      4.83421145E+02      3.45858969E+02
      2.30941340E+03      9.28680271E+01      5.51896946E+02
     -1.66816814E+03     -6.38245192E+02      2.49414900E+02
     -3.20554524E+02     -9.73098711E+02     -6.60240463E+02
      1.70082416E+03     -1.31697121E+03     -2.65796038E+03
      1.43684172E+03     -2.67660163E+03     -4.23625546E+01
      3.15168530E+02     -1.29314519E+02      2.27506618E+02
     -3.75688370E+03     -8.07490130E+01     -5.05637506E+02
      9.72193535E+02     -2.58786526E+03     -5.94586204E+02
     -1.02883771E+03      8.73646208E+01      4.13470136E+02
     -1.51779879E+03      4.12753967E+03      8.91076234E+02
     -2.45996544E+03      1.49322299E+03     -1.04657956E+03
      2.73042162E+02      1.15819088E+02     -6.28230403E+01
      1.41928965E+02      1.18444452E+03      1.04713957E+03
     -5.79675117E+02      1.56835804E+03     -7.50734907E+02
      3.80220633E+03      1.99378974E+04      2.63724575E+04
      4.42511058E+02      1.05479468E+03      9.04684853E+02
      5.76366915E+02     -5.78846554E+02      1.95734663E+03
     -2.15155513E+03      2.97175222E+02      1.32939096E+03
     -2.08091709E+02     -6.98929315E+01      7.17007739E+02
     -2.68325185E+03     -1.20052812E+03     -7.65017359E+02
      1.79356546E+03     -9.44531257E+02      9.86270594E+02
      5.88987080E+02      1.15380046E+03     -1.95145622E+03
      5.00750953E+02      1.50115351E+02      2.43384322E+02
      1.69758822E+03     -1.29393809E+03     -5.19096502E+02
     -2.10335895E+02      9.99924973E+02      2.85607989E+03
      1.82931263E+00     -5.92785255E+02      3.43130826E+02
     -3.62181208E+02      2.57977612E+01      7.91711607E+02
     -8.41556301E+02      5.77129524E+01      1.88869851E+01
     -5.05725916E+02     -1.20639537E+01      2.10500003E+02
     -3.44104678E+03      8.40532297E+02     -9.21402208E+02
      6.43474563E+02     -1.75062818E+03      1.66213096E+02
      2.55611090E+02     -3.24403915E+02     -2.11598043E+02
      2.68329281E+03     -5.37855968E+02     -2.92377680E+02
     -1.48156729E+03      1.07624816E+03     -2.46927327E+02
     -4.05744473E+02     -3.36974515E+02     -2.91843234E+02
      9.66726163E+02     -6.02385276E+02      1.87826745E+03
     -3.01485951E+03     -9.99212595E+02      2.65143132E+02
      2.88261454E+01      4.00823742E+02     -9.43466770E+02
      1.86637105E+02     -1.61875291E+03     -1.12759811E+03
      2.67350808E+03     -1.91273369E+03      2.89042071E+03
      5.04483540E+02      1.19782100E+02     -2.12249365E+02
      1.94703742E+03      5.35106391E+02      1.67421176E+03
     -1.84256331E+02      1.58939605E+03     -4.09964074E+03
     -4.87411223E+02     -3.61007115E+02      1.78853782E+02
      1.77696465E+03     -9.42788099E+02      1.89639610E+01
     -6.91991154E+02     -2.03455849E+02      2.82476376E+03
      5.07729900E+02     -2.13022354E+02      2.26580678E+01
     -5.45299201E+03      3.39854125E+02     -2.12087634E+03
     -1.79827558E+03      1.48491640E+03     -1.38507485E+03
      7.55094346E+02     -5.81907550E+02      2.32700785E+03
      3.35128091E+01     -3.55865214E+02     -1.06441715E+02
     -6.91877779E+02      3.65072577E+02      1.48027706E+03
      1.60535317E+03     -1.33654608E+03      1.01259987E-01
     -1.21213474E+03      1.42140801E+03      1.04689241E+03
     -1.72732978E+02     -3.09510083E+02     -4.30742393E+02
     -1.75834551E+03      2.74798180E+02      2.71984225E+03
      2.44391019E+03      1.30294394E+03     -1.06693788E+03
      5.62661462E+02      6.39190440E+01     -1.99212125E+02
      3.39140964E+03      6.89094547E+02      8.21152823E+02
     -1.18217154E+03     -2.52468683E+03      4.73896992E+01
     -4.33239854E+01     -1.06421809E+02     -3.23015656E+02
      2.14171565E+03     -2.40043222E+03      3.77538338E+02
     -2.31010351E+02     -8.99927411E+02     -8.86658577E+02
      1.34960657E+01     -1.57767783E+02     -1.23361208E+03
     -1.57067404E+03      3.63099609E+01      5.62665553E+02
      6.20636112E+02     -2.46144518E+03     -7.79036823E+02
      2.73823808E+02     -6.81409843E+02     -1.86087204E+02
      2.46595635E+03      3.77274924E+02     -8.91440266E+02
      7.00073097E+02     -2.23144688E+03     -2.53563056E+03
     -4.23175086E+02     -4.97283916E+02     -6.02717986E+02
     -1.96219083E+03     -8.20519485E+02      2.16746484E+03
      2.60607684E+03      1.72608851E+03      1.01762143E+03
      2.36795185E+02      1.11352014E+02     -2.27862606E+02
     -2.81016001E+03     -3.11078017E+03      1.05177900E+03
      7.60077591E+02      4.08247726E+02     -1.76918730E+03
     -3.83906316E+02      6.08108845E+02     -7.56160412E+02
      5.52736189E+02      1.60639875E+03      8.52031454E+02
     -2.34028789E+03     -1.42606748E+03      1.71842841E+03
     -5.50984991E+02     -1.03415265E+03     -6.03410421E+02
      1.01477135E+03     -1.13952717E+03      1.70740517E+03
     -1.37193193E+03      7.79065052E+02      8.88459806E+02
      2.42728860E+03      6.62001228E+02      7.50817564E+02
     -3.77913348E+02     -7.74022318E+01     -6.27654708E+02
     -2.67207306E+03     -3.08288352E+03      2.76256633E+03
      9.23750688E+02     -8.75404821E+02     -1.26826972E+03
     -9.78063949E+02     -1.18807572E+03      9.77021701E+02
     -2.97574166E+01     -4.22148977E+02     -1.18990643E+03
      2.53830161E+03     -2.12499709E+03      3.70113712E+03
      1.75981422E+03     -7.24768805E+02      3.56210441E+02
      9.92644752E+01      3.76532681E+02      5.89861614E+02
     -5.11914933E+02      8.18556643E+02      5.76687179E+02
     -6.83181046E+02     -6.85132741E+02     -8.38478473E+02
      5.43542177E+02      1.95536169E+02      3.26207422E+02
      1.07771321E+03     -2.89263991E+03     -7.60814791E+02
     -1.03335581E+03      1.90605263E+02     -1.38751953E+03
     -8.59427380E+02      3.49497440E+02     -4.72153665E+02
      2.44035531E+03      5.00356508E+02     -1.70518720E+03
      1.56220708E+03     -4.24632597E+02     -2.28223083E+02
     -1.89683584E+02     -4.26128485E+02     -6.16179218E+01
     -5.48519749E+01      2.03699209E+03     -1.97453298E+03
      2.55691805E+02     -1.20529127E+03     -7.53888968E+02
     -7.83261025E+01      7.20238231E+01     -7.37137373E+02
      8.74992576E+02     -1.02686035E+03      3.82489442E+01
     -7.17653947E+01     -8.38136080E+02     -2.73320251E+03
      2.45439775E+02     -5.01271464E+02     -7.37898311E+01
     -9.12360809E+02     -1.45670087E+03      1.42048671E+02
      2.36045013E+03      2.42937176E+03      1.37601960E+03
      4.19363706E+02     -9.49909282E+00     -1.37564641E+03
      1.84987789E+03      4.86398632E+02      2.91528992E+02
     -1.29513384E+03      1.75796341E+03     -9.99105025E+02
      1.61705594E+02     -6.34004533E+02     -6.83933028E+02
     -3.53801914E+03      3.64206890E+02     -1.91565084E+03
     -1.73693630E+03      1.71769278E+03     -3.37335382E+03
     -2.85465488E+03     -1.91022468E+03      3.17642542E+02
     -4.55814870E+02     -3.94863803E+02      2.90228481E+02
     -5.96380293E+01     -1.30886627E+03      8.43020913E+02
     -6.54327825E+01     -2.68359666E+03     -1.64136190E+03
      3.42272778E+02     -3.14709815E+02     -1.02113702E+03
     -3.59150226E+02     -3.27688730E+02     -2.39948499E+02
      3.06107401E+03     -2.64906107E+02     -1.72209461E+03
     -3.72807008E+03     -4.94961154E+02     -3.51960286E+03
     -1.54594211E+02      8.01209122E+02     -2.15924113E+02
      3.86203177E+02      5.10546818E+02      7.75125275E+02
      9.28333682E+01      1.61620857E+02      5.11290469E+02
     -3.87342408E+02     -4.29374453E+02      8.21779415E+01
      2.89966493E+03     -1.41122901E+02     -4.77298900E+02
     -1.18746267E+03     -2.21250027E+03     -1.09042820E+03
      1.81032097E+02      2.59507498E+02     -3.29885924E+02
     -1.08604691E+03     -2.37927837E+03      1.00048875E+03
     -1.99248716E+03      4.06720032E+02     -1.23553016E+03
     -5.61720247E+02     -3.59905355E+02      1.39171377E+02
     -4.25456500E+02     -1.41693303E+03      5.24784120E+02
      9.83874159E+02     -3.33594374E+02     -3.03134971E+03
      4.04254979E+02      1.15791884E+03     -2.42114819E+02
      8.02684968E+02      1.43440896E+03     -1.45426282E+03
      3.00965144E+03      8.06486733E+02      1.03629327E+02
     -2.55072028E+02     -2.89863591E+02     -8.27637316E+02
      1.38026472E+03      2.55744725E+03     -2.83587860E+03
     -2.67664452E+03      2.21621605E+03      1.00292640E+03
     -4.21439332E+01     -1.17569380E+02     -3.62831092E+02
      1.06614221E+03     -4.05598138E+02     -2.02786966E+03
     -1.18631880E+03      3.12352540E+01      1.08103471E+03
      6.23890914E+02     -5.67440653E+02     -3.37088002E+02
      1.47277826E+03     -5.75892194E+02      1.64401959E+03
      2.24488943E+02      3.67873367E+03     -4.65896487E+03
      2.24396581E+03      1.55888307E+03     -4.62185401E+02
     -1.35565882E+02     -5.66108927E+02     -4.73541672E+02
     -3.63274673E+03     -2.27902426E+03      2.65951744E+02
     -5.17839940E+02      9.21779465E+02     -1.52570662E+03
      1.29444078E+01      1.61169733E+03     -7.24773950E+02
     -5.51585472E+01     -2.41542231E+02      9.21222638E+01
     -4.60269475E+03      3.16129784E+03      3.49551466E+02
     -1.42626382E+03     -9.79562152E+01     -2.87777131E+02
      1.74076786E+02      4.86602981E+02      3.61945069E+02
     -9.70000837E+01      2.34512177E+03      2.88395305E+02
     -4.00404369E+02     -1.28824129E+03      1.49710524E+03
     -7.34931052E+02      3.42523043E+02     -3.95457978E+02
     -6.09956196E+02      6.44048423E+02     -2.84641645E+02
     -8.24911010E+02      2.31752334E+03     -4.88563331E+02
      4.53859701E+02     -3.41097321E+02     -4.88825167E+02
      1.77148164E+02     -1.01849726E+03      3.54273999E+01
      9.76371777E+02      4.27843254E+02     -7.29745202E+02
     -6.09516235E+02     -1.78923648E+02     -3.78823181E+02
     -9.44204378E+02     -1.03041148E+03     -9.79324179E+01
      1.10017314E+03      3.81837213E+02     -1.56186413E+03
     -7.69030710E+02      2.08444498E+02     -1.01608513E+02
      2.99410756E+03     -4.53382090E+02     -1.86615488E+03
      3.52242426E+01      7.76322508E+02     -1.93057716E+03
     -1.69354621E+02     -1.00316394E+02     -1.26141082E+01
      4.38468359E+02     -7.89023915E+02     -6.55131770E+02
     -1.09283709E+03     -2.20596990E+03     -3.07973795E+02
     -5.31940296E+02     -1.77686280E+02     -2.98614113E+02
     -2.42282845E+03      7.19108430E+02     -5.72149826E+02
      1.06848098E+02     -3.95085905E+03     -2.66114299E+03
     -5.75833788E+02      7.59506577E+01      1.46629639E+02
     -8.59699623E+02     -1.43423368E+03     -1.41128715E+03
      2.68315001E+03      7.98316621E+02      9.43694842E+01
     -2.46769474E+03      1.95767781E+03     -1.75988176E+03
      5.92646292E+01      1.05132893E+03     -7.61910889E+02
      1.88858537E+03     -7.75227620E+01      1.26121177E+03
     -2.32757903E+03      2.32445905E+03     -5.16320413E+02
      3.12663073E+02      7.03248577E+02     -8.57888169E+02
      3.03286865E+02     -5.66025362E+02      5.81256757E+02
      1.31987606E+03     -9.06323459E+02     -1.63629481E+03
     -9.24178052E+02     -1.05388582E+03     -3.40664613E+03
     -4.52229370E+02      1.63780470E+01      4.21032731E+02
      1.86665490E+03     -1.54499569E+03      1.77122647E+03
     -9.04652382E+02     -2.01515842E+03     -5.21190220E+02
      2.22572386E+02     -2.16192320E+02     -2.71746261E+02
     -7.03166698E+02      1.51940884E+03     -3.68488387E+03
     -9.88879472E+02     -1.13941657E+03     -1.11912085E+03
     -1.68986309E+02      9.79265264E+02     -2.80670415E+02
      3.19288654E+02     -1.28244140E+03     -1.66880930E+03
      8.04777706E+02     -6.97986947E+02     -4.19139782E+02
      5.03262536E+02      9.37746841E+02     -1.46037809E+01
      1.38266176E+03     -2.07517368E+02     -1.41500006E+03
     -9.63977017E+02     -1.59805813E+03      1.72304305E+03
      4.80465799E+02     -9.55622981E+02     -4.10251857E+02
     -5.17390160E+02     -1.18345402E+03     -1.65622248E+03
     -1.77373515E+03      2.18128802E+02     -2.93835484E+02
      2.19959107E+02     -1.74287720E+02      3.76492149E+01
     -1.10184349E+03     -1.21940703E+03     -1.58398385E+03
      2.20724463E+02     -1.53877834E+01      1.30794961E+03
      8.19273645E+01     -5.20412129E+02     -5.44628863E+02
     -4.26284612E+00      1.16161026E+03      1.55273181E+02
      8.36322975E+02      1.08378883E+03      9.37603521E+02
     -5.20009912E+02      1.36896343E+01     -5.93734530E+01
      4.97422942E+02      3.20494610E+02     -3.58452439E+02
     -1.69203656E+03     -1.37995252E+02      6.07279384E+02
      1.71399527E+03     -1.56298952E+01     -5.01806818E+02
     -2.67723401E+01     -6.96327369E+02      3.18961839E+02
      1.47450147E+03      2.48406852E+03      4.98271278E+02
     -3.60516555E+03     -1.36838776E+03     -5.78362471E+02
     -1.54801555E+02     -3.01867114E+01      1.17375000E+03
      2.16343605E+02     -1.17049595E+03      3.00297538E+02
     -3.12547417E+02      7.81163180E+02     -2.01673723E+03
      3.61193947E+03      5.70676364E+02      2.11066156E+02
     -7.29967367E+02      2.99633654E+02     -2.64360816E+02
      7.34746032E+02      1.39349315E+03      2.78633934E+02
     -1.42269255E+03      2.65556962E+02     -2.56825595E+03
     -7.19735256E+02     -2.13992847E+02     -4.79403536E+02
     -1.98732204E+03      1.47370507E+03     -4.02079182E+02
      4.58364348E+01      6.68486015E+02     -2.06696870E+03
      7.33464073E+02      1.90580395E+02     -1.12675377E+02
     -2.10874930E+03      1.04208299E+03     -1.33167161E+03
      7.08696365E+02     -1.36753725E+03      1.46786402E+03
      1.19597131E+02     -4.11200026E+02     -3.22459252E+02
     -7.30772174E+02     -1.03110427E+03      7.35851460E+02
     -9.03688232E+00     -3.72066451E+03      1.07071656E+03
      4.30984229E+01     -1.88056268E+02      3.25202157E+02
     -2.21902339E+03      9.64668506E+02      6.59878475E+02
      7.78284232E+02      6.29676623E+02     -9.63769366E+02
      1.77000683E+02     -3.97151439E+02      2.38672133E+02
     -1.33558375E+03     -3.28073860E+03      2.43596802E+03
      5.29832605E+03      2.46064012E+02      3.45650516E+03
      8.89794155E+01     -7.04675251E+02     -1.22379222E+03
     -2.17453632E+03     -2.51435765E+02     -6.99506431E+02
     -6.50231358E+02      4.12475917E+02      2.57930812E+03
      2.48059460E+01     -2.93570181E+02     -1.06365701E+01
      1.12101303E+03      2.23150753E+03      3.36518440E+02
     -1.13547511E+03      1.09789793E+03     -1.86440569E+03
     -5.18699681E+02     -2.19774631E+02      4.86247690E+02
     -1.22532151E+03     -1.78986717E+02     -4.80171985E+01
      3.69391587E+01      9.27532311E+01      1.15632984E+03
      4.66379795E+02     -9.32298537E+02     -8.13478480E+02
      8.67189650E+02     -1.40581597E+03      3.80356325E+02
      4.78336322E+02      4.84368828E+02      5.40098113E+02
      7.47066256E+02      4.86285109E+02     -1.32776933E+03
     -9.35147090E+02      5.10164718E+02      1.28216627E+03
      5.96908319E+02     -2.88693695E+02     -3.97995453E+02
     -1.20774180E+03      3.21497607E+03     -1.65470775E+03
     -2.78666809E+02     -9.33921188E+02      5.92995523E+00
     -3.39406585E+02      6.72079100E+02     -1.04119932E+02
      7.45621362E+02     -4.41027081E+02     -1.37176595E+03
      1.83082001E+03     -1.24576046E+03     -1.13755857E+03
     -2.48469979E+02      8.66558448E+01     -3.41748042E+02
      1.07684427E+02      1.06686925E+02      4.73126958E+02
      1.30360477E+03     -2.16675321E+03      1.19987261E+03
     -2.15855532E+01     -7.42689214E+02      1.54096048E+02
      1.86774806E+03      2.52556055E+03     -3.03646291E+03
      1.94823824E+02      2.48787685E+03     -1.93077846E+03
     -6.85862772E+02      3.38300192E+02     -5.31535258E+02
      3.41047985E+03      1.37432444E+03     -1.75003666E+03
      1.34299919E+03      2.89695909E+03      5.75017550E+02
     -1.22042684E+02     -1.71334061E+02     -1.22592365E+02
     -2.55633256E+03     -3.10963932E+02     -4.41852214E+02
     -2.25165841E+03      2.24814808E+03      8.12588997E+02
     -1.88364321E+02     -1.98138666E+02     -2.83214027E+02
     -4.42832311E+01      1.00440687E+03     -6.18487398E+02
      1.07290824E+03      8.63241326E+02      2.54038231E+03
      3.38963256E+02     -1.33386131E+03     -3.69879372E+02
      1.39479641E+02      2.33143060E+02     -1.52225208E+03
     -1.49908511E+03     -2.90902285E+02     -2.17517950E+03
      9.37349594E+02      5.05662174E+02      7.86831323E+02
      3.26631728E+02     -1.29760633E+02     -8.73088708E+01
      1.94939016E+03      2.01951444E+02      3.33725222E+03
     -1.07528768E+03     -3.25270027E+03     -8.55319840E+01
     -3.26396110E+02     -9.76244621E+02      2.58781509E+03
      3.33077620E+02      6.21804790E+02     -2.81145925E+02
     -3.19306810E+03     -2.01070625E+03      1.49455402E+03
     -2.23256661E+03     -2.90322007E+03     -2.97096208E+03
      4.61004186E+02      2.23783303E+02      4.25684861E+01
     -3.04005569E+03     -3.14615840E+02     -1.26931419E+03
     -5.20630337E+02      2.44488010E+03      1.95154443E+03
     -1.01410843E+02     -1.06162708E+02      6.13048756E+01
      9.84905190E+02     -1.50742039E+03      1.33825940E+03
     -2.24020741E+02     -3.08387618E+03     -8.72132989E+02
      5.46631931E+02      2.02839193E+02      5.17494721E+02
      1.64768440E+03      1.02892294E+03     -2.85026946E+02
     -6.11550877E+02     -2.29992360E+03      1.69520493E+03
     -2.92137717E+01      1.14765903E+02     -2.28983308E+02
      2.66090634E+03      2.11170363E+03      8.92038227E+02
     -1.33675757E+03     -1.14570359E+03     -2.52198917E+03
     -4.15805287E+02     -9.94363976E+02     -1.15989236E+03
      4.68685459E+03     -6.14572668E+02      1.50060870E+03
     -8.81188617E+02     -7.27302985E+02     -5.39020262E+02
      6.34089791E+02     -1.37038503E+02     -9.37534256E+02
     -2.80209527E+03     -1.94425779E+03     -7.69637397E+02
     -1.94666262E+01     -1.55227947E+03      3.99979765E+01
      1.29336877E+02      8.85881518E+01     -3.96622979E+02
      1.38508832E+03      6.57008293E+01     -7.79677507E+02
     -1.07823452E+03     -4.92366141E+02     -5.08000435E+02
      8.67518358E+01     -2.73539838E+02     -1.75572923E+02
      6.31064627E+02      3.89116797E+02      9.20235485E+02
     -3.46318290E+02     -1.67765641E+02     -1.74181848E+03
     -3.67882175E+02     -1.23331932E+03      1.46508859E+03
      3.79922288E+02     -7.71393690E+02     -9.12897154E+02
      2.64499602E+02      1.23817972E+03     -4.05634419E+00
      4.90849323E+02      2.90104036E+02      8.62580792E+02
      2.86771098E+03     -1.18987343E+03     -2.83819875E+02
      7.41134334E+02     -1.65193404E+02     -5.77487862E+02
      8.41603546E+02      1.24987796E+03     -9.61101765E+02
      1.27707132E+02     -3.11180149E+02     -1.80390736E+03
     -4.07041970E+02     -1.04507400E+03     -1.43210786E+02
     -2.80994354E+02     -1.52252207E+03     -2.85202922E+02
      3.46521832E+03     -2.69411129E+03      1.91092846E+03
     -4.40817043E+02      4.25634693E+02     -1.45517190E+02
      1.30068033E+03      8.87055224E+02     -1.49586859E+03
      1.68492245E+03     -1.97228818E+02     -1.85806334E+03
      4.65347743E+02     -1.19473050E+03      8.26357153E+02
     -1.05755843E+03      1.15685722E+02      9.97773925E+02
     -2.28068704E+03      3.28127320E+02      1.91709090E+02
      3.98750164E+02      2.92970321E+02     -8.36973343E+01
      6.05433565E+02      6.75085867E+02     -3.76098584E+02
      1.61847653E+03      6.08124718E+02     -3.65953803E+02
     -9.06246435E+01      5.54272900E+02     -5.42888732E+02
      2.59185081E+03     -1.96592171E+03     -2.29932688E+02
      1.11518985E+03     -9.30233265E+02     -9.96107792E+02
     -4.50315673E+02     -9.94362920E+02     -5.04985425E+02
     -1.03766703E+03     -6.57930471E+02      6.10645850E+02
      1.40790597E+03     -8.99552415E+02     -3.62073868E+02
      2.81853176E+02     -3.90152860E+02      7.89552513E+02
     -2.89825380E+02      1.10828012E+03      7.92758202E+02
      1.45643229E+03     -3.85669819E+03      1.50592556E+03
     -5.03994396E+02     -7.87103251E+02     -1.97061076E+01
     -1.37314918E+03      2.82389186E+02      4.02957447E+02
      1.62816844E+03     -2.25645243E+03     -4.14614140E+03
      1.06988628E+03      4.97743193E+02      9.01661160E+02
      6.35194734E+01     -4.73289323E+02     -6.42734344E+02
      8.45785714E+01     -3.90400792E+03      4.82714464E+02
      8.94441943E+02      8.00687869E+02     -2.82913667E+03
      3.12784299E+02      2.78428348E+02     -2.05570539E+03
  }
}

Hamiltonian = DFTB {
  SCC = Yes
  SCCTolerance = 1e-6
  MaxSCCIterations = 200
  ForceEvaluation = Dynamics
  MaxAngularMomentum = {
    C = "p"
    H = "s"
  }
  Charge = 0.0
  SpinPolarisation = {}
  Eigensolver = Standard {}
  Filling = Fermi {
    Temperature [Kelvin] = 300.0
  }
  SlaterKosterFiles = Type2FileNames {
    Prefix = "../../pbc-0-3/"
    Separator = "-"
    Suffix = ".skf"
    LowerCaseTypeName = No
  }
  KPointsAndWeights = {
    0.0000000000000 0.0000000000000 0.0000000000000 1.00000000000000
  }
  Dispersion = LennardJones { 
    Parameters = UFFParameters {}
  }
}

ParserOptions = {
  ParserVersion = 3
}
