Geometry = GenFormat {
<<< "system.gen"
}

Driver = VelocityVerlet{
  Steps = 50000
  TimeStep [fs] = 0.2
  MDRestartFrequency = 25
  Thermostat = None {
    #InitialTemperature [Kelvin] = 300.0
  }
  Xlbomd{ 
    IntegrationSteps = 6 
    MinSccIterations = 2
    MaxSccIterations = 200
    SccTolerance = 1e-6 
  }
  Velocities [m/s] {
      5.61024999E+02      1.21358347E+02      3.95598243E+02
     -2.88642586E+01      7.53927882E+02      3.84458882E+02
      1.46658585E+03     -7.85895961E+02     -3.75811064E+02
     -2.76368210E+02      4.72091015E+02     -5.56348016E+02
      1.40641310E+02      1.82046514E+03      1.24116920E+03
     -2.65500277E+03      1.37367821E+03      8.90570174E+01
     -4.16869851E+02      1.69752826E+02      3.38484675E+01
      1.45927103E+03      1.53583129E+02      1.39993091E+03
     -1.17354311E+03     -2.69152228E+03      2.44902185E+03
      4.10807627E+01     -9.54028100E+02      1.81102955E+02
     -7.75506030E+02      3.91498706E+03     -5.41343524E+02
     -1.31641430E+03      6.01860540E+01      3.83536720E+02
      1.32322198E+02      1.02603566E+03      2.04411101E+02
     -2.12124488E+03     -3.66841407E+03     -8.46445722E+02
      3.09612921E+03      4.79247648E+01     -2.93092858E+03
      5.37060435E+02      3.13516742E+02      7.84086212E+02
     -2.33831853E+03      8.31996829E+02      4.94827485E+02
      2.86115538E+03     -1.38380354E+03      4.28097342E+03
      3.27738207E+01     -1.06315769E+02      1.49071897E+02
     -6.36976465E+02      2.27778099E+03     -2.88236777E+03
      1.17882466E+02     -4.39816464E+02     -1.58194199E+03
     -3.05302852E+02      3.26832762E+02      3.97162889E+02
     -3.16505524E+03     -6.17661501E+02      1.52748234E+03
      7.98811040E+01      5.86936930E+02      1.74719904E+03
      3.86423978E+01     -3.79293548E+02     -9.79069738E+01
     -6.20999255E+02     -1.79953159E+03      2.40684946E+03
      2.88175009E+03      4.79652240E+02     -1.10245835E+03
      1.50184974E+02     -1.75730769E+03     -8.53766506E+02
     -6.61216756E+02     -5.36124929E+01      2.42283636E+02
      1.84188559E+03      2.92588739E+03      1.99848499E+03
      1.55286496E+03     -8.35149800E+02     -8.93198853E+02
     -6.38235015E+02      1.89832030E+03     -1.21883032E+02
      5.91603260E+02     -2.09773679E+02      3.45087516E+02
     -2.07995216E+03      2.10095762E+03     -6.53527746E+02
      1.48728416E+03      9.26824053E+02      8.06357771E+02
      1.43031746E+02     -7.55964325E+01      2.03657681E+02
     -1.69779595E+03     -2.03093891E+03     -9.31462176E+02
     -1.80101729E+03     -2.16086896E+03      1.62628707E+03
     -3.39362648E+02     -6.32023560E+01      3.89509728E+02
     -4.10325683E+01      9.17455691E+01      1.27210403E+03
      3.35986111E+03      1.55334087E+03      1.71063044E+03
      9.67762682E+02     -2.22174443E+01      5.01731848E+02
      1.27662126E+03      2.65541533E+03      1.90777359E+03
      2.66109134E+03      1.71678997E+03     -2.13620587E+02
     -2.57010017E+02     -1.46259093E+03      2.65998051E+02
      1.69609352E+03     -9.30941135E+02     -3.41047158E+03
     -3.07292262E+03      2.46093829E+03     -9.24304727E+01
     -4.80677759E+02     -7.48846702E+02      2.93584671E+02
     -5.67866805E+02     -4.15533708E+02      8.34549691E+02
      2.90262247E+03      1.61147993E+03      6.62388682E+02
      1.51490210E+02      4.33099824E+02     -4.15408816E+02
      2.51062923E+02     -2.10260581E+03      1.28495184E+03
      1.81894745E+00     -1.55827515E+03     -4.60458944E+01
     -3.62628019E+02     -9.56118475E+02      2.64495640E+01
     -2.07770594E+03     -1.14297083E+03      2.72972261E+03
     -1.24726603E+03     -2.83627729E+03      3.77310494E+02
      5.78230754E+02     -3.95206643E+02      3.46744238E+02
     -1.60791497E+03      6.98975599E+02      3.51339819E+03
      1.20801978E+02      1.36685743E+03      1.52096885E+03
      1.91168065E+03      2.22294748E+02     -2.37856084E+03
      2.04634551E+02      1.15264210E+02      2.65357794E+02
      1.86335974E+03     -1.40298468E+03     -1.27841883E+03
     -1.33212858E+03     -1.82928295E+03      1.35697149E+03
      6.60466092E+02     -3.88696367E+03     -5.39038765E+02
     -1.25350536E+02      4.42715377E+02      2.90036374E+02
      7.79428831E+02      6.42901298E+02      1.04825015E+03
      1.19793042E+03      3.01734113E+03      3.00541940E+03
      5.01939302E+02     -2.41710122E+02      9.80839552E+02
      1.15110366E+03     -4.06853442E+02     -8.87053542E+02
     -1.95968781E+03     -2.81409671E+03     -2.19411137E+02
     -2.03783152E+02      2.90100418E+02     -2.05383470E+01
      1.79556768E+03      7.51384094E+01      1.79388660E+02
      1.81559796E+03     -4.13749323E+02      7.34848896E+02
      4.01299894E+02      1.71066028E+02     -7.20252691E+02
     -2.82623951E+03     -8.08698500E+02     -9.78617234E+02
      8.37105929E+02      1.67730107E+03     -4.98282380E+02
      2.05754217E+02     -2.50850545E+02      6.85952687E+01
      1.11463718E+02     -2.14480297E+03     -6.88480004E+02
      4.12617328E+02     -2.43323348E+02     -4.28620821E+03
     -6.90644690E+02     -2.04106736E+02      4.01517841E+02
      2.45935440E+02     -8.36701646E+02     -1.08221076E+03
     -3.05615093E+03     -1.08585833E+03      4.87883128E+02
     -4.95163250E+01     -3.46487862E+02     -2.85372787E+01
      3.69499769E+03     -8.49189847E+02     -2.12340895E+03
     -6.53198244E+02      1.92130771E+03      2.81685369E+02
     -5.02684806E+02     -1.45503574E+02      1.28537800E+02
      3.00103004E+03      1.14248794E+03      2.82188150E+02
      3.02660015E+03      4.75371527E+02     -4.47911270E+02
     -8.60646328E+00      1.97274875E+02     -8.21197597E+02
      1.10207582E+03     -2.55315834E+02      8.12752540E+02
      1.21561899E+03      1.21835470E+03      2.94320651E+03
     -3.59672467E+03     -2.68071442E+03     -7.08920345E+02
      5.71392363E+02     -1.61485062E+02      1.96972937E+02
     -6.83545539E+02     -1.09603828E+03     -2.97266908E+03
      7.13366316E+02      8.62040383E+01     -2.10768984E+03
      1.22143102E+03      1.79014121E+03     -3.98772959E+03
      5.82201324E+01     -1.64681646E+02      5.32692080E+01
     -8.30806666E+02     -2.69498101E+03      3.37376672E+03
     -7.34151283E+02     -2.28044080E+03      3.81656646E+03
     -9.65322679E+02     -1.12108423E+02     -1.74017074E+02
     -8.46357881E+02     -1.22556359E+03      9.99020702E+02
     -1.22369852E+03      4.60346776E+03     -6.52323770E+02
     -3.94560750E+01     -6.26818467E+02     -9.15663360E+01
      7.27111395E+02     -1.50424898E+02     -1.44440016E+03
      3.17047299E+02     -2.69005066E+03     -9.38898276E+01
     -6.53001477E+01      7.65367507E+01     -3.46493671E+02
     -2.19850097E+02     -2.51193702E+03      1.83906617E+02
      1.84863920E+03     -1.20481826E+03     -1.27323613E+03
     -8.26513312E+02     -8.83773566E+02      5.98851367E+02
     -8.95851891E+02      2.08818019E+03     -1.11314272E+03
     -7.68872970E+02      6.70316701E+01      7.63653792E+02
      1.07051682E+02      1.93173503E+02      1.03446952E+02
      1.64376612E+03     -1.09018671E+03     -8.44723928E+02
      2.21070002E+03     -6.48275264E+02      9.50792356E+02
     -1.52456316E+02     -5.67113325E+02     -6.07936763E+01
     -2.05576154E+03      5.00531655E+02     -7.38015851E+02
     -1.60053827E+02      1.62748703E+03     -1.77463073E+02
     -8.61013736E+02     -1.37135739E+02      2.85398822E+02
     -6.98164338E+02     -1.36630425E+03     -3.73571024E+02
      4.28833903E+02     -2.12454414E+03     -1.38045598E+02
     -3.37350923E+02     -1.55075715E+03      1.31144270E+02
      1.16413477E+03     -6.95028295E+02     -1.90084644E+03
      1.39896873E+03      3.18609443E+03     -8.59291576E+01
     -2.04115143E+02     -6.03745770E+02      1.05607292E+03
     -1.57134172E+02      1.90189472E+02      7.17233232E+02
      1.81463667E+03      5.98972392E+02     -7.89361683E+02
      1.80745926E+03      1.03416075E+03     -9.18219698E+02
      1.16106096E+03      1.46535986E+03     -9.18485887E+02
     -6.01533789E+02      7.88808924E+02     -7.66858761E+02
     -3.86051093E+03      1.04511309E+03     -4.91513105E+02
     -7.84922234E+02      1.08072845E+03     -1.67228080E+03
     -1.83851013E+01     -4.07851141E+02     -5.11594014E+02
     -6.54165164E+02     -3.99338904E+02     -1.57355020E+03
      6.86895749E+02     -1.65491124E+02     -4.75659852E+03
      4.71176388E+01      1.20993489E+02     -1.19679840E+02
      1.47756877E+02     -2.61577978E+03      5.52478502E+02
     -1.00383630E+03      6.12788085E+02     -2.07152815E+02
     -3.63500991E+02     -2.92240839E+02      3.74878333E+02
      1.21732391E+03      3.58752674E+02      4.20667114E+03
     -7.66855279E+02     -1.02705070E+02      5.20269106E+02
      1.87043862E+01      5.34657962E+02      5.63382160E+02
      2.16928280E+03     -1.14475142E+03      2.78143835E+03
      1.24061966E+03     -5.88194852E+02     -1.22193449E+03
     -7.73798332E+02     -7.58275088E+01     -7.23120010E+02
      1.13649696E+03      2.89103328E+03     -9.14471777E+02
      6.64087590E+02      6.79555949E+02     -3.66394494E+03
      1.07579337E+02      9.31692452E+01     -2.70973170E+02
     -5.12637463E+02     -1.33450679E+03     -1.90166647E+03
     -7.80772076E+02     -6.34552193E+02     -1.06102373E+03
     -2.69330034E+02     -1.88013709E+02      2.11237610E+02
     -1.16782793E+03     -1.01170102E+03     -2.31042643E+03
     -1.13597368E+03     -2.22863644E+03      9.08321661E+02
     -7.63573003E+02      2.56913469E+02     -2.36150375E+02
     -2.69911686E+03     -1.15216546E+02      4.96777923E+02
     -1.86294237E+03      4.62916631E+02      1.08708587E+03
      2.51327240E+03      1.77082764E+03      1.20066600E+03
     -4.93115077E+02     -9.77903932E+01     -8.23993590E+02
     -1.91056735E+03     -1.02550580E+03     -5.06187535E+02
     -9.03633612E+02     -2.13372019E+03     -3.85894574E+02
      2.64398191E+03      3.65905719E+03     -1.97288722E+03
      4.52405804E+02     -4.39346348E+02     -2.09590711E+02
      5.69473608E+02     -7.86561910E+02     -4.28454830E+02
     -8.69497314E+02     -2.68859593E+02     -8.52067557E+02
     -4.82934949E+02      2.94916426E+02      1.04891772E+02
     -1.36331805E+01     -2.83379558E+02     -1.28000875E+03
     -7.77532889E+02     -1.67954552E+03      1.14126764E+03
     -1.67831328E+02      3.51811334E+02     -1.58405222E+02
      2.44634749E+03     -2.42426060E+01      6.60225013E+02
      8.27876310E+02     -2.86612619E+03     -8.87904866E+02
     -3.25199389E+02     -1.79160058E+02      7.18893249E+02
     -4.01200449E+01     -2.10308127E+02      2.09483042E+03
      1.28694319E+03      9.63815418E+02      2.17890166E+03
     -9.85762778E+02      1.03714447E+03      9.78112763E+02
     -6.75036107E+02     -2.42259339E+03     -9.72252755E+02
      4.62033514E+02      2.17902111E+02      1.48166059E+03
     -2.68026985E+02      2.49835529E+02      3.58308378E+02
      5.64760638E+02      1.18429393E+03     -9.46345891E+02
     -1.39637491E+03     -9.24314680E+02     -7.10445368E+02
     -3.55095169E+02      7.25941619E+01      4.62145853E+02
     -6.06997354E+02     -3.20306085E+03      2.00666608E+02
     -2.51517373E+03      2.39701294E+03      4.67033381E+02
      7.90774900E+02      2.98919392E+02      7.34179158E+02
     -1.14904901E+02     -2.50802637E+03      2.25153317E+03
     -1.26192673E+03     -1.17839260E+03      3.03258347E+03
     -1.27261049E+02     -6.94591813E+02      2.38517175E+02
      1.69052583E+03     -3.14864399E+02      8.05925427E+02
      8.63834578E+02     -5.77929611E+02      1.39604349E+03
      1.97081312E+03      8.19075029E+01     -2.58378902E+03
      3.67976118E+02      8.04945311E+02     -5.03689622E+01
      1.30322805E+03      1.08585732E+02      2.32076162E+03
     -2.59504307E+03      2.31521082E+03     -1.39165286E+03
     -1.60958253E+02     -3.77206076E+03      1.45658921E+02
     -1.91229241E+02      4.25583303E+02     -1.69665273E+01
      7.92368482E+02      2.68898998E+03     -9.27315549E+02
     -1.18483159E+03      2.55398157E+03      1.61094506E+03
     -4.00191675E+02     -6.09035964E+02      3.97225226E+02
      1.32219805E+03     -1.99353033E+03     -8.07267452E+02
      1.41226940E+02     -1.94104168E+03      1.31004488E+03
      2.29421439E+02     -2.57972042E+02      5.19443232E+02
     -1.37896962E+03      1.82390406E+03     -3.74043106E+02
      4.61396018E+02     -5.10666110E+02      4.71613414E+02
     -1.47185178E+02      5.24842912E+02      7.28520691E+02
      2.88638480E+02     -4.21588593E+02      2.34331723E+02
      1.17182485E+03     -1.48788989E+03     -3.51649004E+03
      4.54956251E+02      4.49568086E+01      7.88519306E+02
      6.07030301E+02      4.11682337E+02     -2.01211754E+03
     -5.12944122E+02     -1.50456279E+03     -3.19344591E+02
      4.18605873E+02     -2.90507397E+02      3.38330469E+02
     -5.39795760E+02     -3.59712299E+02      2.46679930E+02
     -5.30933001E+01      7.23890613E+02     -1.35399686E+03
     -1.00213948E+02     -9.00988551E+01      7.29200937E+02
      1.39137966E+02     -1.26551709E+03      1.01526843E+03
      7.95285834E+02     -2.54868529E+02     -9.14013091E+02
      7.49626615E+01     -6.44518973E+02      1.76065329E+01
     -3.88375983E+02     -4.93875407E+02      2.43889449E+03
      7.97332277E+02      2.48355352E+03      1.64218726E+03
     -4.53403431E+02      5.17887882E+02      9.29779386E+00
      2.72824736E+02      8.32155222E+02      1.98888609E+03
     -2.03241269E+03     -1.32581189E+02      2.66119761E+03
     -9.42796836E+02     -2.38740795E+03      3.09727089E+03
      3.82974999E+02      8.81564325E+02      8.27256858E+02
     -1.57857135E+03     -2.76798047E+02      1.52446826E+03
      2.02637959E+03     -1.31239939E+03      1.86964383E+03
      1.05938067E+03      5.55611038E+02     -1.36870348E+03
      5.90624251E+02     -7.05502869E+02      1.52439224E+02
      8.25551964E+02     -7.92438150E+02     -1.33901743E+03
     -1.38436066E+03     -1.91239771E+03      3.86457654E+03
     -3.81025847E+02      2.27965792E+02      1.33159692E+02
      3.67469430E+03      2.65621616E+03     -1.46369722E+03
     -1.75463172E+03      7.83402421E+02      2.37961648E+03
      2.62999964E+02     -3.42083260E+02      3.48879257E+01
      1.42772387E+03     -7.95359719E+02     -1.62534373E+03
      4.65731033E+02     -2.72279518E+02     -1.05998685E+03
     -1.57821123E+02      8.66046268E+02      5.77240001E+02
     -5.15668415E+02      1.69888602E+03     -1.53799473E+03
     -3.33229569E+03      6.45457374E+02      3.49389076E+02
     -3.58847576E+02     -5.48355019E+00     -6.05942633E+01
      5.00625771E+02     -1.51307556E+03      5.02025112E+02
      2.82211120E+03      3.42648742E+03     -1.03809044E+03
     -4.67936009E+02     -5.49880978E+02     -4.08644873E+02
      8.68201181E+02     -2.72867894E+03     -9.85009540E+01
      9.90494155E+02      1.68083982E+03     -1.59243930E+03
      2.96775642E+02      3.89791800E+01     -1.76157519E+02
     -4.22758307E+02      2.01477668E+03      1.34350735E+03
     -2.40884866E+03     -4.17499732E+02      1.99904426E+03
     -8.21025519E+02      6.64995381E+02      5.03783900E+02
     -1.94512795E+03      6.69920467E+02      1.27435665E+03
     -7.00614876E+02      2.47977296E+02     -2.30257226E+03
      6.41780176E+02     -9.26615694E+02      8.03861317E+02
      2.87752307E+03      1.26562570E+02     -9.75288030E+02
      5.40273110E+02     -4.86912527E+02     -1.13240369E+03
     -1.40842972E+03     -5.71563338E+02      2.02375847E+03
     -8.94894410E+02      2.31617392E+02      3.56089988E+02
     -6.82995333E+02      1.22568709E+03     -4.20822727E+02
     -2.88403860E+02      7.00681317E+02     -1.38622809E+03
     -1.87230249E+02      1.65375216E+03      1.65667005E+03
      1.63658520E+01      2.00564979E+02      9.20763596E+02
      1.42532839E+03     -4.14995530E+02      2.75647963E+03
      1.99716550E+03      1.46350005E+03     -1.40127437E+03
     -5.14223128E+02     -6.94826285E+01      5.32330556E+01
     -1.16564393E+03      2.89253514E+03      1.47048880E+03
      9.76308477E+02     -1.67852773E+02     -2.00898036E+03
     -2.00456125E+02     -3.17603550E+01      3.94190061E+02
      1.55587839E+03      9.76605201E+02      1.59173575E+03
     -9.14733497E+02     -3.93696349E+02      7.28557284E+02
      1.37933802E+02      5.38083921E+02      7.18443856E+02
      2.37742304E+03      1.70162590E+03      1.09704853E+03
     -2.36413392E+02     -3.16369208E+03     -1.05377444E+03
      1.45081692E+02     -1.36741142E+01     -4.94464115E+02
     -9.19282135E+02      2.46254151E+03      1.63054867E+03
     -2.31078466E+03     -1.32252354E+03      1.66076470E+03
      8.95597445E+01      2.19044725E+02      9.58280611E+01
     -6.82486321E+02     -8.71165559E+02      4.09242549E+02
     -1.49487612E+03      2.02645733E+03      3.44630205E+02
      1.63459314E+02      3.96739748E+02     -5.07553290E+02
     -9.96333944E+02      2.41053422E+02     -6.82831218E+02
      1.90178610E+03     -2.47502269E+03      7.68318434E+02
     -5.39366664E+01     -2.19966936E+02     -3.27898609E+01
     -4.37532300E+02     -2.24676652E+03      1.95923066E+02
     -3.17728526E+02     -6.13519906E+02     -1.37583348E+02
      7.17913685E-01      3.64599854E+02      1.19336592E+03
      2.34413187E+03     -1.66887163E+03      1.53840276E+03
     -2.92234575E+03     -2.49501789E+01      2.26682869E+03
     -4.86333765E+02      1.95678810E+03      3.55678213E+02
      3.22521286E+02     -4.39023979E+02      1.03205653E+02
      5.40947032E+02      1.06849106E+03     -1.22074408E+03
     -3.43290505E+02      1.13195289E+02     -8.64326361E+02
     -1.36976435E+03      1.09748917E+02      5.66813496E+02
     -2.48009165E+02     -4.63015972E+01     -2.61111659E+02
      1.48072066E+01      1.68233946E+03      7.52786732E+02
      9.35483936E+01     -4.26796825E+03     -9.77964525E+02
      6.85204186E+02      3.75041042E+01      5.86587389E+02
      4.09075336E+03     -2.90881399E+03     -8.39341376E+02
     -3.74209774E+02     -2.43881395E+03      2.72925736E+01
     -1.08251802E+01     -4.62867619E+02     -7.72161681E+01
      1.53197707E+03     -5.15440696E+02     -3.17747522E+03
      1.19472141E+03      1.71593955E+03      2.96520675E+02
      1.40753996E+03     -1.17967214E+03      1.47687415E+02
      1.60747622E+03     -3.87173702E+02      1.91170422E+00
     -3.69826741E+02     -2.15861034E+02      2.66773528E+03
      2.05635070E+03      7.28319436E+03     -2.03243517E+04
      6.10892301E+02     -3.94994674E+02      1.70340561E+03
     -5.89555881E+02      6.33741443E+02      5.13953130E+02
     -1.43104998E+02      5.03935899E+02      4.52479065E+02
      9.11873768E+02      3.61722833E+02      5.87809820E+02
     -7.30526236E+02      2.47003092E+03     -5.20587596E+02
     -4.96189127E+02     -3.53312303E+02     -2.43366752E+02
      3.68822503E+02      9.50669708E+02      5.83233303E+02
      1.35556570E+03      4.61378929E+02      1.94214906E+01
      6.94732823E+02      7.73645319E+02      5.33213545E+02
      1.15717163E+03      1.04431629E+02      1.00332290E+02
      3.39723660E+03     -1.67370908E+03      1.65258489E+03
     -2.33747159E+02      5.03689179E+02      5.31883740E+02
      1.39032043E+03      1.05101672E+03     -2.35569376E+03
      2.89950416E+02      2.91933211E+03     -2.95844703E+03
      2.01453379E+03      6.49966286E+02     -3.27906920E+03
      6.15898488E+01     -6.33357137E+02      1.37773703E+02
      4.16707075E+02     -7.38018135E+02      2.74374056E+03
      4.52032872E+02     -1.78572527E+03     -1.22990029E+03
      1.16040371E+03      1.74356469E+03     -1.44779262E+03
     -2.21055589E+02     -6.68259422E+02      1.24079423E+02
      1.02427756E+03     -1.09915964E+03      1.46206797E+03
      1.28842257E+03      2.92954488E+03      1.48208305E+03
      4.15736034E+02     -5.90081063E+01      2.17348165E+02
      1.21268598E+03     -6.63972073E+02     -4.46965017E+03
     -2.41412610E+03     -1.24802615E+03      2.01681797E+03
     -8.94074358E+02     -3.96165978E+02      7.59920695E+02
     -5.92079457E+02      1.54653526E+03     -1.98803729E+02
      1.22570431E+02      2.29433322E+03     -4.32957802E+02
      2.22731471E+01     -7.30203208E+02     -1.69663954E+02
     -1.56238042E+03      1.59181219E+03     -1.77912619E+02
      1.06981005E+02     -2.26788338E+02      4.25974604E+02
      1.87379768E+02     -6.86301262E+02      4.42022602E+02
      3.38282772E+03      1.70574727E+03      1.33036818E+00
     -5.54271102E+02     -2.54769513E+03      8.36892258E+02
      6.10030216E+02      6.88293463E+01     -4.92443633E+02
      2.93018228E+03      8.20218446E+02     -4.01720800E+02
      2.52057478E+02      1.71301899E+03      1.91626692E+03
     -1.37547070E+02      2.63328202E+02      3.98917898E+02
     -1.86686425E+03      1.52391864E+03      2.59372420E+03
     -7.78701398E+02     -4.32327540E+02      5.59710790E+01
     -1.27651298E+02     -6.32962462E+02      1.53525962E+02
     -7.73543685E+02      1.56719032E+03      3.70975547E+02
     -1.45705796E+01     -1.73529411E+03     -1.39381398E+03
      3.85655712E+02     -3.30103947E+02     -2.37923594E+02
     -1.73055062E+03     -2.91770822E+03     -1.10841990E+03
     -2.54090143E+02      3.94914705E+02      1.58819129E+03
     -2.16211628E+03     -1.56112804E+03     -1.01613967E+01
      1.81740539E+02      2.45093348E+02      5.90408175E+02
      3.16253058E+03      1.13442327E+03      7.08686533E+02
      4.11470542E+02      9.80055249E+02     -1.82554053E+03
      3.44450269E+03      1.21246882E+03     -3.10063545E+02
  }
}

Hamiltonian = DFTB {
  SCC = Yes
  SCCTolerance = 1e-6
  MaxSCCIterations = 200
  ForceEvaluation = Dynamics
  MaxAngularMomentum = {
    C = "p"
    H = "s"
  }
  Charge = 0.0
  SpinPolarisation = {}
  Eigensolver = Standard {}
  Filling = Fermi {
    Temperature [Kelvin] = 300.0
  }
  SlaterKosterFiles = Type2FileNames {
    Prefix = "../../pbc-0-3/"
    Separator = "-"
    Suffix = ".skf"
    LowerCaseTypeName = No
  }
  KPointsAndWeights = {
    0.0000000000000 0.0000000000000 0.0000000000000 1.00000000000000
  }
  Dispersion = LennardJones { 
    Parameters = UFFParameters {}
  }
}

ParserOptions = {
  ParserVersion = 3
}
