Geometry = GenFormat {
<<< "system.gen"
}

Driver = VelocityVerlet{
  Steps = 50000
  TimeStep [fs] = 0.2
  MDRestartFrequency = 5
  Thermostat = None {
    #InitialTemperature [Kelvin] = 300.0
  }
  Xlbomd{ 
    IntegrationSteps = 6 
    MinSccIterations = 2
    MaxSccIterations = 200
    SccTolerance = 1e-6 
  }
  Velocities [m/s] {
     -6.75972718E+02      4.33137247E+01      7.98806628E+02
      1.17046343E+03     -2.58879739E+02      2.68984225E+03
      4.36146126E+02     -1.58999562E+02      1.26198437E+03
     -3.76538024E+01     -5.63859324E+02      1.02973599E+03
     -6.02427826E+02     -8.31896615E+01     -3.64514586E+02
      2.01708251E+03     -1.65051236E+03     -6.88551378E+02
      2.24691580E+01     -4.27678612E+02      2.74178894E+02
     -5.67163470E+02     -1.62039531E+03      3.87768819E+02
      1.32487244E+02     -5.70197514E+02      2.23777946E+03
     -9.09517362E+01      4.19458909E+02     -1.76493304E+02
     -8.01259975E+02     -1.76293490E+02      1.47986039E+01
     -4.39732768E+02     -5.59155649E+02     -8.58576594E+02
      4.00770186E+02     -4.36667826E+02     -1.76580955E+02
      1.63539855E+03     -7.94118170E+02     -1.80698527E+03
     -3.13025178E+03     -3.78001127E+02      1.25045096E+03
     -2.19105999E+02      3.61601852E+02     -1.30999891E+02
      4.09527207E+02     -1.50971731E+02     -1.49437972E+03
     -1.56582527E+03      6.14998988E+02     -3.27052219E+01
      4.21402936E+00      6.29480530E+02     -7.19896184E+02
      1.71045682E+03      1.01963043E+03      4.56686066E+02
     -6.66466678E+02      9.12472843E+02      1.30071437E+03
      4.30174319E+02      8.08662488E+02      6.09970212E+02
      5.77176964E+02      2.90067139E+03     -1.56081252E+03
      9.40171198E+02     -1.87595354E+03      2.52160742E+02
     -3.65360240E+01     -4.75510432E+02      2.92938358E+02
     -1.22085898E+03      4.89347503E+02     -5.30186888E+02
     -1.63464676E+03      5.55983875E+02     -3.17048155E+02
     -3.70618124E+03     -1.49109917E+03     -9.84006714E+02
     -1.31866556E+02     -2.77842085E+02     -3.22079070E+02
     -1.87353005E+03     -1.20558758E+03     -4.29868384E+01
      5.51805472E+02     -1.66178153E+03     -1.46345207E+03
      2.40158325E+03     -3.92061898E+03     -2.36490083E+02
      1.51112178E+02      3.65086598E+02     -3.68908447E+02
      8.97964800E+02     -2.69247986E+03     -4.68390545E+03
      2.61914951E+03     -1.51686409E+03      3.83086936E+03
      1.20120316E+02      9.82445894E+02      1.59953636E+02
     -1.48858504E+03      1.14548299E+01     -1.91583516E+03
      8.48710914E+02      5.80277952E+02     -1.62816028E+03
      5.98459076E+01      2.31805789E+02      1.20168720E+02
      4.26822626E+02      1.96577586E+03      1.55491964E+03
     -2.69120558E+03      2.05782284E+02      4.74431467E+02
      1.93675584E+02     -6.94886522E+02     -1.30769029E+03
      1.65704255E+03     -2.28790700E+02     -5.95288736E+02
      1.74779048E+03     -1.55018092E+03     -3.15875775E+03
     -4.11799772E+02      2.95076376E+02     -9.77620156E+01
     -1.20803674E+03     -7.06032415E+02      3.69984102E+02
     -1.10252158E+03     -1.69896518E+03     -1.49551723E+03
     -2.30057405E+01     -1.89470430E+02     -2.51093259E+01
     -2.55788793E+03      6.25493701E+02      4.97909561E+01
     -2.35121666E+02      5.42142700E+02     -9.28183030E+02
     -1.13662456E+02      2.23489753E+00     -2.32541133E+02
     -1.77288848E+03     -3.20928568E+01      2.89800108E+03
      5.35358704E+02      2.02067701E+03      5.26603900E+02
     -6.85299697E+01     -7.59242284E+02     -2.39920138E+02
     -1.92079448E+03      2.17864827E+03      8.05653067E+02
     -7.25672818E+02     -2.67533016E+03      1.68119775E+03
     -9.58600522E+01      2.03857255E+02     -3.33118405E+02
     -2.27050956E+03      1.43385032E+03     -6.27323421E+02
      4.75758725E+02     -5.26888166E+02     -2.05364875E+02
      1.62034744E+03     -1.84126035E+02     -6.78819603E+02
     -3.28504069E+02     -9.05373240E+00      2.93927937E+02
      1.49875698E+02     -2.20016645E+03     -1.03235172E+03
     -2.98961929E+02      1.94834084E+03      1.18212221E+03
     -1.39324931E+03      9.35143563E+02     -1.67492398E+03
     -7.73524603E+01     -7.45102736E+02     -1.23811043E+02
     -7.68445877E+01      1.04320688E+03     -1.32489512E+03
     -1.81970933E+02      1.00613747E+03     -1.22507641E+03
      1.63919158E+01      1.53235473E+02     -2.51185664E+02
      3.27702334E+03      7.34981442E+02      8.35218765E+02
      8.64107373E+02      1.70188488E+03      2.58311034E+02
      4.52014738E+02     -6.97004931E+02     -8.36126949E+02
      7.49048744E+02      1.09588917E+03     -6.42239767E+02
      2.44410555E+03      1.15521794E+03     -1.35141683E+03
     -5.71833622E+02     -4.40179396E+02      5.85545612E+02
      3.49357055E+02     -1.21386098E+03      2.31996124E+03
      4.38542647E+02      1.75172925E+03      5.27850008E+01
      3.34593160E+02      1.51332179E+02     -4.89469663E+01
      2.07615828E+03     -3.89068320E+03      5.11839166E+02
     -1.48471589E+03      4.46258050E+02      8.59226146E+01
      8.72772711E+02      1.02513476E+02     -8.44636530E+02
     -1.86978120E+03     -1.09234544E+03      2.04582327E+03
      1.34884358E+03      7.30810581E+02      2.31451017E+03
      5.05653517E+02     -5.49668104E+02      3.39136090E+02
      7.97895540E+02      2.23028843E+03     -2.30746772E+02
      8.14091095E+02     -2.19157381E+03     -1.51970423E+03
     -2.91299264E+03      7.51056628E+03      2.02347801E+04
     -2.25192518E+03      1.95951540E+03     -1.26545620E+02
      5.27131600E+01     -2.50346997E+03     -2.30104931E+03
      2.45023431E+02      1.02370725E+02      1.45310550E+02
     -1.77078344E+02      3.81415400E+02     -4.39620249E+02
      2.39560597E+03      4.38137987E+02      1.05793154E+02
      6.71398011E+02     -6.54259854E+02     -1.93227812E+03
     -2.95310362E+02      7.93264113E+02      1.83512269E-01
      1.62154836E+03     -2.12427320E+03     -1.10713792E+03
      1.86738222E+03      2.81191434E+02     -1.16347408E+03
     -1.76669895E+03     -1.33070123E+03      1.63601227E+03
      2.38485016E+02     -2.48614207E+02      5.75030265E+02
     -1.22842768E+03      5.62731760E+02     -2.01975805E+02
      7.30110163E+02     -1.20323574E+03      1.07951947E+02
      4.51642055E+02      1.04509824E+02     -7.95920554E+01
     -3.28068248E+03      9.84675212E+02     -2.66211620E+03
      5.62873213E+03      2.40340842E+03      2.26606549E+02
     -4.46687339E+02     -1.26227430E+02      2.17941422E+02
     -1.22669492E+03      4.39076895E+02      6.04422329E+01
     -6.91926277E+02      9.12432557E+02     -1.52344369E+03
      2.20320357E+02     -9.27098046E+01     -4.73053799E+02
      4.82672434E+02     -1.87943665E+03     -1.89535905E+03
     -9.17045524E+02      1.80076361E+03     -8.36252299E+02
      3.07228105E+02      5.20026026E+02     -2.88137790E+01
     -1.29352998E+03      1.48565390E+03      3.23390243E+03
      8.86584098E+02      1.02760626E+03     -5.48292101E+02
     -1.44823065E+02      1.22839694E+03     -2.94333942E+02
     -1.22180428E+03      3.38904386E+03     -8.33645797E+02
      2.75330991E+03     -1.74996269E+03     -3.75998960E+02
     -5.02675104E+02      7.19042722E+02     -9.39350813E+02
     -2.80099255E+02     -6.70719815E+02     -1.01871076E+03
     -3.12798244E+03     -8.71005456E+02     -7.04183418E+02
      4.12678702E+01     -6.96852797E+02     -1.89208881E+02
      1.09359335E+03      8.17555925E+01      2.95486096E+02
     -1.92972755E+03      3.91596664E+03      1.32136216E+02
     -2.79118277E+02     -7.16504032E+02     -1.08730903E+01
     -1.67194481E+03      1.06869558E+03     -1.77664018E+03
      6.34297218E+02      7.64560389E+02     -1.95769262E+03
      2.42230660E+02     -2.26110248E+01     -1.08869999E+03
      4.77739218E+02     -1.14248586E+03     -8.53429615E+02
     -7.09697663E+02      1.35788144E+03     -1.57234576E+03
     -6.16528223E+02     -5.40867057E+02     -4.40820940E+02
      2.77498796E+03      3.07914317E+02     -1.50947452E+03
      4.58914675E+02      2.18478234E+02     -4.05067402E+02
     -1.09601530E+02     -5.38589699E+02     -1.31762781E+03
      1.99079897E+03     -1.29270459E+03     -2.47766325E+03
     -9.66422353E+00      4.31402426E+02      5.61314765E+02
      3.84419379E+03     -6.17403493E+01     -2.28409448E+03
     -4.41484017E+02     -2.16188017E+02     -6.10369565E+02
      4.10374595E+02     -7.29786692E+01     -8.03006042E+02
      2.95749036E+02     -7.78563293E+02      8.64100346E+02
      2.98766667E+02      1.90384647E+03      7.14697232E+00
      8.89181413E+02     -2.03427355E+02      7.69718225E+02
     -2.12834508E+03     -4.55407783E+02     -2.55958703E+02
      1.30284172E+03      1.29975461E+03      4.14832349E+02
      4.16058784E+01      3.20545946E+02     -2.73990587E+02
      2.81875900E+03      5.13377090E+01     -7.89604211E+02
     -8.28687476E+02     -3.24457485E+03     -3.83059571E+03
      3.49062383E+02      4.96506149E+01     -5.56681122E+01
     -1.72259921E+03      1.99073896E+03      5.02252272E+02
      1.03998118E+03     -2.67749856E+03     -2.55697503E+03
      1.94542834E+02      1.87693057E+02     -6.75034652E+02
     -2.35234209E+03      2.98779687E+02     -1.22233572E+03
     -1.05849603E+03      8.19766150E+02     -1.19377540E+03
     -3.51158577E+02     -7.42310616E+02     -7.41099176E+02
     -1.26809873E+03     -1.79001857E+02     -1.95564109E+02
      5.08526221E+02     -4.71031915E+02      4.39223842E+02
      1.16317425E+02      3.43302410E+02      1.52313668E+01
      6.45881080E+02      1.23335082E+03      4.86671062E+02
      5.91037340E+02      3.51982355E+02      8.06420634E+02
      2.61356545E+03     -2.89634925E+03     -2.72116475E+03
      1.49671624E+02      3.28847833E+01     -1.47550136E+02
      8.51259826E+02      2.76173268E+02      2.43561526E+03
     -2.78522010E+03     -1.39673843E+03      9.01327711E+02
     -1.23369382E+03     -1.05153153E+03     -6.39289184E+02
     -2.02935025E+01      1.68703780E+01     -3.65106680E+02
     -2.09232017E+03      4.88029585E+02     -9.88164985E+02
     -3.00503264E+02      6.60814974E+02      8.62327082E+02
     -5.98080865E+02      6.39714431E+02     -2.01869918E+02
     -1.61184978E+03      1.67285455E+01     -6.55344284E+02
     -9.02934759E+02     -2.07827872E+02     -1.11334091E+03
     -2.08840763E+02     -2.66153151E+02     -5.76022159E+02
     -2.60362333E+02     -2.83097846E+03      1.84847532E+03
      2.13155167E+03     -1.64431783E+02      6.28820019E+02
     -2.31729881E+02     -7.83735148E+02      2.28752028E+02
     -2.42150345E+03     -1.21074406E+03     -6.85590612E+02
     -2.05969255E+03     -1.88056263E+02     -1.74649770E+03
      3.62477127E+00      1.59457250E+02     -2.06891508E+02
      5.80095546E+02     -1.94109513E+03      1.18492541E+02
     -1.73988023E+03      1.05180372E+01      1.24817776E+03
      3.82748465E+02      4.96116346E+02     -1.16688551E+03
      1.75192007E+02     -9.06832496E+02      1.46370602E+03
     -3.34621154E+03     -9.49626119E+02      1.59686679E+03
     -4.43231930E+01      5.88596654E+02     -1.02335309E+02
     -1.78461276E+03     -2.18204719E+03     -3.18389510E+03
     -1.38574944E+03      7.66024910E+01      1.29126494E+03
      1.63446126E+01     -2.77335198E+02     -2.54276702E+02
      3.58116491E+02     -7.03238378E+02     -2.04826274E+03
      4.97444499E+02      1.01797158E+03     -1.08301011E+02
      1.45227070E+02     -7.18675292E+02      1.75662442E+02
      1.77481158E+03      2.06727260E+03      7.53446628E+02
      2.41993479E+02      1.97629551E+02     -1.25182152E+03
     -9.58289749E+01      5.69035212E+02      1.86839220E+03
      3.51739284E+02      1.18962779E+02     -4.48267070E+02
     -8.32281740E+00     -1.15162456E+03      2.20651258E+02
     -2.53103599E+02     -5.47310279E+01      2.10678195E+02
     -8.92038586E+02      5.36219605E+02     -3.98370616E+03
      1.20617110E+03      5.09024163E+02     -3.51004767E+02
      1.38908939E+03     -1.56966919E+03      5.45588123E+02
      9.33289834E+02      1.04705735E+03     -1.07573287E+03
      7.84590744E+01      2.00773033E+02     -7.32825422E+02
     -1.54324331E+03     -3.18601587E+03     -1.97946687E+03
      1.29040366E+03     -1.44241618E+03      1.49639299E+03
     -2.90141407E+02      6.66700385E+02      1.06998171E+03
     -5.93838885E+02      5.94813254E+01     -1.65636517E+03
      4.53811390E+02      2.96057876E+03      2.14929141E+02
      4.57830207E+02      2.17609283E+02     -7.93997151E+02
     -7.34685166E+02     -8.40160675E+02     -4.72568867E+02
      1.49376626E+03     -1.12235774E+03     -6.04658248E+02
     -2.03653906E+00      2.64748637E+02     -5.50118634E+02
      1.73634274E+03      1.18262391E+03      5.09322365E+02
      8.40021171E+02     -3.64742073E+02      1.97256590E+03
      1.88549523E+02     -6.18573952E+02     -2.82746037E+02
     -1.95995271E+03     -2.91856836E+03     -1.60191337E+03
     -7.41994279E+02      4.96536381E+01     -1.34731239E+03
     -8.91001424E+01      3.55393794E+02     -5.21973520E+02
     -1.55279657E+03      4.29681995E+02      3.04965343E+03
     -3.50175862E+02     -1.22344526E+03      2.52692145E+03
      4.29707173E+02      2.73313561E+02     -4.29191439E+02
      2.73297534E+02     -2.92438113E+03     -1.31236391E+03
     -1.24134749E+03     -1.30248935E+03     -9.83787047E+02
     -2.01618948E+01     -3.17291338E+02      2.34318298E+02
     -1.31641247E+03     -1.73844260E+03     -6.82701412E+01
     -1.14274837E+03     -1.98187589E+02      3.80065705E+02
      1.98187344E+03     -9.46959848E+02      1.17667067E+03
      1.62771869E+02     -3.14382688E+02      4.11416791E+02
     -2.78122822E+03      4.87629464E+00      2.31183546E+03
     -2.33079940E+03     -1.68352680E+03      8.72071448E+02
     -3.36981627E+02     -1.34840854E+03     -1.84270658E+03
     -4.31917182E+02      6.19214216E+02     -1.37686926E+02
     -8.89283910E+02     -2.44038303E+03      3.27432523E+03
      7.52137077E+02     -1.18066002E+02      1.70353281E+02
      4.00811985E+02     -1.75834466E+01     -2.24132234E+02
     -9.15533204E+02      1.70335494E+03     -6.58475999E+02
      1.73541883E+03     -9.39785300E+02      1.36766437E+03
      5.88804807E+02     -1.08230393E+03     -5.86258538E+02
     -1.55985872E+02      4.94415744E+01      4.48974108E+02
      6.73225971E+02      6.15736100E+02     -9.75138888E+01
      4.85140184E+02     -6.52050647E+02     -3.63303093E+02
      7.26939497E+02      7.71644352E+01      1.92086559E+03
      7.65683597E+01     -3.67032840E+02     -1.80717966E+03
     -1.69894164E+02     -8.88858486E+02      6.34788686E+02
     -1.70129702E+03     -1.68131031E+03      1.24064486E+03
      1.20492299E+02      7.02960410E+02     -1.03891733E+03
      3.03082360E+02     -6.13295844E+02     -3.64397322E+02
      1.66972413E+03     -3.83609479E+03      8.78376593E+02
      3.70631923E+03      1.43841747E+03      3.03398329E+03
     -5.59614339E+02     -2.99938931E+02     -1.11421521E+03
     -1.11671009E+02      3.53536059E+02      7.80184358E+02
     -3.25017754E+03     -1.06973087E+03      1.39909238E+03
      9.78304046E+02     -1.83007435E+01     -2.91456474E+02
     -1.95155530E+03      1.44331792E+02     -6.25440210E+01
      8.95637240E+02     -4.51670051E+02      9.45962195E+02
      1.18638512E+02     -4.05319257E+01     -7.78622238E+01
     -1.21415043E+03      9.07588040E+01      1.48809480E+03
      1.27226544E+03     -4.37078664E+02     -1.59687174E+03
     -7.42225652E+02     -8.64559328E+02      7.43652346E+02
      2.20983761E+02     -8.41143618E+02     -4.40732871E+02
     -1.45190802E+03     -1.15120169E+03      1.17963332E+03
     -1.67881136E+03     -5.47045717E+02     -2.02992335E+03
      2.95864565E+02     -1.21323580E+03     -1.36443656E+02
      2.25099388E+02     -6.48229675E+01      5.43903562E+02
     -3.37373068E+02      8.13460549E+02     -1.99034476E+02
      1.27059110E+03     -7.19034279E+01     -7.06837977E+02
     -7.04311174E+02      1.33221811E+02     -1.14376255E+01
      3.59215545E+02      1.81208103E+03     -1.94415088E+03
      1.46605102E+03      8.35712572E+02      2.08102258E+03
     -4.32639570E+02      3.71057285E+02      3.63666653E+02
      2.25463967E+02      2.60553199E+02     -1.08613790E+03
      3.52934956E+02     -1.55330593E+03     -1.13697975E+03
      8.29757945E-01     -2.50209481E+02     -1.26458830E+02
     -2.89489206E+03     -8.38303449E+02     -1.55350189E+03
     -4.03083155E+03     -2.64203781E+03      9.15515032E+02
      4.29037545E+01     -5.29317081E+02     -9.84168384E+01
     -8.49128164E+02     -2.62054827E+01      1.26073515E+03
     -7.41371846E+01     -1.11082165E+03      1.37449500E+03
     -4.23581720E+02     -3.20781547E+02      3.39653271E+02
      1.27079593E+03     -3.95781760E+03      4.04966535E+02
     -1.16643700E+03     -2.41671155E+03     -2.57429022E+02
      7.55378387E+02     -3.62793745E+02     -6.43043161E+02
      3.61108805E+02     -1.25761125E+03      1.57738673E+03
      4.19262149E+02     -3.24257273E+02     -2.79107893E+01
     -2.54784217E+02     -4.31458581E+02     -2.16069861E+02
      6.18525702E+02     -2.81029207E+02      1.08687326E+03
      5.13181499E+02     -1.70232291E+03     -4.00433134E+03
     -3.07364670E+02      2.20504826E+02      7.70246451E+02
     -6.87390391E+02      1.08936338E+03     -2.76037102E+03
     -1.85430874E+03     -4.02578267E+02     -1.83909874E+03
     -1.30234243E+03      1.55062714E+03     -3.05785452E+03
     -1.08376363E+02      1.86362033E+02      2.50534506E+02
      7.87206180E+02      1.29924147E+03      3.41074775E+02
      1.54102686E+03      1.72074120E+03     -1.65703629E+03
     -4.66797879E+02      1.39710496E+01      2.10164357E+03
     -5.91698365E+02      4.32270450E+02     -2.34736989E+02
     -3.74395307E+02     -1.50754335E+03     -3.19117976E+02
     -9.76768338E+01      1.58444500E+03     -1.46624516E+03
     -1.03500092E+03      5.06088062E+02      3.33842465E+02
     -5.85553574E+02     -9.49517531E+02      4.59654583E+01
      8.54203235E+01      4.75407710E+02     -1.08237589E+03
      2.45194296E+02     -2.54070943E+02     -2.31733159E+02
      4.56972683E+02      1.65857483E+03      7.42143304E+02
      9.93301907E+02     -2.85566273E+03      1.77931345E+03
      8.60745595E+00     -3.68547840E+02     -1.90138954E+02
      1.77414761E+03     -1.12185769E+03      2.59317795E+03
      1.82429773E+03     -8.76523113E+01     -1.09994025E+02
      2.72757801E+02     -8.89733831E+02     -9.57247383E+01
      1.55160703E+03     -1.82838000E+03     -4.29935197E+00
      1.52601342E+02      2.03350999E+03      2.64130043E+02
     -3.12242951E+02      6.18174930E+02      4.03968965E+02
      2.16392153E+03      8.63535317E+02      1.59960032E+03
     -3.27939478E+02      4.62019226E+02     -6.23562178E+02
      2.93337085E+01      5.23378178E+02     -4.92657418E+02
      9.51046816E+02      6.44394124E+02      6.46713167E+02
      1.37769415E+03      2.66847764E+01      9.67236711E+02
     -7.17587993E+02     -1.57280664E+02     -2.48502157E+02
     -9.47457730E+02      5.13557541E+02      5.80300736E+02
     -5.92013236E+02     -2.18168889E+03      2.23096875E+02
      5.53019545E+02     -2.95117873E+02     -4.78051217E+01
      2.80262064E+03      1.13862924E+03     -1.42973017E+03
     -2.61124000E+01     -8.85500475E+02      3.95591341E+02
     -1.12540899E+03      7.90090590E+02      3.87687637E+02
      5.24051241E+02      3.49902500E+02     -5.19947602E+02
     -1.77670455E+03      2.70490855E+02      4.66848485E+02
     -1.15170494E+03     -1.67656427E+03     -7.21264468E+02
      1.54429772E+03      4.68420670E+02     -6.85028168E+02
     -7.49200760E+02      4.11675255E+01     -9.70039430E+02
     -1.13111978E+03      1.67545600E+03     -1.25420676E+03
      1.05702392E+03     -1.84477772E+03      1.20262088E+03
     -4.95695564E+02      3.10810909E+02     -5.14813104E+02
      1.55874923E+01      2.05879923E+03      2.20957093E+02
     -9.37817955E+02     -1.38458066E+03     -3.31227590E+03
      8.16638250E+02     -1.45066563E+03      2.69684603E+02
      3.46384628E+02     -2.68865004E+03     -3.32082172E+03
      1.52791863E+03      1.63885106E+03     -2.51940199E+03
     -8.95884325E+01     -9.34003023E+02      2.69180653E+01
     -1.56707955E+03      7.94396029E+02      4.77832983E+02
     -1.49313803E+03     -1.65979920E+03     -2.42198716E+03
      1.16117306E+02      2.52350570E+02     -1.12846330E+03
      4.07378126E+01      1.87171393E+03      2.16888533E+03
      3.95411367E+02      1.62233824E+03      4.53941966E+02
      2.03599931E+02     -2.26548788E+02     -8.04702693E+02
      1.09057776E+03      2.01088182E+03      7.78662346E+02
      3.01116747E+03     -5.94790445E+01      2.72858542E+02
     -3.86749159E+01      5.25502330E+02      9.25326347E+01
      4.70801076E+02      1.54503121E+03     -9.08295799E+01
     -1.01409431E+03      6.49710081E+02      1.29238662E+03
     -6.38515297E+02      2.44215944E+02     -3.13921192E+02
      2.39216651E+03      1.19679478E+02      1.37198985E+03
      1.62898850E+03      2.14501844E+03      2.57708753E+02
      6.21676178E+01      3.37966091E+02     -3.52724615E+02
     -1.18179840E+03      3.83900127E+03     -7.72719824E+02
      7.06726765E+01      9.49012638E+02      5.35149120E+02
      1.15765802E+03     -1.73370525E+03      3.48505245E+03
      5.35426593E+01      1.72116838E+02     -3.52085934E+02
      8.42862654E+02     -5.24677933E+01      2.13117158E+03
     -2.28532256E+03     -1.97650280E+03     -1.87440583E+03
     -2.02927220E+03      2.25765994E+03     -3.01630649E+02
  }
}

Hamiltonian = DFTB {
  SCC = Yes
  SCCTolerance = 1e-6
  MaxSCCIterations = 200
  ForceEvaluation = Dynamics
  MaxAngularMomentum = {
    C = "p"
    H = "s"
  }
  Charge = 0.0
  SpinPolarisation = {}
  Eigensolver = Standard {}
  Filling = Fermi {
    Temperature [Kelvin] = 300.0
  }
  SlaterKosterFiles = Type2FileNames {
    Prefix = "../../pbc-0-3/"
    Separator = "-"
    Suffix = ".skf"
    LowerCaseTypeName = No
  }
  KPointsAndWeights = {
    0.0000000000000 0.0000000000000 0.0000000000000 1.00000000000000
  }
  Dispersion = LennardJones { 
    Parameters = UFFParameters {}
  }
}

ParserOptions = {
  ParserVersion = 3
}
