Geometry = GenFormat {
<<< "system.gen"
}

Driver = VelocityVerlet{
  Steps = 50000
  TimeStep [fs] = 0.2
  MDRestartFrequency = 5
  Thermostat = None {
    #InitialTemperature [Kelvin] = 300.0
  }
  Xlbomd{ 
    IntegrationSteps = 6 
    MinSccIterations = 2
    MaxSccIterations = 200
    SccTolerance = 1e-6 
  }
  Velocities [m/s] {
      1.60308470E+02      2.36994409E+02     -3.11711379E+02
     -2.16335533E+02      1.40506132E+03      1.16528710E+03
     -3.22162885E+03     -3.30318443E+02     -1.72740519E+02
     -1.01432849E+02      3.94757689E+02     -5.33363886E+02
     -2.22752595E+02     -8.62368602E+02      3.21722681E+02
      3.96574034E+02      1.06721617E+03     -2.68747697E+03
      4.26592872E+02      5.96394665E+02      7.78846517E+02
      1.05269818E+03      2.13284072E+03     -3.71863279E+02
      1.73169945E+03     -2.30884812E+03      5.18248032E+03
      1.44302067E+02      8.62946330E+01     -6.13551122E+01
      2.16538437E+02      9.59097413E+02     -7.16885837E+02
     -1.53218651E+03      1.20949763E+03     -2.18993347E+03
      5.00052333E+02      1.17171746E+03      3.30378499E+02
     -1.11803836E+03     -2.43329923E+03      2.08504318E+03
      2.05424015E+03     -2.35791481E+03      4.77287284E+02
     -5.24261876E+02     -1.71163002E+02     -4.08943630E+02
      6.34050482E+02      1.14597004E+03     -4.08671009E+02
      4.70283783E+02      2.60601374E+03      4.63878215E+03
     -5.01562588E+02     -5.33421569E+02     -2.33066116E+02
      1.00669436E+03     -3.40754831E+02      5.19505519E+02
     -2.06633239E+03     -1.17624389E+03     -2.48636398E+03
      3.90316648E+02     -2.98994036E+02     -3.04205256E+02
      1.78371169E+03     -3.40878923E+03      1.86518825E+02
     -1.09900740E+03     -7.12527436E+02      7.03798466E+02
     -1.29182692E+02      1.51135805E+03      1.82253532E+02
     -6.12762842E+02     -1.00513212E+03      1.71183302E+03
     -1.06937341E+03      2.49318276E+03     -1.40392164E+03
      3.71660098E+02      1.38040870E+03     -9.77827720E+02
     -4.33693908E+02      3.10238462E+02      2.03218050E+01
      7.18517793E+02      2.35894983E+02      1.22574459E+03
      1.40114008E+03      1.94919173E+03     -2.25117238E+03
      7.94948017E+02     -7.59995130E+01      1.34499065E+03
     -3.05715200E+02     -9.45816661E+01     -5.51646391E+02
     -2.72310432E+02      8.79160916E+02      7.71426740E+02
      1.20603380E+03      8.13417770E+02     -1.78448219E+03
      4.04999476E+02      2.87109666E+01     -4.43212702E+02
     -1.65081346E+03     -8.23692080E+02      1.02663789E+03
     -1.56312831E+02     -5.41628235E+02     -1.26352998E+03
     -8.02595141E+01      6.60567794E+02      1.15669449E+02
     -2.41049772E+03     -8.58488783E+02      6.22437232E+02
      1.83233049E+03      1.85431607E+03     -8.50885057E+02
      7.31920324E+03     -1.69441981E+04      1.14743078E+04
      2.81460580E+03     -6.13565014E+02      6.07910677E+02
     -2.90993219E+03      1.46332674E+03     -2.22063492E+03
     -3.82222357E+02     -3.79100202E+02      1.67546166E+02
      2.72851111E+03      1.20741466E+03      3.04900493E+02
     -2.62258918E+02      7.19580773E+02     -1.44487680E+03
      2.75098941E+02      6.19551628E+02     -5.64943262E+02
     -5.21629377E+02     -1.72088372E+03     -2.88917149E+02
      2.01418211E+03     -3.98711220E+02     -1.67383936E+02
     -8.25086208E+01     -3.39650121E+02      7.48064089E+02
      1.14527692E+03     -3.91907360E+02     -1.12504230E+03
     -1.97711500E+02      1.19211746E+03     -1.39310234E+03
     -1.86319901E+02      9.71198601E+02      4.50508205E+02
      5.50573101E+02     -8.56242917E+02      7.69635613E+01
      1.35306469E+03      1.77742997E+03     -9.31370032E+02
      5.11276036E+02      3.69319301E+02     -5.06354647E+02
     -1.24830860E+03      2.46214799E+03     -4.21933181E+02
     -4.61134561E+02      6.27344798E+02     -5.15634236E+02
      5.05771258E+02     -7.13535138E+01     -1.71203414E+03
      8.73789030E+02      1.89373919E+02     -1.16353049E+03
     -1.35291345E+03     -9.76192380E+02     -1.34961133E+02
      2.39375112E+03      6.81272000E+02     -1.83465619E+03
     -1.55416314E+03     -4.40239681E+02     -3.62767124E+02
      2.81389974E+02     -2.42169604E+02     -3.66596343E+02
     -2.37025480E+03      2.45127228E+02      4.61861457E+02
      8.95114459E+02      1.32939222E+03      4.24999596E+02
     -2.15666977E+02     -1.48374703E+02      2.56907634E+02
     -3.67224833E+02     -4.94243254E+02     -8.01722111E+02
      1.16425362E+01     -1.27079368E+03     -2.11750069E+02
      1.52127238E+02      1.41430902E+02     -2.35643694E+02
     -1.37088170E+03     -2.61532741E+03     -8.50151927E+02
     -4.00652895E+01     -1.04747672E+03      1.91298153E+02
     -2.17125486E+02      7.81395799E+02     -4.16539322E+02
      1.89283055E+03     -1.98556109E+03     -3.70389379E+03
      9.42696439E+02      3.21894354E+02      1.45738212E+03
     -3.25234063E+02     -9.57009281E+02     -5.76745176E+02
      7.69742884E+02     -5.58036239E+02      3.44157605E+02
     -4.03803201E+02     -2.96434075E+03     -3.11259005E+02
      6.58411515E+01      8.75080809E+02     -2.28100266E+02
     -1.12802497E+03      2.72605371E+03     -2.01652884E+03
     -4.47429683E+02      2.31059960E+03      5.52668834E+02
     -5.18567497E+02      3.19095891E+02      1.55938444E+02
     -1.92331142E+02     -2.40729163E+03      5.06283731E+02
     -1.21990479E+03      8.28992316E+00     -1.46296427E+03
     -3.75735974E+02      4.58708269E+02     -1.35372792E+02
     -5.60026486E+02      8.28681397E+01      1.70942250E+03
     -1.84346835E+03     -1.60693924E+03     -5.78725001E+02
     -2.32649389E+02     -1.33717298E+02      3.37756670E+02
      3.60111392E+03      3.05455925E+03      7.50564460E+02
      9.82166794E+01     -2.04369235E+03      8.09339696E+02
      9.40064926E+02      1.17573062E+03     -1.16863157E+03
      3.49216174E+02      5.02159768E+01     -3.51114613E+00
      1.23559820E+03     -6.64581527E+02     -3.15378322E+03
      1.16998861E+03     -2.73719026E+03     -1.25743708E+03
     -9.84914723E+02     -6.16611168E+02     -8.99857824E+02
     -2.31446982E+02     -3.65267930E+02      3.60016267E+02
     -2.19158888E+02      1.03686389E+03      9.62359167E+01
      3.69684580E+02      1.00055157E+03      7.09122196E+02
     -6.52626711E+02     -6.21425144E+02      2.29046639E+02
     -3.01875450E+03     -1.07981549E+02      3.37074004E+03
     -5.31086220E+02     -4.11047549E+02      5.39538272E+02
     -5.50441503E+02      4.95112870E+01      6.73933338E+02
      2.04422724E+02      3.82506212E+02      2.13265565E+03
     -7.10406368E+02      1.86770048E+03     -3.44385809E+02
     -2.20409872E+02     -9.66500638E+02     -8.27725348E+02
     -2.56582143E+03     -1.60269845E+02     -8.36467531E+02
      1.24860592E+03     -1.34511511E+03      1.39617139E+03
     -3.93406467E+01      6.35572339E+02     -1.36510407E+02
     -1.84753713E+03     -3.87467405E+03      1.84902773E+03
     -6.65089344E+02     -1.73004754E+03     -1.95687365E+03
      1.69627137E+02     -2.53944990E+02      6.09015837E+02
      6.94756549E+01     -5.42755829E+01      2.71273187E+03
      8.92926067E+02     -1.03163051E+03     -9.96341442E+01
     -2.53045688E+02      2.76717835E+02     -3.53264884E+02
     -6.23885550E+02     -1.78980821E+03      1.79948244E+02
      1.87564935E+03     -9.04685621E+01      2.32249903E+02
     -8.58688880E+02      6.27373933E+02      4.05369077E+01
     -1.92595613E+03      1.72669395E+03     -2.16090534E+02
      1.00362411E+03      1.21879920E+03     -1.72495734E+03
      3.22076454E+02      1.87903959E+02     -4.35147594E+02
     -2.11846461E+03     -2.66898385E+02      7.25816217E+02
     -2.48359403E+02     -4.24159693E+02      7.04028650E+02
     -1.93510435E+03     -1.83562049E+03      2.76172072E+03
      3.43554326E+01      2.76398951E+02     -6.68848947E+02
     -5.97914615E+02     -1.98132949E+03      1.64967308E+03
      4.49257528E+01      3.17985094E+03      8.87449906E+02
     -7.70389586E+02      1.54381052E+03      6.60356944E+02
     -9.38471847E+02      6.80612577E+00      2.05433503E+02
      2.75124950E+03     -4.29259073E+01      1.08038990E+03
     -2.03988697E+03      2.26622831E+02     -7.91529624E+02
      8.81332651E+02     -2.40867539E+02      9.54504282E+01
     -4.58879091E+02     -4.89499804E+02     -9.10547280E+01
     -2.82219216E+03      1.70496219E+03     -1.00788598E+03
      7.39199253E+01      2.90931848E+02      5.25687513E+02
      2.38566589E+02      4.24353008E+03      1.65799952E+02
     -1.12625510E+03     -4.53970028E+02      1.05389513E+03
      4.28538819E+02     -5.41427001E+02     -2.67056762E+02
     -1.34980706E+03      2.23042631E+03      1.49581885E+02
     -2.42099801E+03      1.90622748E+03     -3.51905009E+01
      2.93732422E+01      4.98211275E+02      3.21568420E+02
     -3.86965989E+03      2.61570165E+03      2.47159613E+03
     -1.10842211E+03      4.72318991E+02      1.28404044E+03
     -7.02014069E+02      4.90285744E+02      7.90478807E+01
     -5.21401382E+02     -3.46025937E+01     -3.22923230E+02
     -1.79404155E+03      8.20598744E+00     -1.14710406E+03
      1.60301188E+02      5.02986099E+02     -5.56152589E+02
     -4.05498024E+02      5.13481566E+02      9.45096842E+02
     -1.51175609E+03     -1.00977901E+03      1.15029841E+03
     -7.82497247E+02     -5.91987139E+02      3.63533252E+02
     -3.71754680E+02     -2.52217810E+02     -1.46131763E+03
      3.11321280E+03     -1.08359341E+03      2.31278343E+03
      1.35243353E+02     -6.93556301E+02     -4.76672107E+02
     -3.13829179E+03     -1.66646686E+03     -2.82328989E+02
     -5.57054158E+01      2.53556472E+03      5.79580635E+02
     -1.70604009E+02      1.60953071E+03     -8.96009225E+02
      3.19939606E+02      1.21838215E+02     -2.23137824E+02
      2.28229155E+03      2.25777751E+03      3.97130657E+02
     -1.91053489E+03     -2.89322977E+03     -6.76402607E+02
      2.66202633E+03      3.87171401E+02     -7.50022876E+02
     -6.56246183E+01     -7.34891150E+01      1.15928722E+03
      2.68867467E+03      9.09575317E+02     -1.17455780E+03
      2.09901297E+03     -1.23563452E+03     -8.32991552E+02
      2.30965540E+02      4.72941732E+02     -4.55507618E+01
      2.41266507E+03     -1.25635798E+02      2.19051893E+02
      1.73347189E+03      1.71560656E+03      3.10976433E+03
     -3.67053853E+02      5.65251485E+01     -1.04455457E+02
     -1.40733976E+03      3.30295108E+01      1.17584940E+02
     -1.09091978E+03     -6.17394918E+02      1.02839729E+03
     -4.54547329E+02      6.59850561E+02      5.13899939E+02
      1.00893858E+03     -1.29366172E+03     -8.55894403E+02
     -1.49609379E+03     -7.76110360E+02      1.13511926E+01
     -5.35872195E+02     -2.39772931E+02     -5.19337384E+02
     -1.93486653E+03     -3.55154126E+03      3.87324979E+02
     -5.12260700E+02     -3.68496094E+02     -1.82024071E+03
     -6.55154436E-01      7.97769757E+02      1.72720475E+02
      3.14859548E+02     -7.30701085E+02     -1.58562543E+03
      3.08441379E+03     -2.11399916E+02      6.31941548E+02
      3.93376719E+02      4.94768440E+02      8.25661221E+02
      1.63424804E+03     -1.04660662E+03      8.34564616E+01
     -6.40716312E+02      2.42212440E+03     -9.34060125E+02
     -3.61148882E+02      2.25084494E+02     -3.27369500E+02
     -1.84750960E+03     -9.15179323E+02     -1.93165418E+03
     -3.02801865E+03      1.97303413E+03     -7.66359892E+02
      4.49404852E+02      1.77896380E+01     -3.84606659E+01
     -8.87852824E+02      2.25876237E+03      5.14440986E+02
     -1.66355785E+01     -2.40650204E+02      1.12074491E+03
     -2.11288781E+03      1.63166091E+03     -1.06873821E+02
      9.94089376E+01      3.22596767E+02     -3.25007715E+02
      2.00724343E+02      2.19582063E+03     -3.30125369E+03
      2.08660459E+03     -2.41864014E+03     -3.70806513E+03
      1.22826587E+03      6.13449492E+02     -3.97196954E+03
     -5.09848404E+02     -9.41365887E+01     -4.43061516E+02
      2.33266122E+03      5.11657885E+02      8.62271089E+02
      5.03657263E+02     -1.57742330E+02      2.63244980E+03
     -6.36446555E+02      1.17872722E+01      1.43998423E+02
     -3.38625961E+02     -1.52546934E+02     -3.40391859E+03
     -2.55479688E+03     -1.66268582E+03      4.51056048E+02
     -2.71396346E+02      6.41989283E+01      1.99482066E+02
     -1.79604524E+02      1.86200670E+02      1.79003615E+03
      6.44758464E+02      7.72118753E+02     -2.16294647E+03
     -7.92081402E+02      3.46164874E+02      4.94608879E+02
      6.88749537E+02     -1.04910605E+03     -7.57970604E+02
     -3.47655344E+02      1.18778954E+02      1.76503331E+02
      4.50254426E+02      2.20262910E+02      2.29069204E+02
      9.74434550E+01      4.68593565E+02     -2.88175054E+03
     -4.43420898E+02      3.46268256E+02     -1.01940937E+03
      6.42077148E+01      2.69148364E+02     -5.35040893E+02
      5.32615014E+02     -1.54161178E+03      4.26667724E+02
      4.99026740E+02     -5.48246499E+02     -9.46800165E+02
      1.36257763E+02      1.50091305E+02     -1.35375472E+03
      2.05855064E+03      2.07456732E+03      1.47504324E+03
      1.66453004E+03     -5.19301301E+02      6.43840575E+02
     -1.05860196E+03     -5.59888192E+02     -6.50904231E+02
     -9.71661617E+02     -6.93411664E+02      3.83139921E+02
      1.53986212E+03      2.65684398E+03      4.04488127E+02
      9.49755118E+02      7.18441362E+02      5.85309810E+02
     -5.80223267E+02     -5.54874145E+02      1.00285240E+03
      3.42329054E+03      1.48034096E+02     -3.67227223E+03
     -3.69334063E+02      3.14166959E+03     -2.40287684E+03
      6.13236453E+02     -5.31782428E+01      2.28083356E+02
     -4.97791913E+02      1.53935760E+03      1.45626742E+03
      6.90758925E+02     -7.99455525E+02     -1.22562644E+03
     -1.73432387E+03     -6.96020965E+02     -2.43633327E+03
     -3.02369186E+02      8.45403208E+02      6.00622123E+01
      1.18726571E+03      1.93393097E+02      2.89761626E+02
      9.78030927E+02     -1.73182101E+03     -2.34848968E+02
      6.47480173E+01      7.14067653E+02     -8.54782932E+01
      1.48480928E+03      6.19896215E+02     -3.24082147E+02
     -7.42280774E+02     -8.34861718E+02      1.04209688E+03
     -4.18830865E+02     -5.52615475E+02      2.31707793E+02
     -7.62739820E+02     -1.62097301E+03      7.70131805E+02
     -1.82623845E+03     -1.09095436E+03      1.10830181E+03
      7.91351008E+00      6.71976357E+02     -3.87914050E+02
     -1.99738414E+03      1.60029815E+03      2.54591453E+03
      1.85078282E+03     -8.44218293E+02     -2.94027397E+02
      3.45548070E+01      7.74723614E+02     -5.98886620E+01
      9.85919160E+02      2.78403929E+01      5.06843989E+02
     -2.33288081E+03      3.89818636E+02     -2.91498710E+03
      6.98681502E+02      2.87695576E+02     -3.89625115E+02
     -8.76920124E+02     -9.62441877E+02     -1.97835896E+03
     -4.55909012E+02      8.50360498E+02     -1.48605482E+03
      2.99535821E+02     -4.25018515E+01      3.65374627E+02
     -1.30820277E+02      1.22775601E+03     -1.42320252E+03
     -6.51639580E+02     -1.07480428E+03      1.11109745E+03
      2.21744807E+02      4.03474673E+02     -7.51129840E+02
      8.37573220E+02     -1.96747365E+03     -2.17957261E+03
     -2.20188948E+02     -1.15889342E+03     -2.06361366E+03
      4.30718557E+02      3.87858214E+02      8.38653394E+02
      1.92279103E+03     -6.09722646E+01      1.56793858E+02
      6.21564651E+02      6.55666760E+02     -2.17656881E+03
     -4.56609173E+02      2.84351970E+03      4.42528953E+01
      3.70168111E+02      1.19547563E+03     -6.79357482E+00
     -2.03855570E+03      9.93831245E+02     -1.04466660E+03
     -1.70462353E+03      2.89233502E+03     -7.94368814E+02
     -2.07282525E+03      1.55365549E+03     -2.23625897E+03
     -1.02216498E+03     -3.55971608E+02      4.98125143E+01
     -1.22562177E+03      1.07671619E+03      3.19143465E+03
     -8.81272335E+02     -2.78444659E+03      2.25226685E+03
      5.38860962E+01     -2.33765039E+01      1.75528771E+02
      2.17590783E+01      1.81562477E+03      2.28789675E+03
      1.30672697E+03     -4.63154018E+02     -3.42201639E+03
     -3.21090296E+02     -3.88359542E+02     -5.19737381E+02
     -2.29390305E+03     -1.81923200E+02     -1.33438000E+03
     -2.53730407E+02      6.17386816E+02     -4.59539951E+03
     -2.49816494E+02     -2.99227220E+02     -5.69639573E+02
     -1.99368094E+03      8.48749765E+02     -9.77149502E+02
      1.21020229E+03     -1.08945981E+02      1.88342229E+03
      5.12725982E+02     -1.05128434E+02      4.88946790E+01
     -2.07972088E+03     -4.97187744E+02      8.97230674E+02
      6.27252571E+01     -7.73168182E+02     -2.41419937E+03
     -9.89070848E+02     -1.60848150E+02     -5.28626362E+02
      3.62809931E+02      1.86354724E+03      7.74677340E+02
      5.41711158E+02      8.40162203E+02     -2.64160478E+02
      1.90591372E+02      2.04301712E+02     -2.68211060E+02
     -1.33865674E+03     -7.28584577E+02      3.56894442E+02
      8.53982104E+02      1.89241814E+03     -1.24175243E+03
      5.12065168E+02      5.16568870E+02     -4.19846561E+01
      7.62595972E+02     -5.31080326E+02      5.16582800E+02
      1.08836947E+03      5.04993903E+02      5.18990921E+02
      6.03487944E+01      2.94919303E+02     -1.73692232E+02
      3.07849100E+03     -1.00402071E+03      2.56006115E+03
      2.35536790E+03      3.28726381E+02     -1.63078016E+02
      1.69643001E+03     -1.51857108E+03     -1.46501752E+03
      7.70242585E+02      6.92237069E+02      4.28023570E+02
      1.98717895E+03      1.86137767E+03     -1.30919119E+03
      5.64805004E+00      6.87145293E+02      1.66570866E+03
     -2.43398358E+02     -1.04660141E+02      1.76906201E+03
     -4.57484430E+02     -4.28775197E+01      4.29737707E+02
     -8.64882585E+01      2.88024224E+03     -6.25608614E+02
      1.71129869E+03     -2.26606985E+03     -2.38139160E+03
     -6.28381097E+02      6.42655702E+01     -6.19546301E+02
      1.92626824E+03      2.83874671E+02     -3.21385767E+03
      1.46849206E+03      2.36112584E+03      2.05183651E+02
     -5.76253778E+02     -7.69740783E+02     -3.14725395E+02
     -3.58407111E+03     -2.55110273E+03      9.78099188E+02
      2.85656180E+03     -7.16140658E+00      1.25988274E+03
     -6.99909123E+02     -1.29736307E+02     -8.11816962E+02
      1.12125800E+03      2.24372191E+03     -9.06183732E+02
      3.52184226E+01     -1.22352827E+03      5.50794073E+02
      9.19087279E+01      3.31023784E+02     -7.20698890E+01
      2.85844205E+02      2.22313739E+03      8.80604705E+02
      5.63577184E+02     -2.37258313E+03     -1.47661718E+03
     -2.08624529E+02     -2.25449828E+02      1.94708607E+02
     -1.73827514E+03      7.70087291E+02      1.76796663E+03
     -1.14061882E+03     -3.06134869E+03     -1.33780455E+03
      9.88259003E+01      2.80758053E+02      6.67120498E+02
      1.12042323E+02     -2.12077603E+03      2.75791007E+03
     -2.09042311E+03      2.25945110E+03     -2.60388024E+02
      7.03067467E+02     -1.55427751E+02     -9.18662468E+02
      2.88136070E+03      3.12359042E+03     -5.64202852E+02
     -3.22251458E+03     -1.44720829E+02     -3.62651077E+02
      1.98058190E+01      2.26647975E+02     -8.09662487E+02
      1.49509606E+02      1.17433278E+03     -1.87482262E+03
      2.00548145E+03      1.70890099E+03      1.11670911E+03
      2.28172511E+03     -7.43067104E+02      2.04382955E+03
     -4.27643864E+02     -4.93248418E+02     -6.54998083E+02
     -3.19764898E+02     -1.38251840E+03      2.96431987E+02
      2.56979059E+03     -2.67806548E+03      2.80750003E+03
      8.66735689E+02      1.70301486E+03      1.72877470E+03
      1.01983879E+03      4.25338448E+02     -4.47157395E+01
      9.78342722E+02     -1.62800711E+03     -6.06931555E+02
      5.24107321E+02     -1.84173078E+03     -4.44592862E+03
     -8.86489933E+01      1.17464053E+01     -2.84972943E+01
     -1.55952995E+03      5.04707212E+01      1.07680669E+02
     -2.03708394E+03     -1.34823235E+03     -3.99116473E+02
      3.64623181E+02      3.03036866E+02     -7.55872932E+02
     -3.62961143E+03      4.60067408E+02     -1.75609915E+03
     -3.37211694E+03     -1.64427556E+03      2.13109911E+03
      4.53366996E+02     -3.21019702E+01      2.35870530E+02
     -4.91394018E+02      6.12084077E+02      8.65540849E+02
     -2.69762027E+02      2.49913456E+03     -4.62174732E+02
      1.03680424E+02      6.53292742E+01      4.47972612E+02
     -2.83966225E+03     -3.35521616E+03     -1.18436805E+03
     -2.65922383E+03      2.40370550E+02     -2.90185539E+02
     -6.95038652E+02     -2.76017142E+01      5.12863483E+02
     -9.46771333E+02      1.02203730E+03     -6.20517902E+02
     -6.31756994E+02     -5.33451258E+02     -1.84898056E+03
     -5.37330266E+02      8.58646947E+02     -1.41565114E+02
     -2.29505407E+03      1.86292238E+03     -7.00720710E+02
     -1.67843626E+03      8.60515971E+02     -2.42994027E+03
     -1.43122874E+02     -1.14287021E+02     -3.94053596E+02
     -5.45753573E+01      5.62589536E+02     -2.92534280E+02
      4.35578237E+02     -2.01784952E+03     -3.58859856E+02
     -1.59769732E+02     -5.44151316E+02      1.42705569E+02
      6.96475105E+02      1.94985429E+03      1.87091186E+03
      1.13391763E+03      2.67145046E+03      2.10885821E+02
      3.84679729E+02     -5.38666218E+02     -4.64534193E+02
     -2.93916787E+02      2.74887465E+02      1.91476318E-01
      1.44006356E+03     -2.09037321E+02      8.86340921E+02
     -2.21118436E+03     -1.46085817E+03     -3.00291221E+03
      1.04301782E+03      1.35001161E+03      8.61502791E+02
  }
}

Hamiltonian = DFTB {
  SCC = Yes
  SCCTolerance = 1e-6
  MaxSCCIterations = 200
  ForceEvaluation = Dynamics
  MaxAngularMomentum = {
    C = "p"
    H = "s"
  }
  Charge = 0.0
  SpinPolarisation = {}
  Eigensolver = Standard {}
  Filling = Fermi {
    Temperature [Kelvin] = 300.0
  }
  SlaterKosterFiles = Type2FileNames {
    Prefix = "../../pbc-0-3/"
    Separator = "-"
    Suffix = ".skf"
    LowerCaseTypeName = No
  }
  KPointsAndWeights = {
    0.0000000000000 0.0000000000000 0.0000000000000 1.00000000000000
  }
  Dispersion = LennardJones { 
    Parameters = UFFParameters {}
  }
}

ParserOptions = {
  ParserVersion = 3
}
