Geometry = GenFormat {
352 S
C  H
1   1         37.25165200         30.48840400         37.51413800
2   2         37.64439900         31.50341500         37.32757500
3   2         37.48068000         29.93812700         36.54992700
4   1         37.93660100         45.21773000         38.72086200
5   2         37.98767500         44.11553800         38.51192700
6   2         21.88495400         45.37911300         39.59805700
7   1         39.44025300         45.75649300         38.90574500
8   2         24.20336000         46.66643300         39.53546200
9   2         39.89675200         46.06756200         37.87854100
10   1         25.01667800         44.61321100         39.44630600
11   2         24.63164100         44.03390400         40.37736400
12   2         26.04476200         45.06135300         39.79269900
13   1         40.66430500         43.63000700         38.36897900
14   2         40.78630900         44.12507800         37.41090200
15   2         39.82866900         42.96884800         38.21629700
16   1         26.61114400         42.80436500         38.61800300
17   2         26.61707900         42.47901400         39.62571600
18   2         27.45060600         43.47007800         38.47123500
19   1         42.07324200         41.69837700         37.55610400
20   2         42.17990500         42.13277400         36.47734200
21   2         41.11986100         41.18953000         37.59667000
22   1         43.21162400         40.64050500         37.76528200
23   2         27.55324000         39.90752000         38.51637800
24   2         28.82834400         41.14738100         38.06590600
25   1         35.71906800         30.51821500         37.70338500
26   2         35.23241600         31.00660900         36.85533900
27   2         35.24839200         29.53556800         37.85013700
28   2         35.58657100         31.19838400         38.52577300
29   1         43.65738300         39.87375800         36.51150900
30   2         42.88982500         39.28574400         35.98732600
31   2         44.04825900         40.35343200         35.59164600
32   2         44.45266500         39.13108600         36.76859300
33   1         27.64294300         32.25897500         35.41570300
34   2         26.86933100         32.97398500         35.11533400
35   2         27.29271000         31.81915300         36.45941900
36   1         27.81617400         31.11866900         34.42814900
37   2         26.88559300         30.62379800         34.22611300
38   2         28.32306400         30.29738000         34.91873600
39   1         28.55229300         31.43306900         33.10041500
40   2         29.51160500         31.96462600         33.33238000
41   2         27.95707600         32.13925100         32.47830900
42   1         28.81851100         30.19688900         32.27385900
43   2         43.54924300         29.29242200         32.61161000
44   2         29.86186800         29.84852200         32.43695600
45   1         28.55041200         30.34593400         30.73438600
46   2         29.15858700         31.23408200         30.35266500
47   2         42.78226900         30.62068700         30.58214000
48   1         44.11406900         29.14865700         29.81053800
49   2         43.41027800         28.38215000         30.08563600
50   2         45.12096800         28.70175900         30.06511700
51   1         28.77086000         29.65288300         28.32105400
52   2         29.54527200         30.46374500         28.33715900
53   2         27.87051600         30.15420000         27.99421700
54   1         44.42739300         28.58781200         42.59697600
55   2         43.65377700         27.79613700         42.74765100
56   2         45.41307700         28.01893200         42.68981300
57   1         28.98312800         32.89940000         35.85628600
58   2         28.69836700         33.62757300         36.62334200
59   2         29.59876900         32.08695900         36.22029400
60   2         29.58139000         33.45875500         35.07034700
61   1         29.06952700         29.18806200         41.25512800
62   2         29.20536000         28.44846600         40.45183100
63   2         28.23028200         29.76605200         40.97827600
64   2         29.94271900         29.77961100         41.09238200
65   1         37.91660700         39.47643200         36.35167600
66   2         37.66863200         39.68386500         37.41609500
67   2         36.98173900         38.82937100         36.07881700
68   1         37.86711500         40.75372600         35.53128000
69   2         38.32155300         40.54744700         34.56073800
70   2         38.56495500         41.56592300         35.97234200
71   1         36.43288200         41.29755700         35.45294900
72   2         36.05518300         41.47501100         36.50975200
73   2         35.75450700         40.52078200         34.98186200
74   1         36.43490700         27.25606200         34.61822200
75   2         36.85569700         26.89555100         33.73274600
76   2         37.12000800         27.95555100         35.14977700
77   1         35.09922900         27.92143500         34.36467500
78   2         34.56374000         43.19838700         35.32374900
79   2         34.51794300         42.63589900         33.64702900
80   1         35.15935500         29.44287500         33.92962200
81   2         35.83664100         29.96629500         34.67730700
82   2         34.06606100         29.83438000         33.92074900
83   1         35.88190600         29.65026000         32.59034600
84   2         36.93022400         29.22263200         32.69420900
85   2         35.98734400         30.74392300         32.39143400
86   1         35.19097400         28.97343600         31.34504800
87   2         34.10532700         28.80229700         31.61830400
88   2         35.51323300         27.93659100         31.26949500
89   1         39.13947600         38.52977300         36.33704500
90   2         39.32770800         38.08159300         35.39263700
91   2         40.08402300         39.00348400         36.49734800
92   2         39.07996700         37.69372900         37.04887400
93   1         35.24427700         29.68585300         30.02985900
94   2         36.29465100         29.89848600         29.84777700
95   2         34.72317800         29.08612200         29.30578200
96   2         34.76927500         30.67411600         30.19436500
97   1         31.16181400         38.99575800         39.66282500
98   2         30.14809700         38.72123400         39.59271000
99   2         31.27023100         39.47484600         40.72826900
100   1         32.07801500         37.78918900         39.62336100
101   2         33.07425300         38.26842400         39.70470800
102   2         32.04326600         37.19688200         38.75895900
103   1         31.83284400         36.88290000         40.89845000
104   2         32.14864800         35.84590300         40.73343700
105   2         30.77232200         36.90439100         41.18587000
106   1         32.66471400         37.33923600         26.76779900
107   2         32.35794500         38.42031800         27.01194800
108   2         33.76670300         37.38281700         26.41633000
109   1         32.72233400         36.45392400         28.01206800
110   2         33.57173600         36.83905200         28.55823000
111   2         33.15875800         35.48076800         27.70935100
112   1         31.48882100         36.50529500         28.90210900
113   2         30.57871900         35.95589700         28.46413300
114   2         31.16857700         37.55212000         29.00336800
115   1         31.67324300         35.85552800         30.28414100
116   2         32.44330400         36.34854300         30.89921600
117   2         32.11462200         34.86016000         30.07460500
118   1         30.36666000         35.77270400         31.10611300
119   2         29.84208300         36.70071800         30.89169600
120   2         30.53543300         35.79193400         32.21023700
121   1         31.59117100         39.95603400         38.56153300
122   2         32.42663300         40.54501600         38.98480300
123   2         31.99695700         39.54729000         37.62378900
124   2         30.78412000         40.67428400         38.37219700
125   1         29.46817000         34.55793500         30.90532800
126   2         29.10780800         34.46947700         29.87243900
127   2         29.99684900         33.57847700         31.01845000
128   2         28.61895100         34.59738500         31.64771300
129   1         34.91376100         38.91061900         30.46059100
130   2         34.56632800         37.85107500         30.24859000
131   2         34.03234600         39.48248600         30.70561100
132   1         35.89700300         38.84784700         31.69183700
133   2         36.23326400         39.87222200         32.03838600
134   2         36.83311200         38.36927900         31.27662500
135   1         35.51757600         38.08336600         33.00560000
136   2         36.28075700         38.33609500         33.84294100
137   2         35.72703600         37.00686200         32.77276200
138   1         34.09372500         38.40364800         33.40667800
139   2         33.31990100         38.33667500         32.59488100
140   2         33.94703500         39.54825200         33.57318400
141   1         33.50430300         37.49180300         34.49443000
142   2         34.33734900         37.27195100         35.26754800
143   2         33.22581500         36.53142800         34.01221500
144   1         32.29236200         38.07503300         35.26699300
145   2         32.44180900         39.15975200         35.43913000
146   2         32.16461100         37.64612700         36.31608500
147   1         30.90550400         37.87513800         34.57772600
148   2         30.94688000         37.88758200         33.44853400
149   2         30.35091800         38.76906600         34.87892900
150   1         30.25615700         36.50756900         35.00160800
151   2         30.27020800         36.26144300         36.11043300
152   2         30.87322400         35.78468000         34.45170300
153   1         35.66665600         39.48770800         29.25198200
154   2         35.04204300         24.58020000         28.48293900
155   2         36.28827600         40.30376900         29.59299200
156   2         36.31414700         38.73032900         28.75695500
157   1         28.83021800         36.58917600         34.55340600
158   2         28.70807500         37.01772400         33.53871400
159   2         28.36928600         35.61064800         34.71987000
160   2         28.28492700         37.19699000         35.29808400
161   1         40.16785600         29.07641100         29.14180500
162   2         41.09158800         29.74246500         29.08345200
163   2         40.62227500         28.07090800         29.07825000
164   1         39.54821000         29.22456500         30.52261100
165   2         38.49750400         28.83013500         30.49605100
166   2         39.41333200         30.28352300         30.80417900
167   1         40.32633600         28.66455500         31.69580500
168   2         39.69043900         28.76753400         32.58286900
169   2         41.28243700         29.18499400         31.83345800
170   1         40.68187300         27.15386000         31.56027800
171   2         41.29541300         26.94644600         30.69872500
172   2         39.77590400         26.64073200         31.15788300
173   1         41.16543900         41.84474300         32.83433400
174   2         40.40969200         42.04754700         33.62954800
175   2         42.10174000         27.00164700         33.07105700
176   1         41.49840600         40.37888600         32.66174000
177   2         41.78970100         39.92816900         33.64543800
178   2         42.41010900         40.26275600         32.06280200
179   1         40.35958200         39.50970700         31.98459200
180   2         39.97236600         40.19739100         31.08204600
181   2         39.52942700         39.36639500         32.72833000
182   1         40.81181900         38.09878400         31.48794700
183   2         41.12259600         37.55406800         32.40637600
184   2         41.79818400         38.22331700         30.91765900
185   1         39.22498800         29.25693600         28.00839600
186   2         38.53638900         28.40644400         27.96166200
187   2         38.56314600         30.15060200         28.19697300
188   2         39.74011400         29.33209400         42.36266900
189   1         39.73726000         37.43455000         30.70957100
190   2         39.46189900         37.97354900         29.79767000
191   2         40.04126700         36.42170800         30.45577000
192   2         38.78700800         37.30047200         31.36833000
193   1         33.62503600         27.75290300         41.80897800
194   2         33.33551700         28.68304800         42.39715000
195   2         33.29860000         43.30346800         40.75407600
196   1         35.17152000         27.50966400         41.85725200
197   2         35.37767500         26.90410100         42.75743900
198   2         35.70227900         43.81909900         41.97035100
199   1         35.69259000         26.77280700         40.63153000
200   2         35.34599300         27.30231500         39.67795200
201   2         35.15852100         25.80248400         40.48181900
202   1         37.24977200         26.71466100         40.69779200
203   2         37.70777100         27.81282100         40.70208200
204   2         37.57206400         26.35122300         39.69965700
205   1         37.79180400         25.88524600         41.86560600
206   2         37.21543000         24.92608000         41.83096900
207   2         37.77289300         26.48976300         42.81988000
208   1         39.25514700         25.48439900         41.65530200
209   2         39.87689700         26.29654700         42.05639000
210   2         39.60504400         25.39541000         40.65605300
211   1         39.54706200         39.42533800         42.19564900
212   2         38.95367100         38.65183200         41.59637700
213   2         39.07640900         39.32505200         43.17291600
214   1         41.05342000         39.11044700         42.27331700
215   2         41.46185800         39.34881400         41.23060400
216   2         41.13804800         38.03265300         42.46949100
217   1         32.68715000         26.66272400         42.30882000
218   2         31.61391400         26.99410700         26.88377800
219   2         32.97602500         25.65230900         26.51897500
220   2         32.93719100         26.53252100         43.41054100
221   1         41.72221200         39.94680300         43.37895700
222   2         41.76469600         41.02897100         43.21011700
223   2         41.20892700         39.77728700         44.35132500
224   2         42.79071900         39.60920000         43.54544500
225   1         30.94784000         44.27902300         37.89782000
226   2         29.83377600         44.47952200         37.94614000
227   2         31.04366200         43.22397900         38.35340200
228   1         31.24905100         28.87213200         36.38990100
229   2         32.29476100         28.51309400         36.19292600
230   2         31.21769100         29.87830800         35.96387700
231   1         30.27716000         43.28639300         35.72676000
232   2         29.20917200         43.57550700         35.86585500
233   2         30.29142400         42.29965400         36.28345800
234   1         30.53510500         42.88505900         34.27426900
235   2         30.79469900         43.85101800         33.62174300
236   2         29.63981600         42.35940900         33.88682300
237   1         31.64305500         41.86656700         34.10163200
238   2         31.34329900         40.91865500         34.63741300
239   2         32.50702000         26.94277500         34.61376100
240   1         31.91207400         41.51580200         32.67207600
241   2         32.95456500         25.78587700         32.67106400
242   2         32.06148500         27.13806600         32.12595000
243   1         30.91893600         40.62120400         31.87509400
244   2         30.28593500         40.06343300         32.53539100
245   2         31.46355600         39.90829500         31.24154000
246   1         30.06894300         41.39736200         30.88904500
247   2         30.80057900         41.92356400         30.15243700
248   2         29.61115300         42.28891400         31.37246400
249   1         31.68747500         30.00029700         38.70813500
250   2         31.69284100         29.77417700         39.73907600
251   2         32.80944600         30.05240100         38.48631100
252   2         31.32528500         31.04919600         38.45725700
253   1         29.00686800         40.54321000         30.27179100
254   2         29.36108100         40.04256500         29.33940100
255   2         28.60122200         39.74696100         30.92729800
256   2         28.13031100         41.18770000         45.35649000
257   1         41.41707500         34.01113300         42.32679300
258   2         42.31846600         34.40608900         42.77281000
259   2         40.57497600         34.51489300         42.93929700
260   1         41.46700600         34.45613800         40.85922900
261   2         41.97590600         33.70731700         40.27365900
262   2         42.08174900         35.41529300         40.78061500
263   1         40.09714000         34.61947300         40.24395100
264   2         39.64011900         35.62663200         40.33329100
265   2         39.36504300         33.90910900         40.59230700
266   1         40.11701100         34.33695200         38.73172000
267   2         40.58808000         33.36753800         38.55822100
268   2         40.76155600         35.00057300         38.22501800
269   1         38.70270700         34.39660400         38.15393500
270   2         37.98330800         35.13944800         38.63567000
271   2         38.05349500         33.46259600         38.24640600
272   1         38.86836100         34.58992800         36.66102000
273   2         39.65319000         33.89920600         36.21538200
274   2         39.29800600         35.64514500         36.46226900
275   1         37.57068900         34.30781600         35.82914400
276   2         36.99025800         35.15398100         36.05839100
277   2         36.99166400         33.39234600         36.14930900
278   1         37.68875100         34.19159200         34.37349500
279   2         36.66592000         34.37699200         33.93357400
280   2         37.92795500         33.09776800         34.08197300
281   1         41.43590600         32.51921400         42.49561800
282   2         42.49249700         32.28430800         42.27322900
283   2         41.20242600         32.19998100         43.51160400
284   2         40.79053300         31.91488700         41.86545300
285   1         38.60135600         35.19773700         33.57557500
286   2         38.52069900         34.94115800         32.45733000
287   2         38.23625500         36.27137800         33.71113800
288   2         39.66175900         35.18546600         33.66988300
289   1         30.86472400         33.16228500         42.21145800
290   2         30.42544500         32.80592700         43.14576100
291   2         31.25717700         34.12649700         42.38537800
292   1         32.06384900         32.30737700         41.72745600
293   2         32.50664700         32.73601100         40.80239200
294   2         31.69063000         31.32314800         41.32543700
295   1         33.11944400         32.03442600         42.74839600
296   2         32.82405500         31.16879900         43.43312500
297   2         33.35297800         32.94829100         27.99670700
298   1         34.40243400         31.49526200         26.81109000
299   2         34.22682800         30.76132700         41.28897700
300   2         34.96288300         30.83351300         27.48873900
301   1         35.32038300         32.60955200         26.12567100
302   2         34.87572300         33.60176100         26.47983900
303   2         34.95633600         32.59374200         40.36175600
304   1         36.78433900         32.54821600         26.20188300
305   2         37.20359100         33.33113700         25.56782300
306   2         37.00170800         31.56658300         25.86529300
307   1         37.46915600         32.78642900         27.59318000
308   2         38.51977900         32.50563100         27.51268000
309   2         37.02019900         32.10634000         28.38089000
310   1         37.42887800         34.23720200         28.13561400
311   2         36.35790900         34.61315800         28.06227700
312   2         37.97254800         34.91835100         27.40381000
313   1         29.79084600         33.29808500         41.04651600
314   2         30.14793600         33.55828700         40.03217000
315   2         29.38049100         32.32135100         40.79459600
316   2         28.98855600         33.93535700         41.30334600
317   1         37.92881800         34.33437700         29.57567000
318   2         38.94555300         34.00407500         29.63892200
319   2         37.81111100         35.41392600         29.76813000
320   2         37.34893900         33.69843100         30.23078700
321   1         35.71956500         37.32990200         23.09609900
322   2         36.68128200         37.26937000         22.51384200
323   2         34.99904900         37.90682800         22.45024800
324   1         35.04237500         35.97218500         38.88167900
325   2         34.51072600         36.20895600         39.80326200
326   2         35.86903500         35.33533600         39.28645500
327   1         34.14585400         35.35766800         37.81405300
328   2         34.74920000         35.42743800         36.85760600
329   2         33.19083900         35.92075500         37.71731400
330   1         33.67225000         33.91919300         38.05383900
331   2         33.07997400         33.89958100         39.05591500
332   2         34.59050000         33.30311700         38.07539900
333   1         32.84548100         33.49600400         36.83742300
334   2         31.89701200         34.12723000         36.81972000
335   2         32.46470800         32.45686900         36.96720800
336   1         33.43585400         33.59022500         35.44086500
337   2         34.49612000         33.26869300         35.51620800
338   2         33.40269000         34.69162900         35.20087100
339   1         32.73628000         32.79975400         34.36747800
340   2         31.69977000         33.14663100         34.31057600
341   2         32.80477900         31.67914100         34.43375900
342   1         33.28421800         33.12788400         32.93125400
343   2         34.42288900         33.21960200         32.95572200
344   2         32.82428600         34.12193400         32.68434600
345   1         36.10128700         38.25762900         24.28786600
346   2         36.55384000         37.74175000         25.15501800
347   2         36.67214300         39.10705700         23.87979800
348   2         35.19661900         38.81410100         24.60327200
349   1         32.87616100         32.02903600         31.98142200
350   2         33.27606900         31.11143600         32.32517500
351   2         31.76511100         31.90185000         31.94423100
352   2         33.18417300         32.19928100         30.96583300
0.00000000          0.00000000          0.00000000
15.32620600          0.00000000          0.00000000
0.00000000         15.32620600          0.00000000
0.00000000          0.00000000         15.32620600
}
Driver = VelocityVerlet {
  Steps = 50000
  TimeStep [fs] = 0.2
  MDRestartFrequency = 5
  Thermostat = None {}
  Xlbomd = {
    IntegrationSteps = 6
    MinSccIterations = 2
    MaxSccIterations = 200
    SccTolerance = 1e-6
    PreSteps = 0
  }
  Velocities [m/s] = {
1.60308470E+02      2.36994409E+02     -3.11711379E+02
-2.16335533E+02      1.40506132E+03      1.16528710E+03
-3.22162885E+03     -3.30318443E+02     -1.72740519E+02
-1.01432849E+02      3.94757689E+02     -5.33363886E+02
-2.22752595E+02     -8.62368602E+02      3.21722681E+02
3.96574034E+02      1.06721617E+03     -2.68747697E+03
4.26592872E+02      5.96394665E+02      7.78846517E+02
1.05269818E+03      2.13284072E+03     -3.71863279E+02
1.73169945E+03     -2.30884812E+03      5.18248032E+03
1.44302067E+02      8.62946330E+01     -6.13551122E+01
2.16538437E+02      9.59097413E+02     -7.16885837E+02
-1.53218651E+03      1.20949763E+03     -2.18993347E+03
5.00052333E+02      1.17171746E+03      3.30378499E+02
-1.11803836E+03     -2.43329923E+03      2.08504318E+03
2.05424015E+03     -2.35791481E+03      4.77287284E+02
-5.24261876E+02     -1.71163002E+02     -4.08943630E+02
6.34050482E+02      1.14597004E+03     -4.08671009E+02
4.70283783E+02      2.60601374E+03      4.63878215E+03
-5.01562588E+02     -5.33421569E+02     -2.33066116E+02
1.00669436E+03     -3.40754831E+02      5.19505519E+02
-2.06633239E+03     -1.17624389E+03     -2.48636398E+03
3.90316648E+02     -2.98994036E+02     -3.04205256E+02
1.78371169E+03     -3.40878923E+03      1.86518825E+02
-1.09900740E+03     -7.12527436E+02      7.03798466E+02
-1.29182692E+02      1.51135805E+03      1.82253532E+02
-6.12762842E+02     -1.00513212E+03      1.71183302E+03
-1.06937341E+03      2.49318276E+03     -1.40392164E+03
3.71660098E+02      1.38040870E+03     -9.77827720E+02
-4.33693908E+02      3.10238462E+02      2.03218050E+01
7.18517793E+02      2.35894983E+02      1.22574459E+03
1.40114008E+03      1.94919173E+03     -2.25117238E+03
7.94948017E+02     -7.59995130E+01      1.34499065E+03
-3.05715200E+02     -9.45816661E+01     -5.51646391E+02
-2.72310432E+02      8.79160916E+02      7.71426740E+02
1.20603380E+03      8.13417770E+02     -1.78448219E+03
4.04999476E+02      2.87109666E+01     -4.43212702E+02
-1.65081346E+03     -8.23692080E+02      1.02663789E+03
-1.56312831E+02     -5.41628235E+02     -1.26352998E+03
-8.02595141E+01      6.60567794E+02      1.15669449E+02
-2.41049772E+03     -8.58488783E+02      6.22437232E+02
1.83233049E+03      1.85431607E+03     -8.50885057E+02
7.31920324E+03     -1.69441981E+04      1.14743078E+04
2.81460580E+03     -6.13565014E+02      6.07910677E+02
-2.90993219E+03      1.46332674E+03     -2.22063492E+03
-3.82222357E+02     -3.79100202E+02      1.67546166E+02
2.72851111E+03      1.20741466E+03      3.04900493E+02
-2.62258918E+02      7.19580773E+02     -1.44487680E+03
2.75098941E+02      6.19551628E+02     -5.64943262E+02
-5.21629377E+02     -1.72088372E+03     -2.88917149E+02
2.01418211E+03     -3.98711220E+02     -1.67383936E+02
-8.25086208E+01     -3.39650121E+02      7.48064089E+02
1.14527692E+03     -3.91907360E+02     -1.12504230E+03
-1.97711500E+02      1.19211746E+03     -1.39310234E+03
-1.86319901E+02      9.71198601E+02      4.50508205E+02
5.50573101E+02     -8.56242917E+02      7.69635613E+01
1.35306469E+03      1.77742997E+03     -9.31370032E+02
5.11276036E+02      3.69319301E+02     -5.06354647E+02
-1.24830860E+03      2.46214799E+03     -4.21933181E+02
-4.61134561E+02      6.27344798E+02     -5.15634236E+02
5.05771258E+02     -7.13535138E+01     -1.71203414E+03
8.73789030E+02      1.89373919E+02     -1.16353049E+03
-1.35291345E+03     -9.76192380E+02     -1.34961133E+02
2.39375112E+03      6.81272000E+02     -1.83465619E+03
-1.55416314E+03     -4.40239681E+02     -3.62767124E+02
2.81389974E+02     -2.42169604E+02     -3.66596343E+02
-2.37025480E+03      2.45127228E+02      4.61861457E+02
8.95114459E+02      1.32939222E+03      4.24999596E+02
-2.15666977E+02     -1.48374703E+02      2.56907634E+02
-3.67224833E+02     -4.94243254E+02     -8.01722111E+02
1.16425362E+01     -1.27079368E+03     -2.11750069E+02
1.52127238E+02      1.41430902E+02     -2.35643694E+02
-1.37088170E+03     -2.61532741E+03     -8.50151927E+02
-4.00652895E+01     -1.04747672E+03      1.91298153E+02
-2.17125486E+02      7.81395799E+02     -4.16539322E+02
1.89283055E+03     -1.98556109E+03     -3.70389379E+03
9.42696439E+02      3.21894354E+02      1.45738212E+03
-3.25234063E+02     -9.57009281E+02     -5.76745176E+02
7.69742884E+02     -5.58036239E+02      3.44157605E+02
-4.03803201E+02     -2.96434075E+03     -3.11259005E+02
6.58411515E+01      8.75080809E+02     -2.28100266E+02
-1.12802497E+03      2.72605371E+03     -2.01652884E+03
-4.47429683E+02      2.31059960E+03      5.52668834E+02
-5.18567497E+02      3.19095891E+02      1.55938444E+02
-1.92331142E+02     -2.40729163E+03      5.06283731E+02
-1.21990479E+03      8.28992316E+00     -1.46296427E+03
-3.75735974E+02      4.58708269E+02     -1.35372792E+02
-5.60026486E+02      8.28681397E+01      1.70942250E+03
-1.84346835E+03     -1.60693924E+03     -5.78725001E+02
-2.32649389E+02     -1.33717298E+02      3.37756670E+02
3.60111392E+03      3.05455925E+03      7.50564460E+02
9.82166794E+01     -2.04369235E+03      8.09339696E+02
9.40064926E+02      1.17573062E+03     -1.16863157E+03
3.49216174E+02      5.02159768E+01     -3.51114613E+00
1.23559820E+03     -6.64581527E+02     -3.15378322E+03
1.16998861E+03     -2.73719026E+03     -1.25743708E+03
-9.84914723E+02     -6.16611168E+02     -8.99857824E+02
-2.31446982E+02     -3.65267930E+02      3.60016267E+02
-2.19158888E+02      1.03686389E+03      9.62359167E+01
3.69684580E+02      1.00055157E+03      7.09122196E+02
-6.52626711E+02     -6.21425144E+02      2.29046639E+02
-3.01875450E+03     -1.07981549E+02      3.37074004E+03