Geometry = GenFormat {
<<< "system.gen"
}

Driver = VelocityVerlet{
  Steps = 50000
  TimeStep [fs] = 0.2
  MDRestartFrequency = 25
  Thermostat = None {
    #InitialTemperature [Kelvin] = 300.0
  }
  Xlbomd{ 
    IntegrationSteps = 6 
    MinSccIterations = 2
    MaxSccIterations = 200
    SccTolerance = 1e-6 
  }
  Velocities [m/s] {
      6.80838780E+02     -3.27661322E+00      1.81966650E+02
     -6.24848414E+02      9.84077083E+02      2.44148094E+02
     -9.00908745E+01      2.34077014E+03      1.71088101E+03
     -4.55004976E+02     -4.83105782E+02     -8.08661723E+02
     -1.27644231E+03      5.04036629E+02     -5.89903661E+02
     -1.48193070E+03     -1.85540401E+02     -1.87271337E+02
      1.85335840E+02      3.47104152E+02      9.52121250E+02
     -2.91083975E+03      4.69294212E+02      1.50475025E+02
     -3.85602833E+02     -2.42625665E+03      3.61530198E+03
      7.00764416E+02     -2.63092151E+02      6.48431182E+02
     -1.29802526E+03     -3.36051085E+02     -2.42002484E+03
      1.47350197E+02     -7.36469184E+02     -1.53869510E+03
      4.55381955E+01     -6.48154631E+02      1.72615835E+01
      4.02461038E+03      7.22285109E+02      6.36357587E+02
      6.44976245E+02     -5.14953155E+02      6.67649393E+02
     -1.84727037E+02     -3.33836963E+02      7.86970752E+01
     -7.41190054E+02     -9.89953304E+02      6.32563859E+02
     -2.44021926E+03      3.52586388E+02      1.45713653E+03
     -5.05633159E+02      2.54759666E+02      5.21134641E+02
      1.79932798E+03     -9.44513954E+02     -9.41673381E+02
     -1.28575948E+03     -1.05702719E+03     -2.58975997E+03
      2.25671010E+02     -9.61325631E+02     -2.15732429E+02
      1.05756900E+03     -8.27516542E+02      1.55009433E+02
     -9.15246197E+01     -2.03260252E+02     -2.97740839E+03
     -3.78426325E+02      4.84531014E+02     -3.02447182E+02
     -8.87017825E+02      5.97178543E+02      2.26973199E+03
      4.16083372E+02     -1.22627630E+03     -2.44141133E+03
     -1.34317226E+03      1.33218225E+03      2.16364189E+03
      1.79668873E+02      3.40919099E+02      7.64331179E+02
      1.94765213E+03      4.15704600E+02     -1.35932943E+03
     -1.18072075E+03      1.04817151E+03     -1.76172367E+03
      1.32388960E+03     -1.32391046E+02     -1.81146757E+03
     -9.17372569E+01      6.17370195E+02     -1.51178063E+02
     -4.39340865E+02     -2.34025808E+03     -3.32739523E+03
     -1.55373985E+03     -1.95327328E+03     -3.63046056E+02
     -2.06780050E+02     -8.72553301E+01     -1.32906014E+03
     -3.52231155E+02      2.32143452E+02     -1.28740411E+03
     -5.49520069E+02     -1.73420713E+03      2.95431067E+02
     -1.52455167E+03     -8.49692293E+01     -1.76965272E+02
      2.20122789E+03      1.51288501E+03     -2.25183780E+03
     -1.75806218E+03     -1.49876476E+03     -2.20307184E+03
     -1.22139931E+02      5.86065708E+01     -4.35473231E+01
      1.74559891E+02      1.49805142E+03      4.27695805E+03
      6.85272899E+02     -9.52901381E+02      1.77742108E+03
      1.18544711E+01      3.61347940E+01      1.02431145E+02
      7.67045119E+02     -4.42002027E+02      1.19374970E+03
      5.15576356E+02      2.65983597E+03     -2.77805376E+03
     -3.89074710E+02     -6.80959985E+02     -5.42201326E+02
     -7.94096902E+02      6.72769959E+01      3.37107648E+03
      5.13521249E+02      1.47785402E+03      3.14403363E+03
     -1.93796854E+02      3.93506638E+02     -4.84543340E+01
     -7.28992956E+02      9.23704338E+02      5.25554544E+02
      3.61198370E+01     -1.21747242E+03      1.32049303E+03
      2.96828164E+02     -3.55712860E+02      2.06839864E+02
      4.53509844E+02      6.83498777E+01      1.20354289E+03
      2.05525353E+03      9.97997780E+02      3.92344223E+02
     -1.10500381E+03      2.86178624E+02      5.37264088E+01
      1.82184846E+03      6.24126106E+02      2.11577589E+03
     -5.16762490E+02     -5.87523678E+02      4.02739265E+02
     -2.18322576E+03     -6.50374945E+02      2.97225201E+03
      2.50980779E+02      3.97108638E+02     -3.12767965E+02
     -1.52739051E+03      9.03438095E+02     -1.93583968E+03
     -6.94211423E+02     -1.25996533E+03     -1.47502586E+03
     -6.73879828E+02     -3.23778436E+03     -3.57713931E+03
      7.48231738E+01     -7.39179092E+02      3.62489747E+02
     -4.04055046E+03     -6.07476080E+02     -1.77882729E+02
     -7.73954897E+02     -2.19946276E+03     -2.49184144E+03
     -3.14688200E+02      9.19473095E+01     -3.90138484E+02
      1.82423922E+03      2.88612256E+03      2.34328643E+03
     -2.88728820E+03      8.99850004E+02      9.12298127E+02
     -5.24871600E+02     -1.65899668E+02     -5.77568497E+02
     -5.32943506E+02     -1.44213915E+02     -5.32039884E+02
     -2.57509080E+03      1.07796253E+03     -2.16638050E+03
     -1.57858697E+02     -2.29618001E+01     -1.61296911E+02
     -1.75715845E+03      3.27128179E+03     -3.36857975E+01
      1.35959398E+03      1.88765245E+03      1.69241633E+02
      1.69446295E+01      4.16522408E+00      2.78378352E+02
     -6.77193761E+02      3.97446944E+02     -9.65015011E+02
     -3.87938413E+02     -1.97973656E+03     -2.21627107E+02
     -2.72261570E+02     -7.00435279E+02      8.72837282E+01
      2.95681952E+03     -1.63493792E+03     -1.25186376E+03
     -1.20861496E+03      3.30239452E+02     -4.98561172E+02
     -4.17666331E+02     -2.24631241E+02      4.69134587E+01
      2.28914930E+02      2.12478017E+02      2.72015822E+02
      1.24546458E+03      1.17018663E+03     -2.34064696E+03
      1.93715172E+02     -8.68547069E+02      2.04029169E+02
      6.00463020E+02     -8.65256680E+02     -4.74078237E+02
      1.26819398E+03     -1.82154764E+03      4.05654915E+02
      2.90549796E+02     -1.52756857E+02      1.22858617E+02
     -5.22238379E+01      2.33435033E+03     -3.15490415E+03
     -9.11385263E+02     -1.83340928E+02     -2.67996466E+02
     -6.67426297E+02     -2.01507454E+03      5.50651918E+02
     -9.04676767E+02     -6.46114139E+02      4.31123330E+02
      2.78241010E+02      2.09975221E+02      2.94736191E+03
     -8.95520803E+02     -9.30085867E+02      8.60334897E+01
     -9.29382982E+02     -3.21487905E+02     -9.72087036E+02
      3.38275966E+02     -1.50426194E+02      1.81304006E+02
      8.67666520E+02      1.45953242E+03      2.41309683E+03
      9.56430046E+02     -2.74501668E+03      1.80233079E+03
      3.14111583E+02      5.47547305E+01     -5.64009822E+01
     -2.11192721E+03     -1.14886069E+03      3.14389099E+02
      4.46893475E+02      6.33678154E+02     -1.38740527E+03
      1.24191920E+02     -1.91652853E+02      4.78169835E+02
      6.22297974E+02      8.50365876E+02     -1.08151681E+03
     -1.86859568E+03     -8.10012990E+02      1.66730276E+03
      3.95511621E+02     -2.26251579E+02     -3.96645393E+02
     -1.29454938E+03     -2.59258475E+02      4.48951126E+02
      1.50810552E+03     -6.74918840E+02      1.17334439E+03
      3.33228259E+02     -5.34214888E+02     -3.87432472E+02
      1.43943780E+03      5.26344792E+02     -1.97896180E+03
      8.07094419E+02     -5.03079139E+02     -1.79737690E+03
      2.36679513E+02     -8.36475033E+01     -2.04740073E+02
      1.53536245E+03     -1.58717546E+03     -2.60682367E+03
     -2.00832800E+03      8.88104018E+02      6.17118028E+01
      4.51673979E+02     -5.36437284E+02     -3.08469498E+02
      1.09847916E+03     -1.11138325E+03      5.00404535E+02
      1.57342881E+03      1.95488010E+03     -1.74281949E+02
      4.88507010E+02     -4.15659499E+02      3.95993864E+02
     -8.10133592E+02     -1.26021651E+03      1.21385101E+03
      1.47262123E+03      2.19079452E+03     -4.71023827E+02
     -3.38487501E+02      2.09890693E+02      3.22377120E+02
     -2.06608644E+03      1.48211976E+03      3.79739754E+02
     -5.41597992E+02      1.26203200E+03      1.85936457E+03
     -2.49257061E+03      1.24469817E+03     -3.21266357E+03
     -7.55151540E+02     -1.38674953E+02     -2.18530403E+02
      2.12186562E+03      1.87618794E+03      3.36994797E+00
     -1.68549705E+03      7.17391699E+02      9.52841620E+02
      1.42241747E+02      2.98056683E+02      1.03185976E+03
     -5.63657792E+02     -4.02051740E+02     -1.00692706E+02
      1.32297198E+03      2.10558064E+03      6.26292146E+02
     -3.93505744E+03     -4.46875400E+02     -2.01461758E+03
     -6.62633054E+02     -3.16389710E+02     -7.13607176E+01
     -3.12804256E+02      1.39206567E+03     -6.69910837E+02
      2.58430007E+02     -2.17792522E+02      9.56315695E+02
     -1.58617103E+02     -5.48106811E+02      1.37988603E+02
     -1.70208689E+02     -9.34091462E+02     -6.28125390E+02
      3.38174539E+03     -1.07777525E+03     -1.56893548E+03
      1.61880627E+02     -1.51164560E+02     -6.13943001E+02
     -2.85177747E+03     -4.01221668E+02     -1.44682337E+03
      1.23560302E+03      3.45421600E+03      1.69399544E+02
     -2.69886876E+02     -2.04023610E+02     -8.43946966E+02
      1.80117780E+02      3.43374527E+03      6.73980547E+02
      2.13953673E+03     -1.52176275E+03      1.92065416E+03
      6.88004299E+00      5.13344954E+02     -8.73491211E+01
      9.28253907E+02     -1.52104251E+02      2.84165743E+02
     -9.98361188E+02      2.96758389E+02      6.84314450E+02
      1.06585652E+02     -2.23789622E+02     -8.38506066E+02
     -1.09294137E+02      7.91815835E+02     -1.16696011E+03
     -6.17718196E+02      1.03014136E+03      1.08469107E+03
      4.92327146E+02     -5.08678656E+02      3.24361875E+02
      2.05550263E+03      1.25481340E+03     -9.31640026E+02
      1.42730823E+03      1.12685319E+03      6.18039332E+02
     -4.88840003E+02      6.44351179E+02      1.96168611E+02
     -1.38062322E+03     -8.49707603E+02      1.08271608E+03
      2.60766130E+03     -1.98194679E+03     -1.29179953E+03
      6.26323142E+02     -1.21471005E+03      6.41980585E+02
     -5.75178790E+02      1.62584123E+02      2.31237640E+02
     -8.31791318E+02     -2.40250367E+03      1.43597420E+03
     -3.49625595E+02     -9.34575728E+01     -9.75445367E+02
      7.30394018E+01      7.36726160E+02      1.69483887E+03
      1.21283771E+02     -5.47398731E+02     -3.08134886E+02
     -3.35871406E+02      4.74390926E+02     -6.05187897E+02
     -2.04673516E+02      9.00980181E+02     -4.44327598E+02
     -3.73657049E+02      8.87189209E+01     -5.49682238E+02
      9.11268121E+01     -4.53109305E+03      1.95150014E+03
      1.14663800E+03     -8.87333039E+02      2.29577624E+02
      2.96252784E+02      6.89168004E+02      3.28966103E+02
      1.37576399E+03      3.10818845E+03      1.40029843E+03
      1.93409861E+03      2.40655258E+03      4.72669988E+02
     -5.05726946E+02     -7.10561266E+02     -1.02783256E+02
      3.96579030E+02     -1.20306148E+03     -7.06211965E+02
     -5.23460168E+02      3.30646478E+02      9.76653023E+02
     -6.74819978E+01     -3.57824750E+02     -6.66860069E+02
      4.26153899E+02     -7.20899822E+02      2.15572614E+02
     -1.80618546E+03      4.98399534E+02     -1.48387947E+03
      5.38178749E+02     -7.40786432E+02      1.29282915E+02
      1.63958167E+03     -7.78194496E+02     -1.69819864E+03
     -4.63987100E+02      1.17188786E+03      1.87754121E+02
      3.01280543E+02     -6.65592202E+02     -1.33426056E+02
     -9.08568290E+02      5.07817818E+02     -1.29849987E+03
     -4.72912281E+03      6.50760985E+02      1.36586119E+03
     -2.06033982E+02     -2.33188074E+02      2.75714514E+02
      2.68375144E+03      7.29663259E+02      1.49626649E+03
     -3.82107534E+02      1.24084502E+03      4.38517689E+01
      7.03804422E+02     -4.17863867E+01      3.21025381E+02
     -1.51103658E+03     -2.14565216E+02     -8.59758359E+02
      1.73015539E+03      2.46847663E+03     -5.36029250E+02
      1.39432413E+02     -8.14433611E+02      2.33489360E+03
      2.91974211E+02     -7.90902321E+02      7.71818658E+02
     -1.80862835E+03      2.66032178E+03     -1.35599585E+03
      9.81189988E+02     -3.02110141E+03      1.01971856E+03
      1.47691682E+03     -3.15300806E+00      3.24496031E+03
     -1.78766644E+01     -4.95069636E+02      9.29442936E+02
     -2.54802466E+02      1.82489151E+03      1.88724947E+03
      1.22479998E+03     -1.47560169E+03      1.97270510E+03
     -6.70402625E+01     -1.16439365E+03     -6.43872836E+02
     -2.90814263E+02      2.73180313E+03     -1.17146875E+03
     -2.07820473E+03      1.72460348E+03     -1.40339524E+03
      6.71975181E+02     -1.22091139E+02      3.06639109E+02
      1.02718478E+03      5.77959366E+02      1.05418820E+03
     -9.97388183E+02      2.31124243E+03     -1.53047372E+03
      8.95806899E+02      4.75013920E+02     -4.04589429E+00
     -2.84405029E+03      2.20879881E+03      3.53848410E+02
     -7.79893004E+02     -3.63350316E+02      5.88304153E+02
     -3.90957863E+02     -5.62940980E+02     -8.81171616E+01
     -1.49705712E+03      4.10879967E+02     -1.69831967E+03
      2.71695656E+03      1.17032469E+03     -2.95497394E+02
      5.29360093E+02      6.27036963E+02     -2.80989436E+02
     -1.63403619E+03     -6.56860181E+02     -1.03527679E+03
      7.69948784E+02     -1.84997175E+03      4.90420088E+02
     -1.44176756E+02      5.88489760E+01      6.74890408E+02
      1.65176808E+03      1.34936555E+03     -2.32921147E+03
     -4.34239013E+02      3.31944550E+01     -1.78403125E+03
     -7.32343531E+02      1.56485572E+02      4.74803539E+02
     -1.92604801E+03     -7.20263886E+02      5.37922465E+03
      1.77852485E+03      1.08189240E+03     -9.48285027E+02
      4.28978402E+02     -4.89439020E+02      5.02600027E+02
      4.77494669E+02     -2.75480738E+03      2.60684399E+03
      8.44876735E+02     -2.59389008E+02     -1.86379781E+03
     -5.15453093E+02     -7.44821528E+02     -3.58991872E+02
      7.80528159E+02     -2.07528393E+02     -5.06718873E+01
      1.50743472E+03     -1.29127852E+03     -9.82777567E+02
     -4.61517584E+02     -1.57902821E+02      3.18380255E+02
     -1.98625856E+02      1.45780232E+03     -2.97848834E+03
     -4.00568846E+02     -7.02840343E+02      4.38793322E+02
     -3.95524261E+01      1.79637332E+03     -5.81973968E+02
     -2.66344595E+03      2.23494191E+03     -2.06986694E+03
     -5.00540383E+01      2.82802724E+02      7.84813341E+01
      2.42426140E+03     -1.49381287E+03      1.39087290E+03
      1.02515993E+03     -3.84820241E+02      1.15335948E+03
      4.24870126E+02     -5.17903696E+02      9.81591596E+01
     -9.54179840E+02     -1.22552982E+03      6.38683851E+01
     -1.18887807E+02     -4.68123098E+02      7.89950820E+02
     -3.73455694E+02     -6.77894744E+02      4.10275282E+02
     -3.01567303E+03      9.51937406E+02      2.40310187E+02
      3.79470725E+02      1.83979218E+03     -5.05806609E+03
     -3.81781118E+02      3.26030842E+01      5.13867232E+02
      3.42768203E+03      2.42474906E+03     -1.95870830E+03
     -2.08146018E+03     -2.42577134E+03      1.82225378E+03
      2.77262340E+02     -3.67281314E+02     -1.06415101E+01
     -1.14897971E+03     -3.16536246E+03     -1.65745524E+03
      1.15152303E+03      1.53164213E+03     -2.99016058E+02
      2.60866053E+02     -7.28776348E+02     -2.35880433E+02
      8.06927932E+02      7.28652211E+02      2.47680265E+02
      5.81493276E+02     -1.34154013E+03      4.52912801E+03
      1.36607498E+02     -5.38534449E+02     -2.08078006E+02
     -2.04321329E+03     -4.19371129E+01      1.08695736E+03
     -8.51027132E+02      3.37690389E+02      1.27484030E+03
      5.24394298E+02      6.86495637E+01      2.27991558E+02
     -1.43090323E+03      3.34908638E+02      9.66959507E+02
     -1.15491434E+03     -2.57796828E+03     -1.51947713E+03
     -2.43786863E+03     -1.21116902E+03      5.51123922E+01
      5.61214424E+02      2.54600292E+02     -3.99080373E+02
      1.11741940E+03     -3.28279208E+01     -4.79986473E+02
     -2.05066672E+03     -5.81877413E+01     -3.55537357E+03
      7.41359203E+02      2.29344826E+01      1.45012770E+03
      8.72287688E+01     -2.89094322E+01     -5.74938677E+02
     -3.22725730E+02     -2.31954718E+02      2.26059309E+02
      2.24824076E+03     -2.10147379E+03      1.24912329E+03
     -2.39469496E+02     -6.84981206E+02     -2.87381153E+01
      2.16532122E+03     -9.77516135E+02     -2.55517620E+03
      7.65358742E+00     -9.36723575E+02     -3.72286056E+03
      2.40865124E+02     -1.05520120E+03      1.70559959E+01
      4.91694633E+02     -8.81260500E+02     -2.65252538E+03
     -1.67680738E+03     -1.24626699E+02     -1.24905874E+03
     -2.27534225E+02      6.42665892E+02     -6.11602956E+02
     -5.50190598E+02     -8.04029285E+01      2.64381954E+03
      5.16802047E+02     -1.02269886E+03      5.14688546E+02
     -2.85096676E+02      7.34404189E+02      2.59264605E+02
     -1.34208757E+03     -7.32180288E+01      3.00810147E+03
     -8.28119093E+02      2.61813755E+03      1.23966291E+03
     -3.53403435E+02     -4.43539602E+02     -1.02579985E+02
     -7.74430258E+02     -4.01066055E+02     -1.05502907E+03
      3.63709899E+03     -1.75025899E+03      2.36917661E+03
     -1.33331743E+02     -1.03989267E+03     -2.00927051E+02
      3.92337730E+02      2.21033109E+03      1.95160708E+01
     -1.86007850E+03      2.19082374E+02      1.58449412E+03
      9.38707078E+01      5.81500865E+02      4.02104759E+02
      3.70366805E+03     -2.70431318E+03     -1.35210683E+02
      1.71944134E+03      2.53759389E+02     -3.09967056E+03
     -6.13949082E+02     -3.37886140E+02      2.95287795E+02
     -8.31501992E+02     -1.77589748E+03      5.97596478E+01
     -1.76846627E+03      1.72758781E+03      3.27551836E+02
      1.30659504E+03     -7.35096155E+02      1.07543561E+03
     -6.56006114E+02     -7.55225298E+02     -2.99790381E+02
     -1.05320033E+03      1.08000982E+03     -8.08835187E+02
     -1.43856769E+03     -8.79578584E+02     -1.01527956E+03
      1.93959141E+03     -1.00683804E+03     -2.15231433E+02
      2.96418113E+01      9.53998113E+02     -7.30328119E+02
     -7.08566355E+02      1.44594665E+03     -1.54027969E+03
      1.51704071E+03      5.39982255E+02      8.75452294E+02
     -1.98172474E+02      1.52247488E+02      5.73444132E+01
      8.28121293E+02     -1.27417186E+03     -3.31554947E+02
      1.15366227E+03      3.60324196E+03     -1.21453028E+03
     -1.34397507E+02     -2.39736669E+02      1.04697324E+02
      1.04928558E+03     -9.82757757E+02      4.29616970E+02
     -2.11882544E+03      2.46652674E+03     -2.54076971E+03
      3.19704098E+02      3.68599027E+02     -2.38008983E+02
      7.92256209E+02      1.28481806E+03      1.08893762E+03
      5.54592513E+02      7.49073907E+02     -2.26593954E+03
      1.72135650E+02      2.31942882E+02     -1.79106125E+02
      5.43761574E+02      1.22755639E+03     -4.13248082E+02
      1.18412489E+03     -1.33269909E+03     -8.43657610E+02
     -4.55893454E+02     -1.30749983E+03      1.28984368E+02
     -2.88612346E+03      1.15946030E+03     -1.44448485E+03
      3.70743820E+02      1.13903402E+02      2.58404563E+02
     -6.12351731E+02     -7.41847496E+02     -6.55208607E+02
     -8.71000280E+02     -1.80433632E+03      7.71604074E+02
     -4.04817194E+02     -2.21263405E+02     -4.23131622E+02
     -3.21424986E+02     -7.40747585E+02      3.57154027E+02
     -5.58229237E+02     -3.27496012E+03      8.10236003E+02
     -2.06638920E+03      1.05602938E+03      1.04888072E+03
      3.34382516E+02      1.60305192E+02     -3.21586210E+02
      9.98723868E+02      1.37933190E+02     -2.58987041E+03
     -2.55784414E+03      1.54850758E+03     -4.92161150E+02
      1.17630393E+03      1.15286494E+03      1.22006862E+03
     -1.64550052E+02     -8.05455744E+02     -6.50052504E+02
      3.80034798E+02     -1.90315687E+03     -2.82473004E+03
     -4.58263333E+02      5.35654312E+01     -3.53547257E+01
      1.05533240E+03     -2.11390170E+03     -1.60563081E+03
      2.41597865E+02     -1.47171209E+02      2.64061973E+02
      1.52425292E+03      5.06629639E+02     -6.95991741E+02
     -1.63063572E+03     -4.84252300E+03      1.15720182E+03
      1.01222610E+03      5.68742069E+02      1.08461383E+02
     -1.15546569E+03     -1.78735355E+03     -2.70297706E+02
      7.72264155E+02      8.05244324E+02     -1.81223116E+03
     -1.33339283E+02      3.05463081E+02     -5.06554241E+01
      3.65204641E+03     -8.22802091E+02     -1.83227691E+01
      1.30669631E+03      4.32400835E+02     -2.82399078E+03
     -8.81123548E+02     -5.60085912E+02      1.14420156E+02
     -5.43282254E+02     -5.20670049E+02     -1.70352754E+02
      9.86599810E+02      9.84106374E+02     -5.04720623E+02
     -5.30246937E+02      4.43792598E+02     -2.58125376E+02
      4.47883423E+02      1.58408137E+03     -3.13391488E+03
     -2.09423206E+02      2.25415069E+03     -1.05860172E+03
      1.61351304E+02     -1.10051934E+02     -3.20982678E+02
     -1.69312085E+03     -1.21920376E+03     -9.41888022E+02
     -5.08855269E+02     -9.81850699E+02     -2.33462363E+03
      8.59379035E+01     -9.69299688E+01     -3.24009538E+02
     -4.05226736E+02     -2.37615928E+03     -6.64505551E+02
      4.55220250E+02      7.79369516E+02     -1.02759080E+03
     -4.21910752E+02     -7.43833545E+02     -2.54536001E+02
     -1.66376808E+03     -2.72104226E+03     -1.83228182E+03
     -5.95502755E+02     -9.37716082E+02      3.96624764E+02
      5.84688565E+03      2.02338839E+04      5.38284488E+03
     -6.94694986E+01     -1.32663736E+03      1.91282349E+03
      1.76895679E+03     -3.51362669E+03      1.16982028E+03
     -1.03485571E+03     -6.31373324E+02     -3.49410296E+02
     -1.43396637E+02     -6.91834122E+02      1.83360056E+02
      1.92393862E+03      3.64138588E+03      2.33917792E+02
     -1.95990633E+03      8.50897841E+02     -7.77838925E+02
     -6.67049845E+00      1.39798570E+03      8.46088572E+02
  }
}

Hamiltonian = DFTB {
  SCC = Yes
  SCCTolerance = 1e-6
  MaxSCCIterations = 200
  ForceEvaluation = Dynamics
  MaxAngularMomentum = {
    C = "p"
    H = "s"
  }
  Charge = 0.0
  SpinPolarisation = {}
  Eigensolver = Standard {}
  Filling = Fermi {
    Temperature [Kelvin] = 300.0
  }
  SlaterKosterFiles = Type2FileNames {
    Prefix = "../../pbc-0-3/"
    Separator = "-"
    Suffix = ".skf"
    LowerCaseTypeName = No
  }
  KPointsAndWeights = {
    0.0000000000000 0.0000000000000 0.0000000000000 1.00000000000000
  }
  Dispersion = LennardJones { 
    Parameters = UFFParameters {}
  }
}

ParserOptions = {
  ParserVersion = 3
}
