Geometry = GenFormat {
<<< "system.gen"
}

Driver = VelocityVerlet{
  Steps = 50000
  TimeStep [fs] = 0.2
  MDRestartFrequency = 5
  Thermostat = None {
    #InitialTemperature [Kelvin] = 300.0
  }
  Xlbomd{ 
    IntegrationSteps = 6 
    MinSccIterations = 2
    MaxSccIterations = 200
    SccTolerance = 1e-6 
  }
  Velocities [m/s] {
     -5.39664289E+02      6.52026741E+02      4.19395236E+01
      1.53552040E+03      1.01478823E+03     -3.02070364E+03
     -1.10741297E+03     -1.43252540E+03     -1.35007929E+03
     -7.17198159E+02      6.21649509E+02     -2.74216775E+02
     -3.53626374E+03      1.65029672E+03      3.51710384E+02
     -4.01262912E+02     -1.83141578E+03      1.46813021E+03
     -4.39872384E+02     -2.76995755E+02      3.54567870E+02
     -1.00946179E+02      4.80537756E+02     -1.91822822E+03
      1.11720952E+03     -9.74129064E+02      1.24320673E+03
     -4.55354279E+02      1.84798196E+02      4.66015316E+02
     -9.78271971E+02      2.04015020E+03     -2.11236907E+03
      3.20850573E+03     -2.27998426E+02      1.30948308E+02
      1.90192257E+02      1.08992919E+03     -6.92462878E+02
     -1.32161964E+03      2.57432614E+03      2.12178406E+03
     -1.38912769E+03     -4.34734164E+01     -1.10873488E+03
      1.27271259E+03     -3.33529987E+02      6.27677562E+01
     -1.88172661E+02      2.43284054E+01      3.52559626E+02
      5.93366261E+01     -1.26237737E+03     -1.08725621E+03
      2.42442449E+02      2.23740506E+02      8.41839329E+01
      5.04341351E+02     -1.15833966E+03      6.40834732E+02
     -2.37487192E+03     -7.05621326E+02     -4.16802434E+03
      4.72959817E+01      3.96540135E+02      3.36811193E+02
     -1.61751372E+03     -3.42223919E+02      2.57049348E+01
      7.60121857E+02     -3.42768658E+02     -1.94297677E+03
      3.19008484E+02     -2.23486619E+02     -2.76839641E+02
      1.30041409E+03      3.27588040E+02     -1.76713456E+03
     -2.58885305E+03     -9.21001621E+02     -7.98779054E+01
     -2.56724068E+03      7.96312285E+02      3.38606253E+02
     -2.91226062E+02     -3.59985102E+02     -3.85092679E+02
     -1.53400972E+03      1.18222214E+02     -4.30611391E+03
      3.53559436E+02      3.04494510E+03      3.90993422E+03
      1.01352398E+03     -4.74255997E+01     -3.61273851E+02
     -3.26792719E+02      2.73309490E+02     -3.82106723E+02
      5.50561777E+02      1.11581204E+03      1.61773793E+03
      7.39475491E+02     -1.27914818E+03     -1.25812764E+03
      2.86560225E+02      7.22469529E+02     -5.00253686E+02
     -1.46468134E+03     -1.94735656E+03     -2.41868686E+03
      9.43882292E+02      2.09165926E+02      1.91466197E+03
     -2.88762687E+02     -1.08128297E+03     -8.83557124E+01
     -1.02063327E+02     -5.34378781E+02      1.10691172E+03
     -1.84540939E+03      1.58244410E+03     -3.59394912E+02
     -5.31007812E+01      3.18519527E+02     -1.08176290E+03
     -1.26703076E+03     -9.60133852E+02     -4.65395299E+02
     -5.91503950E+02      1.94936299E+02      2.76218228E+02
      4.15370507E+02      3.16349190E+02     -5.09579509E+02
     -1.94198195E+03     -1.35455489E+03     -4.00774547E+03
     -2.05849656E+03      7.14258829E+02     -1.06035753E+03
      2.09323866E+02      2.38131005E+02      2.58515660E+02
     -1.40009975E+02     -6.91737054E+01     -9.52201031E+02
     -8.42409566E+02      1.87373549E+03      1.26476768E+03
     -4.41641193E+02      4.40786567E+02     -3.11782645E+01
      1.34616155E+03      4.16257682E+03      1.01515300E+03
     -4.86897043E+02     -2.97382681E+03     -4.73076527E+01
      2.76525070E+02     -2.27552051E+02      1.17863575E+02
      1.51262953E+03      2.03685028E+03      6.51610755E+02
     -1.61150190E+03     -8.48209273E+02     -8.20434645E+02
      8.65077019E+02      3.84170929E+02      8.35595698E+02
     -1.73400624E+03      5.15062096E+02     -2.67424344E+02
     -3.31711107E+02     -3.17551007E+02      9.98995485E+02
      5.53887420E+02      2.87520567E+03     -5.76952113E+02
     -9.79747883E+02      2.60312247E+02      1.55496742E+02
      1.25974835E+03      1.39512324E+03      3.98189994E+02
      1.88336738E+02     -3.32414500E+03      4.83241731E+02
      7.60839021E+02     -3.14747741E+02     -7.16505132E+02
     -1.53673888E+02     -6.39877743E+01      2.78797217E+01
      2.91366260E+03     -2.27146172E+02     -1.19400204E+03
     -1.68391127E+03      2.12132777E+03      1.86010549E+03
     -2.55373344E+01      3.25482278E+02     -9.65164868E+02
     -1.11361184E+03      5.57018687E+02     -4.33714276E+02
      1.01512190E+03     -1.80313605E+03     -2.15949754E+03
     -3.47375552E+02      8.62579826E+01     -1.31087662E+01
      1.16217562E+03      9.63881628E+02      1.87530774E+03
     -7.86910210E+02     -1.16075438E+03     -4.85380496E+03
      3.24025169E+02     -6.63420249E+02     -5.06148024E+02
      1.19760042E+03      7.54977851E+02     -1.57079655E+03
      1.06799635E+03     -6.69220695E+02     -2.39486367E+02
     -5.76002436E+02      4.22560108E+02     -9.05984849E+01
     -2.56273958E+03     -3.88304586E+02     -3.01291498E+03
     -1.27059221E+03     -1.83653001E+03      1.08000902E+03
      6.71625348E+01     -3.76633547E+02     -7.84969843E+01
     -1.14725847E+03      4.20061495E+02      1.40546063E+02
     -2.38959534E+02     -2.20141492E+03     -1.53914989E+03
     -3.15246193E+02      2.98180767E+01     -2.18963187E+01
     -2.44330612E+03     -7.62848207E+02      1.77647343E+03
     -2.38256802E+03     -6.78408791E+02      1.15733395E+03
     -9.23850648E+02      4.29309494E+02      4.52598361E+02
     -1.55214189E+03     -1.09876084E+03     -2.40067704E+03
      1.23202463E+02      5.69191468E+02      2.63847850E+03
     -3.76612561E+02      4.27443665E+01     -3.88789166E+02
     -5.55810836E+02      8.18478265E+02      4.79559159E+02
     -2.71957449E+03      1.03905760E+03      4.91769295E+02
     -4.44681731E+02     -1.70582655E+03     -2.16784300E+03
     -3.08183411E+02      6.18001515E+02     -1.49116351E+02
      3.48994845E+03      1.87470461E+03     -3.11957619E+03
     -2.22862599E+02     -7.14287174E-01     -7.81296636E+02
     -2.36957380E+02      1.29344055E+03     -1.41421804E+03
      5.32163471E+02     -2.20593268E+02      6.78188057E+01
     -3.37041163E+03      2.02727970E+03     -1.08474058E+03
      2.04706616E+02     -2.11062922E+02     -1.09901101E+03
     -2.65781248E+02     -4.26200934E+01      2.44151718E+02
     -1.45460674E+03      9.59535328E+02      7.16356408E+02
     -4.79011907E+03     -1.52439036E+03     -8.89034019E+02
     -2.14245670E+02      3.07446998E+02      2.97744587E+02
      1.90917727E+03      1.16196585E+03     -2.06307175E+03
     -2.73745491E+03      1.83417682E+03      9.31231029E+02
     -2.17621365E+02     -4.52491414E+02     -5.51164131E-01
     -7.68334471E+02     -8.00757918E+02      1.07247022E+03
      1.88843186E+03      1.52365756E+03      9.26608112E+02
      2.17595275E+02      1.92835974E+02     -2.81293123E+02
      5.64353936E+02      1.01359267E+03      6.40569797E+02
     -9.70926352E+02     -2.83751950E+02      7.63995787E+02
     -3.50873515E+02      1.55805293E+02      2.78714871E+02
      5.09587046E+02     -2.96297038E+03      1.28969432E+03
      9.61748002E+02     -5.98193326E+02     -1.53268049E+03
      3.12651000E+02     -4.96177819E+02     -2.62083033E+02
      1.60246363E+02     -9.08000681E+02      1.71001069E+03
      6.11160139E+02     -1.65737095E+03     -1.05219442E+02
     -2.95414365E+02     -6.13013643E+02      5.18276370E+01
      2.68061083E+02      1.19165014E+03      2.28190179E+03
      1.62693842E+02      3.33937640E+02      1.49319837E+03
      6.49733659E+02      9.94703508E+02     -7.99443622E+02
      1.64544738E+03      4.31240772E+03      7.00677157E+01
      6.61102775E+02      2.57549662E+02      3.40200944E+02
      2.88653837E+03     -1.98245100E+03     -1.82863365E+03
     -1.37790061E+02     -7.52423873E+01     -7.29381153E+02
     -2.73479997E+03     -1.77864072E+03     -5.86201328E+02
     -3.56567378E+02     -7.30179687E+02      1.84399034E+03
     -1.47967894E+03      8.44205098E+02      2.87012359E+03
      8.32623968E+02     -3.44164088E+02     -7.46888741E+02
     -9.47580445E+02      5.21973330E+02     -2.27779908E+02
      5.90996934E+02     -2.09913490E+03      8.56904558E+02
     -4.06398180E+02      5.53424995E+02      1.01050213E+02
      1.29538812E+03     -2.00921300E+03     -1.28239900E+03
      1.24438951E+02     -2.81586035E+02     -1.18950159E+03
      2.65870907E+02      3.09471905E+02     -1.60555661E+02
      9.34718285E+02      2.02783671E+03      3.32861662E+03
     -5.63808023E+02      1.53189065E+03     -3.71005797E+03
     -1.95835772E+02     -2.90482083E+02     -4.63700290E+02
      1.94235763E+03     -9.21742165E+02     -1.52538495E+02
     -9.06918655E+02     -3.45720527E+01     -1.38031701E+03
      8.50900204E+02      9.43466113E+01     -1.41841772E+02
     -2.50933400E+02      1.07544645E+03     -1.22170489E+03
      8.24312907E+02     -9.91055866E+02     -1.19313342E+03
      7.82677355E+02      3.08866824E+02     -4.19517842E+02
     -5.08948029E+02      2.38439055E+03     -2.44287912E+02
      6.55621447E+02      3.85136204E+02     -9.75473098E+02
      1.45450392E+02     -5.61486292E+02     -9.71713550E+02
      7.85619528E+02     -2.08808657E+03     -3.93129362E+03
      1.99624405E+02     -9.43696353E+02      3.74672907E+03
      4.20810182E+02     -2.66907464E+01     -7.42909263E+02
      4.61653765E+02      7.97402574E+02     -1.92231276E+03
     -2.30447718E+03      1.30874358E+01     -5.15763374E+01
      1.02308497E+02      9.54070807E+01     -8.09916209E+02
      1.70768509E+03      4.14026139E+03      1.41623075E+02
      4.05994483E+03      2.11133200E+02     -1.90036897E+03
     -6.74945014E+02     -1.87672794E+03     -3.14223495E+03
      1.30391670E+02     -9.57077930E+02     -9.88189128E+02
     -8.60520026E+02     -1.66553175E+03      4.11629272E+02
     -5.76912423E+02     -1.69266841E+03     -1.49581058E+03
      3.44441961E+02     -1.10615930E+03     -5.20490801E+02
     -4.14878085E+02      4.04699702E+02     -3.57982544E+02
     -1.17280288E+03      5.43052748E+02      4.57324650E+02
      2.42280445E+03      7.69664786E+02      6.18509424E+02
     -2.52255098E+01      3.26909256E+02      3.76162541E+02
      2.43181991E+03      2.57247063E+03     -1.92570176E+03
      8.84148845E+02      1.68531122E+03      2.54505291E+02
      1.09494070E+02      4.93926826E+02      1.64883681E+02
     -3.85001242E+03     -1.24220112E+03     -6.25502890E+02
      1.38850134E+03     -3.05779207E+03      6.41676005E+02
      6.09697221E+01      5.67346014E+02     -8.00459268E+02
      1.89874594E+03      2.10949444E+03      5.82407492E+02
     -3.98500657E+02     -6.72461904E+02      3.20644528E+02
     -5.06892792E+01     -4.92315216E+02     -3.17918032E+02
      2.63692027E+03     -2.38861148E+03     -1.65373166E+03
      3.57916363E+03      1.45546313E+03     -2.46618433E+03
      7.18820013E+01     -1.99138134E+02      7.24245519E+02
      1.81836838E+03     -8.39914517E+01     -2.61059335E+02
      2.43751063E+03      2.19009544E+03     -3.38809326E+03
      6.40276053E+02      1.61965278E+02      7.95862821E+02
     -3.71363048E+02      8.41794903E+01      1.90075403E+03
      1.25394362E+03     -8.48442187E+02      1.56036486E+03
      3.39548292E+02     -3.99372987E+02     -5.56852856E+02
      2.40785629E+03      1.34653828E+03     -5.12485588E+02
     -7.70824649E+02      4.07926392E+02      1.81529943E+03
     -4.07522775E+02     -3.18947367E+02     -1.58170232E+02
      4.00654010E+02      3.89089552E+03     -6.08802671E+02
      1.51938262E+03      6.89372370E+02     -3.08638695E+02
      4.88181491E+02      9.73270619E+02     -1.57722740E+03
     -4.05312843E+02     -1.19792214E+02      6.73238297E+02
      1.10681302E+03     -1.67327372E+03     -2.19963964E+03
     -2.50964404E+03      1.93247952E+02     -1.46687890E+03
     -3.08673086E+03     -1.10629805E+01     -8.09970401E+02
     -5.00023588E+02     -2.48752174E+02      6.71807810E+02
     -1.22078737E+03     -3.84902707E+02     -2.08012107E+03
      2.20547329E+03     -2.39707328E+02      4.36338370E+02
      3.61416468E+02      1.63032295E+03      1.64261777E+02
     -2.36038497E+03     -7.60082716E+02      6.87938614E+02
      2.46269687E+03     -1.23926512E+02     -1.11115504E+03
     -2.44752619E+02     -3.41055344E+02      5.11015658E+01
     -5.86707072E+02     -2.10113843E+03     -1.02873115E+03
      3.76688473E+02     -7.49478066E+01     -1.37400343E+03
      4.94451759E+00      9.71681453E+02      6.30791131E+02
      1.61490977E+03     -1.61003580E+02     -3.95941614E+02
      1.92649479E+03     -1.54272797E+03     -1.41332245E+03
      9.07713112E+01      1.79868382E+02     -9.08877831E+02
     -1.89282038E+03      1.83207417E+03      1.50143331E+03
     -7.86005616E+02      3.01287164E+03      1.90444719E+03
     -6.02318770E+02      4.49793085E+01     -3.93847079E+02
      2.18311378E+03      1.88931123E+03     -1.13663398E+03
     -7.58790144E+02     -1.63708757E+03     -1.56543428E+02
     -1.72292682E+02      4.64343066E+02     -7.60468759E+02
     -1.89478195E+03      2.38994349E+02      1.87823962E+03
     -5.73879623E+02      3.69417272E+03      2.83371688E+03
      1.93907856E+02      1.99108599E+02     -1.86346528E+02
     -5.51701321E+02     -6.50653019E+02     -8.44876045E+02
      1.40227419E+03     -1.38789496E+02      2.96533123E+02
     -1.02811807E+02      3.30786556E+02      3.19766381E+02
     -4.83196537E+02     -1.06500692E+03      1.86925547E+03
      7.26848362E+02      1.39661654E+02      1.05014488E+02
      1.35360718E+03     -4.66585106E+02      4.61781036E+02
      2.03908951E+03     -1.13572282E+04      1.85018093E+04
      2.83681304E+03     -1.08067294E+03      2.81773789E+02
     -6.44697011E+01      1.76929794E+03     -8.96187509E+02
      4.22716108E+02      1.54816288E+03      3.09383597E+02
      6.51536725E+02      1.18244776E+01      1.38104371E+02
      2.24429944E+02     -6.75139960E+02      2.29992765E+03
     -2.17933170E+03      1.44602813E+03      2.00167524E+03
     -2.71512645E+02      6.14645794E+02     -3.04218952E+02
      1.46837813E+03      1.18685657E+03     -3.85089944E+02
     -6.75309135E+01     -3.89125530E+02     -3.61888939E+03
     -3.91186639E+02      7.93129810E+01      4.59723929E+00
      1.98060126E+03      5.80336637E+02      5.28190431E+01
     -5.91499594E+02      1.85501965E+03     -2.86592747E+02
     -3.00788742E+02     -1.87266511E+02      4.71280121E+02
      2.28069052E+03      2.59390161E+01     -1.66454185E+03
     -7.06236218E+02     -2.52699484E+03      3.32087844E+03
     -1.02502652E+03     -6.96854402E+01     -2.81107346E+02
     -5.94033045E+02     -1.06623193E+03      7.18033129E+02
     -2.68290931E+03     -2.80318374E+03      7.49641447E+02
     -6.25928066E+02     -6.40610665E+02      3.48104367E+02
      8.67032576E+02     -1.20457287E+03      1.02401881E+03
     -2.32538709E+03      1.00362085E+03     -3.50294177E+02
      3.13585145E+01     -7.19338025E+02     -2.24218127E+02
      1.07688644E+03      1.62123421E+03     -5.19878016E+02
     -1.02336862E+02     -1.16237205E+03     -6.91966221E+02
      8.13092371E+00     -3.78008234E+02     -4.07373068E+02
      5.83719483E+02     -1.99756587E+03      7.50585310E+02
     -8.03987099E+02      1.06038253E+03     -1.70041959E+02
      5.68347258E+00      2.87340063E+02      1.54838742E+02
     -7.13662077E+02     -1.12548482E+03      2.19610702E+03
     -7.41542355E+02      1.75078432E+03      2.24590819E+03
      1.07254515E+03     -4.40856365E+02     -1.23827065E+03
     -2.65105452E+02      2.66985033E+02     -1.06160379E+02
      1.18219824E+02     -1.92886064E+02      3.01472646E+03
     -6.26082889E+02      7.13553209E+02     -2.91770145E+03
      2.48989929E+03     -1.09490395E+03     -2.63725992E+03
     -2.80391380E+02      2.88112782E+02      1.89346182E+02
     -5.59198267E+02     -1.06315972E+03     -1.76108689E+02
     -2.43101721E+02     -1.83261605E+03      2.16896045E+03
     -3.64979362E+02     -6.94088970E+01      5.39759218E+01
     -3.42791572E+02      9.85643072E+02      5.98407342E+02
      8.93311077E+02      7.40621043E+02      1.09598552E+03
      4.35554456E+02     -1.08954322E+02     -1.82776465E+02
      3.89013243E+02     -5.39293029E+02      7.15439833E+02
     -2.88256617E+02      1.76443992E+03     -1.73948302E+03
     -4.29640088E+00      6.30356704E+02     -4.61502582E+01
     -1.11275419E+03      2.50647881E+02      2.44819841E+02
      3.02533983E+02     -1.76100247E+03      1.52172338E+03
     -1.16071603E+02     -1.56048846E+02     -5.69631009E+02
     -1.66892913E+02     -1.56593333E+03      2.08151269E+03
      9.53269611E+02     -1.65283951E+03     -2.97502199E+00
      2.71500322E+02      2.52114762E+02      4.35169156E+02
      4.02059163E+02     -1.81777034E+03     -2.31764566E+03
     -2.48824856E+03      5.94710334E+02      1.12380600E+03
      7.15143744E+02      3.65880775E+02      4.22779609E+01
      2.34399049E+03      2.31681996E+01     -1.26409018E+03
     -3.28831843E+02     -1.45676223E+03     -1.41373989E+02
      1.16979366E+02      1.06611023E+02      2.25531946E+02
     -1.08875534E+03     -8.82355634E+02      1.60177003E+03
     -1.46313017E+03      8.58663323E+02      7.40111295E+02
      6.00126107E+02      3.97249467E+02     -5.10348676E+02
      7.68251412E+02     -1.01990124E+02     -1.30208992E+03
     -6.46747073E+02     -7.53043150E+02      1.20862297E+03
     -7.76618094E+02     -9.55304166E+02     -1.79786326E+01
      6.39646295E+01      2.04540850E+02      6.50719581E+02
     -2.72614530E+03     -8.22846689E+02     -2.48696387E+03
     -6.19592979E+02      3.15753349E+03      6.08818741E+02
     -9.94925569E+02      3.66613237E+02     -1.72903022E+03
      7.86626913E+01      1.92360167E+01     -3.53797723E+02
     -1.71544170E+03      1.11481934E+03      1.94351674E+03
      1.43952361E+03      1.09835770E+03      3.43370868E+03
      4.93821201E+01      5.58674505E+01      1.87384746E+02
      4.89549455E+02     -1.34605338E+03      5.04097615E+02
      8.94801476E+02     -1.69398306E+03      1.41680749E+03
      7.06712675E+02     -8.53855120E+02     -7.18616148E+02
      1.88465886E+03     -1.96181798E+02     -3.82857212E+02
      5.21766021E+03      4.25852361E+02     -7.30300331E+02
      2.73643781E+02      3.50629883E+02      1.14476601E+02
      2.45948610E+03      4.12322450E+02     -2.86298417E+03
     -9.41212794E+02      3.10297986E+02      2.53330092E+03
     -4.95526465E+02     -1.39997645E+02      2.40088319E+02
      1.35474070E+03      1.06475810E+03      1.54543191E+01
     -1.01895846E+02     -1.06608326E+02      3.66492328E+03
     -5.07038687E+02      2.56997253E+02     -5.95289455E+01
     -1.34791474E+02      8.55567634E+02     -7.86377592E+02
      3.68647869E+02     -5.23069961E+02      8.98999286E+02
     -1.04966115E+03      1.46313978E+02     -8.39788981E+02
      2.00857056E+03      2.56492683E+03      3.85896731E+02
      2.56521748E+03     -2.03407685E+03      4.62749919E+02
     -2.84139397E+01     -1.45133281E+02      5.74218690E+01
     -5.86551614E+02      6.67171777E+02     -4.04345899E+02
      2.33151998E+02      1.39921146E+03     -1.07185583E+03
     -8.16401731E+01      3.87516705E+02     -5.72571056E+02
      1.30123815E+03     -1.60197849E+03     -3.25086634E+01
      1.58481074E+03      7.02426613E+02      2.45429009E+03
      7.53099595E+02      1.12268189E+03      5.71641854E+02
     -1.91750029E+02      7.77463722E+02     -4.90074714E+02
      1.16265647E+03      1.00627499E+03      1.17070454E+03
      2.36995035E+03     -1.63178736E+03     -1.49380223E+03
      5.04422728E+02      4.20634338E+03      8.71393295E+01
     -7.23773899E+02      3.41773324E+02     -1.41666898E+02
     -4.28263651E+03     -2.68071536E+02      7.87753268E+02
     -3.60793737E+03      1.74589103E+02      5.49715476E+02
      5.27285560E+02      8.63030163E+02      3.38195931E+02
      1.39017133E+03     -9.18586672E+02     -2.17193565E+03
     -2.34117131E+03     -1.43511661E+03     -3.23885572E+02
      7.76770627E+02      5.94095825E+02     -8.98286880E+01
     -8.17983316E+02      9.24178338E+02     -6.10152997E+02
      2.03095976E+03      2.57254731E+03      1.20793938E+03
      6.85472470E+01      4.68148004E+02     -7.10443365E+02
      5.96879856E+02     -7.04992649E+02     -1.91575999E+03
      1.26638256E+03     -1.18828703E+03     -3.04768521E+02
     -5.76542703E+02     -1.86778617E+02     -1.08862811E+03
      2.73118336E+03      1.98297049E+02      1.98924329E+03
      8.73149569E+02     -7.38143685E+02      6.54168222E+02
      1.05163971E+03      1.33945986E+03     -1.99129280E+02
     -4.54020621E+03     -6.44204743E+02      1.59340244E+03
      6.02545802E+02     -4.93409078E+02      5.75955772E+03
     -2.87067858E+01     -2.98603206E+02     -1.08574391E+03
      2.56198969E+02      1.18823977E+03     -2.40457313E+03
      1.10401501E+03     -1.70799298E+03     -1.73968908E+03
     -1.59901479E+01     -5.76497456E+02     -1.17999298E+03
     -6.27200301E+00     -1.69776049E+03     -4.04138148E+02
      1.44247065E+03     -2.81669554E+02      2.35262451E+03
     -5.00551135E+02     -1.77773907E+02     -7.71044154E+02
     -3.22283123E+03     -1.95802242E+03      3.15692853E+03
     -8.96442595E+02     -1.52975358E+03     -4.64390910E+02
      3.74914910E+02     -8.76367786E+02      3.43405085E+02
     -4.38892405E+01     -3.18613586E+02      2.83510625E+02
      3.35256404E+02     -6.22174327E+02     -3.63987312E+03
     -4.26718870E+02     -5.86769928E+02      1.49770458E+03
     -1.30498137E+02     -1.54704774E+02     -1.90123511E+03
  }
}

Hamiltonian = DFTB {
  SCC = Yes
  SCCTolerance = 1e-6
  MaxSCCIterations = 200
  ForceEvaluation = Dynamics
  MaxAngularMomentum = {
    C = "p"
    H = "s"
  }
  Charge = 0.0
  SpinPolarisation = {}
  Eigensolver = Standard {}
  Filling = Fermi {
    Temperature [Kelvin] = 300.0
  }
  SlaterKosterFiles = Type2FileNames {
    Prefix = "../../pbc-0-3/"
    Separator = "-"
    Suffix = ".skf"
    LowerCaseTypeName = No
  }
  KPointsAndWeights = {
    0.0000000000000 0.0000000000000 0.0000000000000 1.00000000000000
  }
  Dispersion = LennardJones { 
    Parameters = UFFParameters {}
  }
}

ParserOptions = {
  ParserVersion = 3
}
