Geometry = GenFormat {
<<< "system.gen"
}

Driver = VelocityVerlet{
  Steps = 100000
  TimeStep [fs] = 0.2
  MDRestartFrequency = 5
  Thermostat = None {
    #InitialTemperature [Kelvin] = 300.0
  }
  Xlbomd{ 
    IntegrationSteps = 6 
    MinSccIterations = 2
    MaxSccIterations = 200
    SccTolerance = 1e-6 
  }
  Velocities [m/s] {
      1.20004847E+03     -4.40452081E+02      2.36462033E+02
     -1.69886601E+03     -6.06741985E+02     -1.70074070E+03
     -1.40376448E+03     -1.39099096E+03     -2.37622961E+02
      4.84579828E+01      2.98985660E+01      1.66530806E+02
     -5.95684280E+02      2.17683199E+03      1.04116399E+03
     -4.58179223E+02     -1.02575698E+03     -1.58117186E+02
      2.46130140E+02     -4.13278119E+02     -1.57200551E+02
      1.57343145E+03      1.44326380E+02      7.24708678E+02
     -1.00239818E+03      9.53346228E+02      2.68409827E+03
     -1.57416813E+02      1.20681089E+03     -8.66871740E+02
     -2.40693559E+03     -2.84992201E+03     -2.91223099E+01
     -3.01356840E+03     -1.85942002E+03      2.32046410E+02
      2.63928446E+02      4.66184703E+01      3.71642533E+02
     -2.66578969E+02     -9.03020616E+02     -1.99832949E+03
     -7.93900947E+02      4.08246011E+02     -2.35190362E+03
      9.44632053E+02     -4.32497530E+02      5.58330049E+00
      9.57431328E+02     -5.06765427E+02      4.28700945E+01
     -1.36136866E+03     -8.39182900E+02      1.02441646E+02
      4.19256647E+02      6.40913284E+01      4.20518886E+02
      7.40191201E+02      3.09348397E+03      3.01292265E+03
      1.22942307E+03     -1.27062779E+03      2.66083493E+03
     -4.90260895E+02      3.48861564E+01     -3.83112817E+02
      2.55518257E+02     -1.01201463E+03      3.15726883E+03
     -2.73097208E+03     -1.06606137E+03     -8.16406788E+02
      2.17190968E+02      9.04475005E+01     -3.43751365E+02
      9.15687599E+02     -1.09880520E+03     -9.02635734E+02
      1.09273379E+03     -2.36241777E+02     -1.68654133E+03
      2.00607553E+02      1.93102039E+03     -1.68802987E+03
      7.87557036E+02     -3.70301697E+02      3.40330423E+01
     -3.32089025E+03      2.51774689E+01     -1.60528006E+03
      1.15971683E+03     -3.92149546E+02      1.58742792E+03
      1.59784842E+03     -1.46427256E+02      1.43147815E+03
      1.09319410E+03     -1.10926679E+03     -2.04273013E+02
      3.50440671E+02     -2.98234252E+02      1.21789415E+03
      2.93332594E+02      1.25848035E+03     -3.31666675E+01
      9.19607007E+01     -1.01732164E+02      5.07429348E+02
     -7.93135690E+02     -7.03505078E+02     -3.61333140E+02
      2.05133874E+03     -4.89913034E+02      7.41457646E+01
     -6.29235959E+02      6.80644644E+02      1.09635743E+03
     -6.11214222E+02      1.12903271E+03     -8.63697664E+02
     -9.99600069E+02     -1.59458903E+03      3.22628944E+02
      4.45833358E+01      2.34641226E+02     -9.22431730E+01
      6.30455901E+02     -1.22747175E+02     -1.26450561E+03
     -2.47663771E+03      1.64011925E+03      3.22917356E+02
      3.83914258E+02      6.76562157E+02      1.66820801E+02
      9.34021429E+01      4.32667935E+02      8.88204891E+02
     -2.44308004E+03     -1.32538912E+02     -3.24597503E+03
     -3.05778041E+02     -6.68887840E+02     -3.74157608E+02
      1.50443075E+03     -1.36795183E+03     -2.25390142E+03
      3.98322030E+03      4.44288515E+03      1.58800539E+03
      4.96953959E+02     -4.84794513E+02      9.51072590E+01
     -7.55122314E+02     -2.09346479E+03      1.74639196E+03
      6.19602104E+02      4.49796576E+02      9.18223002E+02
      9.09916806E+01      2.06133160E+02      1.85894231E+02
     -8.99086006E+02      1.05721234E+02     -1.84504586E+03
     -6.77332206E+02      1.13070149E+03     -7.01751577E+01
      3.89689260E+02      3.02692262E+02     -3.33692019E+02
      1.68110946E+03     -5.17535632E+02     -1.10458481E+03
     -1.22604686E+03     -2.27471143E+03      2.44935149E+02
     -2.95330707E+02     -1.13081271E+02      5.37878967E+02
     -1.07536105E+02     -2.25902079E+02      3.80062946E+02
      1.35564562E+03      1.35585863E+03      4.26696268E+02
      8.54412301E+02     -2.39646136E+03     -2.26862322E+02
     -2.27014959E+02     -1.41495937E+03      7.30900627E+02
     -6.65208467E+02      1.95447209E+02      1.40510104E+00
      1.98707601E+03     -7.81868138E+02      1.08687653E+03
     -7.25434017E+02      1.86109285E+02     -1.27473146E+03
     -6.12894045E+01      6.71083090E+02      3.53205269E+02
     -7.35860640E+01     -2.61268934E+03      1.04413043E+03
     -2.61313416E+03     -1.76239546E+03      1.21022227E+03
      9.25384526E-01      9.85144333E+01      1.07931232E+03
      1.12992919E+03     -2.74831223E+03      4.38379922E+02
     -1.05677130E+03      7.50407665E+02      1.09538194E+03
     -4.79011458E+02     -1.39783462E+02      3.89719030E+02
      5.86757145E+02      2.02661928E+03      5.71701321E+02
     -2.42519022E+01     -1.92893325E+03     -3.39052771E+03
      2.52511430E+02      1.23033137E+02      4.02160765E+02
     -2.22767041E+03     -3.82757659E+02      7.80368297E+01
      1.14557109E+03      1.03083704E+03     -7.67497748E+02
      1.53247881E+01      5.60487545E+02      1.00608725E+03
     -8.55658486E+02      2.61961395E+03      6.50142326E+02
      1.39879281E+03     -1.31856060E+03     -7.98795256E+02
     -5.41869084E+02     -2.78310574E+02      3.10714881E+02
     -1.36607321E+03     -1.15498423E+03     -6.30222444E+01
     -1.04638360E+03      1.66966681E+03      1.67201377E+03
     -1.25616303E+02     -6.40976052E+02      6.08455097E+02
     -2.21743097E+02      1.09012725E+03      2.48931270E+03
      1.06472273E+03      1.34744532E+03      9.59034212E+01
     -5.33333649E+02     -1.81650835E+02     -6.43944227E+02
     -1.45824592E+03     -7.59783052E+01     -6.32952508E+02
     -2.15820264E+03     -4.00004198E+02     -1.12513596E+03
      5.72124966E+02     -4.42893056E+02      1.03806962E+03
      7.05888951E+01      5.16484258E+02      9.14746295E+02
      1.20381882E+02      1.80190986E+03      2.48404277E+03
      1.18152061E+02     -1.68626372E+03     -1.04358573E+03
     -3.32740893E+03      5.31571335E+01     -9.91808622E+02
      2.59606103E+02      1.52788407E+02      6.13846183E+01
     -1.06880331E+02      2.47194076E+03      1.24657394E+03
     -2.14293319E+02      5.23539333E+02     -1.76135889E+03
     -4.42617661E+02     -3.30730369E+01     -6.99002081E+01
      2.85095055E+03     -8.12908346E+01      4.02558813E+02
      2.00935817E+03      2.77427598E+03      2.22001065E+03
     -3.69332641E+01      2.01066203E+02      1.23449572E+03
     -1.30327734E+03     -3.36720749E+02      1.75537741E+02
     -2.79071656E+02     -1.97672738E+02     -1.08834698E+03
     -1.17278594E+02     -1.24963350E+03      4.93300500E+02
      2.48434706E+03      6.92654956E+02     -9.68284297E+02
     -9.28140077E+02     -3.26269003E+03     -6.84989725E+02
      1.79481740E+02     -1.09272878E+01      1.58406228E+02
     -7.33210584E+02      3.00795182E+03     -1.41342165E+03
      7.71990829E+02     -4.48348775E+02      2.18476086E+02
     -2.15780249E+02      4.26667646E+02      4.54728509E+02
     -6.57798594E+02     -2.10911623E+03      5.03748864E+02
      6.61539315E+02      2.27319540E+02      4.64976891E+02
     -1.70436570E+01      9.74473742E+02      4.75770415E+02
      5.40764783E+02      9.17496948E+02      2.92035110E+03
     -3.51105456E+03     -1.14225956E+03      2.27970853E+03
      1.84588734E+02      7.34101653E+02     -9.15169151E+01
     -6.76684121E+01     -1.05664521E+03      2.46048794E+03
      2.13825822E+03      1.98951518E+02      9.61110903E+02
     -5.19565910E+02      2.08269421E+02      3.24636527E+02
     -4.03055595E+03     -1.40437886E+03     -6.22349887E+01
     -4.03692822E+03     -2.01710621E+02      8.51489133E+02
      9.68423636E+02     -2.09122438E+03      2.30966215E+03
      8.27939680E+02     -3.03727444E+02     -5.19852551E+01
      1.03162862E+02      1.68777159E+02      3.04702937E+03
      3.34540132E+00      1.22276083E+03      1.87533254E+03
      3.58731292E+02      6.54751528E+02      9.34669842E+02
      3.07221808E+02     -1.91935325E+00      2.23084186E+02
     -2.31707556E+03     -9.72359601E+02      2.42109662E+03
     -4.20839924E+02     -2.58945971E+03     -6.02909536E+02
     -1.94561624E+02      2.60555722E+02     -2.97249429E+02
      2.48380666E+03     -1.55466553E+02     -1.74208039E+03
      3.50074161E+03      4.63735338E+02     -6.24803302E+02
     -3.29484619E+01      1.94377433E+02     -1.93415864E+02
     -3.45437570E+02     -6.35905980E+02      4.15697621E+02
     -1.54019518E+03      6.17354384E+02      1.21960117E+03
      1.84580749E+02     -6.69335353E+02     -1.82113930E+02
     -2.10386620E+03      1.25784701E+02      8.90935557E+02
     -4.47604470E+02      1.99490754E+03      1.20097947E+03
     -3.82270222E+02      2.44791713E+02      6.65715342E+02
     -8.16479651E+02      1.52138460E+03     -1.56739474E+03
     -1.73519847E+03     -6.26369075E+02      3.27284313E+03
     -2.71567081E+02      5.96498452E+02     -2.90427384E+02
     -1.05319969E+03     -2.85156194E+03      1.62515618E+03
     -1.81488955E+03      1.57592573E+03      1.10084412E+02
      4.03606258E+02      6.60289363E+02      4.76204342E+02
      1.11956232E+03      3.42923732E+03     -1.64277614E+03
      4.78681748E+03     -4.05263795E+03     -2.85028175E+03
     -6.90716148E+02     -4.38070405E+02     -9.01829664E+02
     -1.13815357E+03      2.06960304E+03      1.65676107E+03
     -5.16590289E+02     -9.17706471E+02     -2.02837259E+03
      1.12014230E+03     -3.20107983E+02      2.85065776E+01
      7.46789501E+02     -1.77773792E+02      3.80243480E+03
     -1.29522368E+03      2.12405200E+02      3.62615635E+03
      7.91031701E+02      3.88452657E+02      3.06471868E+02
      3.23947884E+02      2.23752911E+02      1.53286215E+03
      2.48964090E+03     -3.63839711E+03     -1.13711054E+03
      2.69698805E+03     -1.21052866E+03     -2.03680676E+03
      2.03530636E+03      1.97040809E+03      8.64489270E+02
      5.72351551E+02     -3.23837253E+01     -1.37841244E+02
      1.18991232E+03      1.92266045E+03      1.00701276E+03
      4.10106744E+02     -3.46982301E+02      3.08389721E+03
     -2.62157625E+02      2.30061013E+02      6.28712655E+02
     -2.66581100E+03      1.26032938E+03      2.42006718E+03
      2.60511725E+02     -1.40920001E+03     -1.77155958E+03
      1.49673488E+02     -6.80755034E+01     -3.26152333E+00
      3.09899913E+02      2.08178329E+03      5.71750298E+01
     -1.07728653E+03     -1.02816991E+03     -3.10056561E+02
     -3.39771490E+02      3.84839709E+01      2.68472610E+02
      1.28336988E+03      1.41842744E+02      3.88114927E+03
      2.78883413E+02      2.15120146E+03      1.10436860E+03
      8.90591478E+02      2.83825827E+02      5.01631942E+02
     -1.37347878E+03      3.73586982E+03      1.89358372E+03
     -1.37095455E+03      1.45296896E+03      2.97281646E+02
     -6.75626443E+02     -2.25519447E+02     -3.51724590E+02
     -3.40596561E+02      1.00230743E+03      5.32990378E+02
     -5.19750893E+02     -2.22186929E+03     -2.34932770E+03
      1.37409238E+02      2.81692853E+02      2.31008334E+02
      6.49291493E+02      3.89324014E+02      1.47412092E+03
      8.71106423E+02      5.60714701E+02     -2.19062277E+03
     -1.50580039E+02      7.95554026E+01      2.58304952E+02
     -5.02816880E+02      8.22191621E+02     -7.95515743E+02
      6.19302658E+02      2.86317098E+03     -8.64877830E+01
     -2.50632637E+02     -3.63462089E+02      2.51267951E+02
      1.56808259E+03      1.62950840E+03      3.46931659E+02
     -2.05391064E+02      1.03734699E+03     -1.10545819E+02
     -3.12943722E+03     -1.77836540E+03      1.19067262E+03
     -2.74699089E+02      1.05926933E+02     -1.52096987E+01
      1.18431391E+03     -1.39942731E+02     -5.01547518E+02
      1.50328696E+03     -4.88929940E+02     -6.65198974E+02
      5.63410356E+02     -9.70624960E+02     -3.73633646E+03
      6.73183979E+02     -3.90029571E+01      4.52535896E+02
      3.59783713E+03     -8.96884292E+02      9.18191537E+02
      4.50647610E+02      6.83012097E+02     -3.79686838E+01
      8.28089452E+02      1.30542866E+03      1.16378920E+03
     -1.21810731E+03     -3.07303032E+02     -1.11387712E+03
     -1.93796918E+03      3.09726071E+02     -2.30587827E+03
      2.18133229E+02      5.53528864E+02      1.22709305E+02
     -8.85375769E+02     -1.74550274E+03     -1.59485500E+03
     -1.33354347E+03      1.48965363E+02     -2.29310803E+03
     -5.12471246E+02      2.33970593E+02      7.85679883E+02
     -2.21684690E+03     -1.86669458E+03      1.67223837E+02
      1.27448467E+03      1.76474383E+03     -8.13720941E+02
      6.49416138E+02      5.23164074E+02     -2.27514283E+01
     -3.82379903E+02      1.39972661E+03     -1.15520796E+03
      1.73179289E+03      7.88883675E+02      1.19533372E+03
      3.18147289E+02     -6.15848150E+00     -5.39044893E+02
     -3.20856254E+03      2.03923570E+02      4.18169559E+03
     -8.40736554E+02     -1.43550970E+03     -7.48787244E+02
      2.12553324E+02      5.84968976E+01      1.23108193E+02
      1.66000455E+03      1.41459060E+03     -8.54751357E+02
     -4.12778451E+03     -1.00935001E+02      1.79210703E+02
     -2.79911401E+02      1.96034644E+02     -2.32851813E+00
      1.32424344E+03      1.79653114E+03     -9.49011627E+01
      2.42404227E+03      1.92418206E+03     -3.07373794E+03
      5.63872065E+02      1.32632313E+03     -5.99542390E+02
     -5.41791428E+02     -2.10723176E+02     -5.52524861E+00
      1.13992394E+03      4.63667333E+01     -6.32334245E+02
      1.08709293E+03      1.98950332E+03      3.11402637E+03
      3.28186708E+02      4.97904642E+02     -3.23228292E+02
      4.02952321E+02      1.52886422E+03      1.58399477E+03
     -9.23242689E+01     -3.44524694E+02     -1.49363601E+02
     -8.39913011E+02      1.10151242E+03      9.53585551E+02
     -1.18795507E+04     -1.38819197E+04     -2.13212032E+04
     -1.95434124E+03     -4.49905153E+02     -4.45574392E+02
      1.62730896E+03     -2.90900445E+02      2.18933603E+03
     -2.00443819E+02      4.65506461E+01      4.08783220E+02
      1.31770116E+03      6.24351495E+01      1.48214521E+03
      1.02523109E+03      3.05637526E+03      1.77943798E+03
      7.91818884E+02     -1.87567493E+01     -1.12961401E+02
      2.37422756E+02      2.38460443E+03      4.11663721E+02
      3.01537715E+03     -4.96233589E+02     -1.48561814E+03
     -5.31774591E+01      1.07236694E+03      4.82097019E+02
     -3.10498158E+03     -2.31824032E+03      1.92096773E+03
     -2.56213401E+02      1.86422003E+02     -1.83185586E+02
     -3.06440969E+02     -7.33033151E+02      2.19239738E+02
      4.67961465E+02     -7.22678242E+01     -3.22951713E+02
     -2.09966354E+03     -9.67963224E+02     -8.29560876E+02
      3.50821716E+02     -5.13005096E+02     -4.86351821E+02
     -1.31016010E+03     -5.61836783E+02     -2.64068898E+02
      1.61091198E+03     -1.35409466E+03      8.22728064E+02
      6.15687919E+02      6.86494962E+02      1.68709562E+02
      1.01905862E+03     -9.48115491E+00      2.86367014E+03
      2.87886470E+03     -1.77385196E+03      1.94874436E+03
     -2.52304385E+02      7.00013023E+02      1.04301354E+02
      2.40019620E+03     -2.58976236E+02      2.28613863E+03
      1.73630050E+03     -1.27154605E+03     -1.49680394E+02
      1.91704454E+02      1.50228988E+02      4.06664375E+02
      3.06053696E+03      1.90704995E+03      3.43028341E+02
      1.29933657E+03     -1.06844758E+03      2.11703236E+03
      1.86922323E+02      1.07839174E+03     -3.47058082E+03
      3.62656946E+02     -5.19874790E+02      2.30473818E+02
      1.77367699E+03     -1.36567562E+03      1.27530092E+03
     -3.14107319E+02     -1.33265763E+03      1.13554273E+03
      1.27609082E+03      6.16095565E+02      5.63066516E+01
      6.90936783E+02      5.73785323E+02     -5.00944762E+02
      1.38384733E+03      1.59967130E+01     -2.69484352E+02
     -6.29414149E+02      1.30124087E+03     -9.31630108E+02
      4.15297931E+02      4.87825740E+02     -2.87802376E+01
     -2.64552528E+03      1.36327885E+03      1.20416687E+03
      6.10823834E+02      2.81532870E+02     -1.56203744E+03
     -6.47921375E+02      3.76118356E+02      4.21908391E+02
      1.33092268E+02      9.27186083E+02      1.46249435E+03
      5.54021274E+02     -1.38074164E+03     -1.99368883E+03
     -4.02535662E+02      5.54829148E+01      8.00713076E+01
     -1.76721494E+03      7.83812751E+02      1.09064668E+03
      1.20150166E+03     -1.26491281E+02      8.28678228E+02
     -1.00846359E+03      3.16339055E+02      1.27746239E+02
      2.08311973E+03      7.01661848E+02     -8.19928300E+01
     -1.06640021E+03     -4.33187094E+02     -1.98753353E+03
     -1.35593344E+02      2.45805340E+02      3.45590952E+02
      9.16924646E+02      5.34409820E+02      1.94917598E+02
     -8.21373683E+02     -2.28665545E+01     -1.19247244E+03
      7.07385998E+02     -4.12884936E+02     -4.52530040E+02
     -1.97312603E+02     -2.10647691E+02     -1.47512332E+03
      2.38350501E+03     -2.26622397E+03      1.12605032E+03
      5.26239606E+02     -2.32411943E+02     -8.18413304E+00
     -9.33523693E+02     -1.89562356E+03     -2.79138228E+03
     -1.14611990E+03      2.33919050E+03     -6.19114262E+02
      2.65238922E+01      1.52255270E+02     -1.09383584E+02
     -9.10317149E+02     -6.94276438E+02      2.81966337E+02
      1.07948110E+03      5.69786945E+02      1.65253284E+03
      1.69958525E+03     -1.08688434E+03     -1.03916706E+02
     -4.83569840E+02      1.76279330E+02      1.24012205E+03
     -1.09459800E+03     -1.20807456E+02      2.57698986E+03
     -5.54489625E+02     -2.13324907E+03     -6.42892109E+02
     -6.52337331E+02     -9.76481894E+02     -4.46578658E+02
      1.69255980E+02     -6.48575414E+01     -3.02797050E+02
      1.51487898E+02     -2.74742040E+02      1.00525335E+03
     -1.21135941E+03      4.99429303E+03     -2.41133015E+03
     -6.15968579E+02      3.04025546E+01      9.23746222E+02
      1.13257450E+03      7.38363623E+02     -1.54391682E+02
     -7.55848094E+02      3.41172249E+02     -7.01754633E+02
     -2.37602982E+02     -6.05213196E+02     -1.17139292E+02
      8.37033533E+02     -2.17637797E+03      1.43248517E+02
      3.06862405E+03      3.34541051E+03     -3.42502127E+03
      5.82187485E+02     -8.03356427E+01      1.28906318E+03
     -9.24109061E+02      8.73130362E+02      1.64925559E+03
     -1.22220532E+03     -4.59749907E+02     -1.65700119E+03
      7.51203538E+01      7.31044026E+01      5.56334084E+02
     -7.84717293E+02      2.05622026E+03      6.36379785E+02
     -8.63580195E+02     -2.37765205E+02     -8.44080481E+02
     -3.02689840E+02      7.26813808E+02      3.20331841E+02
     -4.28039356E+03     -2.04812892E+03     -1.04337432E+03
     -4.25712392E+02     -3.10728826E+02     -2.76712160E+03
     -7.60555351E+01      2.11327726E+02     -4.33407219E+02
      1.79051176E+03     -1.46293124E+03     -8.83117643E+02
      1.90836176E+03     -2.14604804E+03     -1.04958956E+03
      2.86707584E+02      7.47564360E+02     -6.79438292E+02
      7.65215008E+02      8.48475438E+02      1.86589075E+02
     -5.87967939E+02     -7.97800147E+02      2.51141290E+03
     -1.17285144E+02      1.47708827E+02     -6.58725602E+01
      2.06675380E+03      3.87047037E+03     -8.48647787E+02
     -6.84949625E+02     -7.81426245E+02      5.11194164E+02
      2.97491979E+02      1.34465237E+03     -5.17975403E+02
      2.93467704E+02      6.21509037E+02     -6.71847145E+02
      1.44006115E+03     -3.36950007E+02      8.62312670E+02
     -2.69750195E+03     -1.52308277E+03     -3.24508577E+03
      3.49319573E+02     -3.89200304E+02      2.96333513E+03
     -4.12606976E+01     -6.73771789E+01      7.51228051E+02
      1.16842150E+03      2.96268183E+02     -1.34929339E+03
      1.93665532E+03      5.38852157E+02      5.86228733E+02
      6.01905785E+02      7.21877388E+01      6.23699531E+02
     -1.08290906E+03      1.43827816E+03     -2.71424727E+03
     -3.51909513E+03     -9.11005066E+02      1.84062128E+02
      1.57735636E+02     -3.82038838E+02     -1.93574699E+01
     -1.57321465E+03      3.01328480E+02      1.20780583E+03
      2.15566168E+03      2.63021111E+03     -2.75651543E+02
      1.07853972E+03      7.68779330E+02      3.79163269E+02
     -2.73265322E+03      2.74947037E+03     -1.32995695E+03
     -1.55689138E+03      1.00174693E+03     -1.39407546E+03
      2.70107117E+02      6.32340406E+01      8.16811979E+02
     -1.57003958E+03      2.79012350E+02      2.07831490E+03
      1.32337164E+02     -3.36799706E+03      3.26376987E+02
     -8.69957164E+01      3.29965311E+02      3.69838992E+02
      1.32632846E+03     -1.47986908E+03     -4.67034102E+02
      2.90046697E+03     -6.15958558E+02      2.29130786E+03
      9.65914532E+02      3.91920212E+02     -8.05108950E+01
     -1.10375334E+03     -1.13266593E+02     -2.64986291E+03
      2.19843995E+03     -2.69734467E+03     -2.06519202E+03
      6.83449408E+02     -4.52093789E+02      8.44776700E+02
      2.75098420E+03      1.05338582E+03     -8.80158827E+02
     -1.04985682E+03     -1.31142433E+03     -2.65504982E+02
     -2.94439194E+00     -8.09024167E+01      3.51126269E+02
     -7.16578930E+02      8.17893875E+02      3.50020509E+02
     -7.46606394E+02      7.43602989E+02     -4.41172619E+02
     -1.52220247E+03      4.99216174E+02     -6.52515084E+02
      3.34547241E+02      7.97169488E+02     -6.05291153E+02
      1.13461427E+03      2.99480648E+03      2.46476008E+03
      3.16454056E+03      7.09065385E+02      8.68811794E+00
      1.20896624E+03     -1.28535078E+02      9.85003428E+02
  }
}

Hamiltonian = DFTB {
  SCC = Yes
  SCCTolerance = 1e-6
  MaxSCCIterations = 200
  ForceEvaluation = Dynamics
  MaxAngularMomentum = {
    C = "p"
    H = "s"
  }
  Charge = 0.0
  SpinPolarisation = {}
  Eigensolver = Standard {}
  Filling = Fermi {
    Temperature [Kelvin] = 300.0
  }
  SlaterKosterFiles = Type2FileNames {
    Prefix = "../../pbc-0-3/"
    Separator = "-"
    Suffix = ".skf"
    LowerCaseTypeName = No
  }
  KPointsAndWeights = {
    0.0000000000000 0.0000000000000 0.0000000000000 1.00000000000000
  }
  Dispersion = LennardJones { 
    Parameters = UFFParameters {}
  }
}

ParserOptions = {
  ParserVersion = 3
}
