Geometry = GenFormat {
<<< "system.gen"
}

Driver = VelocityVerlet{
  Steps = 100000
  TimeStep [fs] = 0.2
  MDRestartFrequency = 5
  Thermostat = None {
    #InitialTemperature [Kelvin] = 300.0
  }
  Xlbomd{ 
    IntegrationSteps = 6 
    MinSccIterations = 2
    MaxSccIterations = 200
    SccTolerance = 1e-6 
  }
  Velocities [m/s] {
     -1.05371677E+02      3.98414742E+02      3.20478917E+02
     -1.77290023E+03     -1.06604093E+03     -2.01022432E+03
      2.96011649E+02      1.09329645E+03      2.51970182E+03
      3.25348285E-01     -2.48544655E+02     -7.88293266E+02
      4.01284931E+02      7.67890314E+02     -9.74898407E+01
      7.38982062E+02     -1.87537960E+03     -1.60660680E+03
      1.96030017E+02      5.91759002E+02     -4.40639325E+00
     -9.60960362E+02     -1.39218829E+03      2.39204758E+03
     -9.98117323E+02      7.62841789E+02     -5.62225451E+02
     -6.16654936E+01      3.15811706E+02     -7.41478946E+01
     -3.15310162E+02      8.37750167E+02     -2.97897654E+03
     -8.13687855E+02      1.86730820E+03     -4.24459527E+02
     -1.46171650E+02      5.94766466E+02     -3.68028153E+02
      2.76981132E+03     -8.58098864E+02      1.36285690E+03
     -1.25011831E+03      9.08186185E+02      2.81217379E+02
     -2.71612096E+02      7.15419320E+02      2.73615024E+02
     -5.88546976E+02      3.02162961E+03     -1.70475156E+03
      9.79779340E+02      4.89826362E+02     -3.07278008E+01
     -9.83230923E+03     -2.39518953E+04      2.09536531E+04
      2.40965967E+03      6.34216594E+02     -1.28012093E+03
      1.49796678E+03      1.60095789E+03      2.12683064E+03
      1.06350278E+03      6.31878933E+02      9.23963024E+01
      8.56670557E+02      3.18466642E+02      1.06836079E+03
      9.43488535E+02      1.85660871E+03     -2.13905704E+02
     -7.04948167E+02     -1.24235593E+02     -4.54214522E+02
      3.79961617E+02     -3.01503801E+02      2.50840385E+01
      1.10556120E+03     -6.65340564E+02     -2.18870113E+03
      1.62204087E+03     -3.48056193E+03     -1.29289017E+02
      1.70896105E+02      3.37144654E+01      1.74469469E+02
      1.77360603E+03     -1.17190375E+03      8.39304794E+02
      3.80013443E+02     -1.55645576E+03     -1.30509532E+03
      1.61343881E+03     -2.78107676E+02      3.81622018E+02
     -3.52423917E+01     -3.37269909E+02     -7.73283371E+01
      3.12493173E+02      6.86662351E+02      2.74935653E+03
     -3.84978263E+03     -1.91903499E+03     -8.29072707E+02
     -1.62337400E+02     -4.53957041E+02     -4.37862829E+02
     -3.23120095E+03     -9.55155176E+02     -2.35185565E+03
     -7.23976662E+01      1.49494763E+03     -1.42239538E+01
      2.78252221E+02     -5.46339336E+02      9.90623611E+01
      6.77080937E+02      1.77273304E+02     -1.04475024E+03
      1.75482236E+03     -9.63818964E+02     -1.27819391E+03
      7.19030080E+02      6.11769796E+01     -2.09218129E+02
      1.55035706E+02      2.47847953E+03      1.55598504E+03
     -4.88397975E+02     -2.04508500E+03     -9.87075665E+01
      3.30166610E+02      9.74118114E+01     -5.17526146E+02
     -4.93307873E+01      7.15997185E+02     -1.27068131E+03
      7.09136639E+01      1.19776955E+03     -8.11843271E+02
     -6.11647907E+02      1.00036626E+02     -2.31238220E+02
      2.16701300E+02      4.96317482E+02     -1.18749296E+02
      8.86062552E+02     -6.69757484E+02     -1.26287716E+03
     -1.13512220E+02      1.01874602E+03     -9.47095271E+02
     -8.03357913E+02      1.97940526E+03      7.58263431E+02
     -3.10537708E+03     -8.32858731E+02      4.45432176E+02
     -7.09511851E+02      3.63066471E+02      1.10356965E+02
      2.42651616E+02      1.78833835E+02     -1.95605790E+03
      8.20711684E+02     -3.00296073E+03      2.57880281E+03
     -3.53400250E+02      3.47706979E+02     -6.13592849E+02
     -1.05555052E+03      1.14929542E+02     -3.06776079E+03
     -9.77109000E+02     -2.19782601E+03     -1.87750298E+03
     -7.66199602E+02     -6.23106167E+02      9.51547193E+02
     -3.60754124E+02      3.68406112E+02      2.52994525E+02
      1.41083413E+02      2.72297086E+03     -6.30716615E+02
      1.13029127E+03     -1.13102460E+03     -2.00706093E+03
     -1.27114644E+03     -1.03693066E+03     -8.83204886E+02
      5.81943567E+02      2.99584448E+02     -4.95703082E+02
     -4.56879686E+02     -1.30464807E+03     -7.64769424E+02
     -9.54353884E+02      6.34383787E+02      1.14948244E+03
      3.27843848E+02     -2.52932003E+02     -1.09033969E+02
     -5.85287660E+02     -2.36398050E+03      6.48451154E+02
     -2.33308982E+03      2.64606415E+03     -1.44398445E+03
      5.95588520E+02      7.27463612E+00     -3.32225086E+02
     -2.37164152E+03     -1.28663550E+02     -1.22636911E+03
     -2.37120079E+03     -1.11103949E+03     -2.12393336E+02
      4.62889523E+02     -8.19422618E+01      1.23897104E+03
      1.70437442E+03     -6.84876964E+02     -1.68203926E+03
      3.16513430E+03      1.11576057E+02      7.26149547E+02
     -1.60787557E+02      3.57540276E+02     -3.74619799E+02
     -8.97129483E+02      5.60012920E+02     -6.89227600E+02
     -1.16688278E+03     -8.72975288E+00      3.42995266E+03
      4.44522803E+02      3.25639479E+02     -5.42501941E+02
      2.26125095E+03      1.79001862E+03     -1.73105868E+03
      8.51152694E+02      7.44527172E+02      1.18096124E+03
      4.56415608E+02      8.46612190E+02      1.14624387E+02
     -4.93572185E+02     -1.58946414E+02     -1.16261926E+03
     -6.87273981E+02      1.06246507E+03      1.92739579E+03
      4.14853490E+02      1.49979380E+02      3.50133833E+02
      1.79006790E+03      2.69549707E+03     -1.27191896E+02
      3.24040073E+03      4.65840860E+02      2.28235026E+02
      5.88518925E+02     -1.72945833E+02      1.76025252E+02
     -3.11277671E+03     -1.92104476E+03      3.73686226E+02
      5.95117610E+02     -3.89686489E+02     -1.95076188E+02
      3.03323098E+02      1.59621247E+03      2.42890757E+03
      7.04321678E+02      2.64530363E+02     -2.83060080E+02
      8.69813241E+02      3.94716630E+03      2.05515688E+03
     -3.83665078E+02      4.75747506E+02      1.36932359E+03
      7.09809256E+02     -1.95494699E+03      1.02411437E+03
      4.98120245E+02      5.29468858E+02     -5.61828071E+02
      1.52468179E+03      1.99661008E+03     -3.40563106E+03
      3.37390800E+02      1.40735721E+02     -7.68173100E+02
      1.34631060E+03      1.44404772E+02     -5.83512662E+02
      8.46201232E+02      2.68488199E+03     -2.55680872E+03
     -1.22775383E+03     -2.34169657E+03     -3.05890062E+01
      1.10797202E+02     -6.00565174E+02      2.35904898E+02
      2.49710926E+03     -1.55924126E+02      1.99636675E+03
     -1.61642949E+02      1.15987995E+03      4.40545881E+02
     -3.67282060E+02     -2.62330088E+02     -2.74504668E+02
     -7.40485078E+02     -1.11965423E+03      1.92235292E+03
      8.06344674E+02      7.63443859E+02     -5.21844187E+02
     -3.36822377E+02      6.43881341E+02     -6.97113745E+02
      4.49102777E+02      1.79589282E+03     -7.17411235E+02
     -6.56350201E+02      4.12981864E+02      2.90714073E+03
      8.50858833E+01      4.72225430E+02     -1.05165306E+02
      1.30575657E+03      2.35995156E+03     -1.15043227E+03
      1.14246423E+03     -2.56346208E+02     -3.36088120E+03
     -1.11043604E+02      3.25094217E+02      3.43314525E+02
      6.36276501E+02      2.56977643E+03     -1.05724039E+01
      2.63881023E+02      1.61138204E+03      2.76211132E+01
     -1.46310203E+02      2.45057032E+02     -6.06415604E+02
     -1.53452451E+03      3.98407054E+02      1.08641012E+03
      1.25719272E+03     -4.83925509E+02     -2.11868940E+03
      2.33129652E+02     -1.17115809E+02     -2.97057707E+02
      6.74904599E+02      1.43100303E+03     -1.84604479E+03
     -9.43397794E+02      2.55819345E+03     -1.59423167E+03
      2.49945660E+03      2.27377643E+03      2.26190646E+03
      1.12848513E+02      6.85753013E+01     -5.84680856E+02
     -6.00982842E+02      1.42199954E+03     -4.37262631E+03
     -2.31369056E+03     -1.01991798E+03     -2.29363737E+03
     -1.35300917E+03      2.63496732E+03     -8.92601923E+02
     -7.86700346E+02      8.59849828E+01     -4.29173939E+02
      4.04944003E+02     -1.11724151E+03     -2.97062396E+03
      5.43159429E+02      1.16131123E+03     -2.49030712E+03
      3.52877769E+02      1.57402503E+02     -7.52586998E+02
      1.80819303E+03      2.34878726E+03      2.36838966E+01
      5.45269660E+03      5.52807996E+01      2.52991047E+03
     -1.97481593E+01     -5.78219516E+02     -7.36411874E+02
      1.24658234E+02     -1.77242283E+03      3.10374641E+02
     -6.20045163E+01      6.72553601E+02     -5.28556096E+02
      6.85291776E+02      3.18754779E+02     -3.40965057E+01
      1.22885403E+02     -8.27173258E+02     -7.89030581E+02
     -4.84855175E+02      8.93012807E+02     -1.65268662E+03
      1.33248253E+02     -5.01315341E+01     -1.04156541E+02
      9.44728324E+02     -3.62540267E+02      7.58419572E+02
     -1.93892168E+03     -1.06922642E+02      7.57150206E+02
     -1.78793809E+02      5.61401250E+02      6.74638417E+02
      2.15222845E+02     -3.58078833E+02     -2.66251577E+03
      2.13600982E+03     -7.97828443E+01      3.08979305E+03
     -3.75368761E+02      4.82990504E+02     -3.06780420E+02
     -6.46846571E+02     -5.38687619E+02      5.33788349E+02
     -1.55337823E+02      9.44586498E+02     -9.28938009E+02
      5.22603453E+02     -6.91181581E+02     -1.49046785E+01
     -1.65604278E+03      1.02137569E+03      1.46719552E+03
      1.51500037E+03      6.05488701E+02     -2.69032627E+03
      1.83369204E+02      5.20402757E+02      5.70333630E+02
     -3.51217969E+02      1.45552102E+03     -2.95038571E+03
      1.45014637E+03     -8.19321699E+02      2.59301128E+03
     -1.42859740E+03      4.83030321E+03      2.58673402E+01
      4.93122322E+02      3.43275677E+02      4.33825524E+01
     -2.52191075E+03     -1.02006174E+03      2.75239322E+02
     -1.21360464E+03     -1.37625873E+03     -1.72465112E+02
     -2.67090406E+00      6.42117176E+02     -7.72583616E+02
      3.36917913E+02     -2.37720663E+02     -4.04034823E+02
     -3.59016914E+02     -3.65777311E+02     -4.21207596E+02
     -8.34069698E+02      1.16853767E+03      1.68093099E+03
     -1.64970939E+02      2.31542579E+02     -6.24648845E+01
      3.37638591E+02     -3.96792373E+02      5.72110392E+02
      2.58403980E+02      2.91418596E+03      1.50035597E+03
      4.43121669E+02      2.23454297E+01     -2.14809278E+02
     -2.63005367E+02      1.45135031E+02     -6.46308071E+02
     -9.35997260E+02      7.73701471E+02     -1.41427775E+03
      4.31701283E+02      2.50693922E+02     -3.28953888E+02
     -9.92206833E+02     -1.16409578E+03     -4.50363687E+02
      8.09223828E+02     -3.85147762E+02     -2.36053472E+02
      4.30491899E+02     -3.03761599E+02     -4.51712698E+02
     -7.54333103E+02     -8.27036088E+02      8.60319129E+02
      1.71563486E+03      3.57264120E+02     -1.43334498E+03
     -3.88063906E+02      6.66745458E+02      7.47895666E+02
     -4.73338129E+01     -1.97675805E+03     -1.97342411E+03
     -9.80473018E+02      1.61604249E+03     -3.02064779E+03
      8.11297055E+02      3.01240365E+02      9.24454622E+02
     -1.55695305E+03     -1.97547288E+03     -3.57594807E+03
      1.30193763E+03      1.75560780E+02     -2.69137080E+03
      7.41125499E+02      9.87236355E+02      2.50565509E+01
      1.26374640E+02      2.77773174E+03      2.24893764E+03
     -1.48474216E+03      1.67810405E+03     -2.54425575E+03
     -7.25100264E+02      1.39126564E+02      9.91078285E+01
     -1.86762021E+03     -8.35825903E+02      3.61211038E+02
     -1.50445554E+03      1.90447496E+02     -1.58345110E+02
     -5.91742382E+02      3.67813582E+02     -2.76774257E+03
     -6.18050111E+02      6.04149088E+02     -2.02709013E+02
     -2.44207454E+03      7.39624935E+02     -1.73658256E+03
      1.04088056E+03     -2.83665268E+02      9.13594571E+02
      7.55596826E+02     -8.42989906E+02     -5.80614218E+02
      8.50048466E+01      2.64701248E+02      4.23532572E+01
     -3.26792380E+03     -4.09385010E+02      7.37833247E+02
      6.91689539E+02      1.18141227E+03     -3.82222223E+02
      1.00392621E+03      2.04706198E+02      2.02788290E+02
      3.37629570E+02      1.56116688E+03     -3.22637420E+03
      1.53118531E+03     -2.41970339E+02     -2.59748370E+03
      7.02199481E+01     -3.15298734E+02     -2.55501467E+02
      7.38521264E+02      1.79650722E+03      5.11313493E+02
     -2.02141591E+03     -4.75625762E+02      2.41774960E+03
      2.82598728E+01     -3.86849069E+02     -6.48750277E+01
      2.08450096E+03     -1.63225715E+03      6.76024175E+02
     -2.43829404E+03      2.12514660E+03      1.46872075E+03
      1.28889497E+02      2.33823867E+02     -8.19516531E+02
     -1.64391465E+03      8.43092806E+02      7.73584994E+02
     -1.22830743E+03     -3.16341089E+03     -1.08740022E+03
      2.11887765E+02      1.88997212E+02     -3.58590430E+02
     -1.33005552E+02      8.13628738E+02     -4.35526163E+01
     -1.18835223E+03      1.06888292E+03      3.48620507E+03
      2.91093743E+02      7.20896661E+02     -2.62121368E+01
     -1.61043193E+03     -8.47115500E+02     -1.40168254E+03
      1.30661871E+02      1.82514380E+03     -1.71833222E+01
     -1.28890774E+02     -7.29799418E+02     -3.61763663E+02
      2.86747321E+03      1.71162167E+03      1.27684074E+03
      1.39348244E+03     -4.31762721E+02     -5.03063319E+02
      7.48820513E+02      7.74305214E+02      2.25071212E+02
      9.32164029E+02      2.43270481E+03      5.41385548E+02
      4.19518515E+02      2.45807000E+02     -8.21388247E+02
      1.71500297E+03     -9.51630799E+02      2.59206178E+03
      2.68321375E+02      3.62151060E+02     -2.10396933E+02
     -7.96834734E+02      2.52271923E+02      1.57948446E+02
      1.94225657E+03     -9.68163624E+02     -1.33607614E+03
      3.42083823E+03     -6.41920070E+02     -1.24380885E+03
      1.95723566E+02     -8.05741620E+02     -6.28227029E+02
      2.11168568E+02     -8.15631184E+02     -6.69275665E+02
      4.15558628E+02      2.90390517E+03      1.65538498E+02
     -1.11461611E+02     -2.62089860E+01     -5.77980296E+02
     -2.09107956E+03     -9.85055041E+02      1.36399903E+03
     -1.63098915E+02      1.53916373E+03      3.68415110E+00
     -6.61291117E+02      8.72191519E+01     -7.91075241E+02
      2.35319250E+02      9.62985221E+02     -1.92036113E+03
      8.77286125E+01     -9.78225784E+02      1.35827813E+03
     -2.07207933E+02     -1.03315943E+01     -1.10691707E+03
      1.88399236E+02     -8.72474528E+02     -2.76663375E+02
      2.02338031E+03      1.66780153E+03      3.37265495E+03
      5.74506480E+00     -1.79783195E+02     -6.70562158E+02
      7.87737500E+02     -6.80071061E+02      4.76525173E+03
     -7.69906230E+01     -1.32655402E+03     -6.76421080E+02
      2.65803153E+02     -2.72792604E+02     -4.84491314E+02
     -7.99715131E+02     -9.65742939E+01      3.26835322E+03
     -1.75827357E+03     -2.70891919E+02      9.63200229E+02
      4.29451677E+02     -1.31692142E+02     -1.74461379E+02
     -2.50277112E+03      5.11000723E+02      7.90120641E+01
     -5.52868857E+01     -4.62189405E+02      1.19257675E+02
      4.84539510E+02     -1.42217004E+02     -2.71385133E+02
     -2.16974652E+02     -2.11254565E+03     -1.59484949E+03
     -1.69409237E+03      1.42788295E+03     -3.79484911E+03
      3.62530314E+00      3.86982721E+02      1.79281977E+02
     -1.76816665E+03      9.73241332E+02      7.48271237E+02
     -1.07253838E+03      2.12267678E+02     -1.41387004E+03
     -1.30715275E+03      1.12479483E+03      1.80872608E+03
     -2.68750901E+02     -1.54744547E+02     -1.08821220E+03
     -1.67853175E+03     -1.37918602E+03      1.93093673E+03
     -2.23279608E+03     -3.50680317E+01     -1.50727329E+03
      4.91497821E+01     -1.82638647E+03     -2.78076183E+03
      6.88935686E+02      3.20293622E+02     -4.94110373E+02
     -2.10856450E+02      3.92669321E+02      2.38675439E+03
     -4.53278255E+02     -9.48038351E+02     -2.19974797E+03
      1.40280795E+02     -4.26073206E+01     -7.00997441E+02
     -4.33734450E+02      7.63925103E+02      4.08624620E+02
     -2.57731738E+02     -1.35695399E+02     -2.40728507E+03
      2.32402678E+02      1.03348801E+02     -4.00364826E+02
      1.40194082E+02     -9.19314809E+02      5.46741650E+02
      1.19751989E+03      5.24519179E+02     -1.40912332E+03
      1.44934921E+02      4.63163019E+02     -4.48900306E+02
      2.88482204E+03     -2.15804312E+03      2.25861282E+03
      1.08425080E+03     -1.29422454E+03     -1.63198500E+03
     -2.09338349E+02     -1.85948484E+02     -6.09230316E+02
      2.03955745E+03     -2.36572791E+02     -1.01271880E+03
     -3.21580006E+03      4.41798239E+02     -8.83846373E+02
     -3.96246763E+02     -3.34225096E+02      1.61665716E+02
      1.72742096E+03     -5.48186473E+02      1.02866418E+03
     -2.05187102E+01      1.96116529E+02     -4.89220934E+02
      6.80547188E+02      4.33804215E+02      1.18554453E+02
      1.94289551E+03      1.15578379E+03     -1.39684621E+03
     -1.23665860E+03     -1.57924608E+03      1.20085739E+03
     -1.66423824E+02      1.54816324E+02      1.02749462E+03
      8.14662572E+02      3.83677431E+02      1.80525213E+02
     -2.46370948E+02      1.15495695E+03     -6.18690276E+02
     -2.53167069E+02      6.91320692E+01     -2.10207025E+02
     -7.79737048E+02     -4.04303685E+02      3.43049122E+03
     -3.60723219E+03      1.03670823E+03     -1.21684111E+03
      2.04144291E+02      7.21152760E+02     -3.38771897E+03
     -6.06031591E+02     -6.74988211E+01     -2.23724974E+02
      1.06140598E+03     -2.25467411E+02      1.45281259E+03
      1.55554859E+03     -2.79043449E+03      1.01835562E+03
     -1.59997092E+03      2.01806564E+03     -5.61740088E+02
     -6.82280456E+02      7.07727448E+02      1.13881697E+02
      6.99669209E+02      1.51228476E+03      5.87603201E+02
      6.33557225E+02     -2.32881463E+03     -4.79905508E+01
      6.63881827E+02      8.79013388E+02     -1.05890770E-01
      2.26248247E+03      1.98360799E+03     -1.25031251E+03
      1.63824673E+03     -1.88640333E+03     -3.09639972E+01
     -2.98091247E+02      6.01134337E+02      4.51019704E+02
      2.07141228E+03     -2.10388769E+03      3.76244727E+03
      1.63571464E+03     -8.91229287E+02     -6.97514876E+02
     -3.02108262E+02     -2.85205246E+02     -4.70475066E+02
      2.19308100E+03      1.96949207E+03      1.78714810E+03
     -2.79146849E+03      7.70407399E+02     -2.62763985E+03
      1.80555809E+02      1.52215418E+02     -4.02414719E+02
     -9.82387399E+01     -5.55223681E+02     -2.62406558E+03
     -1.43950695E+03      7.78525056E+02      9.08268617E+02
     -5.36290486E+02      7.62756399E+02     -8.26935354E+01
     -1.96516339E+03      7.21504381E+01     -7.43291238E+02
      2.82215682E+03     -5.15933743E+02     -2.53005327E+03
     -1.77087427E+02      1.19444888E+03     -3.21618813E+02
     -1.01590889E+03     -1.41490017E+03      1.24968023E+03
     -6.15357154E+02     -7.27739313E+02     -5.76523900E+01
     -3.61593632E+01      8.59648062E+01     -2.16145873E+02
     -2.09904755E+03      1.70981651E+03     -2.95091721E+03
     -9.00767321E+02     -1.32224447E+03     -8.62008617E+02
      8.17555950E+01      1.32802619E+02      2.03765637E+02
      6.59868667E+02     -2.18560234E+03      1.35165758E+03
      2.82427540E+03      2.12883783E+03     -8.60093569E+02
      1.54539529E+03      7.36998886E+02     -1.60454286E+03
      2.63401860E+02      6.01417002E+02     -5.72068122E+01
     -8.29216003E+02      8.72894100E+01     -1.24239832E+02
     -2.92236133E+03     -1.41148485E+03     -7.63075222E+02
     -5.60824607E+02      1.18600787E+03      8.84561573E+02
      2.11661384E+02      4.98000911E+02      1.12021462E+02
      3.95153119E+02     -6.14038788E+01     -3.12422564E+02
      2.26280345E+03      7.23888434E+01     -8.13078113E+02
     -1.45539036E+02      4.88518046E+02     -8.68020067E+02
      3.70534527E+02     -8.40779854E+02      1.45306295E+03
     -7.03974450E+02      3.99162963E+02     -2.26251849E+03
      3.90970455E+02      5.22955273E+01     -8.68139636E+02
     -6.92614598E+02     -2.57259651E+03      1.59130355E+03
      4.09067888E+03     -1.73038732E+03     -6.98264687E+02
     -9.42784215E+01      3.28155151E+02      3.67755857E+02
      6.91310590E+02      1.34037740E+03      8.12335458E+01
     -2.91079727E+03      2.72494431E+03     -1.02444354E+03
     -9.18930235E+02      1.48263670E+02      1.92927421E+02
      2.21396443E+03      1.10692724E+03      1.21186840E+01
     -1.00001220E+03      8.02352384E+02     -7.06082867E+02
      1.06258767E+02      1.33253686E+03     -2.44331021E+02
      1.45223463E+02      1.63066689E+03      9.94349179E+02
      6.44512206E+02     -6.98177124E+02     -4.03129565E+02
      3.57592825E+02      6.07967229E+02      9.13701167E+02
     -1.20318502E+02      1.34704602E+03      2.49168349E+03
     -3.31479505E+02      4.37875815E+02     -4.54624563E+00
      1.44825554E+02      3.33449320E+02      4.11141720E+02
      5.82628509E+02     -3.37695886E+02      9.62724831E+02
      7.00429681E+02     -1.43494883E+02      4.46563268E+02
      3.70116633E+02      9.23960570E+01      5.15698302E+02
     -1.85833259E+03      1.01999499E+03     -7.01208836E+02
     -3.09668668E+02     -1.55775453E+03     -2.12643785E+03
     -6.51338477E+02      3.15924732E+02     -4.99541640E+02
     -7.03678467E+01     -9.15796910E+01      4.07110944E+01
     -1.35183571E+03      5.50842936E+02      3.45429795E+03
     -3.32135047E+02     -1.59054451E+02     -3.30742113E+02
     -1.38851029E+03      3.06342707E+02     -2.31704098E+03
  }
}

Hamiltonian = DFTB {
  SCC = Yes
  SCCTolerance = 1e-6
  MaxSCCIterations = 200
  ForceEvaluation = Dynamics
  MaxAngularMomentum = {
    C = "p"
    H = "s"
  }
  Charge = 0.0
  SpinPolarisation = {}
  Eigensolver = Standard {}
  Filling = Fermi {
    Temperature [Kelvin] = 300.0
  }
  SlaterKosterFiles = Type2FileNames {
    Prefix = "../../pbc-0-3/"
    Separator = "-"
    Suffix = ".skf"
    LowerCaseTypeName = No
  }
  KPointsAndWeights = {
    0.0000000000000 0.0000000000000 0.0000000000000 1.00000000000000
  }
  Dispersion = LennardJones { 
    Parameters = UFFParameters {}
  }
}

ParserOptions = {
  ParserVersion = 3
}
