Geometry = GenFormat {
<<< "system.gen"
}

Driver = VelocityVerlet{
  Steps = 50000
  TimeStep [fs] = 0.2
  MDRestartFrequency = 25
  Thermostat = None {
    #InitialTemperature [Kelvin] = 300.0
  }
  Xlbomd{ 
    IntegrationSteps = 6 
    MinSccIterations = 2
    MaxSccIterations = 200
    SccTolerance = 1e-6 
  }
  Velocities [m/s] {
      8.48010591E+02     -2.77383461E+02      5.37581287E+02
     -5.02708200E+02      7.23509061E+02     -8.25167168E+02
      1.40819454E+03     -1.12323333E+03     -2.07321055E+03
     -9.91173112E+03     -1.83085609E+04      6.31453892E+03
      1.06248075E+03     -4.36281437E+02      7.03577159E+02
      1.33630061E+03     -6.77501151E+02      3.97711790E+02
      6.11654433E+02      6.41603447E+02     -5.86338011E+02
      5.47605403E+02     -1.08052734E+03     -2.62231375E+02
      3.41700121E+03      1.87950609E+03     -8.82469728E+01
     -2.38760681E+02      1.10113870E+03     -1.22816013E+03
     -3.25464523E+03     -2.59585369E+03     -2.42996129E+03
      5.83948756E+02      2.85712257E+02      8.93203068E+02
      3.28242933E+02     -3.66122213E+02      3.16425704E+02
     -1.48389721E+02      2.71322824E+03      2.19673864E+03
      2.82932344E+03      5.61851434E+02      2.44458153E+03
      1.08727245E+02      1.86459038E+02      1.44103507E+02
      3.96980004E+02      8.09249007E+02      1.31228725E+03
      2.62520258E+02     -2.59808925E+03      1.27915695E+03
     -7.25195090E+00      1.21311579E+03      1.78683991E+02
      9.31633776E+02     -2.62440442E+03     -1.81063121E+03
      4.42575051E+02      4.37312247E+01     -1.75957730E+03
      6.80803482E+02     -8.20439766E+01     -3.18583511E+01
     -1.62156620E+03      4.80781077E+02      6.11520035E+02
     -1.41571467E+03      1.56498733E+03      1.34527524E+03
      1.28073595E+03      4.57338860E+02     -3.93214063E+02
      3.03336806E+03      1.50972682E+03      9.43596535E+02
     -2.11533427E+03     -3.81604432E+03      2.32576087E+03
     -1.39736184E+03      6.24452246E+02     -9.56560479E+02
      7.01036657E+02     -1.28071966E+03      3.11588345E+02
      4.47011332E+03      2.18413557E+03     -3.56132634E+02
     -1.10710329E+02      1.01485551E+03      2.54814542E+02
      7.89420015E+02      6.69431960E+02      5.74451616E+02
      2.72056423E+02      1.58651619E+02     -2.63851564E+02
     -2.53379615E+01     -5.41219145E+02      1.01039162E+03
     -3.85229180E+02      1.31912053E+03     -1.30932188E+03
     -7.58496501E+02      1.18197006E+03     -4.86020325E+02
     -6.70141926E+02      1.46681587E+03      2.13198125E+02
     -3.67710352E+02      2.19641811E+03      1.34679531E+03
     -7.54825498E+02      4.55878656E+02     -6.02624295E+02
      3.16478994E+02      1.71839889E+02      1.29196127E+02
      1.21398828E+03     -3.54822492E+02     -1.97079061E+03
      5.70481639E+02     -3.82892686E+02      3.89840453E+01
      1.25252106E+03     -3.38770092E+03      1.60191818E+03
     -1.48197913E+02      1.89461123E+03      1.13469793E+03
      2.51511709E+02      3.33528187E+02     -1.98200177E+02
     -4.65625804E+01     -9.40880964E+02     -1.18554511E+03
     -1.62923131E+02      2.06189159E+03     -1.75423630E+02
      2.62044575E+02     -1.22752129E+02      5.02361101E+02
     -2.98360850E+03     -8.17656289E+02      1.49885769E+03
     -7.97740611E+02      1.41029306E+03      1.53999408E+02
     -1.83168152E+02      4.02846174E+02      1.61098592E+02
     -1.07450826E+01     -1.88794146E+02     -3.11887057E+03
      2.13977109E+02      1.64703139E+03     -3.64672558E+03
      6.01082545E+00     -4.09249267E+02     -4.63798682E+02
     -1.31193130E+03     -1.01583152E+03      7.01345674E+02
      1.39514295E+03     -2.61124030E+03      2.15265980E+03
      7.96854436E+01      3.79785403E+02      4.19779449E+02
     -6.10181105E+02      1.83170723E+03      3.37550599E+03
      3.31595079E+02      3.83979984E+02     -1.91388199E+03
      1.79766465E+02      6.75104154E+02     -7.66206725E+02
      1.92689238E+02      8.16063536E+01     -6.49380010E+02
     -3.14177582E+02      5.88647385E+02      4.51144738E+02
     -8.03343940E+01      2.41581650E+03      4.21311520E+02
     -3.45561838E+02      2.37961385E+03     -2.06606531E+03
      5.38706642E+02      4.82764995E+02     -1.17623893E+03
      9.95531257E+02      2.40930347E+03     -8.34967102E+02
     -2.92435548E+03     -3.45298697E+02     -1.29695034E+02
      3.34819626E+02      4.26998128E+02     -1.42374312E+02
     -1.61506888E+03      5.03748626E+02      1.70668163E+03
      1.40609284E+03      4.50387189E+02      1.82032614E+03
     -2.18211217E+02     -1.24619634E+02      6.44283255E+02
     -4.77067915E+02     -7.88122806E+02     -3.40426144E+03
      1.02580102E+03     -3.12082124E+03     -1.05889961E+03
     -5.01389904E+02     -3.87409691E+02      9.66974141E+02
     -2.32008696E+03      2.71155822E+03     -3.63605364E+02
     -1.30267905E+02     -1.10260505E+03      1.47413357E+03
      8.81377199E+02     -2.48808787E+02      2.52052730E+02
     -3.30650398E+02      2.96309313E+03     -3.42897237E+03
      8.57501358E+02      1.01596167E+03     -4.45827330E+03
      8.94489227E+01     -8.40780096E+01     -2.12285856E+02
      5.59443359E+02     -1.16015054E+03      1.46870077E+01
      2.30631493E+02     -6.68029499E+02     -5.67594404E+02
      7.49379193E+01      1.94248521E+02      6.34483941E+02
      1.41320150E+03      2.87979088E+02     -2.50284700E+03
     -1.64808064E+03      2.15620620E+03      7.03443410E+02
     -3.70216548E+02      6.20311754E+02      1.25464750E+02
      1.38540343E+03      1.19115964E+03     -1.59484854E+03
      1.07649616E+03      2.15528531E+03     -2.27437734E+03
     -3.17058308E+02     -3.65080498E+02     -4.41533135E+02
     -2.16851711E+03      9.15814246E+02      1.46651195E+03
     -5.68040563E+02     -9.58476360E+02     -8.31366586E+02
     -4.28906805E+02      2.82065024E+03     -6.23049058E+02
      1.51517354E+02     -2.79610745E+02     -5.07188153E+02
      2.93502801E+02      4.83250857E+01      4.59499312E+02
     -1.17815101E+03      2.55098278E+03      1.96826428E+03
      7.34186502E+02     -1.66626725E+03      1.12562817E+03
      3.76572199E+02      9.60387752E+01      2.25653153E+02
      8.32630174E+02     -8.43440894E+02     -6.01278745E+02
     -1.28757271E+03     -6.98326064E+02     -1.20599176E+03
     -3.98074803E+02      5.27884250E+02     -6.56374863E+02
     -1.78511167E+03      9.25040574E+02      2.23160145E+03
      8.90941664E+02      1.57322719E+03     -2.58029082E+03
      4.28194994E+02      9.19629870E+02      2.99237394E+02
      3.58130200E+03      8.60434908E+02      1.78648248E+01
      5.78502290E+02      2.41259130E+03     -4.28159719E+02
      3.30306168E+02      1.36015373E+03      6.66753151E+02
     -2.16302523E+01     -1.79312712E+03      3.20421801E+03
      7.69687162E+02      9.89645616E+02     -9.42329986E+01
     -3.15179426E+01      2.06537181E+02     -8.07957193E+02
      2.14468685E+03      5.74707033E+02     -2.09511969E+02
      8.75763187E+02      1.90845548E+03      9.77911706E+02
      6.10417145E+02     -3.20304189E+02      5.97734980E+02
      1.48198771E+02      9.56893666E+01     -7.04850444E+02
     -1.80082663E+03     -9.71973603E+02     -1.86809688E+03
     -2.53736481E+02      5.33080834E+02      1.45585231E+02
     -2.28447202E+03     -1.41373807E+03      9.37185819E+02
     -1.74521969E+03      1.04250996E+03     -2.38607620E+03
      2.51140162E+02      1.61293441E+02      7.01657716E+01
      2.16769715E+02      3.36660074E+02     -8.38781208E+02
      2.60230683E+03      1.63021884E+03     -1.51891690E+03
      5.80023647E+01     -6.06174098E+01     -3.43889018E-01
      1.61091879E+03     -4.86659248E+02      3.19986112E+03
     -2.82110178E+03      2.45450636E+03      5.25296231E+02
     -1.34361296E+03     -1.45749135E+03      1.93288795E+03
      9.02358913E+01      7.66233874E+02     -2.21070146E+02
      9.96148438E+02      1.19409502E+03     -1.18118203E+03
      4.70770059E+02      2.78834508E+02      4.07433575E+02
      3.03039600E+03     -1.14093335E+03      1.46612306E+03
      2.92595178E+02     -8.20771452E+02      9.88636652E+01
     -2.66478378E+02     -1.91010028E+03     -9.12823480E+02
     -2.98646240E+03     -3.37281900E+03     -1.15027657E+03
     -3.98956287E+02      1.54869723E+01      5.88867499E+02
      9.62662792E+02     -5.53074129E+01     -1.11755500E+03
     -3.12299750E+03     -1.59074496E+03      8.58172532E+02
     -5.97096817E+02     -3.20645413E+02      1.13036297E+03
     -2.73063716E+03     -3.77325085E+02      9.08684136E+02
     -2.52511371E+03      3.54583657E+03     -1.41792215E+02
      5.91578835E+02     -6.03945912E+02     -2.13511982E+01
     -7.53829292E+02     -6.42500654E+02     -9.12831804E+01
      1.62034297E+03      2.29493770E+03      7.74802979E+01
      3.67117052E+02      2.81990873E+02      1.22644020E+02
     -1.61261427E+03      8.10324074E+02     -1.83732129E+03
     -1.87636202E+03      2.39424496E+03     -2.35134820E+02
     -3.62057979E+02      5.50363774E+02     -6.87950456E+02
     -2.32415796E+03      1.68033292E+03     -1.41941421E+03
     -1.09122321E+02     -1.89619558E+03     -3.69464380E+02
     -6.33069554E+01     -4.30257030E+02     -5.49879978E+01
      2.65883860E+03      4.14907722E+02      1.49313550E+02
     -2.58768294E+02     -1.15630939E+03      1.19797170E+03
      6.54092198E+02      2.08514693E+02      9.62328197E+01
      1.20720049E+03      2.82955623E+02      1.15151389E+02
     -5.30160442E+02      5.12742047E+02     -6.13888855E+02
      4.47465049E+02      3.17198194E+02      1.51060162E+02
      6.41077866E+02     -1.13007007E+03     -2.78920191E+02
      4.06413697E+03     -2.39828961E+02     -3.40364420E+03
      4.40008238E+02      8.87795381E+02     -6.71442918E+02
     -5.79770185E+02      2.49202183E+02     -4.46037754E+02
     -2.57241038E+03      1.63431592E+03     -7.48583989E+02
      4.27573851E+03      1.70324167E+03      1.68532402E+03
      3.76613180E+02     -4.42774332E+02     -6.58394220E+02
     -2.65859045E+02      3.60320271E+01     -7.18491943E+01
     -9.08876433E+01      1.98899603E+03     -1.34724658E+03
     -6.14956328E+02     -2.05046543E+03      1.42147157E+03
     -4.95631619E+02      1.22449799E+02      1.04549599E+03
     -2.62166037E+02      9.03567561E+02      2.89525376E+03
      4.18147502E+02     -6.20966709E+02      9.94766140E+02
      9.95521653E+02      3.25312509E+02      8.62307397E+02
     -7.49351960E+02      3.84448691E+02      1.35754577E+03
     -5.20727319E+02      4.39934999E+01      1.33252504E+03
     -2.06703540E+01     -5.49983385E+01      1.81247426E+02
     -4.58964191E+01      8.48207584E+02      2.59769015E+03
     -2.59027071E+03     -1.08235433E+03      1.55122230E+03
     -3.45364743E+02     -9.36177041E+02     -3.35594823E+01
      1.26452041E+03      7.68659828E+02      1.67995592E+03
      1.51974528E+03     -7.05026056E+02     -2.81833240E+03
      6.84390310E+02      5.40921467E+02     -4.51221077E+02
     -3.64091506E+02      1.18348464E+03      1.78009872E+03
     -1.32830939E+03      6.37342669E+02      1.08274386E+03
      5.00941976E+01     -7.64158548E+02      2.00941472E+02
     -2.65903035E+03      1.96104632E+03     -2.72969773E+01
     -1.71675983E+03     -2.17954678E+03     -1.17866952E+03
      6.02523115E+02     -4.73535331E+02      1.19108629E+02
      2.47544003E+02     -1.68218038E+00     -3.23244772E+02
      9.57032592E+02      2.59626002E+03     -2.47832197E+02
     -6.59120309E+01      3.17689972E+02     -1.68965926E+02
      2.04682663E+03      5.82607302E+02      2.18264758E+03
      1.26165167E+02      2.21956222E+03     -1.59509271E+03
     -3.59378393E+03     -2.39506233E+03     -1.50037682E+03
     -4.41385920E+02     -4.74269992E+02     -2.60285060E+02
      3.28984964E+02      3.23789359E+03      2.20716260E+03
     -1.00589402E+03     -8.69023098E+02      2.77272168E+03
      1.81901544E+03     -1.00861930E+03     -3.41574639E+02
      3.03833784E+02      1.53026965E+02     -2.62058860E+02
      2.69426693E+02      1.50197953E+03     -1.90000793E+03
     -5.01703111E+02      5.76227973E+02     -1.82142947E+03
      3.00325774E+02      1.19705997E+02     -4.57663038E+02
      2.93550859E+03     -6.94625106E+02      1.71481501E+03
      2.52448401E+03     -6.64118357E+02      3.69561990E+02
      1.78452704E+02      1.91377091E+02      2.33105953E+02
      3.61731791E+01      4.29745788E+02     -7.47739324E+02
      2.22546795E+03      2.05883378E+03      8.79633863E+02
      5.58791128E+02      1.00217883E+03      4.07963349E+01
      1.05761227E+03      1.49749214E+03     -1.63171992E+03
      8.17832181E+02      1.10357534E+03     -1.74958932E+03
     -3.46376884E+02      2.46893500E+02     -2.59058165E+02
      2.85729487E+03      1.01367344E+03      2.70780288E+03
     -1.68871490E+03      1.86146171E+03      1.66857897E+03
     -5.55477857E+02     -6.64591803E+01      1.72852355E+02
     -1.51539502E+03      1.47498386E+03     -2.00850780E+02
     -1.40119139E+03      9.01154409E+02     -2.55103761E+03
     -2.31127748E+02      6.22036634E+02      2.10803262E+02
     -4.87337210E+02     -1.35124723E+03     -2.63030850E+03
     -1.18098176E+03      1.68302194E+03     -5.33077349E+02
      1.54801029E+02      5.44041926E+02     -2.60215751E+02
      7.43138456E+02     -1.13794929E+03     -2.69524526E+03
     -1.24095345E+02      1.06616586E+03      6.39816604E+02
      2.98931115E+02      1.29294678E+03     -8.97220671E+02
      1.89159433E+03      1.55981291E+03      1.40170775E+03
     -2.13662810E+03      1.62624008E+02      1.50025352E+03
     -9.46539993E+02     -2.58726471E+03      8.05027873E+02
      3.32618719E+02      3.46504880E+02     -1.34678327E+02
      9.32877262E+02      1.08768348E+03     -2.52502745E+03
      3.81791869E+03     -1.54743843E+03     -1.82856094E+03
      2.28858113E+02     -9.17998252E+02      1.40313618E+03
     -7.29244254E+02     -1.73217952E+02     -6.28055589E+02
      3.75551288E+03     -1.18561641E+03     -6.27711756E+02
      7.75834148E+02      1.84817932E+03      1.17949300E+03
      9.61561104E+02      3.23095810E+02      1.80506445E+02
     -2.97869405E+03     -2.01412575E+03     -1.28741080E+03
     -2.34611836E+03      1.07948346E+03     -2.97600848E+03
      4.33279278E+02      7.50562645E+02      1.65507471E+02
      2.57256148E+03     -5.29865652E+02     -5.83908161E+02
      6.82615505E+01      2.44530014E+03      2.93286733E+02
      7.42019614E+02     -4.97947994E+02     -3.35355212E+02
     -2.93194306E+02      2.52570277E+03      3.93719253E+03
     -1.11417532E+03     -1.11750073E+03      1.16480673E+02
     -8.39986820E+01     -8.85244003E+01     -3.35712466E+02
     -1.88940525E+03      4.79634931E+02     -1.25719907E+02
     -1.15678545E+03      6.05512755E+02      5.13414761E+02
      1.36722030E+01     -4.54178775E+02      6.69978573E+01
      4.66228418E+02      9.25419667E+02     -6.04083495E+02
      1.61335942E+03      2.49432184E+02     -2.27172972E+03
      5.63584231E+02      1.29286118E+02     -1.22400215E+03
      7.97295609E+00      2.15204004E+03     -1.64233185E+02
     -2.81333270E+03     -1.09141728E+03     -1.21372924E+02
     -1.55342816E+02     -4.60997399E+01      2.27864616E+02
      1.51309010E+03     -1.10013698E+03     -2.22499943E+03
      2.41013927E+02     -2.91678821E+03      5.14638979E+02
      3.50993626E+02      1.13741699E+03      1.72806449E+02
      1.82075219E+03      1.04631911E+03      1.12320514E+03
     -6.24225894E+02      3.09776744E+02      1.21119639E+03
      5.48352686E+02      1.91137980E+03     -1.80443506E+03
      9.74582188E+01      1.71663215E+02      9.60259194E+01
     -3.00165199E+03      1.91480408E+03     -2.14666858E+03
     -1.11405415E+03     -2.45148597E+03     -6.13709750E+02
      1.31834328E+02     -3.91304151E+02      5.82433556E+01
     -2.19350975E+02     -4.62406586E+02     -1.70016330E+00
     -1.13518364E+02     -1.04794939E+03     -1.51951118E+03
      2.26628447E+03      2.70263606E+03     -3.29894868E+03
      7.55583710E+02     -5.05232927E+02      9.92541864E+01
     -3.68656813E+02      1.12311558E+03      1.09434751E+03
     -1.19233034E+03     -1.54337795E+03      6.77654995E+02
     -3.82211649E+02     -1.80399161E+02      8.64319065E+02
      1.31939368E+02     -2.48514247E+03     -2.41513849E+03
      2.53731688E+02     -3.64489850E+03     -6.98672101E+02
      1.53418299E+02     -4.20440590E+02      3.47756779E+01
      1.29733276E+03     -3.21775652E+02     -9.76919146E+02
      1.58742207E+03      1.35194194E+03      6.07000786E+01
     -3.09705430E+02     -3.19276752E+02      1.17357521E+02
     -1.07752014E+03      4.48167946E+02     -9.40812618E+02
      1.37262239E+03     -2.58838680E+03     -2.02361012E+03
     -3.46586619E+02     -4.73917136E+02     -1.06008254E+02
      1.23204985E+03      8.55277822E+01     -7.65769258E+02
     -2.43595712E+02      1.25108731E+03      5.01630420E+03
     -1.42679693E+02     -6.37277369E+02      5.56733143E+02
     -1.07877889E+03     -1.40644733E+03     -1.31172511E+03
      8.64009729E+02      4.52820552E+02     -5.45566661E+02
     -3.76154694E+02      2.18900765E+02     -7.04637976E+02
      3.59360921E+02      2.49162405E+02      1.66901468E+03
     -6.19187590E+02      2.57808253E+03      1.36159250E+03
      2.83188844E+01      6.69299774E+02      3.37521331E+02
      1.05531883E+03      1.76629661E+03     -2.79684279E+02
      6.05476601E+02     -4.19299338E+02      3.61998522E+03
      1.45186580E+03     -8.98689172E+02     -1.29525404E+03
     -2.58173492E+01      3.35987669E+02     -1.09093745E+02
     -7.78886034E+02     -1.72614817E+03      1.32866077E+03
      1.02454696E+02     -2.31814645E+02     -1.88330821E+03
     -1.22491472E+03      3.90039065E+03     -1.45214078E+03
      8.18742676E+02     -6.81024317E+02     -4.09788484E+02
     -6.48068066E+02     -8.49307084E+02      1.25038712E+03
     -9.17806096E+02      2.17543441E+03     -8.63490367E+02
      7.09709589E+01      5.30199182E+01      3.46327800E+01
      1.29363352E+02      1.71333380E+03      3.61949256E+02
     -5.27959291E+02     -3.71759986E+02     -9.00207702E+02
      6.04251579E+02     -1.01578928E+02     -4.54927251E+02
     -7.92003664E+02      1.88896474E+03      8.65890309E+02
      4.94810167E+02      4.87811348E+01     -1.32615342E+02
      1.67290635E+02      2.74114502E+02     -8.57627155E+02
      7.67164374E+02      3.31430614E+03     -1.00213558E+03
     -3.30963504E+03     -2.63608334E+03      1.27873410E+03
      5.31974661E+02      3.50924989E+02      1.16432869E+02
     -1.61296807E+03      2.75778311E+02      4.88206108E+02
     -9.52658458E+02     -1.07410032E+03      9.91946943E+02
     -2.42964863E+02     -4.43954825E+02      3.91359738E+02
     -3.77613198E+03     -7.48062596E+02     -9.50258863E+02
     -1.18175309E+03     -1.53536441E+03     -1.18545736E+03
     -4.22423559E+01      4.61530831E+02      5.73498998E+02
      2.82740715E+03     -2.26033588E+03      6.05018653E+02
     -3.18570885E+01      2.99532962E+03      1.31351392E+03
      5.01314757E+02      5.45832308E+02     -2.58850581E+02
     -1.22795437E+03     -1.35985866E+03      4.32796755E+02
     -6.58002376E+02     -7.30225966E+02     -1.09107298E+02
     -1.15669740E+03      5.10222708E+02     -1.07041076E+03
     -7.78497439E+02     -1.85705232E+02      5.09380898E+02
      8.75598273E+02     -2.30393782E+03      4.10802915E+02
     -5.20567452E+02      8.71146554E+02      2.15658085E+03
     -8.30419645E+00      1.53808556E+02     -2.99839647E-01
     -7.93375659E+01     -7.63798321E+02     -1.26641319E+03
     -2.93311037E+03     -3.52984427E+03     -8.10136688E+02
     -1.19887941E+03      2.05237452E+03     -1.19687830E+03
     -7.37966075E+01      7.91869542E+02     -1.98569250E+02
      6.18483952E+02     -1.21220269E+03     -3.49446216E+02
      1.51166603E+03     -1.58220137E+03     -1.30129575E+03
     -4.63242544E+02      4.02236453E+02      3.31733517E+02
      3.92692905E+02     -3.09902987E+03     -3.91161204E+02
     -3.88559531E+02      1.14592817E+03      6.30476522E+02
      9.64914197E+01     -6.20167323E+01     -3.29547293E+02
      1.20093761E+03      9.44900909E+02      8.26338758E+02
      1.82067565E+03     -4.16474512E+02      1.36690729E+03
      4.39447833E+02     -3.94857045E+02      6.86687043E+02
      1.32178722E+03      2.99931403E+02     -5.58500889E+03
      1.84883069E+03      1.17841266E+03      3.34626208E+03
      2.59056481E+01      8.39177972E-01      3.31159095E+02
      9.48648156E+02      5.36029691E+02     -1.22992871E+03
     -1.41718400E+03      1.70315480E+03      2.65126906E+03
     -5.14128465E+02      8.69156356E+02      2.93469905E+02
      1.57496429E+03      1.19407603E+03      1.54089217E+03
     -4.20526557E+03     -1.09330233E+03     -1.74611567E+03
      2.39724546E+02      7.18357090E+02     -4.22554769E+02
      1.63434649E+03     -1.05923491E+02     -6.96484904E+02
     -1.41401659E+03     -1.04758509E+03     -4.97287936E+02
      2.66547238E+02      1.70692155E+02     -8.23219273E+02
     -1.18979167E+03     -2.89188203E+03     -9.88652007E+02
      2.93957282E+02     -2.42889233E+03     -1.28839640E+03
     -9.62975112E+01      3.21378156E+02     -3.70598830E+02
     -1.69528696E+03     -3.07237523E+03      1.67864718E+03
      7.76834762E+02     -6.67708864E+02      1.93254657E+03
     -4.77054265E+03      2.20561858E+03     -1.05079875E+03
     -1.59270770E+02      9.11957487E+02     -6.42190475E+02
      9.65763751E+02     -2.40590876E+03      3.75582173E+02
     -1.90148475E+03     -9.00666302E+02      6.64445184E+02
     -1.54820863E+03      8.65075691E+02     -1.63123697E+03
  }
}

Hamiltonian = DFTB {
  SCC = Yes
  SCCTolerance = 1e-6
  MaxSCCIterations = 200
  ForceEvaluation = Dynamics
  MaxAngularMomentum = {
    C = "p"
    H = "s"
  }
  Charge = 0.0
  SpinPolarisation = {}
  Eigensolver = Standard {}
  Filling = Fermi {
    Temperature [Kelvin] = 300.0
  }
  SlaterKosterFiles = Type2FileNames {
    Prefix = "../../pbc-0-3/"
    Separator = "-"
    Suffix = ".skf"
    LowerCaseTypeName = No
  }
  KPointsAndWeights = {
    0.0000000000000 0.0000000000000 0.0000000000000 1.00000000000000
  }
  Dispersion = LennardJones { 
    Parameters = UFFParameters {}
  }
}

ParserOptions = {
  ParserVersion = 3
}
