Geometry = GenFormat {
<<< "system.gen"
}

Driver = VelocityVerlet{
  Steps = 50000
  TimeStep [fs] = 0.2
  MDRestartFrequency = 5
  Thermostat = None {
    #InitialTemperature [Kelvin] = 300.0
  }
  Xlbomd{ 
    IntegrationSteps = 6 
    MinSccIterations = 2
    MaxSccIterations = 200
    SccTolerance = 1e-6 
  }
  Velocities [m/s] {
     -3.13276821E+02      1.05939524E+02      9.35242371E+02
     -1.91075782E+03     -2.14967658E+02      2.15158971E+03
      3.96206894E+03     -1.82290872E+03      3.63518304E+03
      4.83524797E+02     -3.94809556E+02     -4.80866549E+02
      2.80651965E+03     -5.75779008E+02     -1.51572711E+03
     -7.10708129E+01      3.50744346E+02     -1.63369929E+03
     -5.62592263E+00      6.89434866E+02      3.35050502E+02
     -1.65749026E+03      1.97536099E+02      2.43448194E+03
     -1.01593886E+03      1.78122088E+03      1.19252469E+03
     -7.38318272E+02      9.88240817E+02      5.82780127E+02
      2.15179495E+02     -5.96937426E+02      8.44424569E+02
      4.77116700E+02      7.10906878E+02     -1.75036098E+03
     -6.42437059E+02      3.66200737E+02     -1.08547124E+02
      1.10315389E+03     -9.36984903E+02      1.75287266E+03
     -1.40022073E+03     -2.85609804E+03      1.56498856E+02
     -6.43124780E+02     -1.74703433E+02      1.05482821E+02
      2.68436994E+03     -1.77738448E+02      2.81812645E+02
     -8.62468986E+02      4.88753210E+02      1.51922125E+03
      5.86561382E+02      6.65341351E+01      1.01573829E+03
      4.76383044E+02     -3.73953750E+02     -9.33279293E+02
     -1.51233696E+03     -4.23508686E+02     -2.24075735E+03
      1.92643123E+01     -1.12291995E+02      2.09048038E+02
      1.55274760E+03     -1.84669715E+03     -1.16810764E+03
      7.30061766E+02     -6.96300795E+02      5.70626157E+02
     -3.93803791E+02     -1.42599697E+02      2.64562078E+02
     -1.00118608E+03     -4.25335889E+03      3.03564907E+03
     -3.92966861E+02     -2.88659399E+02     -7.76791716E+01
     -2.61365136E+02      1.27541430E+03      2.73403861E+03
      7.57599325E+02      4.33734430E+02     -3.24000511E+02
      3.23717290E+03      1.26092521E+03     -2.51616619E+03
     -5.79925882E+02     -1.11933539E+02     -1.14554654E+03
     -1.94639960E+02     -1.04523393E+03     -1.83051673E+02
     -1.25240889E+02      6.21557363E+02      3.63626809E+02
      1.79499039E+02     -1.15144871E+03     -6.36984912E+02
     -2.50876915E+02     -1.80566930E+03      1.95446436E+03
      6.02132451E+02      6.52109788E+02     -7.80685873E+02
     -1.12389247E+03     -1.87463090E+03     -3.94278840E+02
     -3.20253141E+03     -3.34860208E+03     -1.25049073E+03
      7.38883012E+02     -1.54207740E+02     -6.96797550E+02
      1.70941993E+03     -1.25249336E+03      2.02539242E+03
      1.17348711E+03      1.08350766E+02     -5.63781208E+02
      2.72848346E+01     -2.25084097E+02      9.20918847E+02
      1.18419465E+03      1.62647053E+02      2.15724320E+03
     -1.49701114E+02      2.31924467E+03      1.18493290E+03
      1.13587022E+02     -2.27540354E+02      1.51659482E+02
     -1.01704284E+03      2.62013757E+02      1.36447378E+03
     -7.42872835E+02     -2.62239258E+02      2.51429040E+02
      3.01772581E+02      1.25029224E+02      5.50343966E+02
      1.04419157E+03     -1.06495728E+03      2.02653666E+03
     -1.39394920E+03      1.40726066E+03      3.99033509E+02
      3.60201980E+02      1.17074310E+02      1.89929023E+02
     -3.03884524E+03      5.61438818E+02     -5.22727295E+02
     -2.29302304E+02     -1.16947213E+03      3.21573487E+02
     -8.18118109E+00      8.64573632E+02      5.50452025E+02
      7.97387647E+02      1.36365436E+03      7.81510377E+02
     -1.29035063E+03     -2.16650648E+03     -9.77454656E+02
      6.75502783E+02      2.36337365E+02      6.66313108E+02
      6.19096643E+02     -6.74975386E+02      7.13449501E+02
      1.25441855E+03     -1.06173728E+03      9.28226735E+02
      6.23434991E+02      9.37405899E+02      1.52337375E+03
      2.40741496E+02     -3.63507813E+02      1.09367003E+02
      1.16240263E+03     -1.31829842E+03     -5.79114994E+02
     -1.08708254E+03      6.02918840E+01      2.65814924E+02
      9.15642606E+02     -6.47111379E+02      2.32877177E+02
      4.13335899E+01     -5.49823457E+02      4.76810195E+02
     -1.68288587E+02     -7.67025865E+02      2.26395983E+02
     -6.30207782E+02      1.44769163E+03      1.61500274E+03
     -5.23408680E+02     -4.50462246E+02      6.50076323E+02
      3.22477068E+02     -1.11596695E+03      1.29845089E+02
      1.36728458E+02     -8.28701585E+02      2.65724639E+02
     -1.15756250E+02     -5.41413487E+02      2.75071264E+02
     -4.83314122E+02      1.93526756E+03     -9.18722002E+02
     -3.98384605E+03      4.81696937E+02     -1.30628351E+03
      1.45609429E+03      3.08168270E+02     -4.08284362E+01
      7.53023034E+02     -6.85729441E+02      1.59964138E+02
      2.12337560E+03     -4.85142536E+02     -1.78950130E+03
      1.09068678E+02      7.45989530E+02      6.47279710E+01
     -1.53103704E+03      9.83245947E+02      1.24988288E+03
     -2.51905905E+03      2.95559864E+03     -2.68545757E+02
     -8.48147093E+02     -6.20295166E+01      7.17078898E+02
     -2.68191589E+03     -2.28304131E+03     -8.95163744E+02
      6.51157550E+02      3.79758936E+02     -1.31971392E+02
     -5.10846979E+02     -9.29795005E+02      1.26160775E+02
     -1.15165675E+02      4.97069410E+02     -2.73965650E+03
     -2.24520140E+03      1.20346376E+02     -1.27496418E+03
      1.05865929E+02     -4.80600764E+02      3.80947486E+02
     -1.30814630E+03      2.16212174E+03      1.23540613E+03
     -7.95676004E+00     -1.26974423E+03      2.32207458E+03
      3.89093130E+02     -8.66638258E+00      5.44919356E+02
      2.24764257E+03     -2.58057350E+03     -2.93540038E+03
      3.20045805E+03     -4.83620538E+02      2.68856104E+02
     -1.07141801E+03      1.08624126E+03      5.60482404E+02
     -3.00362990E+02     -5.30968954E+02      3.53632621E+02
      2.28706001E+03      1.14405853E+03      1.09233932E+03
     -1.64469593E+03     -1.20470200E+03     -1.22855678E+03
      3.47314625E+02     -1.63614040E+03     -7.35453277E+02
     -6.17290145E+03      9.82510770E+03     -1.84675391E+04
     -1.79691377E+02     -1.39612880E+03     -8.86638329E+01
     -2.44468250E+03      3.24961347E+03      4.79814494E+03
      3.25031923E+02      1.13199593E+02      9.47508827E+02
     -9.37733470E+02      2.03630682E+03     -5.51847053E+02
      9.84573152E+01     -2.29422089E+02      1.95279513E+03
      2.52486693E+02     -4.87393914E+02     -1.46446289E+02
      8.63174087E+02      1.21205576E+03     -2.21198322E+02
      5.67310290E+02     -7.22598447E+02      4.08396112E+02
      4.31699854E+02      3.07681138E+02      1.99683571E+02
     -2.54322438E+03      2.49760676E+03      2.35524967E+03
     -1.99648525E+02      3.31339139E+02     -6.29091756E+01
     -2.92909364E+02      5.03243046E+01      5.59437093E+02
     -1.35352680E+03      6.43048478E+02     -8.66047774E+02
      9.57076994E+02      1.84761295E+03      6.61358521E+02
      3.11055417E+02     -2.94751710E+02      6.97913813E+02
      2.44777671E+03      5.91204891E+02     -3.06521076E+02
      4.61335178E+02      1.26877812E+03     -1.09510439E+03
      4.05498157E+02     -9.70605986E+02     -1.05755732E+02
     -5.71383392E+02     -3.96562723E+02      2.18982467E+03
     -4.47334482E+01      3.58463166E+02      1.85217899E+03
     -5.67786852E+01     -1.10012657E+02     -2.31390047E+02
     -3.18503469E+02      1.37298380E+03      1.70970620E+03
     -3.31360043E+02      1.46576995E+03      3.12460264E+02
      7.33253938E+01     -8.44209581E+02      5.06668078E+02
      9.83992621E+02     -1.32645530E+03     -1.53527667E+03
      2.28304597E+03     -2.21502518E+02     -2.91658267E+02
      1.82116510E+01     -1.94230773E+01     -2.79016646E+02
     -7.25663987E+02      1.31379581E+03      1.04494267E+02
     -2.17152596E+03     -3.43599037E+01      7.75320204E+02
      1.34997848E+03      2.45467792E+02      7.11957425E+02
     -8.58268291E+02     -2.07791870E+03     -9.40718385E+02
      1.51485308E+02     -1.88583179E+02      2.49195412E+02
      1.87051145E+03     -2.50896126E+03      2.03595450E+02
      8.84306154E+02     -3.48829722E+03     -1.06972722E+03
      5.34482630E+02      6.92510685E+01     -4.31251599E+02
      1.67925320E+03     -1.72770619E+03      8.86803181E+02
     -1.96376357E+03      2.58411326E+03     -1.91637288E+03
     -3.84276168E+01     -5.82772907E+01      4.64343177E+02
     -1.90255272E+03      1.50970510E+03     -3.14965923E+02
      3.20765005E+02      7.04734575E+02      4.71439016E+02
     -6.95313994E+01     -2.26881287E+02     -2.23558846E+02
     -6.01527513E+02      8.05450025E+02      2.98595775E+03
      1.27931771E+03     -7.13615205E+02      1.96972932E+03
     -4.49988864E+02      6.74186479E+02     -8.12148712E+01
      9.03010538E+02      9.37506878E+02      4.21199544E+03
      3.15010199E+03      1.50677006E+03      2.48200949E+03
      6.80077507E+02     -5.61104582E+02      2.90212068E+02
      1.72040260E+03     -1.24523818E+03      2.22322244E+02
      1.21109679E+02      1.65788745E+03      1.05276721E+02
      1.85123251E+02     -6.79629207E+02      7.77958216E+02
      9.70375537E+02      2.85526463E+02     -7.21806477E+01
      6.19715570E+02     -5.90379874E+02     -2.73954027E+02
     -1.45891708E+02      2.10226418E+02     -3.95732331E+02
      5.99123107E+02     -9.38101607E+01     -9.60295139E+02
     -1.42428877E+03      1.97237679E+03     -3.42654999E+02
      2.69431468E+02      1.45051946E+02      1.28002714E+02
      9.43507368E+02     -4.03514394E+03     -3.55615330E+03
     -2.02685454E+03      7.33364882E+02      2.61249765E+02
      2.83376182E+03      1.69447041E+03      2.74571167E+02
     -5.24068702E+02      4.48447185E+02     -4.37210285E+02
     -6.92733241E+02     -2.65092849E+02     -1.66532984E+02
     -1.98337761E+03     -7.54892857E+02     -2.42868882E+01
     -8.88821565E+02      1.22589251E+03      7.71949797E+02
     -1.96456296E+02     -7.67019791E+01      5.79331299E+02
     -9.31897024E+01      9.98999815E+02     -9.10558801E+02
      2.69878198E+03      1.34713980E+02     -3.65213946E+03
     -5.20324340E+02      7.21880308E+01     -3.53957844E+02
      8.13138901E+02      8.87551678E+02     -5.83602843E+02
     -1.79691958E+03      3.78876889E+03      2.38220013E+02
     -5.97197695E+01      2.38265829E+02     -2.14106896E+02
     -7.76769383E+02     -3.30856081E+03     -2.19532206E+03
      1.41496861E+03     -8.98730932E+01      4.08536412E+02
     -4.16698890E+02     -2.10431236E+02      4.66522910E+02
      3.65587299E+03      7.83772668E+02      8.53682116E+02
     -4.66969731E+02     -2.61121646E+03     -1.69382609E+02
     -1.10322029E+03      4.16891554E+02     -1.28070536E+03
      2.75045283E+03     -1.24070170E+03      4.46133860E+02
     -1.44664766E+03      8.78598388E+01      7.43125810E+02
     -3.28809008E+02     -9.08279160E+02      1.43834765E+02
     -1.37124073E+03      3.75294207E+01     -1.36125621E+03
      3.96353367E+02      3.61046263E+02     -1.12040355E+03
     -2.36019695E+02     -1.23847372E+02      2.03141328E+00
     -3.56774576E+02     -1.52621503E+03     -2.18550415E+03
     -2.14307277E+02      1.39516879E+03      1.17072542E+03
      4.30110139E+02     -4.34675433E+02     -5.80336806E+02
      5.24089829E+02     -1.60102617E+02      2.30566195E+03
      2.75577378E+03      9.68295249E+02      2.94708526E+03
      9.90726996E+01     -2.89319012E+02     -6.84299141E+02
     -2.29384070E+03      5.96231329E+02     -1.69639515E+03
     -2.50270361E+02      1.40276203E+03     -2.90985607E+02
      1.01776020E+03      1.45985200E+02     -3.63875063E+03
      3.55999698E+02     -2.92882471E+02     -1.27362930E+02
      8.36967590E+02      1.74224243E+02     -1.51569712E+03
      1.29439625E+03      9.93166588E+02     -6.92502200E+02
      4.43605588E+02     -1.08512019E+02      1.08990142E+03
      1.25195444E+03     -4.75924782E+02      1.68357536E+02
      1.32333078E+03      2.56829051E+03     -3.09914204E+02
      7.47878710E+02      2.05218290E+03     -1.19497414E+03
     -4.78767604E+02     -2.08374615E+02      3.16228214E+02
     -3.56827902E+03      6.32970406E+02      1.06341727E+03
      7.51208963E+02     -3.47114682E+02      5.98170150E+02
     -5.13028330E+02      2.27685501E+02     -4.05182113E+02
     -2.30236624E+03      1.35180353E+03      1.90354627E+03
      1.26164183E+03      1.88367684E+03      2.18765173E+02
     -4.30161587E+01     -2.60327053E+02      1.11112263E+02
     -1.09624053E+03     -1.47384665E+03     -1.93941396E+02
     -4.09517043E+02     -4.11820888E+03      1.63793355E+03
      1.40525896E+02     -2.30790623E+02      3.95240059E+02
     -1.82966569E+02     -8.17925843E+02     -7.76124112E+02
      1.74902251E+02     -1.13768171E+03      1.66118795E+03
      4.70665368E+02     -3.23147988E+02     -1.08587488E+01
     -1.49178930E+03      7.12443456E+02     -1.21576314E+03
      2.34919996E+03     -1.84156487E+03      6.07048509E+02
     -2.65026589E+02     -5.25714661E+02      8.84941776E+01
     -1.59426515E+03     -4.69758868E+02      1.04831617E+03
      1.39051269E+03     -1.93714299E+03      1.15547185E+03
      4.52343738E+02     -3.23055501E+02     -1.90060755E+02
      1.27387415E+03     -4.81528309E+02      2.89089544E+03
      1.65621817E+03     -3.92753902E+02     -8.62500168E+01
      8.70640687E+02      8.37021032E+02      3.09079458E+02
      2.21882534E+03     -6.31408651E+02     -1.18837874E+02
     -1.64559550E+03     -1.57533364E+02      5.32746278E+02
      5.25154116E+02     -5.90111090E+02     -1.14134755E+03
     -7.78284881E+02     -1.38609798E+02      5.38225235E+02
      3.86337490E+03      2.93684063E+03     -1.15069626E+03
      1.52339184E+02      1.44510706E+03     -7.68034001E+02
      2.56581919E+03     -2.38391727E+03      3.17658073E+02
      1.12517196E+03      3.00925620E+02      4.38993686E+02
     -1.39152112E+03      8.75535821E+02      9.02989484E+02
      1.55678875E+02      8.57865456E+02      3.78130058E+03
      7.26818771E+01     -8.12605501E+01      1.12429079E+02
     -9.49407065E+02     -1.11862392E+03      1.21536764E+03
     -4.02236684E+02     -2.95887889E+02      3.36586556E+02
     -2.82372989E+02     -5.14330520E+01     -3.06824823E+02
     -1.69459292E+02     -7.08238457E+02     -6.90111925E+02
     -9.77944820E+02     -5.54583037E+02     -1.27580814E+03
     -4.91449166E+02      5.87697347E+02      6.64226275E+01
     -1.36559038E+03     -2.47288433E+03     -2.91741850E+03
     -1.35941399E+03      6.56971944E+02     -2.17834572E+02
     -4.14197751E+01      4.05370129E+02      6.46872940E+02
     -1.20205709E+03     -2.13169864E+03     -5.49869922E+02
     -2.22203165E+03      2.70482079E+02     -1.91847264E+03
      2.21158884E+02      5.34271807E+01      2.08511437E+02
     -2.84454442E+03     -1.50851996E+03      1.24221068E+03
     -1.40523146E+03     -1.09533971E+03     -1.44704713E+03
      6.78628454E+02     -2.84446847E+02      1.99860074E+01
      2.86308225E+02      2.26980460E+02     -1.13858520E+03
      3.38800310E+02      1.79784658E+03      1.45914544E+03
      6.50918231E+00     -6.19979066E+01     -2.97658874E+02
     -5.61335978E+02     -2.66061386E+03      1.69056321E+03
      1.09796995E+03      5.05331883E+02      1.02278156E+03
      4.26906120E+02     -6.53098757E+02      1.65082203E+02
     -2.41343284E+03     -1.58061470E+02      1.16432015E+03
      1.70389611E+03     -1.61943487E+03     -5.60522968E+02
      1.88740051E+03     -2.21424050E+03      2.03413640E+03
      3.17302569E+02     -7.59545452E+02     -3.19414183E+02
      2.66584519E+03      2.45464884E+03      1.72470040E+03
      2.45810088E+03     -3.48450950E+03      1.34305531E+03
      6.50460214E+02      1.05670229E+02     -1.15555734E+03
      3.35074686E+02      1.80659602E+01      3.21554238E+02
     -1.18345790E+03     -1.02471840E+02      9.93712322E+02
      1.55127544E+03     -8.13850097E+02     -8.73330798E+02
      4.53603995E+02     -3.58149869E+02     -1.03600478E+01
     -1.76725755E+03     -1.23849986E+03     -1.08892867E+03
      2.68486021E+03      8.66141538E+01      1.85980135E+03
     -4.30215473E+02      6.40472044E+00     -1.94467780E+02
      4.14437538E+03      1.67790126E+03      3.16468718E+01
     -1.91116972E+03     -2.18009411E+03      8.03496197E+02
     -5.69070059E+02      1.92313873E+02     -6.47380278E+02
     -3.58111619E+02     -2.37516195E+03      1.65556100E+03
     -8.70559294E+02     -7.95145845E+02     -3.97719264E+00
      1.55574623E+02      4.50008584E+02     -1.42974987E+02
      9.17979216E+02     -2.14920984E+03      2.37319935E+02
     -9.48073619E+02      5.02190693E+02     -9.32038186E+02
     -6.79275228E+02      4.88048964E+02     -5.43380584E+00
      4.45438964E+02     -1.80032084E+03      8.13790056E+02
      3.17793543E+02     -5.23112939E+02      2.25649337E+03
      3.82496955E+02      6.34668706E+02     -2.13253528E+02
     -3.41776006E+02      1.43180972E+03      2.06380979E+03
     -7.76916249E+02     -1.58181666E+03      2.13044865E+02
     -9.43736935E+02     -8.12396505E+02      6.71315760E+02
      2.93471778E+02      9.53482023E+01     -7.41482929E+02
      1.08777408E+03     -4.46460796E+02     -1.69535959E+03
     -1.51828431E+02     -3.68231933E+02      5.29273833E+02
     -3.34426030E+02      1.19003218E+02     -5.83264041E+02
      6.52799580E+02      9.90524129E+02     -1.14800332E+03
     -3.81940474E+02     -1.17718119E+03     -3.34488265E+02
      4.97238235E+01     -8.47765477E+01      7.60902686E+01
      2.45983684E+02      1.49864995E+01      4.83649269E+02
     -7.07744843E+02      9.84271017E+02     -1.06086635E+03
     -1.91660375E+03     -1.08502830E+03      7.15366069E+02
      3.24956735E+02      4.36512592E+02     -2.70330557E+02
     -8.42573700E+02     -7.45268833E+02      7.72663234E+02
     -3.62688735E+03      3.21148626E+02      3.30329396E+02
     -2.41028300E+02      4.14793248E+02      5.63272190E+02
     -2.25283795E+02     -1.69363487E+02     -2.08490740E+03
     -4.22798421E+02      2.06560319E+03      1.84561812E+03
      7.28969117E+02     -9.19203964E+02     -7.32919856E+02
     -6.84028984E+02      2.80772300E+03     -2.76166608E+03
     -6.09877646E+02     -2.75298648E+03     -1.92863895E+03
     -5.36067803E+02     -2.32489175E+02      1.04634691E+03
     -2.31229130E+03     -1.06825039E+02     -8.69031615E+02
      1.90268099E+03      1.78297437E+03     -1.18660059E+03
     -3.53636674E+02      3.47190901E+02     -9.53812545E+01
     -1.03680445E+03     -2.39689230E+03     -8.38248125E+02
      2.72274077E+03     -1.50140106E+03     -6.84147227E+02
      1.33774090E+02     -1.61823055E+02     -2.08114029E+02
     -5.26394702E+02     -8.93552766E+02      4.76651610E+02
     -1.87724504E+03     -4.35360300E+02      1.13977948E+03
      4.47531679E+02     -1.36208109E+03      6.52849817E+02
      3.53220165E+02     -7.00915783E+02      2.76739952E+03
     -2.47918948E+03      9.47320404E+02     -2.42975729E+03
      5.04243003E+02     -5.25702980E+02      7.93555071E+01
      5.60166927E+01      1.00391395E+03      2.22492112E+03
      7.48495353E+02     -1.46846231E+02      1.09034676E+03
     -4.65554320E+02     -5.42409926E+02     -1.33655731E+02
      6.75993736E+02     -2.58641739E+03     -2.71856782E+02
     -4.13637072E+02     -1.85251862E+03     -4.11652306E+02
     -1.77136569E+03     -1.90166491E+03     -2.33708817E+03
     -8.50175057E+01      8.64695023E+02      2.31482010E+01
      1.91616822E+03      6.00129228E+02      8.11317238E+02
      1.84953952E+03      3.96241481E+02     -2.53835247E+03
      1.77236372E+03      3.29522784E+02      9.79945627E+02
     -5.71724019E+02     -4.64996880E+02      7.79136534E+02
      2.29023559E+03     -2.68404279E+03      3.15302580E+02
     -4.09453946E+02     -6.07745218E+02     -2.20972659E+03
     -8.34345226E+01     -2.09618808E+01      2.47938448E+02
      2.66959058E+03     -5.48109630E+02     -1.12801497E+03
     -1.39120965E+03     -1.03593145E+03     -1.34319769E+02
      9.47908542E+02     -1.48283796E+02      2.02974873E+02
      2.87036597E+02      2.01884777E+03     -1.09123130E+03
      1.87006307E+03     -1.12030476E+03     -1.24087081E+03
     -1.07526490E+02     -3.68024686E+02      4.03200278E+02
     -1.62922078E+03     -8.99842403E+02      3.17958381E+02
     -4.68973306E+02     -3.61081816E+02     -1.73110774E+03
      5.96013486E+02      1.04502275E+03     -2.41205228E+02
      3.57609426E+03      8.46166413E+02      8.27171368E+02
      6.17283449E+02      1.64527280E+02      1.67175430E+03
      2.85428506E+02      3.12795749E+02      4.16082939E+02
     -1.73622015E+02     -2.05360970E+03      1.88778649E+03
     -1.24495419E+03     -6.54506377E+02     -4.62887070E+02
     -6.51863225E+01     -5.78238249E+01      5.77640214E+00
      2.26930014E+03      2.52764065E+03      2.92550810E+03
      2.41864476E+03     -1.94775281E+03      2.26859149E+02
     -1.81394705E+02      4.80890039E+02      4.14667535E+02
      6.61413125E+02     -2.00132509E+03      1.26589588E+03
      3.38786665E+02      5.17343520E+02      1.23922566E+03
     -1.10457687E+02     -6.94253317E+02      3.97271045E+02
     -1.26372433E+02      7.49577388E+02     -1.19859950E+03
      4.91688110E+02      1.98762858E+03      1.68147263E+03
     -7.87920041E+02     -1.57396672E+03     -1.87111032E+03
      2.70778349E+02     -6.56950117E+02      6.75467972E+02
      1.65033466E+03     -1.02351407E+03      4.89548156E+03
      8.71574287E+02     -9.78038289E+02     -1.07843798E+03
     -1.38366346E+03     -1.45904362E+03     -2.47267829E+03
  }
}

Hamiltonian = DFTB {
  SCC = Yes
  SCCTolerance = 1e-6
  MaxSCCIterations = 200
  ForceEvaluation = Dynamics
  MaxAngularMomentum = {
    C = "p"
    H = "s"
  }
  Charge = 0.0
  SpinPolarisation = {}
  Eigensolver = Standard {}
  Filling = Fermi {
    Temperature [Kelvin] = 300.0
  }
  SlaterKosterFiles = Type2FileNames {
    Prefix = "../../pbc-0-3/"
    Separator = "-"
    Suffix = ".skf"
    LowerCaseTypeName = No
  }
  KPointsAndWeights = {
    0.0000000000000 0.0000000000000 0.0000000000000 1.00000000000000
  }
  Dispersion = LennardJones { 
    Parameters = UFFParameters {}
  }
}

ParserOptions = {
  ParserVersion = 3
}
