Geometry = GenFormat {
<<< "system.gen"
}

Driver = VelocityVerlet{
  Steps = 100000
  TimeStep [fs] = 0.2
  MDRestartFrequency = 5
  Thermostat = None {
    #InitialTemperature [Kelvin] = 300.0
  }
  Xlbomd{ 
    IntegrationSteps = 6 
    MinSccIterations = 2
    MaxSccIterations = 200
    SccTolerance = 1e-6 
  }
  Velocities [m/s] {
      1.10834438E+03      5.77863413E+01      2.99085519E+02
      9.17429978E+02      4.49255931E+02      3.96900615E+02
     -4.08444906E+02     -1.83087879E+02     -3.80719227E+02
     -1.23581377E+02      3.73389913E+02      1.24871239E+02
     -6.54844752E+02     -1.08111677E+03     -1.00355709E+03
     -8.71503858E+02     -1.69971448E+03      9.05313414E+02
      3.14415888E+02      2.54459733E+02      2.79693227E+02
     -1.18355380E+02     -3.02055663E+03     -2.08265152E+03
     -1.81219354E+03     -1.24341251E+03      1.55914538E+03
     -3.97891059E+02      2.84045936E+02     -3.34298865E+02
      1.12923606E+03     -1.45457866E+03      1.52989399E+03
      8.10923899E+02     -1.41467813E+03     -7.80756777E+02
      3.24734944E+02     -5.11722569E+00      2.60804735E+00
     -7.62288664E+02      2.18797999E+03      2.35604523E+02
      1.45518284E+02      1.76315011E+03      2.14065434E+02
      5.96960242E+02      4.00549546E+02      9.08812436E+01
      4.04524386E+03      1.10226919E+03     -2.12062179E+02
     -5.57636819E+02     -1.47180302E+02     -6.07997994E+02
      8.69645164E+01      7.87209093E+01      3.22094606E+01
      1.16741339E+03     -3.59791099E+03     -1.84150856E+03
      1.94605253E+03      1.03758359E+03     -2.32076460E+03
     -1.18485308E+02     -3.05393332E+02      4.40715549E+01
      1.07077386E+03     -1.13932377E+03      1.38122646E+03
      2.69905973E+03     -7.66109661E+02      1.42821911E+03
      7.08921599E+02      3.73668307E+02     -4.30375515E+02
     -1.22447703E+02     -2.28849940E+03      5.12597919E+02
     -8.91324410E+02      1.81981895E+03      3.65542285E+01
     -9.76494214E+02      9.20572299E+02     -2.01486603E+03
     -5.86322201E+01     -9.56924823E+01      4.28937928E+02
      1.42371764E+03     -3.35985003E+02      3.09945181E+03
     -7.65986908E+02     -2.78329470E+03      2.35788960E+03
      9.76139448E+02     -1.42977801E+03     -1.22026321E+03
      9.16842135E+02      5.68399062E+02      1.16064290E+02
      7.79239890E+02      1.03912196E+03      2.39518161E+03
     -1.21381554E+03      8.69373761E+02     -1.22342980E+03
      3.44860078E+02     -2.96012001E+02      2.48501907E+02
     -1.58953238E+02      1.01181825E+02      3.94632411E+02
      2.54290093E+03     -7.86634731E+02      3.84387660E+01
     -3.10706842E+00     -1.24300183E+02      7.34658821E+02
      1.77127595E+03     -2.17813054E+02      1.34443797E+03
     -1.67222457E+03     -8.26249624E+02      1.83119894E+03
      2.02871999E+02      4.81233280E+02     -2.40326921E+01
      5.30719489E+03      1.29045297E+03      1.46162562E+02
      1.77070335E+03     -1.40182304E+02     -1.18693554E+03
      7.99026036E+02      3.73610369E+02     -5.56887156E+02
     -9.00792077E+02     -1.15839926E+03      3.65286678E+02
      2.31700053E+01      1.13368673E+03      2.14286792E+01
     -8.86298812E+02     -3.77765553E+02      3.89031607E+02
     -3.05845314E+01      2.03260790E+03     -1.15873883E+03
     -3.07377042E+02     -2.40000430E+03      8.27262173E+02
     -7.11025596E+02     -1.30914404E+01     -1.18067333E+02
      2.26895926E+03     -7.80447440E+02      1.34939424E+02
     -9.02141332E+02     -1.67385390E+03      3.26678895E+03
     -1.32143997E+02      3.55714272E+02      5.68667232E+02
     -1.38652290E+03      1.17211919E+03      2.97484827E+02
      2.45063955E+03     -2.68776844E+03     -1.66209680E+03
      3.48958859E+02      5.92687661E+02      2.23258262E+02
      1.94867309E+03     -4.07449232E+02      6.62070466E+02
      3.24313478E+03     -1.74959168E+03     -6.23272461E+02
      2.48591764E+03      1.48577671E+03     -2.06784194E+03
     -1.84725353E+02      5.67578419E+02     -2.04477457E+02
      1.73165932E+03      1.54220938E+03      2.70922198E+03
     -5.72881316E+02     -2.27830073E+03     -9.16373162E+02
      8.52909738E+02     -9.10949402E+01      2.29505965E+03
      8.30017275E+02     -4.87256599E+02      6.97069442E+02
     -1.57617780E+03     -1.41111002E+03      1.65915641E+03
      7.62791787E+02     -2.08537960E+03     -2.01655468E+02
      1.54431093E+02     -2.43484510E+02      1.85697917E+02
      5.27771128E+02     -9.69981168E+02     -1.63637722E+02
      4.69634278E+03      1.20652057E+03     -1.38198505E+02
      8.29498229E+02      4.58392321E+02     -1.71507116E+02
     -1.13910842E+03     -4.02997169E+01     -1.62865993E+03
      9.05856054E+02     -1.52191505E+03     -8.03889930E+02
     -8.47966010E+01      4.63061306E+02      7.42287118E+02
      7.14740980E+02     -4.59915946E+01      1.73195016E+03
     -5.63123670E+02     -5.66783381E+02      2.71829074E+03
      6.31046518E+02      5.16237620E+02     -3.92156208E+02
     -1.83716233E+03     -4.38261524E+03     -2.71643778E+03
     -1.58586370E+03     -2.21193900E+03      5.97864406E+02
      3.11857412E+02      4.00406559E+02      1.80903125E+02
      5.34231468E+01     -2.29747103E+03      1.46633188E+01
     -3.39550823E+02      3.51670301E+02     -6.02270094E+02
      3.55201722E+02     -5.43783810E+02      1.09451493E+01
     -2.42120829E+03     -6.86109388E+02      9.72593312E+02
      2.58216818E+03      2.21568916E+03     -2.43869023E+03
     -5.61017740E+02      2.33660232E+02     -3.33858520E+02
     -5.33990511E+02      1.49782649E+03     -1.85854214E+03
     -6.83562300E+02      5.06197704E+01     -1.54231520E+03
     -1.53434226E+02      2.50132200E+02      3.93514566E+02
      1.36632763E+02      1.00860933E+03      1.06707813E+03
     -9.68219373E+02     -1.41660364E+03     -3.84660140E+02
     -1.02448560E+03      1.68825544E+03     -5.44082980E+02
      2.90942137E+02     -1.14182482E+03     -2.92932113E+02
     -1.81563773E+03      1.14427478E+03     -2.18869315E+03
     -9.38357908E+02      2.26836158E+03     -1.03295107E+02
      1.27099660E+03     -5.40768583E+02     -4.08867156E+02
     -5.05941574E+02     -1.93043054E+02      2.39356943E+01
      2.72253086E+03     -3.48188275E+03     -2.12953620E+03
      6.02031462E+01     -2.98094766E+03      1.10266535E+02
     -1.87525843E+02      5.69680871E+02     -2.47786746E+02
      1.11747875E+03      2.01324508E+03     -1.37004671E+02
     -8.85875548E+02     -1.28228637E+03      2.06635006E+03
      5.96824464E+02     -3.34798174E+01      2.31779524E+02
      1.39314239E+03     -2.21081300E+02     -1.62705585E+03
      1.33168455E+03     -1.39720237E+03     -2.79301990E+03
     -1.80134653E+01      2.97602335E+02     -3.82380673E+01
      1.33618108E+03      2.33771954E+02     -1.98494970E+03
      4.87167769E+01      9.88146154E+02      1.67896807E+03
      2.89531591E+02      3.46888919E+02      1.49904067E+02
     -2.29610089E+02     -6.22047147E+02      2.67947430E+02
      2.05746164E+03      1.41805084E+03     -3.60304804E+03
     -6.05572929E+01      5.42434692E+02      4.15882790E+02
      6.58977168E+02     -1.15625961E+02     -1.73281375E+02
      8.44534075E+02     -1.09581543E+03     -5.83220098E+02
     -1.92753717E+02      1.83053876E+02      9.10499403E+02
     -2.22042057E+03     -4.62849712E+02     -1.55672414E+03
      1.10302831E+03      1.04134875E+03     -2.72865255E+03
     -2.36696429E+02     -9.27389991E+02      1.87753197E+02
      2.55792089E+02     -7.38035674E+02      8.25901562E+02
     -5.44981972E+02      1.06863858E+03     -2.21907984E+02
     -7.95699614E+02     -1.50408881E+01      9.16613767E+02
      2.24174634E+03     -1.06731910E+03     -1.50906326E+03
      1.74692667E+03      1.81548398E+02      8.33535291E+02
     -6.25128902E+02      1.27310322E+02      1.74267056E+03
      2.98168573E+02     -7.63286512E+02      3.99896306E+02
     -2.69470590E+03      2.49191032E+03     -6.22112547E+02
     -1.18201375E+03     -2.36037711E+03     -2.57825495E+03
     -9.33524464E+02      6.57172907E+02     -1.07863362E+03
     -6.71162518E+02     -6.36905311E+02      5.10435884E+02
      6.71548848E+02      8.99723376E+02     -8.62952315E+02
     -9.58360750E+01     -7.13654244E+01     -5.11321416E+03
      4.27719984E+02      5.85295153E+02     -1.13500572E+02
      1.44295146E+03     -3.10288039E+03     -3.39969479E+02
      9.16058679E+02      8.29456992E+02     -8.82121602E+02
      4.51416315E+02      2.47894354E+02     -5.15807494E+02
     -5.16763854E+02     -4.05078653E+02     -1.20569807E+03
      2.61648327E+03      1.10626601E+03     -2.60820925E+03
     -4.77168766E+02      5.68909819E+01     -2.48520612E+02
     -6.69677797E+02     -2.15849983E+03     -5.39593556E+02
     -1.97709700E+03      5.75989960E+02     -1.03267984E+03
     -1.79581643E+02     -3.90889059E+02     -8.90353365E-01
     -9.81359728E+02      4.24990418E+02     -1.20948095E+03
     -2.95044424E+03      5.84812677E+02      1.27239150E+03
      3.83663337E+01      4.22841863E+01     -1.96655098E+02
      3.34865789E+02     -1.06251532E+03      1.53951559E+03
      3.34274708E+02      1.02413107E+03      1.98310186E+02
      3.92192171E+02      8.01772444E+02     -3.08853985E+02
      2.38700672E+03      8.97333258E+02     -1.41327678E+03
     -7.23165814E+02      1.84348999E+03     -1.77290438E+03
      9.57382756E+02      2.20180005E+02      4.29089059E+02
      1.58889528E+03     -3.00626833E+03      2.37265206E+03
     -3.24809887E+02     -2.12960183E+03     -9.66014810E+02
     -1.22459129E+02      1.06462572E+03      5.74605834E+02
     -5.90325702E+02     -2.16394125E+03     -6.10767281E+02
      6.17977718E+02      1.82201310E+03      8.98052955E+02
      3.21945996E+02      1.24328355E+03     -6.38232563E+01
     -7.33845291E+01     -6.52717622E+01      2.19670111E+02
     -1.57785974E+03     -1.22368280E+03      9.31470350E+02
      2.17284404E+03     -2.26097275E+02     -1.30565289E+03
      6.68777672E+02      8.34189758E+02     -2.17467171E+02
      7.42170697E+02     -2.89682944E+02     -4.01679762E+02
     -1.87748217E+03      8.20381644E+02      3.25847493E+02
      9.59538819E+02     -5.25945159E+02     -2.75282398E+02
     -5.39603061E+02      4.68760835E+02     -2.00252634E+02
     -8.20808791E+02     -5.98666809E+02     -1.37295167E+02
     -2.84250460E+01      1.85327719E+03      1.95682545E+03
      8.46838346E+00      2.53057227E+01     -7.04864276E+02
      1.27326873E+03      1.79408587E+03      2.05287562E+03
     -1.44313181E+02      1.91342906E+03     -2.39930336E+03
     -2.59623714E+02     -4.41640364E+02     -4.21959325E+01
      1.81232117E+03     -1.72808710E+03      7.56595023E+02
      3.33894308E+03      6.53666146E+02     -9.10113448E+02
      9.09473569E+01     -1.39460451E+02      1.17433078E+02
     -1.92803516E+03     -3.43610498E+02     -2.67144694E+03
      8.74630138E+02     -5.63001306E+01      2.35405537E+03
     -9.25825801E+03     -8.44892497E+03      4.47926872E+02
      3.04839150E+03     -3.64726714E+02     -2.57233243E+03
      1.77947556E+03      3.30027356E+03     -5.52462025E+02
     -1.02986497E+02      3.36402267E+02      1.63136724E+02
      1.80423304E+03      7.74493694E+02     -2.22428494E+03
      8.44474263E+02      5.38589780E+02     -2.15818346E+03
     -3.04093427E+01     -7.43800823E+02      5.51971202E+01
     -9.77209311E+02     -2.05760047E+03     -1.17746670E+03
      2.29219927E+03      3.24087899E+03      2.93846524E+01
      8.50096564E+01      6.09305198E+02     -5.78391414E+02
     -1.51117414E+03     -1.79331025E+03      1.63265041E+03
     -1.29310429E+03      8.66933961E+02     -4.22398574E+02
     -6.35027533E+02     -7.50192206E+02      3.40788534E+03
      3.31426427E+02     -1.67194687E+02      2.55897770E+02
      2.34039823E+03     -2.35664218E+03     -5.72624801E+02
     -3.00746963E+02     -1.53583461E+03     -3.41587270E+03
      3.47268737E+02      9.78157696E+02     -9.33761807E+02
      4.23395270E+02      6.30112295E+02     -4.64024933E+02
     -2.46294446E+03      5.74041082E+02      3.80444785E+02
     -4.03464584E+01      1.96666309E+02     -1.65324386E+03
      1.67437733E+02      3.20930398E+02     -3.65295959E+02
      5.58778627E+02     -1.60788139E+02     -2.41860313E+03
     -4.44499872E+02     -1.02465640E+03     -1.86135366E+02
     -8.11363013E+01     -3.67185777E+02     -4.44772948E+02
     -1.04135710E+03      9.63608678E+02      6.95439129E+02
     -2.45240209E+03      2.41864352E+03      1.34289291E+03
     -2.66474229E+02      1.09818131E+02      8.74239147E+02
     -1.83789730E+02      3.42510017E+02     -5.64803005E+02
      3.37379936E+02     -1.86791762E+03     -1.12493474E+03
      7.82822233E+02      1.33564998E+02      8.68807468E+01
     -3.42838747E+02      6.35808327E+02      1.22786248E+03
      6.70701554E+02     -2.05633966E+03      8.06371091E+02
      6.86172606E+02      5.33511035E+02     -1.03319824E+03
     -3.15033323E+02     -2.46225100E+03     -5.16536884E+02
      9.78234264E+02      1.50448417E+03      1.14796241E+02
      3.28251183E+02      6.16184969E+01      8.44749001E+02
      1.43877070E+03     -4.17285668E+02     -7.96240337E+02
      4.54279525E+02      3.88762029E+02     -2.86536899E+02
     -2.30507927E+01     -6.39970983E+02      1.23125849E+01
     -1.36809137E+02     -2.99960098E+03     -3.00386579E+03
     -2.53586473E+03     -3.75865663E+03     -1.39509301E+03
     -3.12730885E+02      4.14155886E+02     -3.52597913E+02
     -1.91074958E+02      2.84798930E+03     -1.33433072E+03
     -2.57096980E+03      7.23474202E+01      3.09914894E+03
     -2.65105839E+03     -2.03609070E+03      3.05976469E+03
     -1.38992635E+02     -1.54623507E+02     -2.48119809E+02
      9.09525497E+02      6.11332932E+02      1.79609207E+03
     -1.78296926E+03     -1.10323881E+03      1.30422050E+03
      2.29354996E+03     -4.41669514E+01      5.84344180E+02
     -6.38676990E+02      5.73805326E+02     -6.87073419E+02
      8.37358277E+02      2.83538472E+02     -3.53643534E+03
     -3.58938420E+03      2.75785379E+03      5.19970726E+02
      2.00686594E+02      6.18690472E+02      5.50024581E+01
     -3.97932800E+01     -3.24323845E+02      4.85953847E+03
     -1.26466087E+03     -2.02959672E+03      3.71911382E+02
      7.87729128E+02     -3.27811162E+02     -4.53451059E+02
      4.85186704E+02     -2.14030530E+03     -4.66315552E+02
      1.40094822E+03      3.71504995E+02      7.02194740E+02
     -5.14411519E+02      3.81151960E+02      3.27566716E+02
      2.53032022E+03      2.85243472E+03      1.37104935E+03
     -5.94417500E+02      4.44997947E+02      3.30996185E+03
     -5.59063067E+02      5.07318402E+02     -3.46934391E+02
     -1.52471217E+03     -1.17437898E+03     -1.25285133E+03
      5.62930172E+02      2.25367458E+02      1.80006882E+03
     -4.94602385E+02     -4.37639600E+02      5.44466670E+02
      1.57089943E+03     -2.52842407E+03      1.76845615E+03
      4.04982699E+03      2.58828376E+03     -2.48608579E+03
      6.08497484E+02      3.23548914E+02     -2.72289685E+02
      2.24256954E+03      9.03927221E+02      1.22582590E+03
     -1.40812817E+03      1.03981357E+02     -6.40684192E+02
     -8.02553069E+01     -2.04550151E+02      6.91359752E+02
     -1.01079092E+03     -1.46293468E+03     -2.40987352E+03
     -3.27220118E+03      1.51196814E+03      1.06156465E+03
      8.30760263E+02      2.53560240E+02      1.15882877E+03
     -2.34764827E+03     -5.01127974E+02      5.09615513E+02
      6.40746842E+02      4.22933705E+02     -1.46637664E+03
      5.87661514E+02      1.25438396E+03     -1.50925111E+03
      2.06277547E+02      1.64056307E+02     -6.18982405E+01
     -5.39579148E+02      1.47537333E+03     -1.37496178E+03
      2.55273591E+03     -5.84952695E+01     -2.24095459E+03
      2.14809946E+02      1.42485118E+03     -7.65769655E+02
     -1.33706641E+02      2.32257123E+02     -1.03381609E+03
      1.43793697E+03      7.76434832E+02      1.58797427E+03
      3.55358777E+01     -9.49002769E+02      1.99197484E+03
     -5.98044735E+02      5.16323631E+02      3.20849715E+02
      3.88782666E+03      2.01066849E+02      4.91190940E+03
      2.13788273E+03     -8.75442735E+02     -3.90450228E+03
     -4.31878127E+02      5.72421864E+02     -8.04461487E+02
     -1.69006724E+02      2.49248257E+03      4.54466701E+02
      7.32701592E+02      4.90547642E+02      1.10738818E+03
     -4.48820984E+02      8.61806065E+02     -3.87468542E+02
     -7.92462394E+02     -2.87337781E+03      2.27790221E+03
      2.37680517E+03     -1.87426661E+03     -2.00912579E+03
     -2.54092849E+01      1.58980660E+02      5.01442180E+02
      1.88447962E+03     -5.38302917E+02     -2.25431323E+03
      1.45004915E+03      1.27634197E+03     -2.68139913E+03
      7.11401625E+02     -2.17151561E+02      1.20028690E+02
      1.09246790E+03     -7.79233679E+02      1.17013760E+03
     -1.98698379E+02      1.61079937E+03      1.13088026E+03
      5.46187857E+02      1.50127848E+02      3.10889021E+02
      2.15106215E+02     -2.76363288E+03     -3.04967617E+03
     -4.11007017E+03      5.38126308E+02     -2.47770750E+03
      2.31851462E+02      5.27847384E+01     -1.67907373E+01
     -3.68563591E+03      4.09378309E+02     -2.92923317E+02
     -2.47764708E+03      4.40212748E+03      2.35158831E+03
      4.86265217E+02      1.05017849E+02     -9.68537292E+02
     -6.35678985E+02      7.81818304E+02     -1.66079933E+03
      3.02495364E+03      3.15932770E+02      4.66604826E+02
     -1.51197562E+03     -4.14432250E+03     -4.46250819E+02
      2.16910419E+02     -2.92055363E+01      1.33828978E+02
      5.68528659E+01      9.33477204E+02      1.13568563E+03
     -4.55689363E+02      2.30225981E+02     -1.30879336E+03
      6.50544406E+02     -3.15888684E+03      1.15130135E+03
     -1.97727694E+02     -8.74766847E+02      2.43567888E+02
     -3.65177349E+03     -6.07025966E+02     -8.60238740E+02
     -2.16808162E+03     -5.63458694E+02     -3.05806712E+03
      2.87863504E+02      3.26866120E+02      1.32469156E+02
      2.45968911E+03     -5.94067636E+01      1.02670553E+03
     -1.01746618E+03      4.66442909E+02     -1.57178207E+03
     -3.12078981E+02     -3.80694083E+02     -4.00039645E+01
      1.31537817E+03     -5.09441914E+02      6.41022160E+02
      2.66126890E+02     -1.10572004E+03      1.13669834E+03
      2.49802319E+02     -5.02465858E+02      3.96210099E+02
      7.99329818E+02     -1.90015598E+03     -2.48798705E+03
     -6.39650873E+02      2.61719624E+03      7.34505096E+02
     -2.83945703E+02      4.49055835E+02     -5.55959855E+02
     -2.06425090E+03     -6.89485678E+02      2.05368760E+02
     -8.05822685E+02     -1.25575073E+02      3.19354988E+02
     -5.48069800E+02      2.79638574E+01     -8.06286813E+02
     -2.28509305E+03      1.35471886E+03     -1.80428646E+03
     -1.43897127E+03      2.44557225E+03     -5.72890948E+02
     -1.90207782E+02      9.79298868E+02      3.06859264E+02
      3.52396626E+02     -9.25750493E+02      9.98630966E+01
      1.14673477E+03     -8.69020716E+02     -7.21060645E+02
     -1.64994603E+02     -1.02422500E+02      4.54457944E+02
      4.88968605E+02      7.50054268E+02     -1.05743857E+02
     -4.03637076E+03     -9.09438437E+02     -1.14789704E+03
     -1.81806014E+02     -4.12758253E+02      9.60442478E+00
     -5.19417191E+02     -9.03489094E+01     -2.54018897E+03
      6.99417627E+02      2.43856524E+03     -2.10638732E+03
      2.14928306E+02      1.11425257E+03     -9.81064552E+02
     -2.74172310E+02     -5.59626946E-01      5.29071984E+02
      1.71023248E+03     -1.35152839E+01     -3.10298136E+02
     -1.14029974E+03     -9.08763946E+02      2.50273378E+03
      2.52303046E+03     -9.62260021E+02     -2.01190355E+03
      6.90533978E+01     -7.25062745E+02     -2.26710570E+02
      4.15381907E+02      1.53858326E+03      5.08263643E+02
     -2.36569856E+03     -2.97569259E+03     -1.39652738E+03
     -6.24175304E+02      2.76150007E+02      4.45463566E+02
      2.82561856E+03     -1.25362090E+02     -7.79802487E+02
     -1.75409252E+03     -7.19815880E+02      2.33188476E+03
     -6.74631951E+01      4.63269795E+02      3.58952507E+01
     -4.51694971E+03      7.61270573E+02     -8.11790971E+02
     -2.41643281E+03      1.55287105E+03      4.09324230E+02
     -9.10715052E+02     -7.00951344E+01     -1.71748144E+02
      5.49371994E+02      1.48689204E+03     -2.44323981E+03
     -7.83427692E+02      3.18070173E+01     -2.71325287E+03
      4.03472245E+02      1.52655714E+01      5.74926165E+02
     -2.70844876E+03     -4.19474232E+03      2.05669833E+03
     -1.05817360E+03     -9.59289297E+02      1.12807826E+03
      9.22791781E+02      3.50462402E+02      3.19374421E+02
      2.78284758E+03      1.43346845E+03      3.41419411E+03
      6.52623722E+02     -5.98420416E+02      9.60196340E+02
     -5.73486824E+02      3.04951650E+02     -3.92912010E+02
     -3.67312149E+01      1.95350158E+03      1.79230837E+03
     -9.29093751E+02      1.77565617E+03     -2.27493686E+03
      1.09684950E+03     -6.34979889E+02     -4.82112943E+02
     -1.70234693E+03      2.22355272E+03      8.29957380E+02
      3.48931528E+02      3.42142463E+02     -9.81829701E+02
      2.43221508E+02      1.91965223E+02     -4.23259100E+02
      1.67632015E+03     -2.20254153E+03     -3.88923535E+02
     -2.36545291E+02      1.45757215E+03      3.02941929E+03
     -5.10064052E+02      4.33253575E+03      2.16595137E+03
     -5.06360013E+02      5.23047635E+02     -2.81320963E+02
     -1.17923737E+03      2.23807916E+03      1.09687157E+02
      1.48859554E+03     -1.98564419E+03      6.44482280E+00
      6.94210668E+02      2.25741240E+02     -1.34785016E+02
  }
}

Hamiltonian = DFTB {
  SCC = Yes
  SCCTolerance = 1e-6
  MaxSCCIterations = 200
  ForceEvaluation = Dynamics
  MaxAngularMomentum = {
    C = "p"
    H = "s"
  }
  Charge = 0.0
  SpinPolarisation = {}
  Eigensolver = Standard {}
  Filling = Fermi {
    Temperature [Kelvin] = 300.0
  }
  SlaterKosterFiles = Type2FileNames {
    Prefix = "../../pbc-0-3/"
    Separator = "-"
    Suffix = ".skf"
    LowerCaseTypeName = No
  }
  KPointsAndWeights = {
    0.0000000000000 0.0000000000000 0.0000000000000 1.00000000000000
  }
  Dispersion = LennardJones { 
    Parameters = UFFParameters {}
  }
}

ParserOptions = {
  ParserVersion = 3
}
