Geometry = GenFormat {
<<< "system.gen"
}

Driver = VelocityVerlet{
  Steps = 50000
  TimeStep [fs] = 0.2
  MDRestartFrequency = 25
  Thermostat = None {
    #InitialTemperature [Kelvin] = 300.0
  }
  Xlbomd{ 
    IntegrationSteps = 6 
    MinSccIterations = 2
    MaxSccIterations = 200
    SccTolerance = 1e-6 
  }
  Velocities [m/s] {
     -4.95642688E+02      2.95632902E+02      1.41316077E+01
     -2.95167421E+03      3.43089853E+02     -1.50140229E+03
     -2.60034525E+03     -1.43372459E+03     -1.24574781E+03
      1.69424142E+02     -3.51603574E+00     -2.28142520E+02
     -4.34230292E+02     -2.55828231E+02      9.17880864E+02
      5.76645725E+02     -3.02513901E+03      2.47426784E+03
     -3.46832879E+02     -2.78206155E+02     -2.04174088E+02
      6.91922056E+02      3.17859857E+02      1.17648007E+03
      8.54142278E+02      1.01234221E+03     -1.07216028E+03
      3.47876122E+01      6.67198492E+01     -3.43950202E+02
      1.17147397E+02      1.35562066E+02      1.65442705E+03
     -3.09048425E+03     -1.33728970E+03      1.55458661E+03
     -2.43745420E+02     -4.94050030E+02     -4.59960957E+02
      1.40648023E+03      7.68020776E+02     -6.60176292E+02
     -3.30138344E+03     -9.88847094E+02     -5.21253558E+02
      3.53030234E+02      7.79209802E+02     -1.10623988E+02
     -4.84468590E+01     -1.13428159E+03      1.24618847E+03
      1.47674298E+03      8.87525687E+02      2.50965129E+03
      5.02667852E+02      1.85674702E+02      4.52901898E+01
      1.26368324E+03     -7.72027719E+02      2.39953824E+03
     -1.01271458E+03      1.27773146E+03     -8.93667749E+01
     -3.81833841E+02      6.37267727E+02     -9.52729867E+02
     -2.07821292E+03     -3.56164968E+03     -2.40780402E+02
     -1.07178730E+03     -9.97962719E+02      2.90203160E+03
     -3.10784212E+02     -3.36110770E+02     -6.62991705E+02
      2.87687107E+03      1.23363821E+03     -1.92622581E+03
     -7.51931238E+02      6.86516237E+02     -2.37349560E+02
      2.88308549E+03     -1.93862540E+03     -6.22838649E+02
     -2.93661389E+02      3.91301365E+02      1.96711130E+02
     -8.80462161E+02      1.24970632E+03     -8.33903977E+02
     -4.24921436E+02      1.33456600E+03     -2.01515333E+03
     -2.27485026E+03      6.36229738E+02      5.78170732E+02
     -3.09974532E+01     -7.11074717E+02      6.85083262E+02
      1.60727321E+03      3.08474518E+03     -1.36823173E+03
      1.48674499E+03     -9.40638332E+02      2.01040606E+03
      1.80956916E+04     -3.01532449E+02      1.22257571E+04
     -2.25371340E+03      2.20275888E+02     -8.87129129E+02
     -3.62801101E+02      7.45396518E+02      3.28015750E+03
     -8.48777067E+01      5.61706959E+01     -3.94084516E+02
     -8.20377602E+02      5.33041057E+02     -1.82826031E+03
     -1.96613886E+03     -1.78372486E+03      1.33798214E+03
      1.35273842E+02      2.62043976E+02      1.30736623E+02
      8.69710275E+02      2.31333978E+03      4.72165254E+02
     -6.97755846E+02     -4.97401199E+02     -3.05249906E+03
      2.68299105E+02      2.28757855E+01      2.77366700E+02
     -1.52095926E+02     -5.29519447E+02     -5.53468476E+02
     -4.15967024E+02     -9.35834702E+02     -9.62545256E+02
     -2.69761315E+02      6.98377861E+02     -3.15992405E+02
     -1.02428135E+03     -2.15920559E+03     -1.90175664E+03
     -7.78807872E+02     -1.92896360E+03     -1.38569591E+03
      7.62353413E+02     -3.35912622E+02     -1.64871214E+02
     -1.25294783E+03      5.38709977E+02     -7.03140704E+02
      7.53187899E+02     -1.77430577E+03     -5.24162721E+02
     -1.44892218E+02     -2.54709845E+02      2.65750002E+02
     -2.36340236E+03      1.19796232E+03     -6.19098153E+02
      1.91831793E+03     -7.33130436E+02      8.77551092E+02
      1.84448516E+01      1.23252087E+02     -8.84204741E+02
      4.01624065E+02      6.70334847E+01     -1.69748110E+03
     -7.76017978E+02      1.29341377E+03     -2.61349113E+02
     -1.31362685E+03      3.44397160E+03      2.30833691E+03
     -5.66853899E+02     -1.07349925E+03     -5.05380959E+02
      1.47601080E+03      2.34556703E+03      2.80868732E+03
     -3.81871149E+02     -2.04856747E+03     -1.73207163E+03
     -9.63464823E+02      2.36455079E+01     -1.14967158E+02
     -2.33547665E+02     -5.72959873E+02      3.56387243E+02
      1.08954972E+03     -1.80344415E+03     -2.24644991E+03
     -3.05157522E+02      1.39725858E+03     -1.95406482E+03
      6.13447672E+01     -2.53138479E+02      2.62836222E+02
      1.68327055E+01      1.24212741E+03     -1.87564751E+03
     -5.15295868E+02     -1.65391168E+03     -1.07282219E+03
      4.19401127E+02      1.12950977E+02      7.38793242E+02
     -5.75032493E+02      2.81476814E+03      7.21837927E+02
      3.13672381E+02     -1.05078220E+03      9.41244364E+02
     -1.09048630E+03      6.97548691E+02     -1.18266049E+02
     -2.59989133E+02      1.49162654E+03      1.27481328E+03
     -2.56402759E+02      8.61630459E+02     -3.29433843E+03
      1.80260760E+02     -4.70334395E+02     -3.45586859E+02
     -3.92314440E+02      1.36113701E+03     -8.35533643E+02
      4.52556928E+02     -7.08022153E+02      1.79444678E+03
      5.48277276E+02     -8.23770561E+00     -1.17404216E+02
     -1.36378331E+03      2.88344003E+03     -9.86286731E+02
      2.64559431E+03     -2.19696924E+02      6.30366167E+02
     -5.83337331E+01     -1.26328361E+02      3.19653656E+02
      2.67542120E+03     -4.62671565E+03      1.17148392E+03
     -1.20953159E+03     -8.95341170E+02     -4.92615834E+03
     -2.46607811E+02      1.03117704E+03      4.45263847E+02
     -9.89573533E+02      9.63704685E+02      6.34414659E+02
     -3.73571802E+02     -2.74801718E+03     -1.26219723E+03
      1.21072185E+02     -6.83275196E+02      6.43023601E+02
     -8.51980958E+02      1.13506679E+01     -1.96817469E+03
     -4.03227942E+03     -1.13098022E+03      7.15821668E+02
      6.49390390E+02      2.52094694E+03      3.39251369E+03
      1.15420323E+02      6.03135506E+02      2.26490273E+02
     -2.22572207E+03     -1.07757718E+03     -1.78403525E+03
     -2.64276759E+03      1.38107121E+03     -3.23979089E+03
      2.02070456E+02     -3.38634081E+03     -1.02266220E+03
     -4.04853727E+01      3.46149938E+02     -4.78644495E+02
     -3.31139041E+03      1.69489649E+03      1.17681144E+03
      1.72250164E+03     -3.64388157E+02     -4.68811918E+01
     -2.50939484E+02      3.67351195E+02     -6.76637143E+02
     -1.07841243E+03      9.87395201E+01      2.06045492E+02
      1.52455812E+03     -1.85430099E+03     -2.42787814E+02
      3.67419625E+02      6.59916321E+01      5.76064219E+02
     -2.06167932E+03      2.41733229E+02     -7.98157828E+02
      1.71710905E+03     -1.52497993E+03      2.40751072E+03
      6.79618595E+02     -2.62214254E+02     -7.43444695E+02
      3.68359570E+02     -1.58350902E+03      2.46005815E+03
     -9.50405109E+02     -4.06094048E+02      1.16841279E+03
      1.65140650E+02      1.49962842E+02      6.01626379E+02
      3.00919038E+02     -7.29051422E+02      1.19188349E+03
      2.88176294E+03      8.28485393E+02     -7.36939898E+02
     -5.81626170E+02      1.12553621E+02     -3.96951875E+01
     -1.30392533E+03      3.20393478E+03      3.87903453E+03
      1.75539714E+02     -2.81348561E+02     -7.24709785E+02
     -6.53163823E+02     -1.82826773E+01     -1.48573501E+02
     -8.72819849E+02      4.59738523E+02      2.66472738E+01
     -5.82688867E+02      1.84880031E+03     -8.42158125E+02
      1.86644710E+01      5.04693990E+02     -3.90064239E+02
      3.96187873E+02      1.85873779E+03      7.29332493E+02
      9.02076571E+02      8.67829101E+02      6.90906743E+02
      3.85884301E+02     -1.79441690E+02     -2.87182083E+02
      3.48681004E+02     -1.13243261E+03     -1.08093158E+03
      4.96222548E+02     -4.78871165E+02     -4.16952919E+03
      2.11873868E+02      1.49197733E+03     -1.39999791E+03
      3.55484490E+02     -5.62092747E+02     -2.81598521E+02
     -1.44966675E+03      3.48158678E+03      2.32901091E+03
      3.59834738E+03      1.51232360E+03     -2.50980339E+03
     -1.75222121E+02     -1.16772230E+03     -1.35269454E+03
     -5.95126447E+02     -2.42955262E+02     -6.01570988E+02
      1.64917141E+02      2.19196561E+02     -6.55272037E+02
      3.41616673E+03     -1.28440628E+03     -1.07615108E+03
     -6.93119981E+02      6.46507163E+01      1.28580195E+02
      1.32940351E+02      4.42680653E+02      1.44747923E+03
     -1.15005982E+03      2.91284864E+03     -1.84010352E+03
     -1.18702783E+02     -1.09801273E+03      2.98832229E+02
      1.63110489E+03     -4.95250143E+02      1.13213460E+03
     -3.08729178E+02     -1.72260964E+03      1.37673500E+03
     -1.66500044E+02      1.50297284E+02     -9.46238992E+02
     -2.10529776E+03     -2.45542577E+03      1.04532615E+03
      1.20936628E+03      7.23022612E+02      2.22673663E+02
     -2.13536842E+02     -9.28477821E+01     -2.69888164E+02
      1.07271860E+03     -1.62747749E+02     -3.27828196E+03
      2.81720814E+01      5.40638337E+02     -3.31110632E+03
     -6.60266300E+02     -4.20496938E+02      8.99170939E+01
     -2.00703676E+03      1.80376449E+03     -6.79865567E+02
      1.51108866E+03     -2.27231164E+03      1.56382470E+03
     -5.14251951E+02      4.64520372E+02      1.00375244E+02
     -8.30760929E+02     -1.72362121E+03      2.25202024E+03
      9.39220041E+02      6.19925169E+02     -2.53178771E+02
      1.55791144E+02      1.23884727E+03      1.56216451E+00
     -6.49777118E+02     -1.42501475E+03      4.09374528E+02
     -1.01238276E+03     -4.86556858E+02     -9.00947211E+02
     -4.98581527E+02      3.71455794E+02     -3.26139666E+01
      2.26178135E+03      9.01597791E+02      1.77380964E+03
     -9.94742086E+02      3.39544312E+02      3.23401234E+03
     -6.76044198E+02      5.16208721E+02     -1.02478392E+03
     -1.80141705E+02      1.88574835E+02     -1.19224496E+03
      8.90797868E+02     -3.80111645E+03      1.06727751E+03
     -1.11357731E+03     -6.43443655E+02     -1.04188651E+02
     -1.06648050E+03      4.81467542E+02     -3.29182944E+03
     -1.33234637E+03      1.21629798E+02      3.38099368E+02
     -1.67319082E+03     -2.12496368E+03      1.07134923E+03
     -7.37149476E+02     -3.06261764E+02      9.22380518E+02
      2.98888599E+02     -1.11092989E+03     -5.36978553E+02
      8.66617406E+02     -2.10935845E+03      2.25034839E+02
      2.53603564E+02      2.00882411E+03     -2.02951483E+03
     -2.82626316E+02      2.20678088E+02      6.16060841E+02
     -3.72327506E+02     -7.01297060E+02      1.40725436E+03
     -3.77901654E+02      2.36954372E+03     -8.29477336E+02
     -8.89597866E+02      2.88649118E+02      2.63939034E+02
     -9.71335964E+01      3.52031301E+02      2.86625773E+03
     -3.65391373E+03     -2.50482871E+02     -9.89559180E+02
     -3.32051101E+02      5.35320702E+02      4.57822435E+02
     -3.00805556E+03     -1.07857230E+03     -1.89550960E+03
      1.38160760E+02      1.88321136E+02     -2.18543183E+03
      4.70194310E+02     -3.20609672E+02     -7.32168406E+02
     -5.38438133E+03      1.39062548E+03     -2.24180080E+03
      4.67319198E+02      3.93588397E+02      2.05419224E+03
     -3.60571250E+02     -5.11295449E+02      1.66587355E+01
      2.11864235E+02     -7.73282708E+02      7.88574359E+02
      1.04726921E+03     -2.86285965E+02      1.16285231E+03
     -5.69975527E+02      4.34397019E+02      4.29770376E+02
     -4.78359128E+02      2.92287741E+03     -3.47019858E+02
     -3.42786148E+02      1.29779959E+03     -3.00935679E+02
     -2.03565807E+02      1.25651437E+02      1.36118125E+02
     -5.02546240E+02     -8.00983674E+02      9.06773656E+02
      2.00421275E+03      1.56738130E+03      2.12675144E+03
     -3.93617396E+02      4.26929320E+02     -4.01953744E+02
     -2.53443206E+02     -3.06653029E+02     -4.15696734E+02
     -2.59778647E+03     -8.42027009E+02     -4.29125119E+03
      5.71564961E+02     -7.75595266E+02     -1.34360183E+03
     -1.37198069E+03     -4.23724419E+02      2.17830666E+03
      6.74258392E+02      3.08082340E+02     -2.03824079E+02
     -2.15576541E+03     -4.06865146E+01      8.15821543E+02
     -4.45964977E+02     -1.90839690E+03      4.60443695E+01
     -1.12798396E+03     -4.09372323E+02     -9.92211426E+01
     -1.31628995E+03      1.50233675E+03      8.60527060E+02
     -5.44792098E+02      1.59707026E+03      4.07449421E+02
     -1.35334117E+02      1.56091424E+02     -5.97990585E+02
     -1.44607232E+03     -2.54928986E+03      1.34051724E+03
      4.76826131E+02     -3.12568986E+02      5.36007604E+02
     -5.14338209E+02     -1.13377702E+03      3.26093536E+02
      3.38165051E+03     -1.07436499E+03     -6.00966617E+02
     -2.08233007E+03      8.07215840E+02      7.40185969E+02
      3.64129659E+02     -6.32287032E+02      3.71277546E+02
     -6.92722765E+02      2.39443890E+03     -1.63029864E+03
      1.77768153E+03      2.79965808E+03     -5.69585386E+02
     -6.38124100E+01     -8.38414253E+02     -6.50935252E+02
     -2.50835186E+02     -2.21717556E+03      1.15077849E+03
      3.37071750E+02      3.82966969E+03     -4.93153101E+02
     -2.10090083E+02     -2.55654820E+02     -1.85241094E+02
     -5.53476685E+02     -7.80728069E+02     -1.60652495E+03
      3.00987821E+02      1.59721285E+03     -1.33623035E+03
     -1.90046787E+02      2.52585837E+02      2.25531366E+02
      8.38422008E+02     -1.77168329E+03      1.90347429E+03
      2.11136911E+03      1.46154058E+03      1.69938256E+03
     -5.02693741E+02      6.19364279E+02      3.13611562E+02
     -1.88558511E+03     -1.78833789E+03     -1.14064693E+03
     -3.36529301E+02     -1.09186763E+02      6.65195309E+02
     -3.49538536E+02      7.33198218E+02     -3.61625105E+02
     -2.89750284E+02      5.99110626E+02     -2.72672990E+02
      9.24517405E+02     -1.53676095E+03     -1.43112114E+03
      1.71174037E+02      4.63040527E+02      7.47832511E+01
      8.60167310E+01     -4.75331558E+02      5.15889824E+01
     -1.95922411E+02      6.63491708E+02     -2.12425088E+02
      1.94114893E+03      7.71607741E+02      1.72607395E+03
      2.38358820E+03      6.17590651E+02      2.95488500E+03
     -5.72408717E+02      6.21589268E+02     -1.34938674E+01
     -1.79988754E+03     -3.52925777E+03      1.31983671E+03
     -1.52917242E+03     -5.20422437E+02     -2.96785737E+02
     -8.23613737E+01      9.00181412E+01     -9.94861306E+01
      7.32042333E+02     -1.55386717E+03      2.27989107E+03
     -1.31000033E+03      9.66859814E+02     -1.24650932E+03
      4.75224878E+02      5.05290503E+02     -6.62854560E+02
      5.89653746E+02      1.82813710E+02      1.31682386E+03
     -2.39637419E+03     -2.29772611E+03     -3.78037154E+03
     -2.81251402E+02      4.54113244E+02     -2.01501172E+02
      1.26296258E+03     -3.61288090E+02      1.80735368E+03
     -3.76395200E+02     -1.64908227E+02     -2.01856588E+03
      4.48332912E+02      2.11689481E+02     -3.43093807E+01
     -9.59932956E+02     -8.91082760E+02     -4.40665674E+02
      2.66283684E+03     -7.21086625E+02      1.72043858E+03
     -1.33683593E+02     -9.04680225E+01     -3.44303718E+02
      2.79565660E+03     -3.52304058E+02      1.44680516E+03
     -1.54004984E+03     -2.93957131E+03     -1.93772956E+03
      6.03081194E+02      1.83143951E+02     -1.35522281E+02
      1.27990466E+03     -2.25672356E+02     -3.37119513E+03
      5.05418212E+02      5.07543737E+02     -8.90644730E+02
     -6.49221934E+02     -8.91980524E+01     -6.78508551E+02
      2.62569063E+03     -8.27828823E+02      4.00551729E+02
     -1.97961183E+03     -1.49597299E+03     -4.83000070E+02
     -2.02489793E+03      1.38388320E+03      2.05806391E+03
     -2.95388355E+02      1.13478068E+02      2.62364265E+02
      1.31369964E+02      1.66216519E+00      1.87967279E+03
     -1.96153981E+02      4.01795897E+03      1.74317004E+03
      2.01366257E+03     -2.18448124E+03     -3.34087457E+02
      5.79711516E+01      5.31314551E+02      3.21800986E+02
     -8.92352579E+02     -8.23922461E+02     -8.50222924E+02
     -3.21751940E+02     -1.49074547E+03      1.76036318E+03
     -4.70651999E+01      2.92343724E+02     -2.33538600E+02
     -6.50179413E+02     -1.77176523E+03      1.20373788E+03
      1.95473405E+03      7.23318767E+02     -1.99618597E+03
     -2.65115683E+02     -1.88928756E+02     -4.66048193E+02
     -7.40754934E+02      1.01818406E+03      7.57491827E+02
      2.56240742E+03      3.31944235E+02     -2.96885357E+03
      5.25654746E+02      5.89666966E+02      6.26313305E+02
     -5.29640666E+02     -7.56887581E+02      1.01728816E+02
      1.47622065E+03      3.18358867E+02     -9.94301374E+02
     -1.23209288E+03      7.28138952E+02      1.01678539E+02
     -1.26701748E+02     -3.89835095E+03     -1.17795347E+01
     -1.60958050E+03      3.64142611E+03     -4.91143841E+02
     -4.17191718E+02      2.43429446E+02     -3.25581220E+02
     -3.10893348E+03     -1.66597315E+03     -4.37386412E+02
      1.30044533E+03     -1.84996018E+03     -2.63818759E+02
     -9.28862993E+02     -4.08263079E+02      6.87506273E+02
      1.83818198E+03      8.70246157E+02     -1.68400437E+02
      4.63589180E+02     -2.08045322E+03      8.59589355E+02
     -6.55208652E+02      1.62911034E+02     -2.93662170E+02
     -1.04968416E+03      2.79041508E+03     -5.03023033E+02
     -2.68515841E+03     -7.41728551E+01      2.71151735E+03
      4.72397369E+02     -3.40858721E+02     -9.87822364E+02
      5.49557629E+02      2.11782719E+03     -1.22278556E+03
      3.24284168E+03      2.12730311E+03      5.73199621E+02
     -8.73351210E+02     -8.48146497E+02     -2.85219441E+03
      4.37868283E+02     -2.88423966E+02     -6.51879478E+01
      1.75578436E+03      1.92233346E+02      1.96960702E+03
      1.39879587E+03      1.13835306E+03      5.46281653E+02
      1.78293510E+03      1.85839661E+03      2.96365757E+03
      3.62623377E+02     -7.95199665E+01      5.30887849E+02
      1.79219721E+03      3.73570111E+02      6.52455917E+02
     -1.99016797E+03      2.12157411E+03     -4.03614963E+02
      3.20860551E+02     -2.42843352E+02      2.23804160E+02
      2.23741891E+02     -3.27105448E+03     -1.38205784E+03
     -2.21730543E+03     -1.79152178E+03     -1.62690631E+03
     -1.63410083E+02     -2.92907459E+02     -1.89871259E+02
      7.65744033E+02     -1.32371850E+03     -4.45652479E+03
     -1.63330986E+03     -2.84868625E+03      6.31184041E+02
     -6.40794747E+02     -3.77949288E+02     -5.56787470E+02
      5.89168205E+02      1.56936749E+03      1.85944902E+02
      1.39636834E+02     -7.86648821E+02     -4.15859900E+02
      2.33999061E+01      1.12738098E+03      6.88233095E+01
     -4.58338605E+01      2.04550540E+03     -2.72981790E+03
      2.70293994E+03     -2.02125880E+03     -2.74926871E+03
     -2.78537374E+02     -2.40838664E+02     -2.22946349E+02
     -1.06031190E+03      1.91196161E+03      1.35358108E+03
      1.37470917E+03      2.90146694E+02     -2.28565888E+03
     -3.13597422E+00      1.97153743E+02      1.08718066E+03
     -7.03504764E+02      2.22487059E+02     -1.26875547E+03
     -3.67957540E+03      5.89015938E+00     -5.64350971E+02
     -1.32542823E+03     -1.30573381E+02     -9.35982425E+02
      2.16563165E+03     -3.87614425E+03      2.96323046E+02
      1.26576791E+03     -1.83144946E+03     -1.05265518E+03
      2.09781065E+02     -5.77911432E+02     -2.98300873E+02
      8.34987341E+02     -3.17449720E+02      2.47242051E+03
      8.00266971E+02      1.17527479E+03     -3.84723205E+02
     -1.18881959E+03      6.52029883E+02      2.94559412E+02
     -1.11922499E+03      2.93074787E+02     -4.91361874E+02
      1.27891771E+03     -3.05184510E+02     -2.14891517E+02
      1.51677745E+03     -2.87348912E+03     -1.69419195E+03
      3.15305235E+02      4.50948785E+02      4.98175282E+02
      2.81851968E+02     -3.42982923E+02     -7.96884609E+02
     -2.59889047E+03      2.48729329E+01      1.06658646E+03
     -1.80119427E+03      3.32688548E+02     -2.62083722E+02
      2.79973576E+02      1.69757877E+02     -3.03948961E+02
      2.05214744E+03      1.26709729E+03      2.60991052E+03
      8.59700548E+02     -1.43100773E+03      7.62821650E+02
     -2.35036370E+02      1.25854861E+02     -6.55007561E+02
     -2.29082697E+03     -1.94216841E+03     -5.21408431E+02
      4.43490079E+02     -2.53759797E+03     -1.21751755E+03
      7.47244140E+00     -1.71175082E+02     -6.07938551E+02
      1.80557676E+03     -3.54207289E+03     -6.46892749E+02
      1.80924781E+03     -2.52723112E+03     -1.97446228E+03
     -1.16219055E+02      4.57029163E+01      5.23626370E+02
     -6.66030618E+02      1.89768301E+02     -4.53559489E+01
     -1.67992354E+03     -2.86179133E+03     -3.33700360E+02
     -6.15553333E+02     -4.58211293E+01      1.55800904E+01
      1.56374581E+03      8.51376850E+02     -2.65415475E+03
      2.24248725E+03     -2.17982522E+03     -1.65365848E+03
     -7.91974718E+02     -3.83348429E+02      5.48430069E+02
     -3.09012688E+02     -3.90974828E+03     -2.18363686E+03
     -3.31823652E+03      4.95166368E+02     -5.87504828E+02
      7.18706731E+01      8.31265338E+02      2.99777789E+02
     -1.02869094E+03     -1.82334663E+03     -5.63926650E+02
      6.29415747E+02      1.13986025E+03     -4.24198000E+01
      4.06185930E+02      2.24104975E+02      4.02978216E+02
     -8.32545642E+02     -9.64860406E+02     -1.92024002E+03
      1.50469910E+03     -1.41362807E+03      1.49350415E+03
     -4.39052267E+02      1.31395252E+03      1.53037473E+03
     -1.89510849E+02      3.14179449E+01     -2.15102875E+02
     -2.31043612E+03     -2.89881754E+03     -1.88536913E+02
      1.81437730E+02     -1.87403827E+03     -1.71638278E+02
      2.19033255E+02      1.03348502E+02      1.31334757E+03
  }
}

Hamiltonian = DFTB {
  SCC = Yes
  SCCTolerance = 1e-6
  MaxSCCIterations = 200
  ForceEvaluation = Dynamics
  MaxAngularMomentum = {
    C = "p"
    H = "s"
  }
  Charge = 0.0
  SpinPolarisation = {}
  Eigensolver = Standard {}
  Filling = Fermi {
    Temperature [Kelvin] = 300.0
  }
  SlaterKosterFiles = Type2FileNames {
    Prefix = "../../pbc-0-3/"
    Separator = "-"
    Suffix = ".skf"
    LowerCaseTypeName = No
  }
  KPointsAndWeights = {
    0.0000000000000 0.0000000000000 0.0000000000000 1.00000000000000
  }
  Dispersion = LennardJones { 
    Parameters = UFFParameters {}
  }
}

ParserOptions = {
  ParserVersion = 3
}
