Geometry = GenFormat {
<<< "system.gen"
}

Driver = VelocityVerlet{
  Steps = 50000
  TimeStep [fs] = 0.2
  MDRestartFrequency = 25
  Thermostat = None {
    #InitialTemperature [Kelvin] = 300.0
  }
  Xlbomd{ 
    IntegrationSteps = 6 
    MinSccIterations = 2
    MaxSccIterations = 200
    SccTolerance = 1e-6 
  }
  Velocities [m/s] {
      5.33785422E+02      2.08409660E+02      2.56738875E-01
      5.12409200E+02     -1.33808325E+03      3.69120248E+02
      4.43159470E+02      3.01058604E+03     -3.63197616E+03
      1.31341324E+04     -1.40834988E+04     -1.00933884E+04
     -3.02436605E+02     -5.47194798E+02      1.72492197E+03
      1.01164182E+02      9.12995609E+02      1.62048268E+03
     -1.47979557E+03      5.73635682E+02      7.19904475E+02
     -1.88969978E+03     -6.85726720E+02      7.10206553E+02
     -8.99474575E+02     -1.21992868E+03      2.81691681E+02
     -2.05979673E+02     -1.36943165E+02      4.18145733E+02
      1.37515794E+03     -2.00781931E+03     -1.02151733E+03
      2.20033917E+03     -4.97263294E+02     -8.13416510E+02
     -1.41111264E+02      4.01053949E+02     -1.24808659E+02
     -8.15522003E+02      9.87233324E+02     -1.20965775E+01
     -1.43955258E+02     -9.46182291E+02     -2.64460777E+03
      4.57531941E+02      7.34542564E+02     -9.79591940E+02
      2.14872634E+03      6.39985233E+01     -6.06581197E+02
     -1.17752564E+03     -7.64700916E+02      1.12387863E+03
     -3.08665551E+02     -5.52082653E+01     -1.07770446E+01
     -9.34309272E+02     -5.17682599E+01     -2.07897397E+03
     -2.01372840E+03     -1.26176205E+03      1.80635076E+02
     -1.37229706E+02      7.50865448E+02     -1.90128400E+02
     -3.26574871E+03      1.95037687E+03     -1.12990520E+03
     -8.87787072E+02     -6.72228092E+02     -1.73327590E+03
     -9.75677336E+02     -1.71375268E+02      6.05933679E+02
     -3.72569742E+03     -8.79461528E+02      1.07833519E+02
      1.76568457E+03      8.94371688E+02     -3.63363723E+02
      1.02211548E+03     -1.39245648E+03     -1.22064576E+03
     -5.46430034E+02      7.33987582E+01      2.30654587E+02
      2.13538159E+03      1.47580102E+03     -1.02608753E+03
      8.57791177E+02     -1.86759107E+03      2.29544130E+03
      2.40229069E+03     -2.22636870E+03     -7.92387160E+01
     -1.69042337E+02      3.36008694E+02      4.04909431E+02
      4.27983824E+02      1.44381952E+02     -1.76876902E+03
      1.10687079E+03      2.10983389E+03      1.97314117E+03
     -7.91775023E+02      6.35826169E+02     -4.02974566E+02
      1.45517628E+03      2.29421716E+02     -7.11663225E+02
      7.26940085E+02     -7.78084800E+02      8.72518105E+02
      3.20097946E+02      9.96386694E+01      2.41402615E+02
      8.92995920E+02      2.24872488E+03     -2.04685037E+03
     -4.60582458E+02     -2.82825299E+03     -3.75404642E+02
     -7.73961534E+02      8.44575083E+02     -3.24061525E+02
     -1.92110696E+03     -3.35612986E+02     -5.84297808E+02
     -5.17878692E+02      4.77322059E+02     -1.69736016E+03
     -2.91485178E+02     -4.86503941E+02      2.56217874E+02
     -4.02318789E+02      5.04227216E+02      4.17583508E+03
      2.78245022E+02      2.79485204E+02      2.02297544E+03
     -2.88447517E+01      7.11788096E+02     -2.39475387E+02
      4.56302760E+02      2.17323612E+02     -2.47947041E+03
      2.48663768E+03     -1.21741766E+03      4.87302503E+02
     -1.11134849E+02      5.62565998E+02      1.79540850E+02
     -9.45430208E+01     -4.16793895E+02      1.33341735E+03
      2.61992798E+03     -9.63474505E+02      1.34833902E+03
      7.87258805E+02     -4.00810744E+02     -2.54635339E+02
     -1.79289600E+03     -7.25745354E+00     -1.56961535E+03
     -2.25999841E+03     -2.77753778E+03      3.30784682E+03
     -2.46523318E+02      5.81369547E+02     -3.09381823E+02
     -1.03980341E+03      3.19024082E+03      9.70506233E+02
      8.58186383E+02     -5.45150523E+01     -1.21450620E+03
      3.77469190E+02     -1.62034642E+03      1.78755024E+03
      6.32877134E+02     -3.69308868E+02      2.34405658E+01
     -2.79523972E+02      2.82177691E+03     -2.13800609E+03
      2.29569322E+03      1.17843026E+03      1.11601881E+02
     -1.26341459E+03     -2.61980027E+03      2.08931996E+03
      6.19610361E+01     -5.11752225E+02      4.15102399E+02
     -9.70336705E+02      3.73906045E+03      1.25057001E+03
      3.68813041E+02      2.10415517E+03     -8.90835335E+02
      1.60266843E+02      2.66955193E+02     -4.30908812E+02
      1.94714256E+03      1.62053674E+03      5.80444984E+02
      1.37491268E+03      8.77664073E+02      2.33657771E+02
     -1.66140312E+02      4.19104402E+02     -2.69597128E+02
      6.53469171E+02      2.46336908E+03     -4.11787999E+02
     -3.51355706E+03     -1.14029725E+03      2.39339081E+03
      4.31032165E+01     -5.14778291E+02     -1.86654975E+02
     -1.09701351E+03      2.04932486E+01      2.20952993E+03
     -2.96718269E+03     -1.07896937E+03     -1.59398025E+02
     -7.32932301E+02     -9.79617568E+02      1.06943039E+03
      9.90817658E+02      1.73365734E+03     -1.02793739E+03
     -1.89071602E+02      3.62666323E+03      2.92768606E+02
     -3.04943375E+02     -6.66895726E+02     -1.83193708E+02
     -4.32404773E+02      2.53684959E+01     -1.37733183E+03
      2.67923623E+03      2.03755950E+03     -4.85772623E+02
     -2.01928081E+02     -2.43223874E+01      1.03346288E+02
     -1.00398825E+01     -5.09143001E+02      1.35064155E+03
      4.64524226E+02      1.15562489E+03      2.62916073E+03
     -2.98006679E+02      5.09232331E+02      2.45749229E+01
     -5.38433236E+01      1.34998791E+03      4.50601881E+02
      1.66060487E+03     -1.29352602E+03      2.43478864E+03
     -6.10095709E+02      2.15068574E+02      3.26958704E+01
      6.46780612E+01     -1.29277202E+03     -1.96006648E+03
     -1.89174134E+03      4.11362162E+03     -1.32334088E+03
      1.73784241E+03      8.84128700E+02     -1.85367794E+02
     -4.38383404E+02      5.49409380E+02      6.25049962E+02
     -5.92427836E+02      6.04145824E+02      9.55732910E+02
     -1.74212265E+02      9.76355954E+02     -2.85600707E+03
     -1.76081495E+03      4.40474338E+02     -1.88878213E+03
      1.04442293E+02      4.11864469E+02     -1.55118221E+02
      7.27159743E+02      6.13577776E+02     -1.03351143E+03
      5.60556888E+02     -1.26685088E+03     -1.66468511E+02
      1.01212527E+03      6.34023531E+02     -5.09820547E+02
      2.10910080E+03      3.44565005E+02      2.55287969E+03
     -5.01726834E+02      6.92821460E+02      1.08178859E+03
      4.78118747E+02      3.68080046E+02     -1.53574193E+02
     -2.12487390E+03      2.21142945E+02     -2.86336217E+03
     -1.68974748E+03      3.14689065E+03      1.44171162E+03
     -9.43237056E+01      1.82400904E+02      7.59074878E+02
     -2.91651804E+03     -2.53388918E+03      1.84855506E+02
     -2.69131172E+02      2.01034689E+03      1.20045200E+03
     -9.39349045E+02      2.91356219E+02     -1.56805124E+02
     -1.02456225E+02     -1.24301403E+03      1.59367338E+02
     -3.69563081E+03     -1.72992910E+03     -4.26478531E+02
     -3.34537443E+02     -5.68993254E+02      5.30049158E+02
     -6.71672326E+02      2.30046510E+03     -1.37431311E+03
      8.86535055E+02     -4.23297091E+03     -3.39865055E+02
      7.49201003E+02      4.59759463E+02      5.28429232E+02
     -1.19295511E+03     -1.76130950E+03     -1.59697320E+03
     -2.38048831E+03      1.73977654E+02      7.23833555E+02
     -3.78046763E+02     -6.46567062E+02     -4.56464193E+01
      1.91710418E+03     -2.12624864E+03     -1.26432622E+03
     -8.69673536E+02     -2.89541140E+03      5.27695244E+02
      1.70406529E+02     -3.46269380E+02      4.23424520E+02
     -1.66255297E+03      1.39723431E+03     -2.02932222E+03
     -1.10185856E+03      1.07261736E+03      9.92559141E+02
     -2.02266951E+03     -4.00443634E+02      7.99775802E+02
      3.07775032E+02      6.17066314E+02      9.29568886E+00
      6.35355601E+01     -3.10865027E+02      9.51617138E+02
     -8.73336239E+02     -2.41328756E+03      4.55878590E+02
     -6.66644143E+02     -2.70268838E+03      1.12135009E+02
     -5.13160429E+02      3.88829523E+02      1.51824975E+02
      2.08692487E+03      1.26764488E+03      3.60842575E+02
     -1.56044502E+03     -2.20509447E+03     -2.27217752E+02
     -5.18010384E+02      2.35042169E+02      5.24246622E+02
     -4.66364146E+03     -9.86291014E+02      3.30740853E+02
      3.84769995E+02      4.66424511E+02     -7.74849816E+02
      6.44668211E+02     -1.06495538E+03     -3.38285766E+02
      2.80153503E+03     -1.35571058E+03     -1.90850903E+03
      2.62889595E+03      3.39126626E+03      1.55649915E+03
     -3.39505010E+02      9.49027540E+00     -7.56897825E+02
      6.03962922E+02      9.84372312E+02     -6.74253171E+02
     -2.54479389E+03      7.73399246E+02      4.12061003E+02
     -2.54479200E+02      2.37924835E+02      3.10743692E+02
     -1.57198119E+03      2.63266877E+03     -9.17029968E+02
     -3.57106688E+02     -1.57570661E+01     -1.03088516E+03
      5.65710949E+02     -1.10516516E+03     -4.36775537E+02
     -1.45280804E+03     -1.58764036E+02     -6.69170760E+02
     -1.06361583E+03      2.62022447E+01      2.18751546E+03
     -1.03309771E+03     -3.41360312E+02      9.60196620E+02
      2.19707296E+03      1.89743936E+03     -1.29240842E+03
      1.26401623E+03      1.13969480E+03     -8.41257520E+02
      5.60038502E+02     -3.65390885E+02     -2.32559187E+02
      1.35628286E+03     -1.89779336E+03      1.40140588E+03
     -1.13005590E+02      6.89004482E+02      1.67915874E+02
      2.92816037E+02     -5.88100059E+02      6.38025390E+02
      1.44471407E+02     -3.06197973E+03     -1.04150147E+03
      1.86426059E+03     -8.59788521E+02     -4.77235655E-01
     -9.43736374E+02      2.03645041E+03     -1.22666405E+03
      3.06219796E+02     -3.30645913E+02      3.94335700E+02
     -8.25328406E+02      6.71263392E+01      2.24739491E+03
     -1.22797009E+03      4.62711065E+01      9.47839471E+02
      9.51843459E+02     -1.01403945E+03      2.69967341E+03
     -1.23089979E+02      5.01553863E+02      6.02768260E+02
     -2.99489724E+03      1.68431789E+02      7.59857783E+02
     -1.61033512E+03      6.24157687E+02     -1.48176227E+03
      5.22781098E+02      2.48535199E+02      2.39189091E+02
     -2.23420979E+03      6.33661809E+02      3.33027291E+03
     -1.26831658E+03      1.34727230E+03     -1.58479781E+03
     -5.23222023E+02      8.45575331E+02      2.49890834E+01
     -6.81340652E+01      1.40211904E+03     -1.52853709E+03
      2.20048408E+03     -1.22806281E+03     -1.15389419E+03
     -4.60726932E+02     -5.97077520E+02     -2.68729598E+02
      3.34430608E+03      2.20559332E+03     -2.13909387E+03
     -9.60347208E+02     -2.37878727E+03      1.93768505E+02
     -1.05255843E+03      2.49881722E+02      6.60269083E+02
      2.93374283E+03      3.41818659E+03     -9.78948305E+02
      4.96080400E+02      1.39730628E+00      2.86529297E+03
     -8.62543627E+02      6.39281110E+02     -5.23172245E+02
      1.11285377E+03     -1.05650394E+03      4.97697769E+02
      9.58422811E+02      3.86051081E+01     -4.71393587E+02
     -2.58414510E+02      2.05512546E+02     -2.20475940E+02
      1.45139928E+03      5.22766158E+02     -3.35911593E+02
     -1.03312200E+03     -7.72366335E+02     -1.84229575E+03
     -3.77215934E+01      3.34568092E+02     -1.50227471E+01
      1.80047371E+03     -8.66909315E+02      2.31026031E+03
      6.20162430E+02      7.30365684E+02      1.66078494E+03
     -9.77777092E+02      2.38410337E+02     -8.01034451E+02
      2.54445088E+03      4.03332375E+02      8.67893510E+02
      9.97511543E+02     -1.82969563E+03      1.83736953E+03
      2.93105408E+01      1.88645667E+03     -2.99640103E+02
     -1.12752840E+01     -9.91313075E+02      3.05316024E+02
      7.45546895E-01      1.90512231E+02      2.21989855E+03
     -2.41881709E+02      9.13125828E+02      1.92763945E+03
      3.71955798E+02      4.67333170E+02     -2.92222693E+02
     -4.65157221E+02      4.51918685E+01      3.01466108E+02
     -3.76968272E+03     -2.18078708E+03     -1.47804243E+03
     -1.89593240E+03      2.25969900E+03     -9.80534351E+02
     -3.50760799E+02      7.91318155E+02      3.61877264E+02
     -6.07360449E+02      1.37417775E+03      1.13051840E+03
     -9.23110276E+02      7.16096208E+02      2.24598349E+03
     -8.21615154E+02      2.60566663E+02      1.31338494E+02
     -3.58214181E+03     -1.21554554E+03     -1.23058020E+03
      1.91153311E+03      1.57153572E+03     -1.20358023E+02
      6.46170620E+01     -4.96458802E+02     -1.77290071E+02
     -6.63443815E+02      7.40432171E+02      7.68692518E+02
      1.92715193E+03      1.44428808E+03      5.56333129E+02
     -2.72055868E+02     -5.43906240E+02      6.04119253E+02
     -3.85026787E+02      4.43780348E+02     -7.77817840E+02
      2.48912516E+02     -2.35769145E+03      8.26806758E+02
     -9.06601612E+02      3.76276478E+02     -2.44857672E+02
      9.84144336E+02      1.93510225E+03     -7.61340520E+02
      1.13767908E+03      3.11019074E+03     -6.60542360E+02
     -9.22330562E+02      9.21869687E+01      8.59572821E+02
      6.56350183E+02      7.83276812E+01      2.16972581E+03
     -9.98438036E+02      2.62372075E+03     -2.56036178E+03
     -4.13204847E+02     -7.88683645E+01      8.25791894E+02
     -6.15881744E+02     -1.38043475E+03     -2.32508664E+03
     -3.11478118E+01      1.56758863E+03     -6.92539843E+02
     -1.05191017E+02     -1.84111068E+02     -1.47553763E+02
      4.83084972E+02      1.25352327E+03     -1.58133629E+03
     -1.32350114E+03      5.03442098E+01     -2.66442477E+03
     -1.61969612E+02      1.03673785E+03     -6.79761844E+02
     -7.37052404E+01      6.49539734E+02     -1.80249678E+02
      1.09156714E+02     -1.04838533E+03      4.59837798E+02
     -1.25813118E+03     -5.71808880E+02      1.53539769E+03
     -9.70698043E+02      3.76144518E+03      1.38541559E+03
      3.91913242E+02      5.01729710E+01     -1.05687507E+02
      1.17422089E+03      6.59622614E+02      4.19730823E+02
      6.58355258E+02      1.00327103E+03     -8.19573138E+01
     -3.98870923E+02     -7.77638454E+01      3.65580625E+02
      1.34229782E+03      2.15352410E+02      5.30999386E+00
      5.09067789E+02     -1.39284735E+03     -7.13349878E+02
      6.48810315E+02      1.22045729E+03      1.27821172E+02
     -2.23669827E+03     -1.34535384E+03     -4.25830486E+01
      3.07782869E+03     -4.95610447E+02     -1.23205306E+03
      6.17821064E+02      2.87233595E+02     -2.57955341E-01
     -4.03155064E+02     -2.10139680E+03     -5.66614205E+02
     -1.86856639E+03     -5.64073862E+01     -3.80040337E+02
     -2.98135877E+02     -6.12175664E+02      6.44577549E+01
      4.20227102E+02      1.02708191E+03     -8.02814993E+02
      3.12081180E+02     -8.43603759E+02      2.18731943E+03
      7.58267789E+02      7.97776190E+00      1.60700465E+02
      8.03711758E+02      4.20472307E+02      1.61124049E+03
      8.21239142E+02      5.59376059E+02     -7.00880896E+02
     -2.20107795E+02     -6.25085554E+02      2.84742041E+02
      8.18575827E+02      1.85593775E+02      4.01138611E+03
     -9.00840818E+01      1.81319778E+03     -2.82537263E+03
      6.19758006E+02      5.79250154E+02     -2.05980802E+02
      3.16441393E+03     -5.33174545E+02     -2.16662601E+03
      1.10080784E+02     -1.06840716E+02     -3.24913987E+03
     -2.58205391E+02     -7.25755335E+02      3.76181100E+01
      2.16883498E+03     -1.20052242E+03      1.61879908E+03
     -2.57439434E+03      1.33803376E+03     -1.51716116E+03
      5.57342322E+02      1.48662708E+03      1.94158382E+03
     -1.76754947E+01      1.71189936E+02     -4.49777030E+02
     -1.85039895E+03     -9.35131439E+02      3.97847127E+01
     -2.00810764E+03     -2.44696321E+02     -1.45521093E+03
      2.08007694E+03     -8.23005394E+02     -4.54628816E+02
     -1.60489391E+02      2.53398817E+02      9.25926101E+02
      4.77815677E+02     -5.73713134E+02      1.42744395E+03
      1.46346356E+03      3.05778664E+03      2.13019053E+02
     -2.44482562E+01      4.29743099E+02      9.60080377E+01
      4.37727969E+02      1.91448892E+03     -3.44584196E+03
      1.56370623E+03      1.92040820E+02      1.88121051E+03
      4.76776140E+02     -2.71392613E+02     -4.28426439E+02
      5.43453119E+02      8.04494758E+02     -2.48386187E+03
     -8.15487984E+02     -1.57834445E+03     -1.20878485E+03
     -6.23380016E+02      4.44671132E+02      1.22850619E+02
     -1.60063539E+03      6.61933345E+02     -3.37952567E+02
     -2.11198301E+03     -4.65216750E+02     -5.54938341E+02
      5.64174835E+01     -7.48612611E+02      8.58648728E+02
      2.05557798E+03      1.56281144E+03     -5.79927530E+02
      1.52732123E+03      1.61122014E+03      5.60895139E+02
     -8.56664594E+02      8.28095088E+02      1.05477422E+02
      7.92038266E+02      7.75119424E+01      3.04015432E+03
      2.19129524E+03      5.79938824E+02      7.37234817E+02
      4.08361841E+02      3.47154841E+01      2.56834299E+01
      1.04314151E+03      1.90827336E+03     -1.35580372E+03
     -2.78521075E+02      1.17376172E+03      5.31169800E+02
      9.49318849E+00     -4.38566542E+00     -2.25763281E+02
      4.77146546E+02      2.54583793E+03     -2.20477891E+03
     -3.05078503E+03     -2.84965202E+03      1.55101017E+03
     -1.80573180E+02      6.60043610E+02      5.16250588E+02
      1.22887337E+03     -3.85956409E+02      3.40684838E+03
      2.59676580E+03     -6.41000978E+02      4.16093153E+02
     -3.75214422E+02      3.74562851E+02     -1.51706584E+02
     -7.30417347E+02      5.47221399E+02     -9.46560492E+01
     -1.04963088E+02     -9.63894210E+02      1.61914903E+03
      1.53225445E+02      6.97610866E+02      9.28863116E+01
     -2.18822670E+03      2.71142584E+03      2.14330620E+03
      1.09490020E+02      2.18762740E+02     -3.86538519E+02
     -2.34331765E+03     -1.56976653E+03     -7.09097141E+02
     -1.94887998E+02      3.75823653E+03      1.00471445E+03
     -7.89155441E+02     -3.84140641E+02     -7.54120490E+01
     -2.42589035E+03      1.13398397E+03     -5.00704305E+02
      1.66259394E+02      9.47055651E+02     -1.17864323E+03
      1.01639494E+03      6.89455650E+02     -1.21414256E+02
     -1.53359062E+02     -1.34222972E+02      6.61259467E+01
     -2.58301906E+03     -2.02293548E+03      1.59708943E+03
     -1.07066867E+02      4.18666523E+02     -8.02851916E+02
      6.91375117E+02     -2.94730518E+03      2.68916936E+03
      1.95553996E+02      9.44555605E+02     -7.44160810E+02
      6.25131584E+02     -1.82439258E+01      5.78431081E+02
     -2.11758323E+02     -3.01983455E+02      5.97121844E+02
     -6.95617047E+02     -2.01107021E+03      8.03802891E+02
     -2.79453254E+02     -1.06312994E+02      2.07158359E+02
     -1.03916607E+03     -1.92933884E+03     -1.41508931E+03
      1.42677115E+02     -1.92750844E+03     -1.69107996E+03
     -1.58129094E+02      5.62180099E+02      3.84810673E+02
      1.62512175E+03      1.88166960E+03     -4.58945025E+02
     -2.18329494E+03      3.54734110E+02     -3.27162685E+02
     -1.73278977E+02     -6.05865176E+02      8.92590186E+02
     -2.51798836E+03      1.31113334E+03     -2.68270987E+03
      1.60621809E+03      1.14932147E+03     -1.98238919E+02
      6.36683406E+02      2.54011089E+02      6.23380793E+01
      1.61447634E+03     -1.91081731E+03      1.15275333E+03
      7.24258512E+02     -2.55819672E+03     -1.54610167E+03
     -4.15511289E+01      6.68244669E+02     -1.06536008E+03
      2.08999074E+02      5.88579469E+01     -1.96626979E+02
     -4.66271081E+02      1.56026791E+03      1.79399649E+03
     -2.39461655E+03      7.44338113E+02      1.85806868E+03
     -1.50179940E+03     -2.50527408E+03      4.73176982E+02
      4.76050604E+02     -4.34902286E+02     -1.74792864E+02
     -3.31382316E+02      7.78137221E+02      2.68417907E+03
      4.48444196E+03      9.09725361E+02      5.34742098E+02
      1.48594972E+02      8.19613303E+02     -4.48749865E+02
      2.30234336E+02      1.23198396E+03     -8.65318062E+02
     -3.32789029E+03     -1.08333437E+03      2.11173636E+03
      3.62756098E+02      5.38073166E+02      2.68203259E+02
     -2.43859368E+03      1.28560061E+03      3.09498874E+03
     -1.49486703E+03     -1.74424270E+03     -1.53695077E+03
     -4.38698330E+01      3.61688218E+02      1.58117220E+02
      8.39272017E+02     -1.69229984E+03     -1.55545059E+03
      2.17476995E+03      1.57700531E+03     -9.47263232E+01
      4.14166374E+01      5.02080219E+02     -9.87043127E+00
      2.70564146E+03      1.69983291E+03      1.35740974E+03
     -8.09922015E+02      2.81027248E+02      2.70770640E+02
     -8.34577293E+02      3.82478259E+02      1.22275578E+02
     -7.74618628E+02     -1.70714052E+03     -1.44474755E+03
      1.57264835E+02     -1.87198420E+02      8.66806024E+02
      5.00065515E+01     -2.23651694E+02     -6.45297658E+02
      5.72727112E+02     -1.81591648E+03     -1.66540990E+03
      2.19358371E+03     -1.62758409E+02     -1.90725327E+03
      1.17322985E+02      6.11104268E+02      9.27427803E+02
     -6.10384387E+02     -6.03866846E+02     -1.80959246E+03
     -5.88550765E+02      4.11622112E+02      1.82120565E+03
     -3.63219659E+02     -6.35114227E+02      7.49039833E+01
      1.87685687E+03      4.62587689E+03     -1.88877192E+03
     -1.02546593E+03     -2.30036887E+03      1.37684574E+03
     -3.05842722E+02     -2.51907609E+02      9.15655774E+02
     -3.97319570E+02      1.82018324E+02     -8.17451834E+01
     -1.41369653E+02      2.55985231E+03      1.84069078E+03
      3.27016046E+00     -1.55731567E+03      2.16367031E+03
      3.02324837E+03      1.03985630E+03      1.72854310E+03
  }
}

Hamiltonian = DFTB {
  SCC = Yes
  SCCTolerance = 1e-6
  MaxSCCIterations = 200
  ForceEvaluation = Dynamics
  MaxAngularMomentum = {
    C = "p"
    H = "s"
  }
  Charge = 0.0
  SpinPolarisation = {}
  Eigensolver = Standard {}
  Filling = Fermi {
    Temperature [Kelvin] = 300.0
  }
  SlaterKosterFiles = Type2FileNames {
    Prefix = "../../pbc-0-3/"
    Separator = "-"
    Suffix = ".skf"
    LowerCaseTypeName = No
  }
  KPointsAndWeights = {
    0.0000000000000 0.0000000000000 0.0000000000000 1.00000000000000
  }
  Dispersion = LennardJones { 
    Parameters = UFFParameters {}
  }
}

ParserOptions = {
  ParserVersion = 3
}
