Geometry = GenFormat {
<<< "system.gen"
}

Driver = VelocityVerlet{
  Steps = 50000
  TimeStep [fs] = 0.2
  MDRestartFrequency = 25
  Thermostat = None {
    #InitialTemperature [Kelvin] = 300.0
  }
  Xlbomd{ 
    IntegrationSteps = 6 
    MinSccIterations = 2
    MaxSccIterations = 200
    SccTolerance = 1e-6 
  }
  Velocities [m/s] {
      5.39968123E+02     -5.84529544E+02      4.80451518E+02
     -5.16538641E+01      9.58907842E+01      6.01773522E+02
      1.41594369E+03     -1.28470936E+03      2.72793786E+02
      6.55320851E+00      4.03330662E+02      1.61154322E+02
     -1.00483576E+03     -7.19333296E+02     -2.76598140E+02
     -3.80692813E+02     -4.16564452E+02     -3.13261564E+03
     -5.52511737E+02      1.45068680E+02      4.98613815E+02
     -1.17166827E+03      1.64880279E+02      3.33066605E+03
      4.66698381E+02     -1.22708620E+03      8.71034439E+02
      3.45978171E+02     -4.83554977E+02      8.23491096E+02
     -1.41581619E+03      1.86995286E+02     -1.71892724E+03
     -3.75322305E+02      1.99049449E+03     -1.04928789E+03
      1.83766542E+02     -3.77356308E+02      1.08000244E+01
      1.21900696E+03      1.83151772E+03     -8.99161070E+02
     -6.02662708E+02     -9.62856687E+02      1.42489418E+03
      1.73202258E+02      2.76234329E+02     -1.07755867E+02
     -3.61061358E+02      1.08588022E+03     -2.20556586E+03
     -7.53505748E+02     -2.58777614E+02     -3.93808047E+01
      1.51336695E+02     -1.12120209E+03     -5.51828145E+02
      1.14373551E+03      1.61161306E+03      3.29295958E+03
     -1.29573566E+03      2.36233787E+02     -2.79402254E+03
      1.09457419E+03      6.72965294E+01     -1.75751042E+02
      1.38763722E+03      1.61768427E+02      2.12922550E+03
      3.17844728E+02      2.16810300E+03     -1.08264453E+03
     -1.01386222E+02      2.90219302E+02     -5.85453565E+02
      2.95422536E+02     -1.29393187E+03      2.05557097E+03
     -1.59188091E+03     -5.00067239E+02     -5.91809675E+02
     -8.85931189E+02     -8.33910455E+02      7.07473295E+02
      2.05232087E+02     -1.46524034E+02      1.49028359E+02
      2.67552402E+03      7.79134728E+02      1.35653574E+03
      1.40599551E+03      9.20680890E+02     -1.58504694E+03
     -1.27177211E+03     -2.10964543E+03     -3.17735886E+02
      2.85488822E+02     -5.15771889E+01      2.25745702E+02
     -1.28262642E+03      7.48886586E+02     -8.03166323E+02
     -2.99058863E+02      8.48056418E+02     -2.05612176E+03
      2.82969158E+02      2.40472045E+02     -8.99886159E+02
      1.25872486E+03      5.90361263E+02     -1.51381162E+03
      1.52047225E+03     -1.11729425E+03      4.17528312E+02
     -1.43857935E+02     -2.02845595E+02     -8.46605923E+02
     -2.94031964E+03      2.67037944E+03      7.71737491E+01
     -2.76877426E+02      2.02719358E+03      9.12204919E+02
     -2.96394346E+02     -1.81639167E+02     -1.57218638E+02
     -2.43164745E+03      2.63822545E+03      2.20973063E+03
     -1.02398244E+03      2.73901432E+01     -1.70688822E+03
      2.33800115E+01      1.83124722E+02     -3.39089760E+02
      6.71714156E+02     -2.57477635E+03     -2.04561271E+03
      8.08142953E+01      1.29731517E+03      7.26912968E+02
      2.10845882E+02     -3.02496863E+02     -5.02198392E+02
     -1.89211606E+03     -3.72950606E+02     -7.15758124E+02
      3.40552568E+02      2.75385037E+03     -4.20242914E+02
     -6.15462187E+02     -8.88405643E+01      5.12620092E+02
      3.82597275E+02     -1.12404332E+03     -7.01090576E+02
     -5.88234420E+02      2.21652873E+03     -2.00280238E+03
      6.14192509E+02     -9.39962385E+01      2.97653461E+02
     -1.65103206E+03      1.94690469E+03      9.60450245E+02
     -4.75772069E+02      1.45960737E+03      5.39036671E+02
     -5.98569544E+02      4.50798118E+02      4.10980946E+02
      4.19333754E+02     -5.46621516E+02      6.39203882E+02
      1.88779634E+03     -1.72809288E+03      2.13069564E+03
     -2.46691693E+03     -1.35618819E+03     -7.77652989E+01
     -1.08885139E+03     -2.55471489E+02     -2.97281203E+02
      8.44729320E+02      1.42227868E+03      9.19637452E+02
      5.23502474E+02      2.75492286E+03      3.18682040E+02
     -2.12587676E+03      2.59830687E+03      4.01987549E+03
     -2.08062044E+01      1.35600747E+02      6.99176826E+02
     -3.87234934E+02     -1.38855759E+03     -1.80336725E+03
     -2.44284732E+03      4.99393721E+02      2.26886355E+02
     -5.51503628E+01      4.58137722E+02      1.48471833E+02
      1.98361789E+03     -2.61324277E+03     -2.02563342E+02
     -1.66964952E+03      3.12078400E+02      1.32613521E+03
      1.43484536E+02     -4.26397528E+02      1.46410243E+02
     -1.63953290E+03     -2.63199022E+02      9.72036412E+02
      7.73771675E+02     -3.45948859E+02     -1.36320617E+03
     -4.17462159E+02     -7.43250440E+02     -2.27042196E+02
     -1.38549045E+03      2.23254940E+03      8.52773737E+00
     -2.43964681E+03     -2.60912341E+03      1.80847158E+03
     -7.69348880E+01      1.37941271E+02      4.87056644E+02
     -2.38761276E+03      4.90031252E+02     -1.92192273E+03
      1.08012262E+03      9.60469918E+02     -6.36206755E+02
     -2.72244781E+02      9.09098832E+01      1.66661604E+02
     -1.15659920E+03      2.30070523E+03      2.54453905E+03
     -3.14812835E+03      1.42667880E+02      5.87933796E+02
      1.28061864E+02     -2.42144820E+02      2.91816571E+01
      1.30651052E+03      1.71225917E+03      3.35018026E+03
     -2.88098433E+03     -9.91675400E+02     -4.71503103E+02
      9.66104777E+01      2.92068053E+02     -3.10636252E+01
     -5.02988454E+02     -1.16139568E+03     -1.27107321E+03
     -1.26495128E+03      3.16306089E+02     -5.37222957E+02
     -3.23431748E+02     -1.33115301E+02     -1.60578063E+02
      1.01109257E+02      2.82591592E+03     -7.50889638E+02
      1.34429101E+03     -6.27875521E+02      3.92590394E+02
      3.73383580E+02      1.68195680E+01     -1.98914909E+03
      1.75978295E+02     -1.72391232E+02     -1.45885163E+02
     -9.75650292E+02      4.17199874E+03     -9.39654926E+02
     -1.95337389E+03     -2.89060601E+03     -1.42473038E+02
      5.66233641E+02      1.69267229E+03     -9.30602543E+02
     -3.55767692E+01     -1.61565445E+02     -7.36345531E+01
     -3.14688986E+02     -1.49099940E+02      3.09452279E+03
      5.35624258E+02      1.44947258E+03      1.44253377E+03
     -1.75553673E+02     -4.98525316E+02     -8.69599777E+02
     -4.84243754E+02      5.33369448E+02     -7.97238043E+02
      1.64315637E+03      1.13835621E+01      1.07083589E+03
     -6.18307569E+02     -6.78971774E+02     -2.99061462E+01
     -2.10992300E+03     -1.38499707E+03      7.60003524E+02
     -2.82460414E+03      2.66077839E+03      1.03315435E+03
      7.45475719E+01     -5.23089125E+02     -7.28287166E+01
     -2.36452529E+02     -3.45987146E+01     -9.70323842E+02
     -1.03738509E+03     -2.04058791E+03     -2.85601232E+02
      7.29004189E+02     -1.97270710E+02      6.61979857E+01
     -1.01467599E+03     -4.88807684E+02     -9.51243284E+02
     -1.66831859E+03      4.06737554E+01     -1.29371415E+03
      3.93388992E+02     -3.32189252E+02      1.93245141E+02
     -2.75348748E+03      5.85997028E+01      5.71368467E+02
      5.79516580E+02      1.87797782E+03      2.29550324E+02
     -4.05408122E+02      5.60530490E+01      6.06210543E+01
      7.79274794E+02     -1.82446668E+03      6.02920576E+02
     -9.45172589E+02     -2.55199009E+02     -1.22548276E+03
     -6.14954948E+02      4.12996562E+01      2.12971332E+02
     -3.27242247E+02      2.12492135E+02     -2.49652125E+02
      1.39662779E+03     -1.77874551E+03      3.30121663E+02
     -1.51201217E+02     -9.09018275E+01     -4.62802014E+02
      5.58260486E+02      4.64653432E+02     -2.24072473E+03
     -9.57303770E+02     -7.73413865E+02     -5.44581164E+02
      2.29406262E+03     -4.16086172E+03     -1.19251552E+03
      5.26226220E+01      4.57824272E+02     -2.42470934E+02
      1.92865969E+03      1.00833815E+03     -1.85966168E+03
     -4.79673060E+02     -8.51022532E+02     -2.18530906E+03
     -1.85273859E+02     -9.20295045E+02     -1.91252066E+03
      1.54462422E+03     -7.66057142E+02     -9.30766740E+02
      5.25450910E+02      2.65989590E+03     -2.12843492E+03
      6.77689677E+02     -1.32601385E+03     -1.02102596E+03
     -6.95337368E+02     -1.72003784E+01      5.67449338E+02
     -5.24979527E+02     -1.52135533E+03      1.35136017E+03
      1.09047901E+03      4.27195662E+02      1.50786869E+03
     -1.39655261E+02     -5.00484463E+02      6.06512292E+02
     -8.26029193E+02      8.51586136E+02     -2.29923671E+02
      2.12117577E+03     -3.14788492E+02     -2.63170028E+03
     -4.78133192E+02     -1.49702079E+02      5.04687750E+02
     -2.23738124E+03      1.88493606E+03     -2.44741207E+03
      4.88531838E+02     -2.06499933E+03      3.51476887E+02
      2.08072210E+02     -7.35222514E+02      3.32850418E+02
      2.00885156E+03      1.47087952E+02     -1.16133705E+03
      2.01854853E+03     -7.37232823E+02     -1.96634840E+03
      5.84432193E+02      8.20660336E+02     -8.80409172E+02
      1.62515432E+03     -3.30725391E+03      2.38153085E+03
     -2.54284953E+02     -6.62653107E+02      1.47143536E+03
     -4.47870325E+02     -9.97389953E+02      1.32714846E+02
     -5.42489541E+02      1.18279439E+03     -2.75722024E+03
      8.25354480E+02      1.08102399E+03      8.95142007E+02
     -7.05851518E+02     -2.95579397E+02     -7.61050709E+02
      8.89222073E+02     -5.37537286E+01      6.00645802E+01
     -6.20189300E+02     -1.89819099E+03      1.89685731E+03
     -3.15755380E+02     -5.81132863E+02     -5.55874367E+02
      2.26830850E+02      1.78762943E+03     -1.47212619E+03
     -3.50017382E+03     -1.00624471E+03     -7.02214197E+02
      1.34637102E+03     -1.57190966E+03     -2.27841518E+03
     -1.14144555E+02      1.08166463E+01     -6.38618583E+02
     -5.21306163E+03      1.00866101E+03      1.04880987E+03
     -1.57276115E+03      7.75590694E+02      1.96336276E+03
      2.19240710E+03      4.48404053E+02      1.03889746E+03
     -5.68843686E+02      5.02522486E+01     -7.19517655E+02
     -3.31505832E+02     -1.29303157E+03     -9.19142042E+02
      9.02855846E+02     -1.93281156E+03      1.93731442E+03
     -5.52128911E+02      3.36619092E+02      4.12008826E+01
     -4.17943643E+03     -4.62834171E+02      1.17288136E+03
     -1.65016898E+03     -1.34352537E+03     -1.54183672E+03
     -6.14137513E+02     -4.26464673E+02      3.96232279E+02
      2.53595038E+02     -1.71199015E+03     -1.20282711E+03
     -1.19980014E+03      1.01935335E+03     -1.42901241E+03
      1.74503669E+02     -9.36808883E+02      2.38966673E+02
      1.12247605E+03     -1.02285628E+03      1.12827927E+03
     -9.04140539E+02      1.17332793E+03     -2.84206457E+03
     -3.30348829E+02     -5.29623203E+02      5.83233200E+02
     -2.89722612E+03     -4.00139961E+02     -6.22135189E+02
      1.09131884E+02     -4.57407585E+02     -1.21151423E+03
     -4.93865056E+02      1.13211764E+03     -7.35922054E+02
      6.62684418E+02      2.56113304E+03     -2.73286253E+03
      2.69348960E+02      1.63921834E+03      2.96787569E+03
      4.47991841E+02      5.83155275E+02      3.41073750E+02
      2.26899590E+02     -3.04368741E+03      4.67270196E+01
      2.85840673E+03      1.60210631E+03     -1.13442319E+03
     -5.90007947E+02      2.09646661E+02     -5.29448884E+02
     -2.30704543E+03     -8.18973979E+02     -1.74745419E+03
     -4.48987197E+02      1.98203342E+03      2.71690781E+03
     -1.17947970E+01     -6.32985836E+02     -4.38058639E+02
      7.73961320E+02      4.33671406E+02      8.22122907E+02
      2.39061959E+03      2.85341475E+03      2.37632554E+02
      1.93343562E+03     -1.51923208E+03      2.32123415E+03
     -2.32603524E+02      5.33446999E+02      5.02223491E+00
      4.02159946E+02      1.92975305E+03      1.01431485E+03
     -1.06924319E+03      3.78288680E+03     -4.53300436E+02
     -1.01027506E+03     -2.18174971E+03      1.68914610E+03
      4.17569899E+02      5.10657309E+01      1.12490794E+03
      2.56997699E+02     -1.22741177E+02     -1.15832733E+03
     -1.50433876E+03     -1.52418611E+03     -1.63850701E+03
     -3.98925585E+01      2.65719795E+02     -7.34227390E+02
     -1.92560116E+03     -1.61370081E+03     -1.23409901E+03
     -1.09884825E+03     -1.17975744E+03      4.90881191E+02
     -8.35077944E+02      1.64720858E+02     -6.48338709E+02
     -5.24766766E+03      1.45939379E+02      1.17405704E+02
     -1.12871676E+03      1.02071410E+03     -2.28457715E+03
     -3.89831822E+02     -2.41437361E+02      5.18687954E+02
      1.83937787E+02     -4.07198347E+02     -1.50867336E+03
      6.55113948E+02     -5.52302509E+02     -3.56605589E+03
     -5.86669086E+02      3.27736025E+01      8.58306691E+01
      4.41004136E+03     -1.16499929E+03      1.97021722E+03
      1.70094720E+03      8.04175354E+02     -1.31459921E+03
     -7.86321916E+01      3.58964129E+00     -2.03286929E+02
      7.09056895E+02      2.78400620E+03      4.24726478E+01
      2.31257630E+03     -1.22143397E+03     -2.13133259E+03
      4.18513423E+02     -1.10690779E+03      3.73485293E+02
     -1.01972495E+03     -2.21442750E+03     -4.88039207E+02
     -1.47564035E+03      1.38111845E+03      8.61735834E+02
     -2.61603955E+02     -1.06858950E+03     -1.19955154E+02
      8.85873700E+02     -3.58359601E+02     -1.71148057E+03
     -1.90110618E+03     -7.36970652E+02     -2.46982965E+03
      3.26946740E+02     -6.16347114E+02     -1.44548308E+03
     -1.24142447E+03     -1.65530614E+03      5.28481800E+02
      1.47170821E+03     -1.73413697E+01      1.93917562E+03
     -4.04140319E+03     -7.58195966E+02     -1.59893064E+03
     -4.30534683E+02     -6.26135645E+01      1.40894328E+02
      1.37051277E+03     -1.73776193E+02     -2.03993018E+03
     -1.60233220E+03      3.71267992E+02     -2.39911818E+03
     -3.00227031E+02     -3.74165080E+03      2.25082640E+03
      1.03865707E+02     -6.44703143E+02      1.59987423E+02
      6.17191210E+01     -2.60428170E+03      1.13491521E+03
     -2.43668056E+03      1.81700181E+03      1.92480080E+03
      1.77409192E+02      4.13262548E+02     -7.61480346E+01
      3.50437135E+02      8.72423350E+02     -6.88051833E+02
     -9.95017995E+02      6.58637924E+01      1.10941413E+03
     -2.70107075E+02     -8.37343327E+02      2.52317976E+02
      1.86531291E+03     -2.04068542E+03      1.48929647E+03
     -1.13234580E+03      1.15082851E+03     -1.27184680E+03
      5.66937563E+02     -3.96153728E+02      7.85746448E+02
      3.70583401E+02     -1.38034574E+03     -1.22659114E+03
      1.83304778E+03     -6.04289560E+02      8.50228207E+02
     -4.51146272E+02      7.15351496E+02      6.44841741E+02
     -3.00738137E+03      2.10938021E+03      2.77223284E+03
      1.46435024E+02     -1.78467336E+03     -7.82396605E+02
      3.09046869E+02     -9.88498347E+01     -3.57055575E+02
      3.18241185E+03     -2.02454397E+03     -8.15308748E+02
     -1.59926152E+03      5.24610773E+01      1.42526136E+03
     -4.76820941E+02     -4.79388352E+01     -2.69354531E+00
     -2.35632542E+03     -9.37370057E+01      2.01529953E+03
      1.77040113E+03     -1.75925704E+03      4.20365436E+01
     -1.19089272E+01     -1.65093969E+02      3.71365258E+02
     -1.62233923E+02      2.26759484E+02     -3.07993468E+01
      3.11910667E+03      1.72870968E+03     -8.63515012E+02
     -4.35636648E+02     -1.79112029E+02     -5.90260231E+02
     -2.73057331E+02      2.07231532E+03     -1.67939821E+03
     -5.44933160E+02     -8.65473758E+01      9.81054900E+02
      2.67306087E+02      1.54246442E+03     -2.80332116E+03
      2.59692655E+02      4.89893778E+02     -4.43573281E+02
     -4.66105508E+02      7.62418370E+02     -2.73262646E+03
      9.44887550E+02      1.47281566E+03     -7.63397607E+02
     -2.70196674E+02      5.07292660E+01      4.10110736E+03
     -1.02170596E+02      1.68342975E+02     -8.76607392E+02
     -2.96853103E+03      2.39535096E+03     -1.30641087E+03
      2.78828860E+03     -1.76100630E+03      2.96435069E+02
      7.34195145E+02      3.29231529E+02      4.03884945E+02
      3.71680401E+02      2.21747602E+03     -1.08051322E+03
      4.86027222E+02     -2.80430513E+03      8.66160891E+02
     -2.52786240E+02      3.77267756E+02     -3.48427118E+02
     -2.38957336E+02     -2.06731206E+03     -2.31001293E+03
      1.03575599E+03      1.00375365E+03     -7.94885106E+01
     -7.55679673E+02      4.99546226E+02     -3.48240537E+02
      9.43253316E+02     -2.26787603E+03     -1.59702246E+03
     -1.72929688E+03      3.33560402E+02     -2.83382836E+03
      3.87390696E+02     -1.07177113E+03     -7.59824763E+02
     -3.52256937E+03     -2.37829266E+03     -6.10611784E+02
     -3.60962400E+02     -4.69608402E+02     -1.65482793E+03
     -2.88760600E+01      8.30648907E+02     -3.72653101E+00
      1.54192796E+03     -4.55296947E+02     -1.86558517E+02
     -9.64192598E+02     -6.85494646E+02      1.73312890E+03
     -7.33411281E+02      2.91091381E+01      6.89039103E+01
      1.21325662E+02     -1.37751893E+03      2.77507346E+03
     -2.59973580E+02     -8.51170046E+02     -3.11647384E+02
      3.47187855E+02      1.69895726E+02      3.81924700E+01
     -6.63188885E+02      3.62174873E+02     -1.72623121E+02
     -1.08820210E+03     -9.62636500E+02      5.07973495E+02
     -4.48529272E+02      8.73779168E+02     -7.78863728E+02
      1.61335918E+03     -2.31043032E+01      3.25494082E+00
     -6.41147378E+02      1.19082604E+03     -8.81336715E+02
      7.59304424E+01     -2.95381161E+03      2.22125771E+03
      7.60463566E+01      1.19080368E+02      5.82197796E+02
      8.48523649E+02     -4.60592650E+02     -7.16423335E+02
     -2.62874158E+03      1.23055543E+03      5.23192930E+02
      2.19291970E+02     -3.75093052E+01      3.74048386E+02
      4.04924797E+01      7.56919714E+02     -2.56503213E+02
      2.68795737E+02      9.76152143E+02     -1.84683845E+03
      1.19155732E+03     -1.50171629E+03     -9.82782458E+01
      1.84089096E+02      7.60416946E+02     -3.52366579E+02
     -1.31761386E+03      3.09236671E+02     -9.06320143E+01
     -1.68707325E+03      1.90287494E+03      2.32646641E+03
      8.44988552E+02      1.08565933E+02     -7.05341875E+02
     -1.11688529E+02     -1.45621700E+02      3.50853508E+02
      1.29814467E+03     -1.77556823E+02      1.47316567E+03
     -8.04741090E+02      5.97675061E+02     -1.43897868E+02
     -1.14700293E+03      1.53713115E+03     -1.75077258E+03
      6.64640478E+02     -1.75460055E+00     -1.68994858E+03
     -5.00186808E+02     -4.41541323E+02      5.23884373E+02
     -1.17638247E+03     -2.58753215E+03      2.83994230E+03
      1.03408782E+03     -1.03663566E+03     -9.26842030E+01
     -3.31992120E+01     -3.41090090E+02      1.72878556E+02
     -5.32288641E+02      7.00254834E+02     -1.79531986E+03
      1.82833178E+03     -2.29230792E+02      8.50340247E+02
     -3.00914870E+02      3.22042416E+02     -1.41548197E+02
      2.05215903E+03      4.58885071E+03     -4.49462834E+02
      2.37511951E+03      5.00376219E+02     -2.74537930E+03
      1.53661825E+04      7.49006907E+03      1.34914959E+04
      1.55755451E+03     -2.40301223E+03     -2.13960649E+02
     -1.21316000E+03      3.29461350E+03     -1.05291893E+03
     -3.44683744E+02     -8.71425400E+02      5.43102185E+02
      5.19886153E+01     -1.25862895E+03     -1.02094373E+03
     -1.81870210E+02     -1.29784340E+03      1.90511348E+02
     -1.65539467E+03      1.89289978E+03      8.61598835E+02
     -2.59019838E+02      3.05452882E+02     -1.02162021E+03
      2.92809601E+02      2.04943507E+02      9.78691542E+02
     -8.94506311E+02     -4.17921025E+03      5.70395769E+02
     -7.47375683E+02      3.34807935E+02     -1.05641850E+03
      1.63766886E+02     -7.20442554E+02      3.47681177E+02
      7.54385294E+02     -3.14205235E+03     -2.10635114E+03
     -1.78076582E+03     -1.11135766E+03     -8.01254414E+02
     -6.02972658E+01     -2.97329844E+02     -2.70241980E+02
     -1.79164120E+03      3.71039724E+02     -7.34233761E+02
     -1.61257127E+03      5.68119664E+02      2.19243730E+02
     -2.62851270E+01     -3.40014039E+02     -6.95961660E+02
      1.16835516E+02     -8.96727256E+02     -8.35585479E+01
     -2.05647864E+03     -1.12205937E+03     -1.67801167E+03
      7.48179608E+00      4.87006172E+02     -1.62043348E+02
     -1.37055149E+03     -8.20916765E+02     -2.45002928E+02
     -1.71425245E+03     -1.73397230E+03     -2.64832264E+03
     -3.58690324E+02      1.01284292E+02     -7.01096770E+02
      3.19940166E+03      6.93439926E+02      2.22209104E+03
      1.94424818E+00     -2.70379108E+03     -1.66445285E+02
     -3.95114364E+01     -5.43007083E+02     -5.79208078E+01
      1.54507061E+03      6.24518652E+02      1.34549982E+03
      3.19183726E+03     -1.37511883E+03      7.67349884E+02
     -6.58463379E+02      4.72400326E+02     -6.94574596E+01
     -8.51514960E+02      5.34936051E+02      3.37060731E+02
      2.27944282E+03     -1.96155342E+03      1.59558351E+03
     -4.61880273E+02     -7.87842468E+01     -4.65584271E+02
     -9.41456642E+02     -3.35856879E+03      8.11238896E+02
      1.12105427E+03      4.08987745E+03      1.67623062E+03
     -8.67665113E+02      5.22457780E+02     -5.32988547E+02
     -2.40059642E+03     -1.59763574E+02      1.20750633E+03
     -4.21719420E+03      1.19138683E+03      3.15483708E+03
     -3.44573089E+01      1.60536899E+03      1.36536449E+03
     -1.05727109E+03      5.74031912E+02     -1.67725521E+03
      6.83913903E+02      2.58192146E+03     -7.93184576E+02
      3.01507331E+02     -9.06987247E+02      8.68652554E+02
      2.76531453E+02      7.78452121E+02     -7.45506254E+02
  }
}

Hamiltonian = DFTB {
  SCC = Yes
  SCCTolerance = 1e-6
  MaxSCCIterations = 200
  ForceEvaluation = Dynamics
  MaxAngularMomentum = {
    C = "p"
    H = "s"
  }
  Charge = 0.0
  SpinPolarisation = {}
  Eigensolver = Standard {}
  Filling = Fermi {
    Temperature [Kelvin] = 300.0
  }
  SlaterKosterFiles = Type2FileNames {
    Prefix = "../../pbc-0-3/"
    Separator = "-"
    Suffix = ".skf"
    LowerCaseTypeName = No
  }
  KPointsAndWeights = {
    0.0000000000000 0.0000000000000 0.0000000000000 1.00000000000000
  }
  Dispersion = LennardJones { 
    Parameters = UFFParameters {}
  }
}

ParserOptions = {
  ParserVersion = 3
}
