Geometry = GenFormat {
<<< "system.gen"
}

Driver = VelocityVerlet{
  Steps = 100000
  TimeStep [fs] = 0.2
  MDRestartFrequency = 5
  Thermostat = None {
    #InitialTemperature [Kelvin] = 300.0
  }
  Xlbomd{ 
    IntegrationSteps = 6 
    MinSccIterations = 2
    MaxSccIterations = 200
    SccTolerance = 1e-6 
  }
  Velocities [m/s] {
      5.73174957E+01     -1.79234746E+02      5.10187874E+02
     -4.81777605E+02      1.98009320E+03     -6.70449733E+02
      6.16435015E+00      1.89562161E+03      8.74703248E+02
      2.92409578E+02      3.58683872E+01      1.36143944E+01
      2.36197577E+03     -1.27097210E+03     -1.75122628E+03
     -1.47185825E+02     -2.83082464E+02      3.26663727E+02
     -5.16500415E+02     -1.14224123E+02      3.13652701E+02
      1.46448088E+03     -9.74571463E+01     -6.31269149E+01
     -3.04827926E+03      1.75383233E+03      2.10398606E+03
     -8.16740875E+02      3.75886201E+02     -9.24156860E+01
     -2.38136174E+03     -1.81228598E+03      3.44522626E+02
     -3.18962714E+03      1.32688250E+03     -1.11171330E+03
     -3.36895764E+02     -4.11852283E+02      2.73095888E+02
     -1.39629505E+03      6.22710611E+02      7.77946879E+02
     -4.00004399E+02      3.06971768E+03     -3.19969651E+03
      1.59259706E+02      1.24688787E+02     -8.91596603E+01
     -9.69161790E+02     -1.21144705E+03     -1.58302442E+03
      8.44104765E+02      1.65048406E+03      3.67938786E+03
     -9.70118621E+01      4.11980234E+00      4.20074003E+02
      9.45006247E+01      2.37857879E+02     -2.07891961E+02
      1.12157155E+03     -3.60804888E+01      1.04386627E+03
      1.48988802E+01      3.93243582E+02     -2.28806060E+02
      2.71073041E+03      1.12123588E+03      1.36513948E+03
      1.60329671E+03      3.47382714E+02     -1.28689606E+03
      2.85501999E+02      3.77208772E+01      9.52760024E+01
     -4.47625803E+02     -8.16634545E+02      1.42045895E+03
     -6.14724475E+02      2.79593078E+03      7.55305169E+02
      1.32150097E+03      4.03329585E+02     -2.25948665E+03
      1.20592141E+03      4.30666038E+02      2.90642772E+02
     -5.00793007E+02     -1.05855428E+03     -1.16374244E+02
     -1.34152788E+02      1.00591704E+03     -1.09776957E+02
     -2.12352702E+03     -2.48495766E+03     -1.30459859E+03
      1.65161521E+02     -9.98071320E+01      1.89263393E+02
     -8.33384294E+02     -1.36205444E+03     -3.96093145E+02
     -1.81396985E+03      3.09737766E+01     -3.53539767E+02
     -3.27424679E+02      1.22663936E+03      3.78195063E+01
     -3.06517688E+02     -1.20657402E+03     -1.27042530E+03
      2.36661059E+03     -1.74052319E+03     -1.75848630E+02
      6.38918157E+00     -3.09677053E+02      1.21371468E+03
     -8.43478265E+02      1.95989511E+03      4.33630849E+01
      1.24439668E+02      1.60686688E+03      2.66480977E+03
     -7.50802702E+02      1.97035029E+02      5.19713230E+02
     -4.21675641E+01     -9.57963996E+02      1.98939018E+03
      9.60179160E+01     -8.13930890E+02     -5.85603821E+02
     -6.29452023E+01     -4.27820685E+02     -3.71934868E+01
     -4.47211782E+03     -1.36409931E+03      2.28363333E+03
     -1.27881032E+03      3.80295760E+03     -5.58100266E+02
     -2.89483810E+02      2.73695657E+01     -5.84500375E+02
      3.84691305E+02     -8.09459127E+02     -1.51605684E+03
     -1.47421833E+03      2.17418583E+03     -1.01809047E+03
     -1.16178347E+02      1.36987511E+02      7.81960709E+01
      1.16785261E+03     -3.07270257E+03      5.93700737E+01
      1.08757522E+03     -3.70818285E+03     -9.47538835E+00
     -1.16323732E+02      4.18456269E+02     -1.63042835E+02
     -1.73543187E+03      8.20416373E+02     -1.72028909E+03
     -1.45354360E+03     -1.63958639E+03      1.03579460E+03
     -5.17911076E+02      1.67862170E+02      2.38977790E+01
     -1.57769016E+02     -2.20239902E+03      4.51785264E+02
     -2.01160687E+03     -9.38868268E+01     -1.41093780E+03
      5.06561128E+01      2.86598946E+02      7.38651851E+02
     -4.48937525E+02      5.68637765E+02     -3.19021150E+02
      1.65784316E+03     -6.88132679E+02     -2.35812617E+02
     -3.18451706E+03      1.11556110E+03     -5.56431022E+02
     -5.84878832E+02      2.49406394E+02     -5.32984409E+02
      1.82763595E+02     -1.16611618E+01      2.08790271E+02
      1.15301036E+03      1.79027713E+03      3.13927390E+03
     -2.73614668E+02      5.70798389E+02      2.90950135E+02
     -1.88863359E+02      2.29697117E+02     -9.12547170E+01
      5.46724099E+02      4.29291242E+03     -1.66141729E+03
      1.15529124E+03     -6.29350937E+02     -1.92141039E+03
     -1.56315721E+02      1.23457929E+02      1.10494657E+03
      2.67864535E+03      2.23795818E+03     -1.97044172E+03
      1.41993374E+03      3.51193479E+03      1.10704959E+03
      7.30499605E+02      2.14307982E+02      2.47965348E+02
      8.51457993E+02      4.89642385E+02      7.58969308E+01
      2.20322890E+03      1.33039003E+03      2.46324519E+03
      6.06108612E+02      5.12504760E+02     -4.03177586E+02
     -1.94307051E+03      3.39932003E+02     -2.00986405E+03
     -1.03464531E+03      5.05088994E+02     -8.37633605E+02
      1.28221181E+03     -2.96219523E+02      3.08275462E+02
     -2.26494939E+03      6.94431618E+02     -7.54549455E+02
     -2.77331425E+03      6.45293279E+02     -2.51591109E+02
      5.35092845E+02      3.64770480E+02     -3.75951639E+02
      2.74457356E+02     -1.55572345E+02     -1.60484583E+03
     -1.45154450E+03      4.13914506E+03      2.91631774E+03
      1.60337669E+03      4.66923215E+02     -1.82444789E+02
      5.81954203E+02     -1.79966837E+03     -1.20922212E+03
     -2.23251388E+03      1.01889935E+03     -3.52455860E+03
     -1.10650438E+03     -9.97517198E+01     -2.66511822E+01
     -3.14651098E+03      1.87525219E+03      5.73819491E+02
     -2.34923503E+03     -2.09771624E+03      4.24352771E+02
      2.22769354E+03      1.59887110E+03     -4.14461374E+02
      3.60305302E+02     -5.50351142E+02      3.68007383E+02
      1.98300300E+03      8.52037375E+02     -1.06375105E+03
      1.54700482E+03     -1.06226060E+03     -2.00188195E+03
     -8.00687084E+02      5.05122943E+02     -2.06709745E+03
     -8.34814172E+02      1.00624238E+03      2.18792579E+01
      7.84575716E+02      1.34826210E+02      2.90211987E+03
     -1.53221144E+01      1.22223576E+02      4.55600905E+02
      5.70486436E+02      8.92532241E+02     -2.34586826E+02
     -2.77957673E+02      8.45041314E+01     -9.40497428E+02
      2.96160673E+03      1.22412190E+03     -4.69085469E+02
      3.67054516E+02      2.00049393E+02     -2.91946670E+02
      1.03706025E+03     -1.79221281E+03      3.73671138E+02
     -8.43401146E+02      7.91409036E+02     -1.11902954E+02
      5.79539112E+01     -2.83872841E+02     -9.13656040E+02
      4.69096319E+02      4.49993264E+01      2.01492353E+03
      3.73371852E+03      1.19714316E+03     -1.81466238E+03
      1.13052822E+03      7.52951106E+02     -6.90255108E+02
     -2.11028671E+02     -6.98011513E+02     -1.25568403E+03
     -1.34549377E+02      2.74813858E+02     -6.18537057E+02
      5.18793199E+01      1.05231875E+02     -3.08138269E-01
      1.62447835E+03      1.27166697E+02      8.46946124E+02
      1.47760517E+03     -2.27630680E+03      1.85227678E+03
     -1.15493251E+04     -2.55635353E+04     -1.97661765E+03
      1.15588725E+03     -1.20098428E+03     -3.19113633E+02
     -1.24260680E+03      1.40653444E+03     -1.13174496E+03
     -4.90558551E+02      7.44170894E+00     -8.71657990E+02
     -1.69272118E+03     -2.18823366E+01      4.23110895E+02
     -1.08684408E+03      1.96614661E+03     -1.21617472E+03
      1.28641729E+03     -2.67641085E+01     -5.57807003E+02
      3.01336260E+02     -2.26558961E+03     -2.21257878E+03
     -1.34810502E+03      9.38499873E+02      1.27930732E+03
      1.54065950E+03      3.92364511E+02     -1.52386199E+02
     -1.86813180E+02      6.52210712E+02      1.05703975E+02
      1.02187310E+03     -5.12026841E+02     -4.55272328E+03
      2.33402561E+03      1.14754994E+03     -1.81430866E+03
     -1.70044754E+03      3.43023373E+03     -4.66038798E+03
      4.54186408E+02      2.20172852E+02      2.71934875E+02
     -5.43620190E+02     -1.50426658E+03     -2.94389465E+03
     -1.17863159E+02     -8.09464497E+02      2.03514151E+03
      4.04968392E+02      5.55714330E+02     -7.24122164E+02
      3.58160967E+02      1.48068952E+03      2.15729140E+03
     -1.48305824E+01     -3.91049857E+02     -2.51805623E+03
     -1.56304622E+02      9.09136467E+01     -3.52964484E+02
      9.47035037E+02     -2.19680791E+03     -7.02265871E+02
     -1.51115436E+03      8.43282328E+02      1.82937586E+03
     -6.54643707E+02      5.27530818E+02      2.29888029E+02
     -4.69338052E+02      3.05758483E+03      2.60074130E+03
     -2.22521978E+03      1.41051612E+03      2.43806971E+02
     -6.78733111E+02      2.05719936E+02     -1.46616238E+02
      1.14990404E+03     -1.51380850E+03     -5.45135645E+01
      1.67742140E+03     -8.58940371E+01      1.27071936E+03
      8.45957661E+02      5.65833360E+01      5.23690942E+02
      9.67944740E+02     -3.03512109E+02      6.93292270E+02
     -1.27383625E+03     -7.56107352E+02      1.49181690E+03
      1.02159799E+03     -1.34030159E+02      7.25670688E+02
     -9.33464005E+02     -4.82968929E+02      1.24054079E+03
      2.16146214E+03      1.99122446E+02     -1.86615269E+01
      5.28154194E+01      7.81633855E+01     -8.37595118E+00
      1.28557608E+02     -1.81295657E+00     -7.74087793E+02
     -3.94628069E+03      1.88810445E+03     -2.35695421E+03
     -1.04546822E+03      3.01545578E+02      2.37933657E+02
      4.29909961E+03      1.35017618E+03      9.48137924E+02
      2.96025429E+02     -9.55956159E+02     -1.67698279E+03
     -2.00149556E+03      5.23656313E+02     -4.08847139E+02
      1.46268396E+02      2.17703169E+02      2.46231551E+02
      1.13596050E+03      7.87300395E+02     -1.52802871E+03
     -2.06385038E+02      7.49208964E+02     -6.89585223E+01
     -2.34136796E+02      1.01679457E+03      4.39972657E+02
      5.54015938E+02     -6.90199326E+01     -4.50699981E+02
      1.95589307E+03      6.03771941E+02     -5.39756802E+02
     -8.64571697E+02     -1.23673843E+03      2.51264821E+03
     -5.96689773E+02     -2.90460537E+02      6.32434452E+02
      2.68013490E+03     -3.29320886E+02     -2.49989716E+02
     -1.83859865E+03     -1.43790655E+03      1.05244972E+03
      6.66952920E+02      8.44233105E+02     -2.98001614E+02
      4.64356013E+02      1.96592694E+02      1.30429400E+03
     -4.50510371E+02      7.80301107E+02      1.96701443E+03
      9.73539543E+02     -4.57134336E+02     -7.80380518E+02
      2.79204326E+03     -2.18485228E+03      2.69285295E+03
      5.58301906E+02      2.33981491E+03     -1.27725057E+03
     -7.53434571E+02      1.05453935E+02      3.44518128E+02
      6.70657540E+02     -2.44111033E+02      3.46509468E+03
     -1.43343711E+02      3.47254908E+02      3.33015841E+02
     -4.33487635E+02      1.01433537E+03      3.65552146E+01
      7.02778693E+02     -7.09469293E+01      1.47415448E+03
     -5.02995583E+02     -3.00517731E+03      6.21148695E+02
      4.42031537E+02      1.61223855E+02      2.63758221E+02
     -3.25144835E+03      3.77268761E+03      1.55614515E+03
      4.78677109E+02     -1.02634480E+03      4.17375316E+02
      1.43844135E+02     -4.85661525E+02      6.53044423E+02
      1.40350971E+03      4.21545643E+03     -2.39146078E+03
     -2.71613920E+02     -7.43001120E+02     -1.76571683E+03
     -1.14993552E+02      2.83926675E+02     -4.39337720E+02
     -1.44715060E+03     -6.41908102E+02      1.01895767E+03
      2.25609089E+00     -2.27686028E+03     -1.46478362E+03
     -5.52455160E+02      1.12615319E+03     -1.23933001E+03
     -1.64963970E+02      1.45253815E+02     -6.18088514E+01
      3.43273993E+02      3.55659844E+03     -9.46155974E+02
      3.26299110E+02      7.74415248E+02     -5.26140788E+02
     -3.46347971E+02     -3.56070000E+02      3.40083630E+03
      5.23713508E+02      2.00937545E+01     -2.86782594E+02
      4.62118265E+02     -9.37031665E+02      1.15993634E+03
      5.56279404E+02      4.51687102E+02      1.72541324E+03
      7.78230642E+01      8.01836181E+01      2.00998972E+02
     -9.11140556E+02      5.02304952E+02      1.84760618E+03
      2.92953434E+02      5.50081794E+01     -2.92940572E+02
      8.81074672E+01     -6.68820927E+01      7.36608461E+01
      1.74207835E+03     -1.55244006E+03     -2.04406197E+03
      1.65651937E+03     -1.83530749E+02     -2.93882559E+03
      1.70368429E+02      7.72051537E+02      3.73435387E+02
     -2.97033566E+03     -5.50323465E+02      1.96832139E+03
     -1.23495370E+02      2.17992238E+03      2.94300726E+03
      1.96337823E+02      7.83956000E+01     -2.58161267E+01
      2.04787101E+03     -2.25892823E+03      7.33661479E+02
     -1.08473780E+01      1.77656471E+02      8.58719049E+02
      1.60692953E+02      2.97547288E+02      6.48268697E+02
      2.16174294E+02      2.38417330E+03     -1.33808733E+03
      7.58003793E+02      2.20098591E+03     -2.07789439E+02
      9.59768968E+02      1.06874211E+03     -1.24573603E+02
      1.13930371E+03     -4.98022797E+00      1.15139701E+03
     -2.56954912E+03     -1.57732455E+02      8.82092580E+02
     -1.27481047E+02      6.51828013E+02     -3.66168278E+02
     -3.82884222E+02     -7.20244576E+01      2.60380132E+03
      1.07223034E+03     -9.12206503E+02     -2.57268380E+02
      1.22856056E+03      7.57465567E+02     -8.12316346E+02
     -1.54098505E+03     -9.18103813E+02     -1.67696124E+03
      1.09292375E+02      2.10912861E+02      8.13555977E+02
     -8.49858612E+02      1.95761755E+03      1.83352022E+03
     -5.62569342E+01      6.82751511E+02     -2.80825316E+02
     -3.40642341E+02      3.45858035E+02      2.30708302E+02
      2.87106741E+02     -1.13860897E+03     -4.66988555E+02
      9.33970103E+01      8.62188821E+02     -2.29934372E+03
      7.41148499E+02      8.14307578E+02     -6.53702918E+02
      7.04805180E+01     -2.57714124E+03     -2.90477741E+03
     -2.61958764E+03     -1.93820597E+03     -3.05257681E+02
     -1.00614184E+03      1.56802874E+01      6.27810243E+02
     -1.26689724E+03     -2.73433937E+03      1.43728613E+03
      1.41069193E+03     -1.81687136E+02     -2.57766138E+03
      2.09597366E+02     -2.03170441E+01      2.87154232E+02
      6.44373036E+02      2.78623588E+03      1.51401550E+03
      1.12443496E+03      5.84772559E+01     -1.42358294E+02
      2.14492993E+02      4.87808068E+02     -2.26095197E+02
      1.34453733E+02     -4.27545700E+01     -1.40534617E+03
     -2.18537568E+03      1.54087681E+03     -1.46641897E+03
     -5.06172606E+02      9.14615535E+01      4.03445698E+01
     -3.05796189E+03      4.21737996E+02      9.05382509E+02
     -6.71379655E+02      1.50306348E+02     -2.37871869E+03
     -3.38729108E+02      2.69806483E+02     -1.04277042E+03
     -1.00307683E+03     -1.89837414E+03     -2.73658813E+02
      2.08972486E+03     -4.85271816E+02      3.66411651E+03
     -6.77694573E+02      1.87297034E+02     -4.48368563E+02
      3.39264446E+03      1.10145599E+03     -2.81094389E+02
     -1.80345620E+01      5.97458813E+02     -1.17312669E+03
      2.59945852E+02      7.53471294E+02      1.56471711E+02
      3.61456550E+01     -1.72751563E+02      5.18875781E+02
      7.47438066E+02     -1.56371755E+03     -1.08262310E+03
      1.46328571E+02      1.43843150E+02      6.25515811E+02
     -6.37944520E+02     -2.04108962E+03      1.05142633E+03
      1.16232414E+03     -7.09859257E+02     -8.86410954E+02
     -4.05518969E+02     -3.98997051E+02      6.76727176E+02
      2.35350869E+02     -3.89384928E+02     -3.40790592E+02
      2.49002746E+03     -1.00782640E+03      7.56129030E+02
     -1.12277751E+03     -1.25524535E+03      1.74432571E+03
      2.39414688E+03      7.77138622E+02      9.43770491E+02
     -7.67190006E+00     -4.67554832E+02      2.60606507E+02
      1.44618139E+03      1.74281288E+03     -8.40422789E+02
      1.48555149E+03      1.98114804E+02     -1.12560944E+03
     -1.17579787E+01      6.10674761E+02      2.49410527E+02
     -2.18724266E+03      1.91093928E+03      9.80241941E+02
      7.71729504E+02     -4.72081480E+02     -1.86120071E+02
     -1.66638572E+02     -1.51366955E+02      6.27396182E+02
     -1.26797230E+03     -7.28594732E+01     -5.66902547E+02
      1.60149703E+03     -8.62751936E+02      8.13818281E+02
      1.40045612E+03      5.96588716E+02      4.42136077E+02
      4.61538053E+03      2.83645337E+03     -1.18923178E+02
      2.88990088E+03     -3.58455792E+02     -1.05005285E+03
      2.44318592E+02     -1.41994878E+01     -6.40174437E+02
     -5.39065123E+02      1.75806829E+03      1.48500074E+03
     -1.09159281E+03     -9.72057392E+02      1.46250142E+03
      4.36071273E+02      1.01045112E+03     -1.73710421E+02
      4.15557548E+02     -2.41795158E+03      1.05335537E+03
      2.17841214E+03     -1.26263734E+03     -9.69488521E+02
      1.47107818E+02      7.12696964E+02      8.55477495E+02
     -1.43148841E+03      3.45673471E+02     -9.85792179E+02
     -2.43550171E+02      1.69473728E+03      8.10579609E+02
      3.01621460E+02     -5.39676547E+02      8.67756730E+02
     -2.14833711E+03      1.75820078E+03     -1.61517242E+02
     -2.64892144E+03      8.21250847E+02      7.65613583E+02
     -2.27069834E+02     -8.22062633E+01      5.10023079E+02
     -1.41219445E+03      2.41514027E+03     -5.61618429E+02
      1.11397796E+03     -1.21251025E+03     -9.84880021E+02
     -3.27579699E+03      1.32265365E+02      1.84564036E+03
      5.11537541E+02      7.96323351E+02      3.97371929E+02
     -6.90665197E+02     -1.78550028E+02     -1.80986626E+03
     -1.33029719E+03      4.38464106E+02      6.67996874E+02
      2.26277774E+03      5.36944700E+02     -7.68945311E+02
      7.02298161E+02     -1.25025429E+02     -3.80659971E+02
     -5.91622049E+02      2.64548370E+02      1.69467554E+03
     -3.04936663E+03      1.19761244E+03     -6.79408912E+02
      1.15227151E+02      5.01027689E+02     -7.89802405E+02
      6.39787723E+02      5.24632132E+02     -1.70987829E+03
     -1.98813276E+02     -6.93162890E+02     -2.03860815E+03
      5.24769337E+02      8.86931598E+01     -1.58729518E+02
     -2.63771899E+03     -1.74846717E+03      1.51422767E+03
     -2.03187657E+03      1.11542305E+03      7.29577887E+02
     -2.02285576E+02      2.87743387E+02      9.59858470E+01
     -2.99412646E+02     -7.22507376E+02      1.93626677E+03
     -2.04966535E+03     -1.08174960E+03      2.25613904E+03
     -3.26866376E+02      8.61489909E+02     -2.07433323E+02
      9.40772784E+02     -4.42784235E+02      2.89775782E+03
     -7.80611175E+02      1.82806270E+03      1.50013744E+03
     -3.72947378E+02     -4.90932710E+02     -7.86739877E+02
      2.06601044E+02     -5.03879356E+02     -6.02205781E+02
     -2.79608895E+02      2.07312520E+03     -9.90108423E+01
      8.69928436E+02      7.17499742E+02     -4.54626868E+02
      1.63025804E+03     -5.70505948E+02      2.32040106E+03
      2.56005136E+03     -1.62399137E+03      1.70658769E+03
     -5.62868901E+02      9.64437192E+01     -2.50109509E+02
     -4.71970997E+02     -7.83380097E+02      1.38518243E+03
      1.12839860E+03     -5.91227459E+02      4.32153282E+02
      4.12487713E+02     -2.39880715E+02      9.62565967E+02
     -9.09448181E+02      3.16171591E+03      2.42150566E+03
      2.79879989E+03      1.60848997E+03      5.97505583E+02
      1.56205017E+03     -1.89064171E+03     -2.40109142E+03
     -2.32290109E+02      4.44421516E+02      3.87382704E+02
     -1.95092053E+03      3.34096049E+02     -3.17537737E+03
     -2.55393367E+03     -1.23166862E+03     -1.20195565E+03
     -4.14639304E+02      2.58270534E+03      1.10551581E+03
     -3.15901664E+02      3.53485557E+02      3.43566712E+02
     -1.70696715E+03     -1.61606916E+03      2.75386340E+03
     -1.77503450E+02     -4.64672431E+02      3.08822778E+03
      2.23076669E+02     -3.99271860E+02      2.03621523E+02
     -1.34674677E+03      2.75853503E+03      1.14566774E+03
      8.30419178E+01     -5.32275308E+02      2.41570853E+03
     -2.53445183E+02      8.55861738E+02      4.48871568E+02
      2.06587086E+03      5.31623707E+02      1.03377562E+03
     -1.91113151E+03     -3.11297459E+03     -3.06258989E+03
      5.40915252E+02     -4.97792828E+02      8.37344456E+01
     -3.00577097E+03     -2.60918751E+03     -1.26360991E+03
      4.21274980E+03     -2.68192808E+03      3.51296122E+03
     -3.39464043E+02      6.67641294E+02      2.11698527E+02
     -3.29262966E+02      2.64772284E+01      7.72240735E+02
      7.43311247E+02     -5.14212492E+02      3.39241574E+03
      9.98135373E+02      4.44770002E+01     -4.74547813E+02
      2.36763300E+03      4.06842267E+02      1.49770556E+03
      4.74731163E+02     -6.80003425E+02      1.18550088E+03
     -2.72390238E+02     -5.32638279E+01     -2.23562412E+02
     -1.62589245E+03      1.28767846E+03     -9.96659431E+02
      8.40740289E+02      1.53181312E+03     -1.12405000E+03
      5.24726803E+02     -4.04296171E+02     -5.51499086E+02
      1.65366324E+03      7.14238699E+02      3.66852314E+00
     -7.26974753E+02      5.10080339E+02     -3.96036828E+02
      3.15810325E+02     -3.76466254E+01     -3.68471235E+02
      3.27916489E+02      1.61511401E+03     -1.41550626E+03
     -9.27856738E+02      1.36528974E+03     -1.30083666E+03
      6.80205903E+02      1.20770711E+03      5.91461888E+02
      1.83701740E+02      3.66200483E+02     -2.32489663E+02
     -4.36389819E+02     -9.89391819E+02      2.27220458E+02
     -8.85066622E+02      3.75817360E+02     -6.50632769E+02
     -2.45342648E+02     -1.71303311E+03     -2.84274626E+03
  }
}

Hamiltonian = DFTB {
  SCC = Yes
  SCCTolerance = 1e-6
  MaxSCCIterations = 200
  ForceEvaluation = Dynamics
  MaxAngularMomentum = {
    C = "p"
    H = "s"
  }
  Charge = 0.0
  SpinPolarisation = {}
  Eigensolver = Standard {}
  Filling = Fermi {
    Temperature [Kelvin] = 300.0
  }
  SlaterKosterFiles = Type2FileNames {
    Prefix = "../../pbc-0-3/"
    Separator = "-"
    Suffix = ".skf"
    LowerCaseTypeName = No
  }
  KPointsAndWeights = {
    0.0000000000000 0.0000000000000 0.0000000000000 1.00000000000000
  }
  Dispersion = LennardJones { 
    Parameters = UFFParameters {}
  }
}

ParserOptions = {
  ParserVersion = 3
}
