Geometry = GenFormat {
<<< "system.gen"
}

Driver = VelocityVerlet{
  Steps = 50000
  TimeStep [fs] = 0.2
  MDRestartFrequency = 5
  Thermostat = None {
    #InitialTemperature [Kelvin] = 300.0
  }
  Xlbomd{ 
    IntegrationSteps = 6 
    MinSccIterations = 2
    MaxSccIterations = 200
    SccTolerance = 1e-6 
  }
  Velocities [m/s] {
      5.98118512E+02      6.46723204E+02     -5.42877433E+02
     -9.61317973E+02      7.22271661E+02      1.77073083E+03
     -2.45188759E+03     -3.07643948E+03      1.02980833E+02
     -3.90525890E+02     -4.24880037E+02      8.21188229E+02
     -5.16070776E+02      6.67780630E+02      2.18926748E+03
     -2.15677333E+01      8.26263980E+02     -1.95826450E+01
     -6.72994271E+02      3.55221519E+02     -3.83585480E+02
      5.61978366E+02     -1.00545871E+03      6.82943894E+01
      2.40883320E+03     -2.79957137E+02      1.91835468E+03
      1.40157636E+02     -3.75630576E+02     -3.94570117E+02
      1.59918190E+03      1.16638935E+03     -2.04937728E+03
      4.61556791E+02     -2.17877273E+03     -2.70534067E+03
     -3.88785393E+01      2.90986183E+02      8.63187629E+02
     -2.98133524E+03      2.55805372E+03      1.85402458E+02
      4.99863546E+02     -8.69371440E+01      9.04036271E+02
     -7.12339819E+02      6.23999264E+02     -2.18536217E+02
     -5.35813310E+02     -9.07892449E+02     -1.33264998E+03
      2.18207440E+02      8.68899410E+02     -1.75887450E+03
     -3.77460118E+02      4.93936490E+01      7.83510306E+02
     -6.37208541E+02     -3.36545776E+03     -7.73748951E+02
     -1.18805122E+02     -4.70710220E+02     -7.89049863E+02
     -4.41743414E+02     -4.24215531E+02      8.15909464E+02
      2.13571382E+03      1.55118480E+03      9.67872812E+02
      9.03569001E+02      5.62843148E+02     -1.83639343E+03
     -6.89383778E+02     -7.65643228E+02     -1.09101941E+02
      2.58378958E+03     -1.46218144E+03     -1.47424619E+03
      7.65281421E+02      3.08958386E+03     -9.36910766E+02
     -1.76517276E+01     -2.93285962E+02     -1.28697274E+03
     -1.09082173E+02     -2.27999749E+02      4.01493717E+01
      7.49559813E+02      3.83745745E+02      1.22374878E+03
     -1.47344090E+03     -3.38212075E+03     -2.79475324E+03
      7.72156817E+02     -3.00081393E+03     -9.09142973E+01
     -7.61988266E+02      4.34121467E+02      4.49074366E+02
      2.29122307E+03     -1.40121612E+02      2.75400116E+02
     -2.72566030E+03     -2.36126107E+03     -6.02903904E+02
      4.06838661E+02     -1.95234290E+02     -5.61123043E+02
      4.47944912E+03      1.42457283E+03      1.05616670E+03
      4.02106046E+02     -7.11346951E+02     -8.21545094E+02
     -8.75945606E+02      1.29315807E+01      5.14979918E+02
     -4.68898190E+01      8.02512852E+00     -1.06306838E+03
     -2.44075628E+03     -1.91632461E+03      2.22443345E+03
     -4.60587826E+02     -4.13190794E+02      1.32901797E+02
      1.36569300E+03      4.65179987E+02     -1.83666209E+03
     -4.04435925E+02     -9.99693400E+01     -1.49226695E+03
     -3.45058863E+02     -4.89879467E+02      4.77943298E+02
     -2.63905488E+03      2.46792767E+03      8.48893711E+02
      1.43617209E+03     -1.05928672E+03     -3.87041433E+02
     -9.83214788E+02     -2.31080878E+02      3.81158264E+02
     -8.84359903E+01     -9.03450686E+02      1.58079686E+03
     -3.29642957E+02     -1.62917338E+03      3.13861146E+03
      2.86087898E+02     -1.14279791E+02      3.28244035E+02
      3.68831159E+02     -1.31529448E+02      3.77387287E+03
      1.68551846E+03     -1.52796457E+03     -7.20684728E+00
     -6.36071993E+02     -4.66249174E+02      3.08146821E+02
      3.20109491E+03     -4.94880260E+02      1.59566288E+02
      2.02812375E+03      1.22142797E+03      8.67719909E+02
     -1.46798262E+02     -2.09390056E+02     -3.36288288E+01
     -1.83648847E+03     -8.29107235E+01     -2.60688036E+03
      7.27613789E+02     -3.89637559E+03      1.41381369E+03
     -8.95362918E+02      2.32727059E+03     -1.99424561E+03
     -4.02503686E+02     -3.88788224E+02     -5.98256489E+02
     -2.54620959E+03     -3.16316133E+02     -1.06971592E+03
      1.58725323E+03      2.89800020E+02      3.23806172E+03
     -4.02978060E+03     -1.81911351E+03      3.62414499E+02
     -3.03367246E+02     -3.66325546E+02     -3.24854795E+02
     -3.10907758E+03     -1.60072456E+03      1.66643077E+02
     -1.99223304E+03     -1.61097381E+02      2.19267096E+03
     -5.29284806E+02     -7.14704694E+01     -4.64033049E+02
      1.06856453E+03     -2.52168006E+02     -7.65717373E+02
      8.64657187E+01     -1.99781950E+03      9.91329848E+02
     -4.11038320E+02      1.69065137E+02     -9.62122290E+02
      1.77344750E+03     -1.91394228E+03     -1.49557825E+03
      4.64403133E+02     -1.20225995E+02      1.48921800E+03
     -5.15575741E+02      3.15400516E+02      2.57214149E+01
     -2.25593093E+03     -1.31978664E+03      2.08944985E+03
      5.49753897E+02     -1.01334120E+03     -1.41651715E+03
     -4.21765912E+02     -6.81216075E+02     -5.62171515E+02
     -1.03959735E+03     -1.02438980E+03      2.54627556E+03
     -7.52250826E+02     -1.66101292E+03      1.06699539E+03
      3.90496790E+01     -2.04901897E+02     -3.10060155E+02
     -2.22914765E+03      2.29320773E+03     -4.80009685E+02
      5.62393291E+02      1.99646587E+02     -2.35288544E+03
     -3.52208065E+02      4.11672881E+01      1.47109719E+02
      6.06820780E+02      9.84449745E+02     -3.32602239E+02
     -1.61345801E+03      4.16676284E+02     -8.48044600E+02
      3.06353577E+01     -2.45385249E+02     -2.21499786E+02
      3.23191165E+02     -3.01103895E+02     -5.26784692E+02
      1.55732359E+03     -1.02905227E+03     -3.75779121E+03
     -3.00268755E+02     -1.66627843E+02      4.12141310E+02
     -2.25143865E+03      1.76337610E+03     -1.05865980E+03
     -6.32775351E+02      5.97997048E+02      7.85655861E+02
      3.56583639E+03      1.64620179E+03      4.78648318E+01
     -3.80990798E+02     -1.46071476E+01     -4.98746265E+02
     -1.42577078E+03     -3.62050246E+03     -1.44123545E+03
     -1.58258039E+03     -1.37176410E+01      1.09057366E+03
     -1.97824568E+02     -2.04050381E+03     -2.86629661E+03
     -4.10040309E+02      1.95591257E+02     -7.57629043E+02
     -1.10101902E+02      4.58651426E+02      9.09610848E+02
     -1.37438979E+03      3.19023621E+03     -1.19737966E+03
     -2.44888524E+02     -5.79823964E+02     -9.95738680E+02
     -4.55568708E+02     -5.87531036E+02      2.14548028E+03
     -8.41857444E+02      1.87162978E+03      2.22480104E+03
     -3.51162280E+02      8.97099233E+01     -5.73402062E+02
     -1.14833133E+03      1.00014223E+03      2.01368753E+03
      2.20939578E+02      4.18981195E+03      2.92582430E+02
     -3.52420138E+02     -9.34801051E+02     -4.95517796E+02
      9.92390955E+02      2.84095551E+00      3.33216807E+02
      5.76749326E+02     -3.73160395E+02      1.59163292E+02
      2.33783655E+02      4.84733302E+02     -3.71935216E+02
      1.46652278E+02     -3.30495784E+03      8.67986210E+01
      7.92731796E+02      7.06269560E+02     -8.88368425E+02
     -2.18310789E+02      2.50364627E+02     -1.35317768E+02
      2.27545766E+03      1.49384129E+02      2.30093536E+03
      8.62927326E+01     -2.65501913E+03     -1.57157191E+03
      9.02706600E+02      2.85405764E+01      3.37114735E+02
     -1.81182837E+03      1.88126474E+01      1.94901639E+03
      4.77440248E+01      8.88591882E+02      1.97771608E+03
      8.93093516E+01     -4.63989215E+02     -6.02919052E+02
     -2.19359080E+03      1.27613827E+03     -1.78081629E+03
      1.58268856E+03     -2.01160974E+03     -1.97166266E+02
     -1.62347449E+02      3.80066790E+02      2.91610233E+02
     -5.11433465E+02     -4.89433902E+02      2.43720980E+03
     -1.68270315E+03     -3.72218714E+02     -2.62944283E+03
     -2.34029752E+03      2.03320384E+03      4.73676437E+02
      1.94727507E+04      8.45249084E+03      4.89656158E+03
      3.10932193E+03      2.84585466E+02     -2.02479274E+03
     -2.53517510E+02     -1.83408584E+02      3.05876951E+02
      2.61420080E+03      2.24638419E+03     -4.06127557E+03
     -2.40526024E+02      9.99498493E+01     -9.08639990E+02
      1.29460228E+03      1.36656655E+03     -1.12084885E+03
      1.56562222E+03     -1.68550956E+03      9.94191974E+02
      4.75699366E+02      5.45395752E+02     -6.63279067E+02
     -1.17213157E+03     -2.23090981E+02      1.11626947E+03
      1.13800614E+03      1.51527589E+03     -1.10176146E+03
     -2.87420932E+01      7.30774041E+02      9.06898498E+02
     -8.45804743E+02     -4.79843467E+02      8.15278471E+02
      5.82595505E+02     -1.47413549E+03      4.59021175E+02
     -2.88635444E+02     -4.36533264E+02     -7.56456491E+02
     -2.33561536E+03     -1.40581877E+02      2.25587671E+01
     -1.17905777E+03     -6.14833314E+02     -1.92270394E+03
     -3.24941468E+02     -3.59099619E+02     -8.19584272E+02
     -1.33741445E+03      1.75034990E+01     -7.09805701E+02
      4.34040744E+02     -1.52637398E+03      1.02842004E+03
     -1.01485614E+03     -6.48268873E+02      2.06248587E+02
      3.03220002E+02      9.24501156E+02     -6.80147841E+02
     -8.88947291E+02     -1.47592424E+03      3.65996708E+03
      1.75398698E+01     -1.67257344E+02     -7.35642393E+02
     -1.32249873E+02     -8.41545961E+02     -8.04494913E+02
     -1.32010776E+03     -9.99752209E+02      8.15440902E+01
     -1.44614158E+02     -1.10322650E+03      6.66901529E+00
      6.81884605E+02     -2.39421326E+03     -4.54692481E+02
     -5.54162789E+02     -1.12576406E+03     -5.03978805E+02
      6.83061980E+01     -2.32240806E+01      1.18379057E+02
      3.04128004E+02      1.52390317E+03     -3.25826858E+02
     -8.17760991E+02      1.54783845E+03      2.28669254E+03
     -1.41783743E+03      1.15949158E+03      8.77600115E+02
     -4.91974146E+01     -1.30731942E+02     -3.08486856E+02
     -6.65444713E+02      4.83335478E+02      1.11962960E+03
     -3.26009876E+02     -9.90331933E+02      6.41461113E+02
     -1.36936125E+03     -1.08422445E+03      5.16976187E+02
     -6.10618456E+02      2.07890660E+02     -1.10914523E+03
     -4.40884956E+02     -2.49452620E+03     -3.79825089E+03
      8.51281604E+02      3.95756421E+02     -1.32868453E+02
     -4.67616000E+02      1.79544734E+02      7.31427419E+02
     -1.96832717E+03     -8.53025753E+02     -1.75868216E+03
      1.08123178E+03     -2.09919989E+03     -1.51142379E+03
     -3.02506432E+02      9.80426821E+02     -1.27477317E+03
      8.35101221E+02      2.30686629E+03      1.59721058E+03
     -2.04547358E+03      2.67088100E+02     -3.23829358E+03
     -5.45670815E+02     -1.40887118E+02      4.09098863E+01
     -1.53345189E+02      3.93773310E+03     -1.14374000E+03
     -6.84123047E+02      3.46862004E+02     -2.96716601E+03
      4.62024651E+00      5.55706889E+00      6.09103245E+02
     -2.22731478E+02     -5.38412253E+02     -1.29316823E+03
      3.29049599E+03     -9.78849059E+02      1.46340681E+03
      2.79680761E+02     -5.20808642E+02     -7.13467377E+01
     -2.06689061E+03      2.83936453E+03      1.41230397E+03
     -4.05544233E+03      2.87835179E+03      9.70901789E+02
     -2.41225854E+02      5.43404486E+01      1.86350155E+02
     -1.82861473E+03      1.28725326E+03     -1.25424539E+03
     -1.09908569E+03     -2.10735385E+02     -2.77402437E+03
     -3.13491826E+02      6.08105128E+02     -1.99565417E+02
     -1.00319839E+03     -1.13814350E+03      2.29720919E+03
      2.85112341E+02     -6.16898743E+02      1.22828023E+03
      1.01072085E+02     -2.81228227E+02      4.78678404E+01
     -3.67738599E+03     -6.66711045E+02     -3.11892886E+03
     -3.49507110E+03     -3.23301295E+03     -1.25797825E+03
     -9.43099385E+02     -8.28267843E+02     -2.06177189E+03
      7.92323478E+01     -4.95158686E+02     -3.51664428E+02
      3.65709237E+02     -4.40066842E+02      1.50152271E+03
      1.34795998E+03      1.90454236E+02     -2.52676193E+03
     -1.88819280E+02      1.14824498E+03      1.80734707E+02
      4.10067466E+02      2.52881931E+02     -7.26570676E+02
      5.20307625E+02     -3.22348088E+02      1.58307925E+03
     -2.00209374E+02      2.22030215E+03      1.48672543E+03
      1.02150545E+02     -7.97425999E+02     -4.03937425E+01
      2.25047443E+03     -2.53000958E+02     -1.69776178E+02
     -8.74302982E+02      1.69645034E+03      1.24990435E+03
     -1.90611112E+02     -6.87729532E+01     -3.87667850E+02
      5.44239459E+02      8.66422840E+02     -1.27119702E+03
     -1.78109416E+03     -1.00073375E+03     -3.29910415E+02
      4.72376149E+02      2.12303348E+02     -3.98007530E+02
      3.39730011E+02      8.67815166E+02     -9.93049925E+01
     -1.03308298E+03      3.71178656E+01      1.68878317E+03
     -2.98110035E+02     -1.13887576E+01      8.43851214E+01
      2.06304674E+03     -4.38035468E+02     -1.40033040E+02
     -4.93318937E+02     -5.09979475E+02      3.86198222E+02
     -7.45393717E+02      7.63004172E+02      7.76410758E+02
      2.90465296E+02     -9.31419062E+02     -3.63011135E+02
     -4.96131713E+02      2.96437693E+03      9.66876302E+02
      4.44110063E+02      3.29321352E+02     -6.68643156E+01
      2.74662522E+02      1.59097170E+03      3.61248490E+03
      6.54014068E+02      1.84881317E+03     -4.88341384E+02
      2.13888111E+02      4.44625791E+02      6.17297472E+02
      1.55568030E+03     -9.06142797E+02      4.82612178E+03
     -1.79579169E+03     -1.53115836E+02      1.40803308E+03
      1.08302509E+01      4.50017343E+02     -1.55486393E+02
     -2.18763697E+03     -6.92458202E+02      5.91296452E+02
      1.52125892E+03     -7.94631294E+00     -3.72148282E+02
     -8.11509468E+02      1.22435405E+03     -8.64187622E+02
     -3.79383823E+02     -2.86417158E+02      5.10869444E+02
     -1.92653822E+03     -5.47773670E+02      2.82394709E+03
     -1.77147562E+03     -2.41551555E+02      5.77017956E+02
      3.82745311E+02     -1.62373878E+03      4.98136901E+02
     -8.19909563E+01     -2.90015938E+02      6.68306337E+02
     -1.11380122E+03      6.24982767E+02     -3.20706062E+03
      1.07731343E+02      2.04646018E+03      9.47280854E+02
     -8.31680054E+02     -2.01683341E+02     -8.52055960E+01
     -4.14305591E+03      4.51903999E+02      1.22733314E+03
     -1.76042758E+03     -2.24495361E+03     -2.70020935E+03
      3.01393593E+02     -2.70940286E+02      2.99421466E+02
     -6.17677682E+01     -8.02424032E+02     -2.16974889E+03
      8.94803939E+02     -1.07621333E+03      2.08656534E+03
      6.90583564E+02     -1.02714508E+02     -3.73210039E+02
     -1.99458001E+03      6.59835261E+02      7.61582813E+02
      1.68018735E+03     -2.38245863E+03      1.15933061E+03
      4.53794615E+01      6.31864867E+01     -1.71944904E+02
      1.24057154E+03      2.70656892E+03     -1.99182300E+03
     -5.96468745E+02      2.66930733E+03      1.51959520E+02
     -4.57953117E+02     -3.05693059E+02     -1.51112180E+02
     -1.71946540E+02      9.98370542E+02      8.04918276E+02
      7.18908402E+02     -1.29738590E+02     -9.66046297E+02
     -7.65553876E+02      2.10431639E+01     -7.80766960E+01
     -4.46465789E+02      1.99762709E+03     -8.51638754E+02
      1.88623874E+03      1.35452740E+03     -2.52846530E+03
      5.40140775E+02      3.15738215E+02     -3.29423377E+02
     -1.56659183E+03      2.86155270E+03     -1.10019441E+03
      2.92674476E+03      1.42692252E+03      1.20576496E+03
      4.20322336E+02      1.01463092E+03     -1.34839395E+02
      1.05684010E+03     -2.94520697E+03     -1.00713039E+03
     -2.92805436E+03     -2.81338300E+03      4.18185685E+02
      2.54380652E+03     -2.04461996E+02     -3.75394555E+03
      6.34405831E+01     -7.38610437E+02      2.02030582E+02
      1.16762829E+03     -2.41440508E+03      8.65589020E+02
      2.25217599E+02     -3.47615990E+02     -1.52904631E+03
      3.69688121E+02      1.36196058E+03     -4.12691435E+02
      6.64735111E+02     -2.28388441E+02      1.04245867E+03
      1.54610277E+03      3.55150984E+00      2.22185155E+03
      5.34194710E+02      1.95238155E+03      1.05377881E+03
     -1.65909311E+02     -8.36539730E+02     -2.80335080E+02
      2.59396471E+03     -7.80035517E+02     -1.26828368E+03
     -3.10052698E+03      1.09597117E+03     -2.46930513E+02
     -6.75813178E+02     -5.65340659E+02      4.75804428E+02
     -2.97893045E+03     -2.75934499E+03     -1.62563280E+03
      1.37099387E+02     -4.28897011E+02      8.14259713E+02
     -7.15175363E+02      2.29760607E+02      7.03489843E+01
     -2.67696242E+03      6.48001305E+01      2.98650272E+03
     -3.47314253E+02     -4.43003980E+02      1.22570790E+03
      3.40932516E+02      1.94720337E+01     -1.02476209E+01
      7.17174478E+02      3.77378089E+02      1.58380215E+03
     -7.76615546E+02      1.31162977E+03      7.08540771E+02
     -8.45894632E+01     -4.09178278E+02      7.10917120E+01
     -3.17066901E+03      1.47749544E+03     -2.25549624E+03
     -1.39940346E+03      1.32646686E+03      6.09062821E+02
     -3.19941772E+02      3.42533898E+02     -8.67606217E+02
      6.48823177E+02     -1.40999245E+03     -1.05681885E+03
     -4.58486244E+02      7.93684473E+02      1.45869723E+03
      3.65108252E+02     -6.85666126E+02     -1.67836306E+01
      1.60895044E+03     -5.09642732E+02      2.16704865E+03
      1.96520879E+03      1.77048427E+03     -2.69958351E+03
     -8.05364579E+02      4.31642982E+01      6.49135682E+01
     -4.49508231E+02     -1.10646652E+03     -2.56347073E+03
     -1.03902558E+03      2.88791741E+02      1.56343195E+03
      2.54186980E+02     -1.96186481E+03      5.99961947E+02
     -1.81797763E+01      5.02109630E+02     -5.55395585E+02
     -5.28388671E+02     -1.27074342E+03      2.04809292E+03
     -1.16553512E+03     -6.05481686E+02     -1.55434987E+03
      1.90798597E+03      9.89289253E+02     -1.39405460E+02
     -2.50566316E+02      2.36949943E+02     -7.53941357E+02
     -3.47926506E+02      2.22881692E+03     -2.21060233E+03
      5.64490534E+02      5.79438672E+02      2.36703910E+02
     -4.34144660E+02     -3.08916763E+02      3.70459502E+02
      1.69368028E+03      8.04802614E+02      9.15039701E+01
     -7.57346303E+01      2.55076243E+03     -1.42766375E+03
      3.90590223E+02     -1.91691480E+02      1.29432786E+02
     -4.71652394E+02      2.59277020E+03     -2.29900468E+02
     -1.70686623E+02     -2.67898255E+03     -4.91606144E+02
      3.36959816E+02     -3.18834202E+02      2.36858786E+02
      8.50994274E+02     -3.16060289E+03      2.90043053E+03
      1.88974537E+03      1.00480409E+03     -1.58099342E+03
     -6.27131972E+01     -6.90367729E+02      9.60052561E+02
     -7.24839775E+02      3.94076180E+02      1.94603504E+03
      1.88635636E+02      1.22546841E+03      3.36592262E+02
      2.87588316E+01      5.28777283E+02     -3.51614149E+02
      3.71506842E+03      3.14020066E+03     -5.23320034E+01
     -2.11054586E+03      4.24287361E+03     -2.70350101E+02
      4.43925934E+02      4.90522589E+02      1.27679685E+02
     -2.50242958E+03      1.61788628E+02     -2.47722621E+01
     -4.91721981E+02     -1.16026132E+03     -2.76279590E+02
     -7.02324688E+02      7.25397603E+02     -8.02316621E+02
      3.59679203E+02     -1.27253007E+03      1.71531579E+03
      7.85432087E+02      1.51442589E+03     -1.72606857E+03
     -8.96967397E+02     -6.43456993E+02     -1.00560107E+01
     -2.14190184E+03     -2.00039110E+03     -1.05686184E+03
     -9.73156738E+02      4.83082237E+02      1.69361932E+03
      3.52585319E+03     -1.59707090E+03      7.23960140E+02
     -5.84290718E+01     -3.90634113E+02      2.63409091E+02
     -2.68059389E+03      1.41836452E+02      9.25251462E+02
      1.45984492E+03      1.17349725E+03     -4.82376970E+02
     -2.99777924E+02     -3.63852368E+03      1.70195707E+03
      2.10473443E+02      7.26968137E+01      4.31124742E+02
     -1.07113088E+03      7.51324726E+02      2.80511493E+03
      5.25494978E+02      1.75208136E+02     -1.26261173E+03
     -4.22312709E+01     -2.57510843E+02      1.26307067E+03
     -1.63412410E+03     -1.38281895E+03      1.63122189E+03
     -1.20586136E+03     -1.14322912E+03     -7.43471291E+02
     -7.31257037E+02      3.47214619E+02      2.89253389E+02
     -1.49602326E+03     -6.09191307E+02     -2.14704299E+03
      7.46559862E+02     -1.58699757E+03      7.30606406E+02
      4.94391742E+02     -3.59277628E+02      4.66597634E+01
      7.84708256E+02     -1.06837321E+03     -9.83183173E+02
      3.69493729E+02     -2.02669472E+03      8.84478808E+02
     -6.46375146E+01      1.13615234E+02     -2.44228090E+02
      7.20665051E+02     -6.87891089E+02      5.16607018E+02
     -7.23288178E+02     -1.63737001E+03      2.61189547E+03
      8.67475539E+01     -6.24980525E+02      8.35085154E+01
      1.63240087E+03     -1.90617212E+03      2.03894315E+03
      1.31983524E+03     -1.21294474E+03     -9.25735340E+02
     -5.92135703E+02     -5.20836332E+01     -2.86883842E+02
      3.03594515E+02      3.52538699E+02     -8.31817525E+01
      7.23849083E+02      7.60807526E+02     -4.54283225E+02
      4.06854432E+02      5.10925179E+02      1.83889441E+02
      3.35780482E+02     -5.75557421E+02      1.93672400E+03
     -4.03337734E+02     -1.23353436E+03     -1.51762371E+03
      4.83612976E+02     -2.97801638E+02      3.16613094E+01
     -3.69902379E+03     -1.48787928E+03     -7.84039294E+02
      8.32122637E+02     -1.99762536E+03      1.30348886E+03
     -3.67931635E+03     -1.38847013E+03     -1.54446166E+03
      3.00911185E+02      5.52327738E+02      1.55945243E+02
     -1.12426615E+03     -7.28766669E+02      1.92941450E+03
     -6.85253673E+02     -1.07394974E+03      1.72416555E+03
     -6.90198899E+02      9.14194476E+02     -2.41433232E+03
  }
}

Hamiltonian = DFTB {
  SCC = Yes
  SCCTolerance = 1e-6
  MaxSCCIterations = 200
  ForceEvaluation = Dynamics
  MaxAngularMomentum = {
    C = "p"
    H = "s"
  }
  Charge = 0.0
  SpinPolarisation = {}
  Eigensolver = Standard {}
  Filling = Fermi {
    Temperature [Kelvin] = 300.0
  }
  SlaterKosterFiles = Type2FileNames {
    Prefix = "../../pbc-0-3/"
    Separator = "-"
    Suffix = ".skf"
    LowerCaseTypeName = No
  }
  KPointsAndWeights = {
    0.0000000000000 0.0000000000000 0.0000000000000 1.00000000000000
  }
  Dispersion = LennardJones { 
    Parameters = UFFParameters {}
  }
}

ParserOptions = {
  ParserVersion = 3
}
