Geometry = GenFormat {
<<< "system.gen"
}

Driver = VelocityVerlet{
  Steps = 50000
  TimeStep [fs] = 0.2
  MDRestartFrequency = 5
  Thermostat = None {
    #InitialTemperature [Kelvin] = 300.0
  }
  Xlbomd{ 
    IntegrationSteps = 6 
    MinSccIterations = 2
    MaxSccIterations = 200
    SccTolerance = 1e-6 
  }
  Velocities [m/s] {
     -8.87858639E+01     -3.21796661E+01     -3.19898704E+02
      6.75927705E+02      7.22801346E+01      5.88628806E+02
     -1.62155405E+03     -1.24010904E+03      1.20777589E+03
     -1.12119486E+02     -3.48543852E+02     -5.34211605E+02
     -1.23184434E+03      2.56850356E+02     -2.42638021E+03
     -5.03879973E+02      4.98833604E+02      2.22489664E+02
     -5.67895746E+01      4.67729041E+02     -8.86471207E+01
      9.35569813E+02     -2.16926810E+03      3.22741835E+03
      1.66376022E+03     -2.71848508E+03     -1.24568448E+03
      2.47395403E+02     -4.29431110E+02     -2.59063984E+02
      3.00484186E+03     -9.66907180E+02     -1.64297919E+03
      4.99512601E+02      1.62753474E+03     -1.09029879E+02
     -1.91491881E+02      2.13217459E+02     -2.87328260E+02
      7.73695873E+02      2.92753786E+03     -2.24330320E+03
      2.21342887E+03     -7.66998375E+02     -1.79846633E+03
      2.25672692E+02      2.96892117E+02      1.63999790E+02
      2.00130767E+02     -3.76575116E+03     -1.19160095E+03
      2.54735786E+03      2.69046766E+03      1.00191195E+03
      4.62686711E+02      7.50806757E+01      1.32343004E+02
     -2.10146895E+02      3.01076649E+02      1.61107733E+03
     -2.78046662E+01      6.48461053E+01      1.08005535E+03
      2.29039311E+02      1.13506061E+02     -3.16066846E+02
     -3.61611152E+03     -1.07394568E+03     -2.59157993E+02
      1.37223861E+03     -4.08776359E+02     -3.30177716E+03
      2.98078845E+02      1.80034248E+02     -1.06513711E+03
     -9.20943107E+02     -3.73183135E+02      2.56300930E+03
      2.88650011E+01     -5.61048131E+02     -2.15920796E+03
      3.37243350E+03     -3.98254863E+02     -1.58904667E+03
     -5.76416820E+02     -2.74366086E+02     -8.26087608E+01
      9.72011079E+02      5.50449788E+02      1.12833809E+03
      4.05813899E+03     -6.69548738E+02     -1.38311273E+03
      3.91260218E+02      1.40926667E+03      1.16664758E+03
     -9.17588738E+01     -5.89632084E+02     -3.01119636E+02
      1.42886039E+03     -2.76519194E+03     -1.11879786E+02
     -9.55172386E+02     -9.39218424E+02     -7.82722134E+02
      2.09152162E+02      1.22354089E+02     -4.66891886E+02
     -2.22845244E+02     -9.69245669E+02     -6.79310546E+02
     -1.16612017E+03     -5.56292007E+02     -3.46199937E+03
     -5.00811664E+02     -5.33806175E+02      1.08197133E+02
     -2.60682123E+03     -1.25262341E+03      1.00728059E+03
     -9.54279766E+02     -1.56254433E+03     -1.93244019E+03
      6.63048053E+01     -2.22874711E+02     -3.65915542E+02
      1.84635856E+03     -1.39682958E+02     -4.32698972E+01
     -2.47356826E+03      2.45635055E+02     -1.88055114E+03
      3.69167377E+02     -5.70461230E+02     -4.48651850E+02
     -2.41747393E+03     -3.78735541E+01     -2.67219813E+02
      2.71978239E+01      9.96618112E+02     -1.75206598E+03
      2.82059108E+01      5.45341293E+02     -1.71882257E+02
      1.03294117E+03      1.12576190E+03      2.65600113E+03
     -3.14546134E+03     -6.75290254E+01      3.20394572E+03
      4.27491041E+02     -5.48162041E+02      3.70935797E+02
      7.79782388E+02     -2.05639017E+03      1.61856045E+03
     -1.73288441E+03      2.74287427E+02     -4.01289555E+02
      5.60911172E+01     -3.44278709E+01     -4.87670991E+02
      6.06736134E+02      2.91566791E+02     -1.49482331E+03
     -1.63855694E+02      1.96093053E+03     -2.01599151E+02
      1.98801888E+02     -1.06636327E+03     -7.69379887E+02
      2.62436646E+02      1.44872157E+03     -8.50205446E+02
      2.91903513E+03     -8.41440240E+00      2.32544093E+03
      1.83299164E+02      2.15240957E+03      1.14104013E+03
     -3.26598667E+02     -2.17124107E+02     -1.23045466E+02
      1.58971547E+02      3.23026424E+03      5.41574827E+02
     -2.20086144E+03     -6.62428502E+02     -3.33951056E+03
     -1.67486739E+03      5.78341218E+02     -6.92965638E+02
     -7.24011143E+01      1.59012312E+02      9.96010372E+01
     -2.41316695E+03      2.03407238E+02     -1.79285195E+03
      1.81021069E+03     -1.55778046E+03      1.21203268E+03
     -4.87124225E+02     -7.21380937E+02     -3.37237100E+02
     -1.01312980E+02      1.08648512E+03      1.21612874E+03
      1.21433441E+03     -1.74676774E+03     -2.99789888E+02
     -4.65872558E+02      8.90050222E+01      2.46733601E+02
     -2.01584879E+03     -1.56861184E+02     -3.86064773E+03
      1.63376567E+03      2.05611822E+03      1.82530947E+03
      3.27223293E+02     -6.54826801E+02      2.72830387E+02
     -1.51559176E+03     -5.17233159E+02      1.61598855E+03
     -5.98402728E+02     -1.96572284E+03     -1.86631198E+02
     -3.67110401E+02      6.01199702E+02      4.23988383E+02
      1.01198797E+02     -1.05338341E+03     -2.97186478E+03
      2.01060225E+02      1.65501616E+03      2.90701065E+03
     -6.08762842E+02     -4.09569343E+02      3.89464217E+02
      9.18831663E+02     -6.32030146E+02      1.70418014E+03
      7.12033542E+02      3.12057345E+03      2.08121443E+03
     -4.19389109E+02      4.27150719E+02     -4.78607772E+02
     -1.18041260E+03      1.09666282E+03     -2.83532489E+02
     -5.74730236E+02      1.04993199E+03      1.41655813E+03
      3.10667778E+02     -4.28644399E+02     -9.59864509E+01
      1.11946900E+03     -9.68908030E+02     -1.94365303E+03
      2.00669375E+03     -4.39848296E+02     -5.02227037E+02
     -1.94512028E+02     -8.79980413E+02      2.69801269E+02
     -1.16093796E+03     -1.44827989E+03      1.33622878E+03
      3.58114676E+03     -5.89187204E+02      9.18993529E+02
     -8.47987048E+02     -2.95415922E+02     -6.50994496E+02
      5.19864785E+02     -2.14767347E+02      1.03863881E+01
     -6.61296395E+02      6.87567507E+02     -2.45550566E+02
      2.08207826E+03      1.25235500E+03     -2.04855287E+03
      7.53270357E+02      1.09183670E+03      1.60791264E+03
      1.59730645E+02     -3.78877824E+02      2.17464848E+02
     -5.42668666E+02     -6.41380898E+02      1.97796269E+03
      1.08604519E+03      2.29704904E+03      5.54250838E+02
     -6.58305288E+02     -7.17912934E+02     -4.03112071E+02
      1.49364613E+03      4.47491805E+02      3.22647695E+02
     -4.52369602E+01      4.20027309E+02      1.55272604E+02
     -7.00807462E+01     -7.15585179E+02      3.13395195E+02
      8.19663135E+02     -3.15511744E+03     -7.27521371E+02
      2.97336681E+03     -5.37262193E+01      1.04855197E+03
      4.36074516E+02     -5.03688227E+02      1.62132639E+02
      1.62549942E+03     -3.92240612E+02     -9.00569469E+02
      1.20197562E+03     -8.02818120E+02     -1.33863825E+03
     -4.93299870E+02      3.78821642E+01     -3.48207579E+02
     -1.76186777E+03     -2.91161863E+03     -4.83342493E+02
     -4.73699835E+02     -1.51539188E+03     -1.20426008E+03
      1.71744930E+02     -5.19822816E+02     -1.83961549E+02
     -1.80515642E+02      1.10118087E+03      1.06376213E+03
     -1.46246853E+03      2.92188629E+02      1.29321313E+03
     -3.26866303E+02      4.73003717E+02      2.00673535E+02
      2.45432822E+03      2.07586020E+03     -1.46894537E+02
      1.10017230E+03      2.71354127E+03      2.16095362E+03
      9.69355552E+02     -6.79526061E+02     -1.04258426E+02
      5.06571106E+02      2.87249228E+03      2.16536524E+03
      2.40659403E+03     -5.68839146E+02      4.29720538E+02
     -7.68015489E+01      4.01402467E+02      6.76808119E+01
     -2.88262562E+03      1.37625248E+03      4.62334973E+01
      1.46132871E+03      5.89415316E+02     -1.08420441E+03
     -1.33536542E+02     -2.39819602E+03     -3.63401244E+02
      1.55892922E+02      3.82062223E+02      2.78087268E+00
      2.27807270E+03      2.35685058E+02      9.58842351E+02
      4.09760331E+02      2.69167701E+01     -2.03333710E+03
     -7.52186530E+02     -1.81223866E+03      1.29066214E+03
     -3.28189823E+02     -1.78590430E+02     -8.32018567E+01
      1.22194502E+03     -7.55554975E+02      1.58523191E+03
     -2.46216276E+03      1.09782704E+03     -1.87880737E+02
     -2.98996208E+01     -8.23795587E+02     -3.85313008E+02
     -1.18680859E+03      2.58488590E+03     -8.72480137E+01
      1.00949638E+03     -2.20402727E+03     -2.03306444E+03
      1.48094922E+02      1.95047678E+02     -4.42397508E+02
     -2.40260184E+03     -4.16157935E+02     -2.73211087E+03
      9.49175328E+02      4.43044480E+02      2.25753693E+02
     -5.16391837E+02     -3.39524289E+02      2.71419961E+02
     -8.50218170E+02     -7.00007798E+02      1.33729380E+03
     -1.56031198E+03      1.78113195E+03      2.48086604E+03
     -8.41329985E+03      1.40990888E+04      1.42959628E+04
     -5.19760867E+00      1.15199881E+03      8.59523818E+01
     -1.70046938E+03      1.39546710E+03     -1.28931925E+03
     -5.86460886E+02     -1.29194729E+02     -6.22650075E+01
     -7.35026490E+02      2.02041961E+03     -8.47200579E+02
     -1.01108860E+02     -2.89634592E+03      2.77766249E+03
     -1.53061687E+02     -7.62687738E+02     -6.67923740E+02
     -2.42994131E+03     -1.28888963E+03      2.59795135E+03
     -9.09464563E+02     -4.60142480E+02     -1.94082017E+03
      6.76676381E+02     -1.75912701E+02     -4.98245543E+00
      1.20660989E+03      5.57539238E+02     -5.43474842E+02
     -8.31114844E+01      8.64549879E+02      1.21401773E+03
     -6.24440187E+02     -1.28631556E+02     -6.74022029E+02
      3.24440021E+03      1.75021806E+03     -4.61914227E+03
      1.51805407E+03     -2.47643806E+03     -2.58889894E+03
      7.85408163E+01     -2.34600929E+02      2.14019040E+03
      1.06243304E+02      2.94727088E+02      1.62374200E+02
     -6.37735938E+02     -6.56157090E+02      1.74899575E+02
      7.31530679E+02      3.02885582E+02      3.14282675E+02
      1.61033065E+02      4.95408061E+02      2.55479227E+03
      7.87072723E+00     -2.00225057E+02      2.81462952E+02
      1.05327400E+03     -3.75817508E+03      2.47048584E+03
     -1.87021020E+03     -6.69263553E+02      1.23432265E+03
      5.79814069E+02      9.71490256E+02     -4.97844019E+02
     -7.02026902E+02      9.68214345E+02      3.92164418E+02
     -2.34058399E+03      1.51968648E+02      1.09109095E+03
      7.68541691E+02     -2.86322223E+02     -8.92014384E+02
      1.59725458E+02      4.94505454E+02     -1.63451820E+03
      1.32265425E+03      3.01994505E+02      8.74277805E+02
      1.35346504E+03      5.84004502E+02     -4.39565881E+02
     -6.03273371E+01      1.48583282E+03     -2.50937528E+03
      2.16070875E+03     -1.60844565E+02     -2.48175404E+03
      5.40260133E+02      2.40099554E+02      7.74881744E+01
      2.85627025E+02      6.27762941E+02      3.78917329E+02
     -1.25952117E+03      1.64345508E+03      1.64693885E+03
     -8.32070912E+02      6.69308945E+02     -3.55515950E+02
     -1.70829243E+03     -2.06178970E+02      7.00696566E+02
      1.50252348E+03     -4.54670218E+03     -1.54635117E+02
     -3.23551205E+02     -4.20038581E+02      2.15170072E+02
      7.23969797E+01      2.89796462E+02      4.09597152E+03
      2.66355220E+02      1.11355384E+03      1.80230132E+03
      2.39385546E+00     -1.52492192E+02     -1.12179723E+02
      1.14495589E+03     -2.15453468E+02     -1.38457523E+02
      1.26599358E+03      7.81209218E+02     -1.74117287E+03
     -2.60150704E+01     -7.99631931E+01     -7.29205873E+01
     -9.27262530E+02      1.94567145E+03     -1.51778279E+03
     -8.15895101E+02      1.23347205E+03      1.04293226E+03
     -1.26882178E+03     -1.70208267E+03      1.61734576E+03
      3.37705382E+01     -1.02663019E+02      1.18770599E+02
     -5.78575565E+02      1.03463368E+03      8.73191951E+02
     -3.84541085E+02     -2.02039323E+03      3.48219469E+03
      1.12233233E+03     -1.40159530E+03      9.79499642E+01
     -4.79435201E+02     -8.15836754E+00     -5.15720623E+02
      8.58282854E+02     -1.69895396E+02      1.44961777E+03
      9.84024636E+01      2.13899864E+03      2.16783815E+03
      2.38725517E+02     -5.29823689E+02      3.84841755E+02
     -1.37394166E+03     -2.11713820E+03     -1.54531080E+03
      5.65353383E+02      2.87682570E+02     -1.60506474E+03
      5.60042423E+01     -2.55548435E+02     -8.12537307E+02
     -1.24691891E+03     -1.35404230E+03      1.01618585E+03
      8.80295160E+02      3.43080055E+03      5.92898244E+02
      6.05147547E+01      2.67116176E+02     -1.08058697E+03
      1.53890557E+02      8.89080614E+02      3.11802220E+02
     -1.47367374E+03      2.06606387E+02     -8.31412333E+02
      1.34834065E+02     -5.28829472E+02      3.99490343E+02
     -4.54545596E+02     -1.85610438E+03      3.17058868E+03
      7.27903705E+02     -1.45849850E+03     -1.21230400E+03
      6.38408848E+02     -5.53133492E+02      7.26833561E+02
     -7.94119827E+02      1.21268361E+03      9.36566488E+01
      2.02888014E+03      1.27919505E+03     -1.39264027E+03
     -1.55942259E+02      5.89740076E+02      1.82668100E+02
     -1.46823647E+03      5.57128417E+02     -3.56428180E+02
      9.20564154E+02     -4.79899979E+03     -1.37533066E+03
     -4.01086538E+01     -1.87920738E+02     -3.94186919E+02
     -1.12102895E+03     -1.38455251E+03      2.20813683E+03
      2.92905619E+03      7.07120972E+02      8.08404730E+02
      6.86164246E+01      2.92832095E+02     -6.47040989E+02
      2.64310878E+03     -2.20587416E+03     -9.48337443E+02
      1.03473155E+03     -1.32986846E+02      6.39043993E+02
     -1.69081006E+03     -2.15915368E+03      2.60022848E+02
     -1.52576531E+01      4.69858236E+02      6.54845546E+02
      2.04705108E+03      1.55973269E+03      1.01454441E+03
     -3.56410637E+02      8.48010014E+02     -1.56951992E+02
     -9.41154683E+02      7.69503264E+02      9.95394476E+02
      2.62468379E+02     -2.35045324E+02     -2.71518163E+02
      1.05405806E+03     -1.42850851E+03     -4.43158390E+03
      1.78881629E+03      9.68326658E+02      1.91563171E+03
     -2.25831517E+02      1.93216883E+02     -2.27013825E+02
      9.99902606E+02     -2.98009933E+02      7.01772741E+01
     -8.16146279E+02     -3.88401857E+03      2.07912685E+03
     -1.94059431E+02      2.33042243E+02     -2.34852592E+01
      1.22510509E+03      1.28856617E+03     -3.03847191E+03
      3.24146598E+02     -3.84381479E+02      6.13934372E+02
     -3.76056429E+02      2.86847162E+02     -4.40929441E+02
      2.39704935E+01     -6.15318710E+02     -1.65613126E+03
      1.12098423E+03     -6.39902065E+02      1.11108320E+03
     -4.30227981E+02     -2.58997856E+02     -9.72733600E+02
      2.59257271E+02     -2.43172178E+03     -1.84435494E+03
      5.07794452E+02     -8.69113135E+02     -1.54825413E+03
      3.17753434E+02     -1.30631876E+01     -3.16444826E+02
     -5.60091219E+02      9.37686652E+02     -1.06383545E+03
      8.20261361E+02      7.45623584E+02      1.02099740E+03
      1.15967877E+03      4.28267652E+02     -2.22097776E+02
      8.80041023E+02     -2.76269628E+02     -1.72804706E+02
      9.88739732E+02      3.74407714E+02      1.21166454E+03
      2.05104935E+02      3.89239003E+02      6.09997823E+01
     -2.55910817E+03     -2.15607620E+03     -1.16895142E+03
     -1.22767914E+03      7.66568926E+02     -2.05130679E+02
     -6.18552461E+02     -2.01598723E+02      2.79333362E+01
     -4.50085916E+02     -1.02772415E+03      1.57360591E+02
     -8.26869012E+02     -8.09925312E+02      1.04069892E+03
      2.74373256E+03      1.15378981E+03      2.31839109E+03
      5.83105304E+02      2.57707268E+02      3.33784779E+02
      2.71816131E+02     -1.68193930E+02      1.41652592E+03
      2.58315113E+02     -6.42824936E+02      1.30477218E+03
      5.72267359E+02     -1.08583031E+03      3.30011168E+03
     -4.42472904E+02      5.01959010E+01     -7.65554140E+02
      4.01591910E+02      1.99159817E+02      2.74094645E+03
     -1.28801090E+01      1.36364236E+03     -7.59054732E+02
      2.57331406E+02      8.50099538E+02     -4.68902906E+02
      6.56820911E+02      1.35964392E+03      1.31931251E+03
     -2.27006931E+03     -1.31771424E+03     -1.05442704E+03
      2.57060941E+02      5.93325412E+02      1.35598776E+03
      1.92688310E+03     -3.19919652E+02     -7.85722078E+02
      4.94445926E+02     -3.46053896E+03      8.24913573E+02
      2.11379379E+02     -7.01117940E+02     -3.19913353E+02
      2.73056031E+03      1.92141945E+03     -1.35520743E+03
      3.97557203E+01     -5.02943389E+02      2.47420868E+03
      2.69598516E+02     -2.29718569E+02     -1.09562457E+02
     -7.62171103E+02     -6.12132626E+02     -1.54167918E+03
     -1.77370206E+03      4.20181186E+02      1.17942810E+03
      2.56549399E+02     -3.54062998E+02     -2.48018771E+02
      1.28890213E+03     -3.12607148E+03     -1.50960010E+03
      6.44667393E+02     -2.47773305E+03     -1.17738147E+03
      5.11468062E+02      2.52936079E+02     -8.07957814E+01
     -9.52132468E+02     -3.00235771E+03      1.59370168E+03
      1.34479878E+03      2.77207131E+03      1.73443100E+03
     -2.34413974E+00     -3.91734103E+02      2.34148758E+02
     -1.41849112E+03     -2.20575523E+02     -8.81527309E+02
      1.34522574E+03      8.47391501E+02     -1.59993292E+03
     -6.07424913E+02     -9.93103343E+02     -1.99089502E+02
      1.62143318E+03      2.33467485E+03      1.58839589E+03
      1.05214554E+03      1.59364545E+03      5.39904478E+02
      9.18903170E+02      3.68770301E+03     -6.37746692E+02
     -3.82583114E+02      1.92845668E+02     -3.94716192E+02
      1.19166397E+03     -3.67706376E+02      1.54424626E+02
      2.21457510E+03      3.20409367E+03      8.78570350E+02
      6.26266533E+02     -8.88429297E+02     -1.66394248E+03
      2.86560298E+02      5.77543262E+02     -5.18003019E+02
      5.28364099E+02     -3.34730760E+02      3.16766244E+02
     -2.89086590E+01     -7.65603416E+02     -1.89363688E+03
     -3.92999982E+02     -1.94860256E+02     -4.82124227E+02
      2.54333202E+03     -1.68303207E+02     -2.07590810E+01
      1.17125869E+03      1.61482349E+03     -1.07147232E+03
     -7.49924910E+02     -2.84311662E+02     -8.71037620E+01
     -1.13737376E+03     -6.15474179E+02      5.89164238E+02
     -4.25371833E+02     -2.41419540E+03      1.67624390E+03
     -1.90380887E+02     -2.90332720E+02     -8.00905538E+02
      7.31238637E+02     -3.35537392E+03     -1.32381956E+03
      7.61946183E+02      1.73651933E+03      8.55276121E+02
     -3.00827552E+02     -4.34439733E+02      1.81607046E+02
     -1.80225449E+03      1.53395815E+03      8.79674134E+02
     -3.94197048E+01     -3.36327650E+02      1.05703444E+03
      2.53952209E+02     -7.45602844E+02     -3.55569385E+02
      7.61993388E+02     -1.00290969E+02     -2.16555681E+02
     -5.71907683E+02     -1.71560955E+03      2.63432584E+03
     -7.90960729E+01     -9.91642789E+02     -1.31570804E+02
      2.99153036E+03      8.36545470E+01     -1.05292815E+03
      6.58107007E+01     -5.33472467E+02      1.88817961E+03
      1.72147794E+02     -1.54997476E+02      2.87366023E+01
     -3.74021726E+03     -1.34011806E+03     -4.04294061E+03
     -3.06611448E+02      1.76354126E+02      4.20319983E+02
      6.50482392E+02     -6.24550411E+02     -2.05154520E+02
      2.92007456E+02      2.11594376E+03     -1.71279080E+03
      9.22251859E+02     -6.15362731E+02     -8.10341062E+02
      1.85862309E+02      7.66296129E+02     -1.34321331E+03
      1.45241026E+02     -4.34442977E+01     -7.09256889E+02
     -8.81776521E+02      1.13135581E+02     -2.78706336E+03
      6.25805434E+02      1.01198895E+03      1.95767711E+02
      3.98897694E+02     -1.32270902E+03      4.91994079E+02
      8.49899385E+02      1.03174028E+02      6.19143558E+02
      1.54635567E+02      1.48999790E+02     -1.02990581E+03
      6.35374909E+02     -1.85103926E+03     -5.56598665E+02
      2.80170282E+02      4.41273808E+01     -8.98021194E+01
     -1.24156112E+03      3.07145641E+02      3.63631644E+01
     -2.84250028E+03     -6.77208562E+01     -3.35765666E+03
      3.51815630E+02     -2.80488790E+02      5.29507546E+02
      2.49623714E+02     -6.97700927E+02      1.47050352E+02
      1.08766737E+03     -8.95094355E+02      1.74943466E+03
      6.04359885E+02     -3.22285821E+02     -1.27725219E+02
      1.34233523E+03      1.07208700E+03     -9.41001685E+02
     -1.00177453E+03      1.42971355E+03      1.87987342E+03
      3.99051510E+02     -5.77913043E+02     -1.67900660E+02
      2.52799643E+02     -9.33184672E+02     -3.86899269E+02
     -1.77507705E+03      7.20851223E+02     -2.37790107E+03
      3.13445457E+02     -1.26657785E+02      8.75047291E+00
     -1.58249314E+03      3.05486762E+03      1.19753547E+03
      1.87378944E+03      1.17293705E+03      1.77545867E+03
     -5.51922062E+01     -3.09963364E+02     -2.78146076E+02
      1.24108125E+02      1.31634625E+03      1.79104402E+03
      1.52500110E+02     -3.09482263E+02      2.69082101E+03
      1.48472286E+02     -5.61311096E+01     -7.09480613E+02
      4.67969969E+02      1.45375273E+02      1.36696018E+03
     -4.17741440E+03     -5.70209250E+02      1.30922273E+03
     -1.51669974E+02     -1.09793741E+02      2.79330575E+02
      4.25309669E+03      1.91241691E+03      2.42755136E+03
      1.06440901E+03     -4.56827602E+03      2.12475717E+03
      1.35117556E+03      1.95736564E+03     -9.86575078E+02
      9.19433368E+02      2.60642499E+02     -8.36817207E+02
     -6.44296751E+02     -2.13943444E+03      8.77527957E+02
     -4.69913798E+02     -9.57273928E+02     -1.23284147E+03
     -3.97818029E+03     -1.40120790E+03     -4.48673883E+02
  }
}

Hamiltonian = DFTB {
  SCC = Yes
  SCCTolerance = 1e-6
  MaxSCCIterations = 200
  ForceEvaluation = Dynamics
  MaxAngularMomentum = {
    C = "p"
    H = "s"
  }
  Charge = 0.0
  SpinPolarisation = {}
  Eigensolver = Standard {}
  Filling = Fermi {
    Temperature [Kelvin] = 300.0
  }
  SlaterKosterFiles = Type2FileNames {
    Prefix = "../../pbc-0-3/"
    Separator = "-"
    Suffix = ".skf"
    LowerCaseTypeName = No
  }
  KPointsAndWeights = {
    0.0000000000000 0.0000000000000 0.0000000000000 1.00000000000000
  }
  Dispersion = LennardJones { 
    Parameters = UFFParameters {}
  }
}

ParserOptions = {
  ParserVersion = 3
}
