Geometry = GenFormat {
352 S
C  H
1   1         36.20194900         30.69633400         38.11820100
2   2         36.10857900         31.27802300         39.03586300
3   2         36.43250700         31.35092000         37.24930700
4   1         37.24987100         44.99296400         38.29390700
5   2         37.28188000         44.39618200         37.38005300
6   2         21.61817700         44.29798600         39.10307600
7   1         38.67811800         45.58919500         38.62807800
8   2         23.27785900         46.25750400         39.53758900
9   2         38.97860600         46.13280600         37.75564600
10   1         24.49537600         44.61498700         38.94000400
11   2         24.21056100         43.92121400         39.73806000
12   2         25.40325800         45.16233000         39.20126000
13   1         40.26450300         43.75857800         37.79946100
14   2         40.71799600         44.45557400         37.08658600
15   2         39.39802100         43.22435800         37.40944500
16   1         25.95677400         42.73909200         38.13615100
17   2         25.33573000         41.91505100         38.66584100
18   2         26.72265900         43.12196000         38.89152100
19   1         42.07423000         42.14329100         36.99177200
20   2         42.71805800         42.86844900         36.45326800
21   2         41.41387200         41.66821300         36.24614900
22   1         42.98703100         41.08939800         37.49193500
23   2         27.17301700         40.25196100         38.08070500
24   2         28.33977900         41.39509500         38.33486300
25   1         34.83108000         30.06751400         37.83093000
26   2         34.00535600         30.74288100         37.68163600
27   2         34.77601800         29.40686200         36.95246800
28   2         34.50418100         29.43177300         38.66408600
29   1         43.67283100         40.40482800         36.32945200
30   2         42.96032800         40.30627200         35.51195200
31   2         44.57646600         40.95935100         35.98673200
32   2         44.05330400         39.40394000         36.50037400
33   1         27.56986100         32.21808000         36.56044500
34   2         26.46461400         32.18936500         36.41815200
35   2         27.79134500         31.73104800         37.50127100
36   1         28.17663600         31.24816000         35.50295200
37   2         27.90638500         30.16034900         35.71425800
38   2         29.22257500         31.18094000         35.59274200
39   1         27.65776700         31.53276900         34.11363800
40   2         27.46685600         32.67627100         33.97426900
41   2         26.59634600         31.11004500         34.03746300
42   1         28.48986500         31.00797600         32.99385500
43   2         43.85736700         29.96861600         33.11721000
44   2         29.57005200         31.29511700         33.13112800
45   1         28.06613700         31.39820200         31.55694900
46   2         28.33211200         32.46870100         31.29737300
47   2         42.24506300         31.47014400         31.53335800
48   1         43.84696200         30.36749700         30.55004100
49   2         43.40239700         29.40583700         30.79866800
50   2         44.95672500         30.28416300         30.47166700
51   1         28.08568600         30.77168100         29.18586600
52   2         28.52232900         31.82446700         29.00498200
53   2         26.96139300         30.91481300         29.17168600
54   1         43.77851900         29.87080400         43.35366600
55   2         43.81118900         28.81918900         43.70027400
56   2         44.83352500         30.09109300         43.15355100
57   1         28.29684100         33.56100600         36.64414300
58   2         27.98658000         34.03234500         37.59687600
59   2         29.37976400         33.45657500         36.79915800
60   2         28.19541300         34.25093600         35.77380500
61   1         27.54341000         29.96262100         42.18149000
62   2         28.07269100         29.54716100         41.34348700
63   2         26.54167000         29.59613300         42.25890000
64   2         27.47101500         31.08566200         41.93455600
65   1         38.55551900         38.89263400         36.50050400
66   2         37.59880200         38.41155200         36.79348200
67   2         38.75908100         38.54554500         35.44245500
68   1         38.25514100         40.38318800         36.46419700
69   2         39.19504500         40.88018700         36.47566600
70   2         37.83345200         40.68763000         37.44297800
71   1         37.29314600         40.76729200         35.35567300
72   2         36.33160500         40.29703800         35.42786100
73   2         37.66995000         40.41419900         34.32800400
74   1         37.10972000         27.05274700         35.31666600
75   2         37.93489800         27.59064200         35.92010700
76   2         36.15732200         27.37437300         35.99138100
77   1         36.92781400         27.64901200         33.90281500
78   2         36.15320200         42.40822300         33.37872400
79   2         37.88183000         42.83760700         33.36510000
80   1         36.50867900         29.15584100         33.95247300
81   2         37.01584100         29.49491300         34.88006800
82   2         35.46371500         29.19007600         34.32168100
83   1         36.55437500         30.03425300         32.75410100
84   2         37.61537700         30.39448400         32.66575100
85   2         36.08497900         31.01904100         32.94292500
86   1         36.02422600         29.46442900         31.43434200
87   2         34.99399900         29.05418800         31.53543500
88   2         36.61844900         28.55842500         31.03541100
89   1         39.56817100         38.36325100         37.44331000
90   2         40.67735000         38.60399200         37.29923300
91   2         39.40423300         38.74907700         38.45109100
92   2         39.44841700         37.27328100         37.47813700
93   1         36.09456400         30.54905300         30.38026300
94   2         37.10811600         31.00356600         30.37807600
95   2         35.82106000         30.20485700         29.36707100
96   2         35.41345000         31.31573300         30.56714700
97   1         31.51954600         39.27866200         40.17451200
98   2         30.41702200         39.06894200         40.43708000
99   2         31.94499300         39.53130500         41.15725000
100   1         32.15275100         37.98760800         39.64959000
101   2         33.25292300         38.08842300         39.57134700
102   2         31.79415500         37.72143900         38.59129100
103   1         31.96182500         36.77318000         40.57207200
104   2         32.03510200         35.79785800         40.05822700
105   2         30.93228600         36.74522600         40.99315500
106   1         32.99150900         36.97593800         26.40537800
107   2         32.90503700         38.01741500         26.68507300
108   2         34.03397300         36.86987500         26.09901600
109   1         32.70905700         35.93268200         27.60092500
110   2         33.64271800         35.80631800         28.11380700
111   2         32.58679700         34.97080000         27.06825000
112   1         31.58816200         36.36379800         28.55884000
113   2         30.56364700         36.50235400         28.02307900
114   2         31.78908700         37.37187000         28.94198300
115   1         31.41419900         35.48529000         29.77511400
116   2         32.39013300         35.51757100         30.36676500
117   2         31.19712800         34.43689300         29.52256400
118   1         30.36517600         35.88347900         30.81653100
119   2         30.19150100         36.95663200         31.05349000
120   2         30.61507000         35.37629500         31.75764800
121   1         31.75652200         40.48515200         39.25223400
122   2         32.80708100         40.79447400         39.48261100
123   2         31.69059900         40.29778600         38.15981800
124   2         31.04220400         41.32759300         39.50448000
125   1         28.98644400         35.33459700         30.45142700
126   2         28.33120100         36.08533800         29.95531100
127   2         29.03609900         34.60419300         29.67315500
128   2         28.39509200         34.91968900         31.24384200
129   1         35.53737200         38.34877700         30.70189400
130   2         35.00236800         37.42646200         30.40246600
131   2         34.78192000         39.08589000         30.94173700
132   1         36.35514100         37.90968500         32.00948300
133   2         36.98791600         38.83320800         32.30496800
134   2         37.00830500         37.11704200         31.64157400
135   1         35.46072600         37.40735700         33.16539600
136   2         36.02480400         37.27527800         34.09051200
137   2         35.03367800         36.39044100         32.91465900
138   1         34.38997500         38.37472200         33.57424200
139   2         33.52057200         38.37975100         32.89683000
140   2         34.81168900         39.33147100         33.59952300
141   1         33.71735000         38.16298600         34.98089300
142   2         34.33944300         38.49886400         35.82931700
143   2         33.58596200         37.11478600         35.28578100
144   1         32.33466100         38.84282100         35.15655400
145   2         32.47730600         39.97807600         34.95256700
146   2         32.05088100         38.67221200         36.22155900
147   1         31.16544300         38.36162800         34.28631600
148   2         31.47556000         37.95531800         33.28748200
149   2         30.50980000         39.27038100         34.03258400
150   1         30.33241300         37.24070600         34.85973200
151   2         30.03823100         37.29385900         35.95664000
152   2         31.01228400         36.32210400         34.86207500
153   1         36.43535000         38.81063100         29.55794700
154   2         36.68412100         24.58385500         29.67706800
155   2         37.41447600         38.29170100         29.48646400
156   2         35.93360800         38.67893400         28.58180900
157   1         29.06147800         36.95354400         34.09453600
158   2         29.12912500         35.90655900         33.76892800
159   2         28.15261800         37.00176700         34.70320900
160   2         28.90637800         37.62641400         33.27287500
161   1         39.98314800         28.33548200         29.67457700
162   2         40.68975800         29.10956000         29.38659600
163   2         40.55109400         27.37649800         29.54526800
164   1         39.63709800         28.46173100         31.17798000
165   2         38.79367700         27.84990800         31.53567900
166   2         39.37601100         29.49528400         31.45250700
167   1         40.78458300         28.28206400         32.14146800
168   2         40.68499500         28.63472400         33.14672100
169   2         41.72207900         28.78381500         31.82037400
170   1         41.26082000         26.80048200         32.30569300
171   2         42.24868600         26.80393500         32.84030600
172   2         41.31106100         26.26125600         31.35544200
173   1         40.30959900         41.24373900         33.12828200
174   2         39.33751100         41.24702000         32.61345800
175   2         40.09280200         26.53422500         34.03537900
176   1         40.78330700         39.80099400         33.41165800
177   2         40.39013800         39.37769900         34.38988800
178   2         41.86946200         39.80267400         33.40167900
179   1         40.34866200         38.89604000         32.20809900
180   2         40.89331400         39.18360800         31.27904500
181   2         39.29363700         38.96911100         32.04233700
182   1         40.59800500         37.40576000         32.58417200
183   2         39.76458200         37.02647600         33.25173400
184   2         41.53377500         37.39710600         33.09323200
185   1         38.76816500         28.18884000         28.81097700
186   2         38.05681100         27.37326400         29.13470500
187   2         38.07555600         29.00335700         28.82560200
188   2         39.07271900         28.00425900         43.11210900
189   1         40.54729600         36.49430600         31.36491500
190   2         41.47880200         36.73724000         30.75950700
191   2         40.63996600         35.45378700         31.58419300
192   2         39.61309600         36.80404600         30.72584200
193   1         33.06578100         28.27381000         42.30411000
194   2         32.84020200         29.25054100         42.80458500
195   2         32.47491000         43.71356900         41.35181300
196   1         34.61513800         28.00597500         42.01533100
197   2         35.07691800         27.82076100         42.99163500
198   2         34.97152800         44.34320200         41.60243100
199   1         34.89070800         26.84175600         41.04426400
200   2         34.49165200         27.07670400         40.09139500
201   2         34.43883200         25.87534600         41.48015500
202   1         36.44796800         26.76699400         40.77532500
203   2         36.87184200         27.64468200         41.29158600
204   2         36.55348500         26.74677200         39.68597600
205   1         37.01431000         25.47856600         41.38753800
206   2         36.47488900         24.62740500         40.86000700
207   2         36.74205500         25.29611200         42.40777000
208   1         38.50173400         25.39420000         41.23037000
209   2         38.86257000         26.37113700         41.62606800
210   2         38.92650900         25.29768700         40.20525300
211   1         39.14253600         39.47917400         41.92815100
212   2         38.76100800         38.61434800         41.49268900
213   2         38.87720400         39.48495700         42.98845400
214   1         40.68794300         39.44400300         41.80368500
215   2         41.05219900         39.37120700         40.71381400
216   2         41.04610300         38.45077900         42.20504100
217   1         32.40473300         27.14979300         43.07110700
218   2         31.25859100         27.40857500         27.92977000
219   2         32.38228100         26.17295800         27.25057300
220   2         32.78741900         26.90467500         44.12624400
221   1         41.36371400         40.62120100         42.55529300
222   2         41.07237500         41.64168300         42.12531100
223   2         41.18859300         40.55955700         43.65128500
224   2         42.45004500         40.55206700         42.39704700
225   1         30.65543700         43.74968600         37.19294800
226   2         29.62226800         44.22604100         37.13654400
227   2         30.57354400         42.66316200         37.25654700
228   1         31.36789700         28.70141600         35.85961600
229   2         32.37890200         28.24396800         35.75928800
230   2         31.48535000         29.77352000         35.80039700
231   1         30.58857700         43.46965000         34.69772800
232   2         29.62543300         43.98533100         34.55150200
233   2         30.31791200         42.37135100         34.87691800
234   1         31.19122000         43.59300800         33.31709800
235   2         31.27351800         44.67038800         33.16562400
236   2         30.46052800         43.19570100         32.54682000
237   1         32.59213600         42.81385500         33.10049100
238   2         32.65017200         41.98820000         33.83773000
239   2         33.41092000         28.21448600         33.11905300
240   1         32.63990300         41.95221500         31.79706500
241   2         33.67960400         26.26487600         31.80267800
242   2         32.50445300         27.29453200         30.92244900
243   1         31.61041900         40.78219600         31.90347700
244   2         31.20625200         40.72590300         32.95931200
245   2         32.08889600         39.83170600         31.93365900
246   1         30.51614700         40.91039300         30.76510300
247   2         31.08640300         40.46347800         29.94600800
248   2         30.31125100         41.99399000         30.46245200
249   1         31.36913900         28.94665400         38.41614800
250   2         30.74374200         28.82499000         39.34033100
251   2         32.35984800         28.46869700         38.51356400
252   2         31.48162400         30.03200400         38.41868000
253   1         29.22420800         40.17866000         31.01746100
254   2         29.27431100         39.07787300         30.95902800
255   2         28.75760500         40.42712600         31.95638800
256   2         28.48180700         40.38689800         45.56505100
257   1         41.39551000         35.36824900         42.31263500
258   2         42.39620900         35.82913000         42.64067600
259   2         40.60814700         35.88893100         42.83522700
260   1         41.44875300         35.59374200         40.78809900
261   2         42.35167500         34.97805700         40.42840000
262   2         41.66441400         36.59926700         40.42685300
263   1         40.16502400         35.14916300         40.05560700
264   2         39.60341800         36.11876000         39.73358600
265   2         39.47093500         34.59799000         40.74316000
266   1         40.55831500         34.28730100         38.81321800
267   2         41.27779500         33.54382600         39.12947600
268   2         41.12318100         34.93741700         38.06991900
269   1         39.38542700         33.72682800         38.00575700
270   2         38.70236500         33.41719700         38.76174400
271   2         39.78163900         32.81709000         37.46990500
272   1         38.79013600         34.69599200         37.01853600
273   2         39.56979300         35.40982100         36.64165200
274   2         37.99883600         35.30698600         37.43774900
275   1         37.91087400         33.97590700         35.90915400
276   2         37.40613900         34.83409700         35.32667900
277   2         37.13114500         33.40532200         36.41479300
278   1         38.72158300         33.01724600         34.92069900
279   2         38.01285900         32.33244800         34.38794900
280   2         39.33392700         32.33430100         35.62317900
281   1         41.53550900         33.96386400         42.79497200
282   2         42.57301700         33.69619400         42.82303100
283   2         41.15006500         33.88552400         43.80299000
284   2         41.06595700         33.16910400         42.14656200
285   1         39.76150000         33.68344400         33.95137300
286   2         40.59023200         32.89088500         33.71119900
287   2         39.34469800         33.99477800         32.98999200
288   2         40.31163200         34.46924800         34.52251000
289   1         30.66206000         31.60611400         41.10889900
290   2         30.53885400         30.54000800         41.22125000
291   2         30.16614100         32.14185100         41.98253600
292   1         32.14355100         31.92588800         40.88845600
293   2         32.24599300         32.94101000         40.58004300
294   2         32.53955500         31.21561600         40.14617100
295   1         32.97445700         31.85838600         42.27421400
296   2         32.65636500         30.98972400         42.90032300
297   2         32.68951000         32.82992200         27.54694000
298   1         34.46374400         31.76244600         26.72243500
299   2         34.71783200         30.79562500         41.56286200
300   2         34.86402600         31.67659200         27.77515600
301   1         35.02565700         33.02272200         26.00502700
302   2         34.49394500         33.89270400         26.24964800
303   2         34.84003800         32.80864300         40.26607300
304   1         36.56631700         33.09765700         26.11704000
305   2         36.89523500         33.86689500         25.40273800
306   2         36.93402300         32.13696900         25.63986000
307   1         37.13842000         33.23201700         27.50390900
308   2         38.27443600         32.95456400         27.57957300
309   2         36.64314400         32.41310300         28.17290400
310   1         37.04020200         34.62077500         28.03570100
311   2         35.99757200         34.94364500         28.08226400
312   2         37.51859900         35.38625800         27.39410600
313   1         29.86595600         32.10599100         39.90103500
314   2         29.90267200         33.17894200         39.77300700
315   2         30.06529700         31.59408400         38.97616800
316   2         28.74493600         31.97613000         40.05267900
317   1         37.63889000         34.73055700         29.45474700
318   2         38.69484900         34.68544500         29.33507400
319   2         37.47057400         35.70592600         29.84601300
320   2         37.27859000         33.96048800         30.13559300
321   1         35.82428200         36.58921600         22.90726600
322   2         36.56813000         36.54466000         22.05049900
323   2         35.12580000         37.37125700         22.58545400
324   1         34.96314100         35.30813700         38.27457600
325   2         34.31404000         35.20684200         39.18819500
326   2         35.62770500         34.40848400         38.30400300
327   1         33.90491500         35.21346800         37.16032200
328   2         34.34526600         35.45460000         36.16209700
329   2         33.17339200         36.01744200         37.41742400
330   1         33.30618600         33.81677400         37.22678800
331   2         32.66843600         33.59748800         38.07619800
332   2         34.07646800         33.00682700         37.38475300
333   1         32.52356800         33.46128800         35.94609100
334   2         31.64736300         34.07762600         35.83227000
335   2         32.05336800         32.42507600         35.93757100
336   1         33.25927400         33.65706200         34.54585500
337   2         34.24200200         33.13580800         34.68760900
338   2         33.49295000         34.75457100         34.42747300
339   1         32.54617100         33.03072500         33.34072400
340   2         31.58520700         33.55923800         33.05386300
341   2         32.21386000         31.92414200         33.57935900
342   1         33.46750800         32.88625900         32.12389800
343   2         34.26610100         32.22961700         32.48314900
344   2         33.80389600         33.90707100         31.78502200
345   1         36.58089900         36.91284200         24.18089400
346   2         37.14116300         36.01119000         24.38819700
347   2         37.33880600         37.65980100         23.95609100
348   2         35.99718600         37.10604500         25.09358400
349   1         32.78001800         32.15590100         31.00027400
350   2         32.69156700         31.08219400         31.22209100
351   2         31.72071600         32.57873900         30.67784400
352   2         33.28165300         32.16937900         30.05414700
0.00000000          0.00000000          0.00000000
15.32620600          0.00000000          0.00000000
0.00000000         15.32620600          0.00000000
0.00000000          0.00000000         15.32620600
}
Driver = VelocityVerlet {
  Steps = 100000
  TimeStep [fs] = 0.2
  MDRestartFrequency = 5
  Thermostat = None {}
  Xlbomd = {
    IntegrationSteps = 6
    MinSccIterations = 2
    MaxSccIterations = 200
    SccTolerance = 1e-6
    PreSteps = 0
  }
  Velocities [m/s] = {
9.78882702E+02      1.80044012E+02      7.41038130E+02
-1.52508780E+03     -1.50668179E+03      1.53928717E+03
-7.63628932E+02      3.34991588E+03     -7.72809685E+00
2.82584389E+02     -2.33463097E+02     -3.35756302E+02
5.42195488E+02      1.43531497E+03     -1.47469502E+03
6.52741705E+02     -5.53246267E+02     -1.69711849E+03
8.27033202E+02      5.16596472E+02      5.19218608E+02
1.89187805E+03     -8.24678961E+02     -9.67690815E+01
3.39366610E+03     -2.46731952E+03     -7.05979612E+02
4.24472625E+02      2.63310158E+02      4.41397511E+02
-1.37107526E+03     -5.35760342E+02      1.03788356E+03
-1.15422490E+03      4.27083860E+02     -9.92720111E+02
3.42165736E+02      2.71819713E+02     -6.90128811E+02
-1.80537762E+03      2.71745400E+02      1.56066554E+03
-4.33520951E+03      2.34213089E+03     -1.11524173E+03
4.99038260E+02     -1.89262882E+01      1.55458745E+00
2.30532333E+03      2.65592481E+03      4.18984317E+03
2.62105620E+03     -2.44004761E+02     -2.33623042E+03
4.66997329E+02      3.60151416E+02     -3.26670034E+02
4.64661101E+02      4.04061793E+01     -9.36217706E+02
2.71743713E+03     -2.04868349E+02      6.00808630E+02
1.36298778E+02      5.70504152E+02      5.12661565E+00
-8.80265494E+02      1.58526997E+03      1.25134070E+03
1.34422172E+03     -2.79400236E+03     -2.08477079E+03
-4.62805240E+02      1.44659059E+02     -8.90284711E+01
1.55612393E+03      1.97376947E+02     -4.81781463E+02
5.69114669E+02      4.01874563E+02     -8.35204015E+02
7.57139597E+02     -1.17799877E+03      1.05869312E+01
3.32648380E+02     -3.85700785E+01     -5.18465104E+01
2.32263219E+03     -5.32914952E+02      2.86764969E+03
-1.68520797E+03     -7.92637755E+02     -1.52041604E+02
-1.74305762E+03      2.65208370E+03      5.22695646E+02
-8.59973232E+00      4.33742472E+01     -2.60293684E+02
3.17029723E+02     -1.82349362E+03     -8.80197886E+02
-4.43847649E+02     -2.68937813E+02      4.42182902E+03
6.12285889E+02      6.99547467E+02      7.40121510E+02
-1.06885034E+03     -2.66656452E+03      1.85338170E+03
1.39271653E+03     -1.04735529E+03     -9.04989608E+01
1.07585710E+03     -4.99457167E+02      8.95929078E+01
1.21791646E+03      4.79570050E+02     -4.15534584E+03
2.33758495E+03     -9.17623166E+02      4.08353880E+02
-1.35816854E+02     -2.38612959E+02      6.67640156E+02
-6.04202315E+02      1.41781450E+03      1.09965120E+03
-6.71953777E+02      1.43663731E+03     -2.12474149E+03
1.95443426E+02      1.04346165E+02      9.13733586E+02
6.55006233E+02      4.48190279E+02     -2.51855617E+03
2.04555472E+03     -1.76821204E+03      2.16729666E+02
-6.29926938E+02      4.11915606E+02      1.70172157E+02
1.74787006E+03     -1.65368151E+03     -1.79044537E+03
1.01664429E+03      2.45741646E+03     -2.84315854E+03
5.81459272E+02      4.32834145E+02      9.27447760E+02
3.50096176E+03     -3.15564933E+02     -1.95405528E+03
4.00610813E+02     -2.15033708E+03      8.93273376E+01
-8.05356900E+01     -4.77742708E+01      2.78885139E+02
1.41041807E+03     -3.32134874E+03     -1.67202428E+02
-8.89879178E+02     -5.27435852E+03     -2.04050676E+03
-1.66593576E+02     -2.21806254E+02      4.35535341E+02
1.07183968E+03     -9.02250994E+00      1.82787105E+03
7.14361059E+01     -5.79570219E+02     -1.13617008E+03
-7.39384867E+02     -4.48657492E+01      8.06075503E+02
-4.48716401E+02      3.67204563E+02      1.84625783E+02
8.67318276E+02      1.91773261E+03      1.20228694E+03
5.66149812E+02      1.44422437E+03      4.62408572E+02
5.59752554E+02     -3.17780528E+03      4.06919439E+02
-7.08605361E+01     -2.40629161E+02      6.73944255E+02
-1.23077268E+02     -2.30696543E+03      1.40127486E+03
1.24623037E+02     -5.13858899E+02     -4.14719777E+02
1.69904622E+02     -1.44585739E+02     -1.49671946E+02
8.62010837E+02      3.79956277E+03      8.72376230E+02
4.99316705E+02     -1.29032806E+02     -8.20275926E+02
-3.88059112E+02      4.84603241E+02      3.75995347E+02
5.29538431E+02      8.28039983E+01      1.05124150E+03
1.55368939E+03      1.87580110E+03     -1.76425299E+02
4.04299348E+02      4.14321154E+02      6.24345921E+01
-1.12060177E+03     -1.55517761E+03     -1.65391731E+03
-9.28528584E+02     -3.92850269E+02      7.82111577E+02
5.09646820E+02     -3.22391468E+02      1.47546612E+01
1.03897407E+03     -1.24967275E+02      1.76492976E+03
4.67671309E+02     -2.04068135E+03     -4.50207219E+02
3.25117295E+02     -9.29115908E+02     -1.12294909E+02
5.81005568E+02     -1.86890146E+03      1.18725547E+03
-1.66407657E+03     -1.52999949E+03      1.21692667E+03
6.44676034E+02      1.16971904E+02     -2.47013298E+02
2.05563813E+03     -5.82565505E+02     -7.43445251E+02
5.59415483E+02     -2.49812501E+03     -1.18327212E+03
8.07823026E+01      2.79271879E+02      8.05227829E+01
1.02655370E+03     -3.22362611E+02     -2.57257608E+02
-6.85347128E+02      2.86861846E+03      1.55727880E+03
-3.17970222E+02      1.66195131E+02      9.66730917E+02
1.17221755E+03      2.42050367E+03      1.33729660E+03
8.26838860E+02     -6.95391181E+02     -6.31098276E+02
2.68610035E+03     -1.43126775E+03     -1.32099048E+03
6.28797608E+02      1.53288844E+02      6.18578547E+01
-1.12930217E+03     -1.37543712E+03     -1.24008775E+03
-2.49684933E+03      6.53768211E+02     -1.04045072E+03
1.75634025E+03      3.46206681E+02     -2.09063527E+03
-6.27840772E+01     -4.66629032E+02     -2.55620459E+02
-9.10045823E+02     -1.14247787E+03      1.51279482E+03
-3.57744427E+02     -7.84936593E+02     -4.08935326E+02
4.03797475E+02      3.75346409E+02      4.81923486E+02
2.33299138E+02      1.16540576E+03     -2.42839024E+03
-8.32571385E+02     -1.88860134E+03     -3.39065932E+02