Geometry = GenFormat {
<<< "system.gen"
}

Driver = VelocityVerlet{
  Steps = 50000
  TimeStep [fs] = 0.2
  MDRestartFrequency = 25
  Thermostat = None {
    #InitialTemperature [Kelvin] = 300.0
  }
  Xlbomd{ 
    IntegrationSteps = 6 
    MinSccIterations = 2
    MaxSccIterations = 200
    SccTolerance = 1e-6 
  }
  Velocities [m/s] {
      8.99939701E+02     -1.34446293E+01     -3.39652119E+02
      1.05121661E+03     -2.05121936E+02     -3.44175018E+02
      7.18282734E+02      1.51987725E+03      1.84025515E+03
      2.28653549E+02      3.17758943E+01      4.57583958E+02
     -1.53020152E+03      2.89080421E+02     -9.90851309E+02
     -9.38034101E+02     -3.65228207E+03      7.05623286E+02
      1.41581570E+02     -3.46332601E+02     -1.66434167E+02
     -4.22534467E+02     -1.29376100E+03     -1.39606455E+03
      2.89332213E+03      3.87644237E+02      7.41032833E+02
      8.55313870E+01     -2.26361893E+02      4.62930363E+02
      1.22934621E+03     -9.97169453E+02     -5.28839256E+02
      3.84630105E+03     -2.11832250E+03     -4.19911932E+02
      2.57873625E+02      1.07824042E+02      3.16317135E+02
     -2.43177104E+03      8.19984449E+02      7.25211330E+01
      8.69233792E+02      2.46322976E+03      2.59168577E+03
      9.81589077E+02      1.92856551E+02     -2.36125642E+02
      1.17782048E+03      8.87880060E+02      4.11779574E+02
      4.60373853E+02     -6.92076423E+02     -2.60949004E+03
     -2.11389095E+02     -5.93000015E+02      5.98780733E+01
     -5.57402318E+02     -8.40184767E+02     -9.00855014E+02
      1.66584261E+03      1.79167044E+03      2.43159766E+03
      2.87078112E+02     -4.79900649E+02     -3.84473683E+02
      1.69823530E+03     -9.73474181E+02      6.63121172E+02
     -5.83661164E+02     -8.20648191E+02      1.65450342E+03
      1.64320677E+02     -2.09350416E+02     -9.03616233E+02
     -2.61365213E+03      4.47959798E+02      1.08706527E+03
      3.13533224E+03      2.05086582E+01      3.56422788E+03
      1.30585648E+02     -1.64719034E+03      8.29356527E+02
     -1.09294726E+03     -8.98518789E+02     -4.24981638E+02
     -2.34799397E+03      6.38792775E+02      2.41587183E+03
     -6.01478229E+02     -1.18709947E+03      2.18363527E+00
      1.32075227E+03     -2.88379244E+03     -1.62359744E+03
      1.04699751E+03     -4.04253619E+01     -3.97421149E+02
      7.60662283E+02      7.72288174E+02     -1.14812471E+03
      2.47019958E+03     -9.20381259E+02      9.31076547E+02
     -4.10882851E+02     -5.03333798E+02     -1.24269828E+02
     -1.69246137E+03      2.85111551E+03      8.65649557E+02
      1.57747596E+03     -1.29564191E+03      3.14527990E+03
     -2.94281819E+02      3.99319347E+02      3.92993062E+01
      5.60733459E+02      2.60726347E+01      1.08301889E+02
     -2.79662799E+03     -8.42754669E+02     -1.99061434E+02
      1.84657781E+02     -2.02629611E+02     -7.55256550E+02
      1.76936779E+03      1.28264283E+01      1.78057285E+03
      1.17854889E+02      2.62464063E+03      2.57314681E+03
      5.11148398E+02      2.73195362E+02     -3.86958867E+02
     -1.53829932E+02      3.16316920E+02     -1.61197094E+03
      1.48564755E+03     -4.18563711E+02      1.49450445E+03
      2.29436926E+02      1.08289383E+01     -1.76132502E+02
     -7.83839093E+02      2.93582574E+02     -9.16705664E+02
     -6.56400724E+02      2.30761905E+03      1.11076346E+03
      5.53083156E+02     -2.46659829E+01     -1.87419357E+02
      1.45064594E+03      9.73790756E+02      3.01819788E+03
      6.45407146E+02      1.80558682E+03     -6.44794467E+02
     -2.42592914E+02      2.84132251E+02     -3.55788871E+02
      1.01851538E+03     -2.14455283E+03     -1.68842023E+03
      3.16328053E+03      6.68442931E+02      8.65208762E+02
     -1.46622467E+02      2.26181600E+02      3.31189342E+02
     -5.55319435E+02     -1.05279827E+03     -2.25219799E+03
     -2.46318638E+02      1.32475980E+03     -1.32332200E+03
      2.33717222E+03     -1.14211544E+03     -3.30491801E+02
     -2.61392566E+02     -2.49139382E+01     -4.64688462E+02
     -1.75790162E+02     -7.93413799E+02     -9.57173589E+02
      1.04745568E+02      1.27859975E+03      9.17402945E+02
     -1.83306152E+03      1.98285538E+03     -1.36514018E+03
     -1.73296884E+04      7.56189924E+03      1.08228383E+04
     -2.08617178E+02     -2.12226266E+03     -1.44461408E+03
      1.83386008E+02      1.46090096E+03      9.36896286E+02
      6.43184193E+00      3.29998860E+02      7.66524243E+01
      2.62099421E+03     -1.61125747E+02      1.15256235E+03
     -1.06511371E+03     -2.05472167E+03      1.64162030E+03
      6.53068794E+02      5.01536805E+02      2.91500827E+02
     -3.16003550E+03      2.14337340E+02     -5.53545307E+02
      2.41378042E+03      6.99807078E+02     -1.21014339E+03
     -4.59017759E+02      4.42357981E+02     -2.93517672E+02
      3.77110399E+03     -1.55511126E+03     -1.19882192E+03
      1.21413283E+02     -8.15491164E+02      2.08261509E+03
     -4.46125753E+02     -2.37405013E+02      5.37842665E+02
     -1.08975422E+03      2.59030161E+03     -3.36974124E+02
     -5.81206089E+02      2.82195487E+03     -4.82849663E+02
     -1.77206028E+02     -4.57074654E+02      1.50736701E+02
     -6.91878083E+02      3.90019510E+02      1.26573904E+03
      2.11286958E+03     -5.28532517E+02      6.95916911E+02
      2.19138506E+02      5.08257075E+02     -4.93586266E+02
      1.41382645E+02     -7.66918878E+02      3.36992768E+02
     -1.26956164E+03     -7.32067784E+02     -5.99735374E+02
     -8.32689271E+02      2.83839374E+02      5.85441023E+02
      9.55075172E+02      2.55861307E+02      3.66951328E+01
      1.42921415E+03      1.95272982E+03      4.42632148E+01
      1.37728896E+02     -8.21470792E+01     -6.62767900E+02
      7.86784584E+02      4.01613905E+02     -4.55222774E+02
      1.09107340E+03     -1.54783838E+03      4.82205950E+02
     -5.06518957E+01      2.66778135E+03     -5.72326271E+02
      1.14069590E+02     -3.09588452E+02      8.47668027E+01
     -2.52235099E+03     -1.80413731E+03     -1.13655848E+03
      7.71409756E+02     -1.79581382E+03     -1.77793766E+03
     -5.93431562E+02     -6.28573738E+02     -2.08856640E+03
     -1.82209250E+01      7.52063596E+01      5.05591930E+02
     -1.96748321E+03     -2.32213116E+03     -6.36739497E+02
      5.34415862E+02      1.25009644E+03      2.03960538E+03
      1.04531850E+02     -6.67672718E+02     -4.81494757E+02
     -1.90833847E+03     -2.15130372E+03     -1.44602012E+03
     -1.27211828E+03      4.42072923E+00     -3.27179079E+03
      6.34822311E+02      7.71042954E+01      1.14559412E+02
     -4.21049400E+03     -1.00594317E+03      8.27999538E+02
     -2.55507915E+03      4.76885739E+02      8.01815446E+02
      4.96002939E+02      1.74521088E+02     -8.24077170E+02
      1.67607746E+03      1.86835245E+03     -1.81863152E+02
     -2.64752338E+03     -1.98048687E+02     -1.20330955E+03
      5.03949827E+02      4.03457877E+02     -3.76943774E+02
      2.36850281E+03     -4.23147813E+02      1.90500971E+03
     -1.42075350E+03      5.40558504E+02      1.48351540E+03
      5.84055653E+02     -3.99478433E+02     -4.05960816E+02
      1.36323352E+03     -9.07345127E+02     -6.71681633E+02
     -4.89027739E+02     -6.67648211E+02      1.76180940E+03
      1.31095263E+02     -1.72948573E+02     -1.97684517E+02
     -8.84637661E+01      1.10260393E+02      1.24724524E+02
      2.32150273E+03      6.35345976E+02     -1.87904297E+03
     -1.00372050E+02      4.51724506E+02     -3.58647058E+01
      1.88921015E+03     -3.22765973E+02     -1.39478344E+03
      1.06998141E+03     -1.99528525E+03      3.71955783E+02
      5.32399520E+02      2.20367142E+02     -8.64623841E+02
      3.73780104E+02      2.31510194E+03     -1.32470953E+03
     -5.06514945E+03     -1.54453163E+02     -4.22577989E+02
      6.33718864E+01     -1.93344385E+03      4.14711885E+02
      3.56989537E+01      2.35380816E+02     -8.62182845E+02
      1.54025018E+03      7.41203319E+02      1.28555072E+03
     -3.50317690E+02      1.66044160E+03      3.49040532E+03
     -7.80644879E+02      1.29757696E+03      2.43413244E+03
      5.64720349E+02     -2.59136906E+01      1.18530717E+02
      1.54533092E+03     -9.95279587E+01      6.35670047E+02
      1.18156992E+03      1.36259273E+03     -3.09526103E+02
     -7.52754753E+02      2.12176050E+02      7.43016673E+01
     -2.08926771E+03      2.50448180E+03     -2.25771540E+03
     -2.02597226E+03     -2.48965471E+03     -8.50286003E+02
     -5.70145945E+02      3.73592056E+02      2.27584777E+02
     -7.87603176E+02      1.59981986E+02      1.13719884E+03
      2.82365678E+01     -5.75846584E+00      1.12439734E+03
     -4.51122604E+01     -2.54774681E+02     -5.58081785E+02
      1.72983901E+03      9.14919358E+02     -2.45770641E+03
     -1.94793129E+03     -1.06997024E+01     -3.05927821E+02
      5.20043217E+02     -1.10314639E+02      3.06334255E+02
      4.37812111E+03     -9.88817248E+02     -7.87547808E+02
     -5.55605358E+02     -2.83402079E+03     -2.68889102E+03
      5.74380634E+01      7.12786267E+01      5.09371098E+02
      3.74525303E+03      7.93395388E+02      4.56298496E+02
      2.08443356E+03      1.52978138E+03     -1.50123052E+01
     -5.46395575E+00     -1.07506020E+03     -3.35936568E+02
      1.64558813E+03      2.19859548E+03     -5.69697333E+01
      9.19433501E+02     -1.45854595E+03      6.90493026E+02
      1.86073978E+02     -9.25906888E+02     -2.85462974E+02
     -1.19098596E+03      9.13777597E+02      1.29090468E+03
      4.41654523E+02     -1.58346523E+02     -1.18456515E+03
      4.91499661E+02      8.70278472E+01     -2.16480978E+02
     -9.37181521E+01      4.85234296E+02     -1.29136649E+03
     -1.41656701E+03     -9.13098804E+02      3.83882834E+02
      3.89084755E+02     -7.41613994E+02      1.79025129E+03
     -2.17955659E+01      7.25821452E+01      5.39362769E+02
      7.39961777E+02      4.69802295E+02     -2.20827858E+03
     -1.39534175E+03     -1.17778847E+03     -1.16111746E+02
     -6.74163873E+01     -3.25663116E+02     -1.01493972E+02
     -1.02974050E+02      5.25212839E+01      2.62291044E+01
     -1.27174177E+03     -1.36999607E+03     -2.50637521E+03
      3.20205473E+03      2.78823331E+03     -3.15351365E+02
     -6.59286984E+02      1.25700464E+03     -9.41118501E+02
      9.96759710E+01      1.86388090E+03      9.42591162E+02
      1.37903585E+03     -1.92494612E+03     -1.65103966E+03
      1.46580855E+03     -6.69522425E+02     -3.98639445E+02
      1.07281522E+03     -1.55229543E+03     -7.82517841E+02
      2.36794182E+02      5.50465227E+02     -1.06037635E+02
     -1.05865614E+02     -9.54072195E+02      3.38746252E+01
     -6.78822450E+02     -1.64715024E+03      1.28586795E+03
     -4.89930209E+02      2.33668741E+03     -1.70603746E+03
      5.68696242E+02     -5.67406897E+01      4.32031806E+02
     -1.52509319E+03     -2.99234126E+03     -1.43635198E+03
     -1.14362826E+03      9.82442736E+02      1.28551979E+03
      3.35504280E+02     -7.74109464E+01      8.51673045E+01
      4.74433235E+03      2.04411813E+02     -2.05929480E+03
      1.57490990E+02      1.74370103E+02     -1.51337912E+03
      1.45335857E+01     -6.61238440E+02     -2.10692487E+02
      9.03132557E+02      1.31415238E+03     -3.93129180E+01
     -1.69801314E+03      1.00940030E+01      3.01209263E+03
     -3.16429993E+02      9.82827131E+01     -5.41358577E+02
     -1.71938489E+03     -2.30170417E+03     -1.70210750E+03
      1.28966153E+03      5.91032202E+02     -1.06493299E+03
      3.16406851E+02     -7.20786854E+01     -2.85904167E+02
     -2.19751583E+02     -3.21975197E+02      6.91323347E+02
     -2.92643822E+03     -5.15443969E+02      6.74296644E+01
     -3.51634607E+02      2.56208525E+02     -4.97385939E+02
     -2.41213391E+02     -1.41601719E+02     -3.97534787E+02
     -2.67665778E+03     -1.29019679E+03      2.03963985E+03
      7.70437532E+02      1.58132623E+02     -1.34263947E+03
      5.13564591E+02     -3.08759377E+02     -6.38276357E+02
      3.47432782E+02      3.35966195E+02     -7.12256541E+02
     -1.01409068E+03     -2.87241909E+02      1.70885984E+03
     -2.44836796E+03     -6.54507602E+02      7.75879182E+01
      3.85124654E+02     -1.47000385E+02      2.09424442E+02
      2.49169491E+03      8.83711935E+01     -1.31947644E+03
      9.00330564E+01     -8.67111078E+02      1.91419667E+03
      6.04242675E+02     -8.60077996E+01      1.98395142E+02
     -7.32763551E+02      1.46446658E+03     -2.07206876E+02
     -1.00351533E+03      7.19073793E+02     -5.46483836E+03
      4.88120182E+02     -1.28187555E+02     -3.91439623E+02
      7.00399265E+02     -4.02911622E+02      4.00106792E+03
      2.63869745E+03      3.48193881E+02     -2.16717797E+03
     -6.27824421E+01     -1.51863913E+02      1.24115416E+02
      3.69865072E+02      5.57348293E+02      6.97572604E+02
      2.92892996E+03     -1.08654434E+03      9.50497469E+02
      2.00006807E+02     -2.05428413E+00     -5.54053552E+02
      1.01535474E+03     -1.62031384E+03      1.26008947E+03
      9.41792411E+02      1.52048011E+03      1.46002443E+03
     -5.93042202E+02     -2.75536443E+02     -7.12778644E+02
     -4.58603317E+02      1.34347728E+03      2.70073657E+03
     -6.74126502E+02      8.86187893E+02     -4.99712583E+02
      1.75380589E+02     -4.44935459E+01      9.49948466E+01
      6.96373010E+02     -2.00551277E+03     -5.11727323E+02
     -3.42849250E+02      2.55855936E+03      7.95930979E+02
     -3.36702383E+02     -1.43324234E+02     -4.42664989E+02
      1.11758839E+03      8.67996659E+02     -3.00509974E+03
     -5.22688489E+02      7.18901978E+00     -1.77027488E+03
     -3.57639807E+03     -5.64190515E+02      1.57475099E+03
     -9.18254060E+01      1.68118515E+02     -1.02592939E+03
      7.08944621E+01     -1.84146217E+03     -8.45249672E+02
      6.25373825E+02     -3.45381177E+03     -1.48857155E+03
      5.96066060E+02      7.80710879E+02      3.79613784E+02
      3.43307291E+02     -8.59831591E+02      1.29561214E+02
      2.98349787E+02     -1.13122813E+03      3.66819628E+03
     -3.83327132E+02     -6.53448707E+02      4.58633028E+03
     -8.30483925E+02      3.30177944E+02      5.95408625E+02
      6.28796029E+02     -1.07324239E+02      2.40102216E+03
     -3.55351213E+02     -4.37177952E+03      3.24073215E+03
     -8.36470083E+01     -1.07237723E+02     -3.59300039E+01
     -2.24094452E+03     -2.54466878E+01     -1.43958399E+03
      7.68722861E+02     -9.03655084E+02      1.31768169E+03
      8.16426619E+02     -6.32023223E+02     -6.22088289E+02
      1.99114461E+02      4.21784348E+02      1.87293256E+03
      2.85773270E+03     -1.71867279E+03     -3.23142126E+03
      6.13322984E+02      7.77194166E+01     -1.19108840E+02
      1.71293137E+02      1.35157596E+03      6.47442032E+02
      1.51160319E+03      3.67448586E+02      1.75139712E+03
     -5.14466364E+01     -6.01521482E+02     -1.78082665E+02
      1.55668387E+01     -4.85452033E+02     -6.33315982E+02
      9.53774325E+02     -6.54735827E+02      6.09327781E+02
      1.37782462E+02      8.52918662E+02      5.40276144E+01
      1.03495152E+03      3.61730406E+02     -2.16705871E+03
      8.52582715E+02     -1.12131014E+03      2.28283135E+03
      7.35663532E+02      4.55765144E+02      2.18315666E+02
     -1.26144630E+03     -1.13489029E+03      6.14788721E+02
      1.63281370E+03     -6.85913603E+02     -2.46527274E+03
      1.47518879E+02     -3.32935424E+02     -3.91927717E+02
     -2.56845123E+03      3.49076219E+03      1.63155034E+03
      5.95480331E+01      1.74528871E+03      1.34259125E+03
     -2.54425805E+03     -8.39782283E+02     -7.20693388E+02
      2.24737803E+02      1.36252996E+02     -4.86385820E+02
     -1.76824129E+03      5.18348632E+02     -8.55634733E+02
      1.57070030E+02     -1.33622905E+03      1.87364328E+03
      1.77334375E+03      1.31722005E+03      3.94394499E+03
     -5.30839211E+01      5.51235739E+02     -4.81243623E+01
      1.07904131E+03      2.91837777E+03     -2.28227912E+03
     -2.46728977E+03      2.24145466E+03     -1.84010301E+03
      2.75708714E+02      2.83635363E+02      9.87308489E+01
     -1.21872982E+03      5.25683707E+01     -3.63886570E+02
      1.07114273E+03      2.34872387E+02     -6.48788109E+01
     -4.59600393E+02     -4.80636750E+02     -4.70610782E+02
     -3.08032166E+02     -1.02186103E+03      2.26700959E+03
      3.43236039E+02     -2.39586840E+03      6.48702186E+02
      2.77059468E+02      5.02412260E+02      2.37543030E+02
     -1.01733752E+03      4.88275835E+02     -7.24739743E+02
     -2.75661642E+03     -2.24087429E+03     -2.02263264E+03
      2.56239970E+02     -2.64921723E+02     -3.16310752E+02
     -1.52136321E+03     -7.11005039E+02      2.79804419E+03
      1.44877653E+03     -1.34589017E+03     -3.76574944E+03
      6.07709661E+02      1.43344348E+01     -3.51014791E+02
      2.01823887E+03     -2.99694545E+01     -2.21713855E+02
     -8.86177581E+02      1.21804027E+03     -1.86226921E+03
      1.21417825E+02      2.15097313E+02     -1.27614111E+02
     -3.10187086E+03      3.82667596E+02      1.52962019E+03
      9.96798991E+02     -2.92864274E+02     -1.00786335E+03
      2.37800002E+02     -2.32982788E+02      3.52195440E+01
      3.38062320E+02     -1.45830824E+03      1.40963439E+03
      9.21820861E+02      1.84968097E+03      2.10129379E+02
      9.73866539E+01     -4.90051133E+02     -2.97697278E+02
      1.95644646E+03      1.93495334E+02      1.79594879E+03
      1.51343335E+03      5.90470383E+02      3.84583592E+02
      1.40704592E+03     -4.04850558E+02      8.11071305E+02
      3.84810929E+02     -4.89724049E+02      4.35373903E+02
      2.11875801E+03     -1.11994525E+02     -9.78256182E+02
     -4.97213403E+02      6.80504380E+02     -1.71080694E+03
     -1.67595037E+03     -1.42323572E+03      1.73552906E+02
      4.77640103E+02     -1.94573570E+02     -2.57423160E+02
     -8.80487814E+02      1.49354524E+02     -9.57209945E+02
      1.54982126E+03      1.51807633E+03      2.00188831E+02
      1.19481791E+03     -8.69480098E+01      2.28758074E+02
     -7.37757099E+02     -8.82924297E+02     -3.01955245E+03
     -5.01841034E+01     -2.19179030E+03      3.39301768E+03
      7.05850175E+02      5.99182629E+02     -3.63487462E+02
     -1.97775210E+03      2.51237111E+03      1.22383194E+03
     -1.33656787E+03     -1.60364844E+02      1.54795045E+03
     -4.44891562E+02      9.46288184E+01     -7.64212366E+02
     -1.66011858E+02     -1.11541977E+02     -1.12357057E+03
     -6.42944430E+02      1.14075438E+02      1.87208634E+03
      7.36744280E+02      3.53029442E+02     -4.67524765E+01
      5.81020333E+02     -1.22290937E+03     -1.70370447E+03
      5.15215023E+02     -4.57466228E+02     -1.47830879E+03
      1.55194018E+03     -1.51432513E+02      6.56956703E+01
      8.40721224E+02      2.15428421E+03     -2.63164072E+03
      3.00100733E+03      1.20217981E+03     -3.36858951E+02
     -6.32633712E+02     -2.77023371E+02      9.94455380E+01
      3.32547224E+03      1.33789538E+03      2.86983164E+02
      3.05819447E+02      1.75441888E+02      2.28321794E+03
      4.28671785E+02      2.94952531E+02      6.52643111E+02
     -2.08598794E+03      3.78142616E+02     -6.19891939E+02
     -1.18660396E+03     -1.68075409E+03      1.16698303E+03
      6.55777556E+02     -3.96159602E+02     -1.99584733E+01
     -1.48517112E+02     -3.72284304E+03     -4.23867663E+03
     -2.29754966E+03      4.10857024E+03      1.97993822E+03
     -1.05208897E+03     -1.28423078E+03      1.59780402E+02
      2.95455862E+01      2.49831460E+02      1.16828795E+03
     -1.10005755E+03     -1.14782629E+03      2.74118853E+03
      4.19592281E+02     -1.54530935E+03     -4.92866926E+02
      9.69791608E+02      5.85876577E+02      2.36882971E+03
     -2.03822280E+02      2.26344932E+02      1.00083268E+02
     -1.94109657E+03      2.76951992E+01     -7.10471000E+02
      3.37599487E+02     -1.10519071E+03     -7.80716455E+02
     -8.94630597E+02      2.56567042E+01     -1.00369190E+01
     -7.98587737E+02      1.25059409E+03     -9.57737377E+02
      3.28919637E+02      8.54082857E+02      3.00980412E+02
      1.83332956E+02     -9.74779404E+02      2.54869132E+02
     -6.39093201E+02      3.66600339E+01      1.23893467E+01
     -7.03369070E+02     -4.58770989E+02      7.52116024E+02
      1.65258110E+01      2.01226403E+02      6.04896042E+02
     -2.25695964E+03      2.49535727E+00      1.86520559E+03
      3.81232391E+02      5.39319616E+02     -7.14381859E+02
      2.86376599E+02     -1.00586701E+02     -5.55519926E+01
     -1.14521113E+03     -2.34321233E+02     -1.13207942E+03
      2.05952491E+03     -1.19643531E+02     -1.79759528E+03
      3.89992813E+02     -3.80474356E+02     -3.46938877E+02
      2.54354367E+03     -4.97503041E+02     -2.37283482E+02
      1.12454243E+03     -1.40951103E+03      1.68607860E+03
     -8.60096333E+02     -4.48995117E+02     -4.29274688E+01
     -2.29451504E+02     -7.80926583E+02     -3.35287605E+03
      2.52267696E+03      4.98967840E+01      3.42611879E+01
      6.98856318E+02     -5.12686459E+02     -3.13200905E+01
     -1.42609598E+03     -1.28797197E+03      1.63830431E+03
      2.49425164E+03      5.70520993E+02     -1.04970505E+03
     -9.38683404E+02      2.61669714E+01      4.93893481E+02
     -1.33964381E+03      1.77120343E+03      5.35420102E+02
     -1.47040442E+03     -1.43717809E+03      1.42828840E+03
     -1.23507874E+03     -5.38838809E+02      1.22715250E+02
      3.83082330E+02     -2.49438447E+02     -6.39753102E+02
      7.70737767E+02      1.34114262E+03     -2.18480474E+02
      1.55564279E+03      1.37659124E+03     -1.65894825E+02
     -2.40624255E+02      2.39284199E+03      2.10826186E+03
  }
}

Hamiltonian = DFTB {
  SCC = Yes
  SCCTolerance = 1e-6
  MaxSCCIterations = 200
  ForceEvaluation = Dynamics
  MaxAngularMomentum = {
    C = "p"
    H = "s"
  }
  Charge = 0.0
  SpinPolarisation = {}
  Eigensolver = Standard {}
  Filling = Fermi {
    Temperature [Kelvin] = 300.0
  }
  SlaterKosterFiles = Type2FileNames {
    Prefix = "../../pbc-0-3/"
    Separator = "-"
    Suffix = ".skf"
    LowerCaseTypeName = No
  }
  KPointsAndWeights = {
    0.0000000000000 0.0000000000000 0.0000000000000 1.00000000000000
  }
  Dispersion = LennardJones { 
    Parameters = UFFParameters {}
  }
}

ParserOptions = {
  ParserVersion = 3
}
