Geometry = GenFormat {
<<< "system.gen"
}

Driver = VelocityVerlet{
  Steps = 100000
  TimeStep [fs] = 0.2
  MDRestartFrequency = 5
  Thermostat = None {
    #InitialTemperature [Kelvin] = 300.0
  }
  Xlbomd{ 
    IntegrationSteps = 6 
    MinSccIterations = 2
    MaxSccIterations = 200
    SccTolerance = 1e-6 
  }
  Velocities [m/s] {
      4.99317393E+02     -1.39204978E+02      1.09740716E+03
     -8.54532125E+02     -1.26796959E+03      5.09913872E+02
      3.38484566E+02     -1.47409263E+03      1.75144936E+03
     -4.23680370E+01      5.92575563E+02      4.94263373E+02
      7.37055582E+02     -2.51837931E+03     -1.01021271E+03
     -1.80627042E+03      1.72723417E+03      1.95743071E+02
     -3.28489044E+02     -1.07538150E+02     -5.87654689E+02
      2.18769590E+03      2.22093954E+02      1.21351786E+02
     -5.04011881E+02      9.85307264E+02      9.91915072E+02
     -6.20378678E+02      2.62322403E+02      1.00102313E+03
     -1.53264263E+03     -3.32333024E+02     -1.20044427E+03
     -2.54602357E+03      2.72673187E+03      3.00142786E+03
      6.93138079E+02      7.81329240E+02     -1.36102145E+02
      1.91285146E+03      1.71769756E+03      1.47773973E+03
      1.39267963E+02     -3.02524107E+03     -1.05843429E+03
     -2.13274855E+02      1.92853794E+02      1.08062675E+03
      2.41693268E+03      2.73375497E+02      1.89945960E+03
      1.39422155E+03      5.06924484E+02     -9.23876718E+02
      1.07416925E+03      2.20104992E+02     -6.09254690E+02
      1.29507900E+03      1.78840645E+03      2.23783604E+03
     -3.52621524E+02     -3.84295099E+02     -1.23347358E+03
      4.96590243E+02     -3.22826964E+02      4.73806926E+02
      1.64171521E+02     -9.48466900E+02     -2.57150990E+03
     -1.80200676E+03      1.04360869E+03      8.68381159E+01
     -6.92795915E+02     -2.03787713E+02      3.10344624E+02
      1.91882253E+03      7.53951778E+02     -2.85987301E+03
      2.89489659E+02     -1.57670572E+02      7.58727751E+02
     -3.77568018E+02     -1.01802347E+03      1.11005312E+03
     -4.92564098E+02      2.11540226E+02      6.36801171E+02
     -3.49469061E+03     -1.46656482E+03      4.47911553E+02
      2.74873138E+01      7.37309367E+02      2.18949133E+03
      2.99131703E+02      2.12192790E+03      5.43647773E+02
     -2.04746994E+02      3.93540857E+01     -5.54086764E+01
      6.61794550E+02     -8.10271201E+02      1.73468499E+02
     -8.74044137E+02     -2.14616687E+02      5.92652640E+02
      1.41091923E+02     -8.18531595E+02     -2.97344909E+02
     -1.01200260E+03     -2.49481848E+03     -1.04604691E+03
      9.60979669E+02      1.13365203E+03      1.36526426E+03
     -2.99111222E+01     -5.20254151E+02      2.62999718E+02
      2.92875619E+03     -4.54720464E+02      3.68550224E+03
     -1.14283142E+03      3.14534645E+03     -1.15589807E+03
     -3.31034389E+02      2.04628979E+02      1.05007421E+02
     -2.34142074E+03     -1.29670772E+03      3.45690311E+03
     -2.31404753E+02      3.36332928E+02      2.48875828E+02
      5.51357374E+02     -8.62658451E+00      1.42494817E+02
     -2.24356063E+03      1.07879548E+03     -1.28169656E+03
     -1.20212688E+03     -2.09993752E+02      8.30126078E+02
      2.49665243E+02     -5.93633431E+02      5.22218101E+02
      1.71676447E+03      2.65976473E+02     -1.04767919E+03
      2.75506706E+03     -3.15439350E+02      7.26327995E+02
     -1.01987401E+02      5.94283522E+02     -4.98699382E+02
     -1.40734239E+03     -3.73768965E+02      1.90811902E+03
      1.90952488E+03      6.45092419E+02     -2.32284814E+03
      8.24108919E+01      8.00706333E+02      2.28836274E+02
     -1.78753297E+02      1.14089305E+03      2.23360477E+03
      2.11477967E+03      1.48460741E+03     -4.44518640E+02
     -5.62308759E+02      1.87464360E+02      4.62093017E+02
      4.18520387E+02     -3.38402884E+03      2.28092854E+03
     -1.31204016E+03      1.66771040E+03      4.30976059E+01
      8.06687501E+02     -1.27408604E+03      1.95706740E+02
     -8.28975165E+02     -2.80866590E+01     -8.97012460E+01
     -3.80452875E+02      3.24521220E+02     -1.31675859E+03
     -1.34651203E+03      7.68246156E+02     -2.10393188E+03
      3.34286734E+02      3.16780931E+03     -1.08169077E+03
     -2.22249186E+02      1.66121611E+02     -5.05398076E+02
     -1.64060641E+02      1.32519176E+02     -4.82385951E+02
      1.47987596E+03      3.03604479E+03     -8.36276344E+02
     -7.92725748E+01      5.25279077E+02      4.71507987E+02
     -4.36970294E+03      3.13342247E+03      4.54207145E+02
      3.86003458E+02      3.03231408E+03     -2.17802316E+03
     -9.58831132E+02     -8.55464077E+00      9.92385618E+02
     -1.96031043E+03      3.63300928E+03      1.12459203E+03
     -8.64759102E+02     -3.31583764E+03      1.20903970E+02
     -8.32573579E+02      4.84949527E+02      3.14102279E+02
     -2.31836756E+03     -5.92151193E+02      2.78793968E+03
      9.21561696E+01      1.45357567E+03      4.81450985E+02
      9.06920697E+02      5.54012109E+02     -1.17727580E+02
      5.71921926E+02     -5.47337491E+02      8.14167901E+02
      1.11222757E+03      8.22686276E+02      1.47404958E+03
      4.43900592E+02      7.08398657E+01      4.13771230E+02
     -2.44854924E+03      1.85184885E+03      6.10735838E+02
      1.27462931E+03     -7.41644695E+01     -3.24128332E+02
      7.89511632E+02     -3.41533402E+01      1.27191080E+02
     -7.06337577E+02     -1.87779514E+02      2.42797952E+03
     -1.22122059E+03     -3.54536315E+02     -6.30906607E+01
      8.18599183E+02      1.36732507E+02      1.42791174E+01
      1.84154644E+03     -2.64510885E+02      7.30801004E+02
     -3.72110678E+03      2.97550848E+03      1.02434951E+03
     -4.99207721E+02     -1.65463499E+01      5.79298128E+02
     -2.17946838E+01     -4.21412924E+02      1.57445029E+03
      7.61080442E+02     -1.66344286E+03      9.76717448E+02
      9.46968819E+02     -5.36372225E+02     -9.71258902E+01
      7.91949490E+02      2.09355555E+02     -2.63161033E+02
      7.31202186E+02     -7.18099020E+02      6.62980141E+01
     -2.15626260E+03     -1.00401190E+03     -4.66011468E+02
      5.54030772E+02     -1.34439681E+03     -4.78822465E+01
      5.99702497E+01      5.12534441E+02      1.31265892E+02
     -1.34822106E+03      1.73896963E+03     -1.96350837E+02
      1.95300491E+01      1.41283275E+02      8.16821024E+02
      6.41258896E+02      8.77800569E+01     -4.70414321E+02
     -5.42270509E+02     -3.33203273E+02     -2.44151779E+03
     -9.57914717E+02     -1.85937593E+02      2.22670502E+03
      1.05180370E+01      1.23437706E+03     -3.32938351E+02
      2.99499316E+03      4.08597046E+02     -1.42713444E+02
      1.33578352E+03      2.28161244E+03     -9.08363226E+02
      1.59824741E+02      2.80724827E+02     -1.91688979E+01
      1.52150031E+03      6.16199508E+02     -3.00688011E+03
      7.73348429E+02      1.72348043E+03      3.83097732E+02
      3.64908080E+02      2.97539208E+02      4.38049378E+02
      9.99504911E+02     -1.27627867E+03      8.94656767E+02
     -1.17194723E+03     -1.41384292E+01     -4.32940617E+02
      7.94308398E+02      8.81936780E+01      6.42017488E+02
      1.58583945E+03      2.24043971E+03     -1.19241400E+03
      2.46306992E+03     -2.77670200E+02      4.59901973E+02
      6.24704936E+02     -2.78432579E+02      3.24965637E+02
      7.28460916E+02      8.65544387E+02     -8.29964184E+01
     -1.41246427E+02      5.09868935E+02     -4.19236621E+02
     -3.29386939E+02     -1.57923858E+02      1.34747981E+02
     -2.84886944E+03      7.49149047E+02      8.09840679E+02
      1.06928162E+02      1.56903896E+03     -6.45337501E+02
      6.07916122E+02      4.27471386E+02      4.57496915E+01
     -1.56596063E+02      2.36716925E+02      2.29144609E+02
      1.55559258E+03      5.62714336E+02     -1.69117605E+03
      6.75564866E+02     -9.75601842E+02     -1.05871444E+03
      2.83044009E+02      6.91104034E+02     -4.21330692E+02
     -1.86232957E+03     -1.87113780E+03      1.56457945E+03
      8.27001122E+02      1.67816773E+03      1.37676183E+03
     -9.01514610E+02      7.24878562E+02     -2.12783367E+03
      4.37069464E+02      1.15316334E+02      1.40977989E+02
      5.96723704E+02      1.17783462E+03      1.67221425E+03
     -2.03572738E+03      4.99096580E+02     -2.97274208E+02
     -1.72939089E+02      4.43314180E+02      2.78546653E+02
      3.94778119E+02      5.17826000E+02     -1.02622990E+03
     -5.86385166E+02      1.37267353E+03     -3.55642021E+02
     -9.79758283E+01      5.45065212E+02      4.86465705E+02
     -6.13947126E+02      3.40632297E+02      1.84140684E+03
     -7.80299366E+02     -3.19367710E+03      1.22599982E+03
     -1.28253677E+02      8.96500859E+01      3.18170047E+02
      1.53195870E+03     -3.09369985E+02     -1.42997846E+02
     -1.71327816E+03     -3.90948732E+01     -7.74068296E+02
     -1.27397346E+02      6.07445938E+02      9.62205215E+02
      1.22258127E+03      1.53545599E+03     -1.65619507E+03
      1.30421305E+03      2.68725106E+03     -3.60906973E+03
     -5.05515113E+02      7.42938869E+02     -5.52403370E+01
     -1.85153569E+03      9.19686480E+01      1.49371454E+03
     -1.35268427E+03     -1.80691618E+03     -6.98683803E+02
      3.71957358E+02      8.09723036E+02     -4.58749694E+02
     -1.51450388E+03     -1.26415525E+03     -5.10077089E+02
     -1.72822459E+03     -2.10359497E+03     -1.53191753E+03
     -5.48715070E+01      1.56653648E+02      3.76500365E+02
      1.88879415E+03     -7.51166257E+02     -2.26136552E+02
     -3.33752076E+03      2.24216011E+01     -3.28996606E+03
      4.21196005E+02     -9.20279526E+00     -4.34243325E+01
     -4.55340932E+02      1.83589654E+03     -4.37758648E+02
      8.12793683E+02     -1.65943553E+03     -6.07371941E+02
     -1.29262198E+03     -1.37825068E+03     -9.58679773E+02
      4.84533836E+02      6.96421971E+02      5.80779508E+02
      9.41628442E+02      1.02675528E+03      9.15135455E+02
      1.07387751E+03      9.66635643E+02      4.58025494E+02
     -1.44252567E+03      4.51782803E+02     -6.54923126E+02
      1.98175906E+02      9.47701048E+02     -6.91450514E+00
      9.66157399E+02     -1.55036374E+02      1.25967443E+01
      6.12422567E+02      2.20687599E+03     -2.03432036E+03
     -2.31065815E+02      1.05409889E+03      1.57456734E+03
     -6.11598417E+02     -1.62650830E+03      6.44063723E+02
     -3.78219203E+02      1.25520340E+02     -1.24694746E+03
      8.40636296E+01      2.67313384E+02     -4.46953019E+02
      7.94460887E+02      1.27013632E+03     -9.08732401E+02
     -1.09576253E+03      1.11714896E+03      2.07451934E+01
      3.72080809E+01     -1.08768925E+02     -8.62865341E+01
     -4.42297085E+01      1.12596315E+03     -1.26558579E+03
     -3.64943047E+03     -1.22903210E+03     -9.44317543E+02
     -5.98052640E+01      5.64710036E+01     -1.43978674E+02
      1.33555023E+02      3.41836217E+03      4.77861364E+02
      9.47956994E+02     -8.11757458E+02      3.74355238E+02
      4.43082348E+02      1.86048050E+02      2.27203991E+02
     -2.97212955E+02      4.10821256E+02     -8.54950697E+02
      2.45405684E+03     -1.60459557E+03      1.72791180E+02
      3.37573492E+02      4.10397719E+01      4.41566869E+01
      2.11254997E+03      8.34234645E+02      1.25910483E+02
     -1.08227026E+03     -8.81110332E+02     -1.94926531E+03
     -3.48586933E+02      1.41722055E+02     -1.02842962E+03
     -1.23818378E+03     -4.46009615E+02     -4.39449599E+02
      2.71194605E+02      6.66120998E+01      3.90508481E+02
      4.83116699E+01      1.90121946E+02      2.45500573E+02
      1.26175883E+03      4.28079096E+02      3.32190485E+03
      3.66436013E+03      1.63023093E+03      9.28671584E+02
      2.22335343E+02      3.76151492E+03     -4.33379463E+02
     -3.49818197E+02     -8.64360044E+02     -3.26467777E+01
      6.87476340E+02      1.60168491E+03      2.97275690E+03
     -5.92999178E+02      1.66409039E+03      8.40904622E+01
     -1.04004996E+03      5.82811214E+01      1.28568737E+03
      3.67560257E+02      3.95077808E+01     -4.75010214E+02
      1.39623936E+02      1.77277678E+03     -2.50895043E+03
      1.23012787E+03     -1.85105826E+02      5.75007151E+02
     -4.88510878E+01      8.80843288E+02      7.51859849E+02
     -1.52232193E+01      1.14604769E+02     -1.39538137E+03
      8.43564695E+02      8.93240033E+02      1.21306497E+03
     -4.01868108E+02      1.67759511E+02     -3.04979351E+02
      3.85155722E+02      1.24315104E+03     -3.24714670E+02
     -2.68438681E+03      2.09669212E+03      2.36952915E+03
      7.79607607E+02     -1.13346687E+02     -9.01605860E+01
     -1.33259067E+03      7.43470725E+02      1.52446020E+03
      8.87349069E+02      1.46029976E+03     -1.17727302E+03
     -6.48382301E+02      5.25745169E+02      6.83276849E+02
     -6.73416717E+01      3.35210048E+02     -1.02634973E+03
      2.85990143E+03      6.44593649E+02     -1.09047892E+03
      5.72405818E+02     -4.68004312E+02     -1.12885636E+02
     -6.39861087E+02     -7.58545550E+02      7.35245437E+02
      2.53291721E+03      8.72944033E+02     -1.03432399E+03
     -3.33290999E+02      2.27617466E+01      5.46530624E+02
     -5.68621279E+01     -1.15919158E+03      1.52428580E+03
     -4.38782224E+02     -3.90493711E+03      3.45520964E+03
      5.24225235E+02      4.45569346E+02      4.91767661E+01
     -2.54672743E+02     -1.21142641E+03      1.08056339E+02
      4.53251533E+02     -1.37714192E+02      4.22246607E+01
     -2.22253481E+01     -1.57457301E+02      2.51243463E+00
     -1.38272437E+03      2.46436345E+03      7.42908657E+02
      2.06654597E+03      1.96766544E+02     -1.51782268E+03
     -7.10596239E+02      1.03321436E+03      2.84252632E+02
     -8.44586471E+01      3.79680803E+02     -1.49791197E+02
     -2.39731352E+03     -1.12351173E+03      7.68997894E+01
     -3.22024567E+03      1.13954470E+03     -8.05369398E+02
      1.60987374E+03      7.46280087E+02     -4.33439398E+02
      3.43802628E+02      4.24190279E+02      5.13845472E+02
     -5.71719548E+02      5.46094756E+02     -7.07251583E+02
     -3.96140750E+03      4.05715417E+02      1.25524835E+03
      4.52044609E+01      6.33097442E+02     -3.56329201E+02
     -8.77053980E+01     -2.84797831E+02     -1.93158967E+03
      1.79788443E+03      7.43416129E+02     -1.05190066E+02
     -1.25561888E+02      8.26435665E+02     -4.72777935E+02
      1.89427163E+03      8.03498130E+02      8.17462665E+02
      8.35660182E+02      3.83679220E+03      1.33363038E+03
      3.05877806E+02      7.70596951E+02      2.75682330E+02
     -3.94319624E+02      2.18292653E+02      9.14414698E+01
     -2.41004329E+03      1.96918774E+03     -8.26980493E+02
      1.08095219E+02     -2.29012744E+02     -7.15333621E+02
     -2.02927465E+02     -2.64847106E+03     -1.32039839E+03
      9.14173585E+02     -5.25351795E+02     -1.02589161E+03
      2.51646355E+01     -7.83518374E+02      6.89693924E+02
      1.96420632E+02     -5.10878227E+02      5.01711301E+02
      1.60368643E+03     -1.04365369E+03      1.65186864E+03
     -3.81833097E+02     -7.08891087E+01     -1.62357744E+01
     -9.38308148E+02      1.41090389E+03      7.41138368E+02
     -4.70093733E+02      1.53255152E+03     -7.40412764E+02
      9.08380581E+02     -8.04347339E+02      4.13086039E+02
      4.68880259E+02      2.48681749E+02     -3.91986819E+03
     -4.89584966E+02      4.47934596E+02     -6.39374386E+01
     -3.22170049E+02      8.72595181E+02      2.34248957E+02
     -2.85137850E+03     -2.78450146E+02     -4.50128836E+02
     -1.99131326E+03     -1.59916459E+02     -3.05893884E+02
      2.49658254E+03     -2.48671497E+02     -1.63231406E+03
      1.13218657E+03      2.88311254E+02      9.73971581E+02
     -1.36048025E+03      5.71680184E+02      6.38375554E+03
     -6.95754173E+02     -1.02929398E+03      3.21740272E+02
     -3.83479371E+02     -1.82543060E+03     -1.41748306E+03
      4.29404946E+02     -4.01036579E+02      6.39976589E+02
     -2.41239773E+02     -6.26424453E+02     -2.05073000E+03
      3.35775147E+03      1.68299093E+02      1.90167764E+03
      5.05665902E+02     -1.50820918E+02      3.16491290E+02
     -4.62844097E+02      1.41011879E+03      8.80265537E+02
      1.02366971E+03     -1.13941323E+03      6.56213048E+02
     -1.10031933E+02      3.19005550E+02      2.29904732E+02
      5.67467028E+02      6.50846227E+02      4.79396240E+01
      1.58698240E+03     -1.01303562E+03      4.80816862E+02
      2.23666860E+02      1.06298103E+02      7.61654476E+02
     -1.78725615E+03     -1.84277573E+03     -1.47484531E+03
      1.07432469E+03     -4.06395287E+02      2.35228396E+03
      2.22800144E+02     -1.49611149E+03      6.19979573E+02
      1.58155375E+03     -2.01035702E+03     -7.93294367E+02
     -1.51950031E+03      1.53092267E+03      2.24888243E+03
     -1.15172595E+03      4.28862703E+02     -1.63933046E+02
      1.05801857E+03     -5.13022411E+02     -8.10834182E+02
      1.29608941E+02      1.07807192E+03      2.92241681E+02
     -8.67439010E+02      6.69375976E+01      5.16759506E+01
      1.67402594E+03      7.55647388E+02      1.15328825E+03
      1.06967493E+02     -2.89922047E+03     -2.11571123E+03
     -2.82098463E+02      3.54967408E+02      2.61440086E+02
      1.67696220E+03     -1.95548455E+03      6.76311959E+02
      7.80299831E+02      5.33654504E+00     -3.09327571E+02
     -4.24138799E+02     -1.06581089E+02      2.17304502E+02
      1.19088820E+03     -1.16874313E+03     -9.71205246E+02
     -7.91198123E+02     -5.91246525E+01      1.91620638E+03
     -1.37041782E+03      1.20831011E+03     -5.75294581E+01
     -3.97069971E+02      2.11811383E+02      9.13341719E+02
      2.31130105E+02      7.71881981E+02      2.35280161E+03
     -4.71979087E+02      2.22297205E+03      1.00923033E+02
      3.36477887E+03     -1.84889974E+02      8.90540018E+02
     -4.92960035E+02     -2.98237944E+01     -3.63102125E+02
      4.15004683E+03      3.78451410E+02      8.44173415E+02
      5.94701152E+02      3.25922564E+03     -1.26085795E+03
     -1.21589342E+02     -1.02596979E+02      4.83791275E+02
     -2.47072554E+03     -2.86193364E+02      1.48451852E+03
      1.86556146E+03      9.47898063E+02      6.79003689E+02
      5.66249307E+02     -5.48585329E+01      5.95905580E-01
      5.96205162E+02      2.02058090E+03      2.29340255E+03
      1.72707359E+03     -4.27955473E+03      1.34867500E+02
      6.36314069E+02      7.22888838E+02      1.98446533E+02
     -8.93598181E+02     -3.91988818E+02     -6.86410438E+02
      6.99301473E+02     -3.34870135E+02     -6.47060787E+02
     -5.65151109E+01     -5.72872134E+02      7.35636694E+01
      6.21958526E+02     -6.06228987E+02     -1.57406189E+03
      3.22077266E+03     -1.26904952E+03     -2.58817698E+03
      6.61204683E+02      3.71583283E+02      3.80465036E+02
     -5.80798168E+02     -5.14158384E+00     -1.63922893E+03
     -9.60216117E+02      2.26877644E+03      2.70547602E+03
      2.82908389E+02     -4.77118321E+02      1.31742022E+02
     -1.83106086E+03     -4.16348164E+02      1.16626033E+03
     -1.21880425E+03     -5.46145309E+02     -4.98311829E+02
      1.02861581E+03      5.10706750E+01      1.34923416E+02
      2.18708796E+03     -4.89885052E+02     -2.19557171E+03
      1.47396791E+03     -2.19533660E+03     -8.34894994E+02
      8.96084122E+01     -5.41494595E+02     -3.34032976E+02
      1.34926947E+03      1.00794480E+03      5.02155036E+03
     -2.52028731E+03      3.67217857E+03     -8.72509431E+01
      1.80952868E+03      1.12258911E+02      8.01207814E+01
     -2.04434318E+01     -6.33334943E+02      1.26538574E+02
      3.37136940E+03      4.81222886E+02      4.06434959E+02
      2.71112140E+03     -7.69384758E+02      3.30241057E+03
      2.97229123E+02      3.15126813E+03      8.93588200E+01
     -4.06225134E+01     -1.69381476E+02     -4.26316297E+02
      5.68632385E+02      1.03521410E+03      2.18433216E+03
     -8.61702440E+02     -1.84877454E+03      2.39738080E+03
     -8.15857169E+01      3.11406470E+01     -4.20334533E+02
      4.91592262E+02      3.73360364E+03      1.45438609E+02
      1.08348350E+03      1.59128147E+03     -2.69410087E+03
      5.13656550E+02      7.94430979E+02      2.58389788E+02
      2.86542093E+03      3.85917372E+02      2.92889347E+03
      1.68165137E+03      1.09562471E+03      1.70477148E+01
      5.75827115E+02      6.09735724E+02      4.76841308E+02
     -2.08541854E+03      2.85381217E+02     -1.79929195E+03
      2.79796646E+03      8.79429088E+02      3.04845370E+03
      7.64787802E+00     -1.17909113E+01      3.81522411E+00
     -1.06838450E+03      9.49441532E+02      2.75444684E+03
      1.40335457E+03      3.60503468E+02     -1.89631805E+03
     -4.08544945E+02      6.59554419E+02      8.24338442E+02
     -3.26955109E+03     -8.68279695E+02      1.01110077E+03
      1.66389459E+03      3.02523408E+02      1.62506694E+03
     -9.33719665E+03     -2.29927393E+04     -2.22287150E+04
      3.32338639E+02      1.90227054E+03      2.38671657E+03
     -3.65422952E+03     -7.58205347E+02      6.93565975E+01
      7.61846821E+02      7.21575784E+02      8.79437063E+02
      2.27154407E+02      8.98963814E+02      2.44794548E+02
     -1.93747664E+03      1.83196628E+03     -2.29983774E+03
     -4.68603618E+02      1.78363185E+02      5.67350305E+02
     -1.93504072E+03      1.78600320E+03     -8.87171299E+02
      4.40050369E+03      8.02483057E+02     -4.69582233E+02
     -1.02512643E+03      7.21441660E+02      1.07786887E+02
     -3.05329808E+02     -1.37806208E+01      1.51949534E+01
     -1.96039638E+03      6.68006742E+02      2.14823619E+03
     -1.33688441E+03     -9.63607417E+02      3.17946222E+03
     -2.23809199E+03      1.10287898E+03     -1.11517341E+03
  }
}

Hamiltonian = DFTB {
  SCC = Yes
  SCCTolerance = 1e-6
  MaxSCCIterations = 200
  ForceEvaluation = Dynamics
  MaxAngularMomentum = {
    C = "p"
    H = "s"
  }
  Charge = 0.0
  SpinPolarisation = {}
  Eigensolver = Standard {}
  Filling = Fermi {
    Temperature [Kelvin] = 300.0
  }
  SlaterKosterFiles = Type2FileNames {
    Prefix = "../../pbc-0-3/"
    Separator = "-"
    Suffix = ".skf"
    LowerCaseTypeName = No
  }
  KPointsAndWeights = {
    0.0000000000000 0.0000000000000 0.0000000000000 1.00000000000000
  }
  Dispersion = LennardJones { 
    Parameters = UFFParameters {}
  }
}

ParserOptions = {
  ParserVersion = 3
}
