Geometry = GenFormat {
<<< "system.gen"
}

Driver = VelocityVerlet{
  Steps = 50000
  TimeStep [fs] = 0.2
  MDRestartFrequency = 5
  Thermostat = None {
    #InitialTemperature [Kelvin] = 300.0
  }
  Xlbomd{ 
    IntegrationSteps = 6 
    MinSccIterations = 2
    MaxSccIterations = 200
    SccTolerance = 1e-6 
  }
  Velocities [m/s] {
      4.19572644E+02      3.64929487E+02     -2.07170076E+02
      3.67303220E+03      1.82629631E+03      1.03557084E+03
     -4.02155745E+02     -1.41458096E+03     -1.97314889E+03
     -5.90365672E+01     -4.73638681E+02      6.23390819E-01
     -2.28734223E+02     -8.22942635E+02      1.60575830E+03
     -2.27357436E+02      1.59551117E+02     -5.48915402E+02
     -1.06778346E+03      1.86102671E+02      4.67996857E+02
     -2.43987807E+03      1.18518757E+03     -2.75534604E+03
      4.35178316E+02      5.59263848E+03      5.62952372E+02
      4.34388907E+02      3.54363377E+01     -5.07772457E+01
     -1.50326873E+03      4.74881029E+03     -3.62091343E+02
     -3.64980497E+02     -1.79582095E+03      7.51351575E+02
     -2.69484583E+01      2.89199939E+02      1.63482382E+02
     -8.20420320E+02      1.69259650E+03     -6.25021321E+02
     -4.06853230E+03      5.83241884E+02     -4.46193238E+03
     -1.75341008E+01     -7.12445593E+02      6.12310813E+02
      7.91267470E+02     -1.23725946E+03     -1.17478948E+03
      2.01789039E+03     -1.03787104E+03      3.65320228E+03
     -3.61283685E+02      4.91735133E+02     -6.25557546E+02
      2.30045241E+03      8.03294719E+01     -3.29831058E+03
      2.56169764E+02     -1.81540553E+03      3.95471669E+02
     -6.01942518E+02      2.57622803E+02      5.07908092E+02
     -9.84553914E+02      1.09163732E+03     -2.89117143E+03
      2.06248156E+03      1.77867850E+03     -2.91693570E+03
      1.10548013E+03      7.37792048E+02      8.63659799E+01
      2.10095360E+03      7.30514044E+02     -2.36860391E+03
     -1.14520619E+02      5.90292392E+02      6.43788110E+02
     -4.20278311E+02     -4.01245019E+03     -1.82209508E+02
     -2.83923335E+01     -1.57693856E+02     -3.16175656E+02
      3.59684628E+02     -3.48430946E+03     -1.89857635E+03
     -5.99885226E+02     -1.86109622E+03      3.62899078E+03
      1.39756191E+02      4.70111824E+02     -1.85004184E+02
     -6.63602886E+02      3.94195318E+02     -6.10905245E+02
     -2.53428713E+03      3.19456449E+03     -1.52273571E+03
      2.35875909E+02     -1.18648068E+03     -1.17120222E+03
     -7.15274908E+02     -1.38879717E+02     -8.05165749E+01
     -1.12541115E+03      6.98202154E+01      3.46650178E+03
     -1.24975970E+03      2.53135382E+03      2.37669985E+03
      2.03686419E+02      1.52487236E+02     -5.29516676E+02
     -3.85206824E+02      1.25055335E+03      2.04994002E+03
      2.36020228E+03     -1.14166287E+03      1.38878095E+03
      1.06058536E+02      7.13574478E+02      2.06515252E+02
      3.57824992E+03      2.79135642E+03      1.67403141E+03
      4.67101802E+02     -8.57887925E+02      2.97718143E+02
      4.57663917E+02      6.75928704E+02      4.05851912E+02
      3.23938171E+02      2.25494237E+03     -3.48974547E+03
      9.33883775E+02     -1.30399220E+02     -5.44007947E+02
      1.90260045E+02      2.96270466E+02     -8.30876925E+02
      1.16866527E+03     -6.67076637E+02     -2.03575243E+03
     -9.05405688E+02     -1.11558112E+03     -1.67556707E+03
     -4.19606165E+02     -1.11121276E+02      3.83665840E+02
      2.70477808E+02      5.12861611E+02      1.54321974E+03
     -7.55877570E-01     -1.24412813E+03      2.17999194E+03
      2.11020107E+02     -2.80935536E+02     -2.94709265E+02
     -1.11197216E+03      6.19176220E+02     -1.05123063E+02
      1.21967587E+03      2.00578908E+02     -8.07272497E+02
      5.40106634E+02      3.64216572E+02     -2.70167284E+02
      1.55985692E+03      1.97725265E+03     -2.92363788E+02
      2.07451788E+03      1.50544534E+03     -3.31522920E+02
     -2.37114884E+03      6.78832925E+02      1.81186029E+03
      3.76148429E+01     -1.50599558E+02     -1.52754811E+02
     -4.44664205E+02     -6.47512483E+02      1.41051257E+03
     -8.67758045E+02      8.21468169E+02     -1.35923950E+03
      9.91995801E+02      4.89245421E+01      8.42221954E+02
     -2.40151202E+03     -1.33563431E+04      1.70442262E+04
      3.60044869E+03     -1.71797125E+03      4.55948444E+02
     -8.78818512E+02     -1.58795473E+03      2.56674932E+03
     -2.18556415E+02      2.28219739E+02      5.75847288E+02
     -1.18348806E+03      9.48855611E+02     -2.40260085E+02
     -2.07404831E+03      1.02604088E+03     -3.49108990E+02
      5.97299009E+02     -7.04331277E+01     -4.14430941E+02
      6.71815636E+02      1.03004477E+03      3.43026338E+02
      1.25661601E+02     -1.39879819E+03     -2.10477348E+03
     -9.49914838E+02     -3.26898268E+02     -1.46180104E+02
      3.84858388E+02     -7.02256782E+02     -5.52714444E+02
      1.58508258E+02      1.09198108E+02      2.23665182E+03
      1.60515176E+02     -8.99525997E+01      1.45728044E+02
     -2.21987227E+03     -5.90370582E+02      3.65752136E+02
     -2.78493429E+02      1.50244855E+03     -1.72627571E+03
      2.79732111E+02      6.71278678E+02      9.47202981E+02
     -1.01540508E+03      2.43360604E+02     -1.75913616E+03
     -6.86679838E+02     -1.49707242E+03      2.16639876E+03
     -1.25999564E+02      1.64676858E+02     -3.62505123E+02
     -2.28591497E+03     -5.17687425E+02     -1.58215133E+02
     -2.75257350E+03     -2.82059474E+03     -1.12234242E+03
      4.36590938E+02      1.30516845E+02     -4.90206921E+02
     -2.43887739E+03      1.57641918E+03     -3.26234086E+03
      1.23193602E+03      1.33174998E+03     -7.58403655E+02
      5.42590375E+02      1.90686708E+02      1.57218666E+01
      2.85473136E+03     -2.70390316E+03     -2.82510204E+03
     -6.96148609E+02     -1.73622103E+03     -3.57132956E+02
      4.18023474E+02     -1.45176819E+03     -6.23208989E+02
      4.75477520E+02      2.00693142E+02     -5.01037629E+01
      6.53605382E+02     -1.33377980E+03      1.68613604E+03
      7.07857847E+02      3.76190615E+02      1.36561928E+03
      1.10740742E+02     -2.44758480E+02      2.34381298E+02
      3.52179541E+02     -3.89478623E+02      7.80547874E+01
     -1.67895473E+02     -1.98376767E+02      1.08662672E+03
     -1.45908943E+03      1.33368101E+02     -4.34597963E+02
     -7.33362024E+02      1.44756598E+02      3.48744647E+02
      1.68888221E+02     -1.09098300E+03     -1.56104711E+03
     -1.72836215E+03      1.61287247E+03     -8.80663520E+02
     -1.59403468E+02      3.29242743E+02     -7.54929634E+01
     -9.20248752E+02     -1.97410702E+03     -1.52496869E+03
      2.28184648E+03     -7.62401572E+01     -7.01108313E+02
      1.13835936E+02     -9.99752904E+01     -8.46433677E+02
      9.00824126E+02      1.55261395E+03     -1.58632006E+03
      1.40644576E+03     -1.62999671E+03     -7.66454911E+02
     -3.86995595E+02     -8.27560952E+01      6.14409219E+02
      3.52657097E+02      1.63479312E+03     -1.22363799E+03
      2.85749561E+03     -6.27823925E+02     -3.73961798E+02
     -8.11404549E+02      5.68566931E+02     -3.02365973E+02
      4.05829458E+02      9.91638288E+02      7.11395269E+02
      1.93923262E+03     -3.48343932E+03     -1.28006278E+03
      1.87359253E+02     -2.57329492E+02      2.21039838E+02
      1.30655145E+03     -2.98894284E+03      1.64316229E+03
      3.00974077E+03      2.31223155E+03     -2.22934741E+03
     -7.40773256E+02     -3.55855545E+02     -4.72248162E+02
     -1.25971504E+03      2.14273466E+03     -1.43171832E+03
      2.05868030E+03     -5.87971244E+02      1.27399469E+03
     -8.38014908E+02      2.12562210E+02      1.42098434E+02
     -5.21660086E+01     -1.64689899E+03     -1.03917805E+03
     -1.03674631E+03      2.00367986E+03      2.04630300E+03
      1.63065508E+03      1.69315692E+03     -1.19265795E+03
     -8.65334710E+01      1.14623666E+02      1.04019971E+00
      1.84040044E+02     -8.62028651E+02      5.73377961E+02
     -5.01717130E+02      7.74154231E+02      4.52939995E+02
      5.08727103E+02     -2.75996279E+02     -4.61243598E+02
      2.45430033E+01      6.90565329E+02      6.47946563E+02
      1.72887283E+03      7.32794073E+02      1.81233036E+03
      1.51354352E+03      4.21775841E+02      2.51090987E+03
     -1.36517961E+02      6.61804268E+02      6.12012515E+02
     -1.12885173E+01      1.03665363E+02      1.02464425E+03
     -1.70892325E+03      1.33002493E+00     -9.61821301E+02
     -3.22355967E+02      5.25187762E+02      2.20552227E+02
     -5.72556651E+03     -3.86674490E+02     -1.39731837E+03
      9.43010434E+02     -8.88979230E+02     -9.02175927E+02
     -9.03824670E+01      1.52579176E+02     -5.29655517E+02
      7.85101944E+02      5.38799606E+02     -8.75644252E+02
     -3.87064522E+02      1.06738116E+03     -1.05990197E+03
      3.24018118E+00     -6.11621268E+02     -2.97973631E+02
     -5.25885626E+02     -6.72223587E+01      5.87311058E+02
     -1.52097087E+02      3.05049676E+03     -9.46899224E+02
      7.96381002E+02     -2.29877969E+01     -9.34984904E+01
     -3.14088098E+02     -1.02602879E+02     -5.29373869E+02
      9.68893354E+02      1.91859527E+03      4.79281825E+02
      7.05722424E+02     -4.50412202E+02      2.95042661E+02
      2.19262246E+02      2.44592218E+02      2.31905801E+02
     -2.11580159E+02     -2.98821681E+03      1.30607284E+03
      2.73160042E+02     -1.91375894E+02      1.57915965E+01
      3.27601017E+03     -2.27055909E+02      7.17786267E+02
      1.17822086E+03     -8.39198464E+02     -1.36424030E+03
     -8.06490561E+01      2.41955584E+02     -5.78668875E+02
      4.52920736E+02      2.03291851E+03     -1.20040294E+03
      1.94384253E+03      4.64357857E+02     -2.18844449E+03
      1.46062441E+02     -3.15564170E+02     -1.52399126E+02
     -2.17892592E+02      8.80424240E+02      4.39652971E+02
      4.62457471E+03      2.13728881E+03      1.89049597E+03
     -1.03504996E+03      3.80152645E+02     -1.51144402E+03
     -1.27676655E+03      6.77807513E+02      3.09866132E+03
     -3.59475512E+02     -1.77035582E+02     -5.49309290E+02
     -1.11836528E+03      3.24836976E+03      1.41770494E+03
      2.77369480E+03      1.27828910E+03     -1.46804879E+03
      1.58567017E+02      3.37923470E+02     -8.81410162E+01
      8.49943972E+02      1.37344052E+03      1.51138954E+03
     -1.48219597E+03     -9.91793421E+02     -4.44160460E+02
      4.58894732E+02      1.42259340E+02      7.09569257E+02
     -1.04100456E+03      2.33331371E+03      1.01014748E+03
     -1.11351952E+03     -2.47135786E+02     -6.35917805E+01
      5.24239821E+02      2.50540775E+02     -3.48121279E+02
     -1.95681072E+03      1.27307237E+03      2.05025859E+03
     -1.44730550E+02     -1.70541142E+03      1.12251249E+03
      1.97871619E+02      5.17812292E+02      1.59903867E+02
     -1.52523184E+03      9.76064634E+02      1.88676309E+03
     -8.70106468E+02      5.03191125E+02     -1.98790099E+03
      5.85252264E+02      4.53502700E+02     -7.72693391E+02
     -2.06987472E+03     -4.97951937E+02      1.22166669E+03
     -7.29615671E+02     -1.59734736E+03      5.86514282E+01
     -4.31075258E+01      7.36989946E+02     -2.21906149E+02
     -5.98947557E+02     -1.84605268E+03      2.23296432E+03
      1.52811100E+03      4.62796375E+02     -3.59696694E+02
      1.70780588E+02      3.07312779E+02     -5.53027766E+02
     -1.04640706E+03      1.88967120E+02      2.27371445E+03
      1.82650821E+03     -1.31586391E+03     -1.16045672E+03
      6.89626680E+01      1.55923441E+02     -7.44936790E+02
      1.29382927E+03      7.05651060E+02     -1.80469875E+03
      2.60996055E+02      2.62501051E+03      1.60680761E+01
     -7.02037318E+02     -1.99750349E+03      3.15780268E+03
      2.66385430E+02     -4.38850506E+02     -7.04530131E+02
      3.88481987E+03      1.79726210E+03     -3.23820930E+01
      1.61977988E+03     -2.48351337E+02     -2.95903859E+03
     -4.64000459E+03     -6.07612326E+02     -2.86080885E+03
     -2.71219766E+02     -4.87943230E+02     -3.91961443E+02
      2.26454965E+03      2.78477557E+02     -7.73382421E+02
      1.14578527E+03      5.96617035E+02     -1.34911535E+03
      3.59466073E+02      2.16001505E+02      4.30243584E+01
      1.41661402E+03      1.48460903E+03     -5.87153230E+02
     -3.93044905E+02      4.52476107E+01     -6.54880407E+02
      6.15787743E+01      3.40085744E+02     -8.52751853E+02
     -1.55765744E+03      2.76865979E+03      2.37128865E+02
      1.22461326E+03     -5.39616491E+02     -1.37270285E+03
     -4.91025518E+02      8.27270780E+02      1.36932036E+02
      6.96748261E+02     -1.06542597E+03     -6.54857754E+02
     -4.34996445E+02     -1.42728038E+03      8.60787019E+02
      4.43096112E+02      2.60578145E+02     -2.72365575E+02
     -8.87691983E+02      1.87795257E+03      4.01292316E+02
      2.25768211E+03     -3.01758282E+03     -4.66745264E+02
      1.27114727E+02      4.78230759E+02     -1.32533931E+03
     -1.54084587E+03     -5.81038877E+02      3.09912778E+03
     -1.10367202E+03     -3.95564151E+03     -1.88835193E+02
     -1.82597234E+02      7.04869121E+02     -2.88250848E+02
     -3.94388809E+02      2.08500947E+03      4.32462326E+02
      2.46738581E+03      7.39526584E+02     -1.16309241E+03
     -5.26966920E+02     -2.60253412E+02      3.51491563E+02
     -4.16046502E+02      2.97304131E+03      4.55391489E+02
     -2.50578109E+03      7.51116458E+02     -1.08949832E+03
      2.40986213E+02      5.66912038E+02      3.83598244E+01
      3.02434260E+03      1.43853554E+03      3.67119260E+02
      4.10138438E+03      8.08662027E+01      1.75492751E+03
     -1.08844549E+03      3.55282154E+03     -6.58212218E+00
     -2.74595337E+02     -4.09872160E+02     -2.00248597E+01
      7.00470954E+01     -1.37528788E+03      3.70253137E+02
      3.10113725E+01      1.38927839E+02      2.75838728E+03
     -1.02538572E+03      2.42790063E+02      1.27263491E+03
      3.91782820E+02     -1.71492813E+02     -5.91249028E+02
     -4.29747031E+02      4.31184874E+03      2.38344063E+03
      1.65696769E+03     -9.98495551E+02      1.60070268E+03
     -4.51500782E+02      1.85687405E+02     -3.15887115E+02
     -1.35923880E+03     -6.10598203E+02     -1.22118471E+03
     -1.02424799E+03     -2.18175871E+03     -7.10063298E+02
     -4.02390934E+02     -7.76834834E+01     -3.76138842E+02
      4.76026198E+02      6.37071159E+02      2.31979779E+03
     -1.53059188E+03      1.92214024E+03      1.00270223E+03
     -2.87955853E+02     -5.91015478E+02     -3.66001831E+01
      1.78360562E+03      1.91873600E+02     -2.31274529E+03
      7.70672833E+02     -9.30564223E+02      1.14732852E+03
      1.70164716E+02      1.03047501E+02     -7.62012289E+02
      1.34762520E+03     -3.86859234E+03     -1.49945966E+03
     -1.98234454E+03     -2.33702308E+03      4.06057089E+03
      2.01774101E+02      4.30528381E+02      7.68402070E+01
      8.53235031E+02     -2.51685826E+03     -1.90817747E+03
     -1.65961205E+03     -2.42282290E+02     -7.32147902E+02
      2.74841365E+02      1.06965995E+03     -4.99779165E+02
      5.04920479E+02     -6.83009641E+02     -3.99617514E+02
     -1.40832529E+03      2.07857240E+03      6.98315226E+02
      5.07223414E+01      6.77289140E+01     -5.15400317E+02
     -2.17271132E+03     -1.55764431E+03     -1.88496287E+03
     -5.49924818E+02     -2.47519832E+02      5.03637957E+00
      9.90017829E+01      3.12962036E+02      1.13865182E+02
      2.14535576E+02     -1.74871167E+03     -1.41480020E+03
      1.46771257E+03      6.61866437E+02      1.81651926E+03
     -2.81651646E+01      1.77033282E+03     -1.08016296E+02
      1.54596310E+02      3.02893597E+02     -4.25760714E+02
     -1.99572597E+03      1.29535368E+03     -1.44207772E+03
      2.64794682E+02     -2.28758311E+03      1.12466182E+03
      3.43239120E+02      3.65385220E+02      1.94516546E+03
      1.35250955E+02     -9.12660353E+02     -2.50953682E+02
      5.64746478E+02      2.16806015E+02      5.15671368E+02
      2.36652167E+03      2.59116213E+03     -7.26070294E+02
      7.74383305E+02     -2.21120102E+02      4.47234857E+02
      1.42567390E+03     -6.89961346E+02     -1.65945106E+03
     -4.77148035E+02     -1.83399111E+03      3.74975647E+03
     -9.66249986E+02      5.38563339E+02     -9.73988815E+02
      3.39290603E+02      2.23294146E+03     -9.14405012E+02
      9.89084569E+02     -1.35595177E+03     -1.42836390E+03
     -2.82187304E+02      5.81011053E+02     -4.98217898E+01
     -2.58643339E+03     -1.32817133E+03     -1.94861663E+03
     -1.90421648E+03     -1.95652345E+03     -1.52344055E+03
      7.73842936E+01     -9.97687098E+01      5.20490204E+02
      2.95982003E+03      5.22742771E+02     -1.53571449E+03
     -2.87099320E+01      8.42785197E+01      6.66745690E+02
      5.47930002E+01      2.92857370E+02     -1.83750413E+02
      7.24640462E+02      1.59089589E+03     -1.39136328E+03
     -1.19811276E+02     -3.89869298E+03     -9.23983249E+02
      1.09733635E+02      1.49772709E+02     -1.11712882E+03
      3.02527465E+03      1.65334560E+03      2.38759999E+02
      4.67920981E+02      4.73738435E+02      8.52236173E+02
      4.19589236E+02      1.05360200E+02      2.22157602E+02
      3.91669598E+03      1.63530338E+03     -4.58303463E+02
     -1.05094123E+03     -1.14728231E+03      1.72713247E+02
     -4.00559694E+02      6.66924667E+01     -1.18288457E+02
      8.10600162E+02     -2.07584602E+03     -6.20069145E+02
      1.74150533E+03      1.73946760E+01     -1.97704154E+03
      1.70597391E+03     -9.33965814E+02      3.37326942E+03
      3.43525568E+02     -9.69911377E+02     -5.40222022E+02
      1.77745856E+03      2.29136742E+03     -1.67231476E+02
     -4.39483650E+01     -1.32633744E+03      1.26754963E+03
      1.46157125E+03     -9.38402456E+02      2.62362805E+02
     -5.45938414E+01     -3.57264687E+02     -6.43509269E+02
     -1.55754527E+03     -5.81727074E+02      1.18609562E+03
      1.01780524E+03      1.43088284E+03      4.18469320E+02
      2.87178833E+02     -7.91284570E+02      4.07233761E+02
      1.63711967E+03      1.10419855E+02      1.09838723E+03
      1.14424940E+03     -1.62098420E+03     -1.11225435E+02
     -4.95959487E+02     -9.83953466E+02     -6.07128763E+02
     -2.29251241E+03     -6.43537349E+02     -4.27331483E+02
      1.63789288E+03     -1.51307684E+03     -5.31096171E+02
      7.48914280E+02     -9.67680489E+01     -4.06026705E+02
      2.18699924E+03     -1.16095357E+03      3.29063857E+01
     -1.25337794E+03      2.12936969E+03     -1.38909077E+03
     -1.27411402E+02      2.77440668E+02     -6.70517487E+02
      5.60639450E+02     -2.75537695E+03      1.50773416E+03
     -1.16936134E+03     -5.34303929E+02     -1.34917725E+03
      4.23687779E+02      5.54327353E+02     -6.65449526E+01
     -1.11684850E+02     -5.02597089E+02      5.66200812E+02
     -1.48975427E+02     -5.25943691E+02     -2.56548149E+02
      6.31261073E+02      9.64699482E+02      4.86199371E+00
     -1.02298881E+03      3.43903961E+02     -1.49443259E+03
      2.22230399E+03      5.10120479E+02     -1.90596584E+03
     -3.08813076E+02      1.21611234E+02     -3.70091224E+02
      1.19532834E+03     -4.59958215E+02     -2.18450711E+03
      5.66096509E+02     -1.90451121E+03      9.14059526E+02
      9.60682259E+01      5.70031561E+02     -3.69932111E+02
      3.60795820E+03      1.07046777E+03     -1.29117770E+02
     -3.61894348E+02      4.61052428E+02      1.71372302E+03
      4.65032203E+02      1.28222749E+03      3.74833694E+02
      8.52300893E-01      2.45032442E+02      5.17430483E+01
      2.17944260E+03      6.37978218E+02     -1.49817318E+02
     -8.97336667E+02     -7.02378608E+02      3.09438899E+03
     -2.11716938E+03      4.08949393E+02      2.10520255E+03
     -2.58633342E+02      5.33591053E+01     -3.07174126E+02
      1.12623344E+03      3.14592722E+03     -2.18783511E+03
      4.54755205E+02      7.74106012E+02     -1.23475301E+03
     -1.34941119E+02      4.88111381E+02      4.90136200E+02
      1.70606827E+03      1.76881520E+03      8.86008148E+02
      3.01896458E+02     -3.15096124E+02     -1.00162752E+03
      4.83817580E+02     -3.94855675E+02      4.53120269E+02
      1.22408689E+03     -2.07454211E+02      1.02141254E+03
     -7.39877982E+01     -3.03057346E+03      1.48602607E+03
     -2.51980305E+02     -2.34927147E+02     -1.15923319E+02
     -2.87332249E+02     -1.09483741E+03      9.40605347E+02
     -2.47870597E+02     -2.04813291E+03     -1.23375112E+02
     -1.09863770E+02     -2.76766876E+02     -3.36406035E+02
      1.02448453E+03      2.06248056E+03     -1.71027731E+03
      8.29031974E+02     -1.49849754E+03     -1.35052599E+03
      1.31064107E+02     -4.96522002E+01      1.29998069E+02
     -1.03811576E+03     -9.81585724E+02     -1.15898418E+03
     -1.81511828E+03     -8.76799274E+02     -7.23653158E+02
     -8.99575676E+02     -1.56854199E+02     -7.62665078E+02
      1.01986155E+03      1.13691305E+03     -1.97328381E+03
     -2.17105082E+03     -1.19250856E+03     -2.30495669E+03
     -1.39890665E+03      1.36549108E+02      2.18968784E+02
     -7.15515471E+02     -2.17036471E+03     -2.44546667E+03
     -1.87666870E+02     -8.40392005E+01      4.96518056E+02
     -2.80851975E+02     -8.48132244E+01      1.23090847E+02
      2.53426293E+03     -1.98861871E+02     -1.88171252E+03
     -3.22992812E+03      2.54090653E+03      2.95273412E+03
      6.56600525E+02      3.29153488E+03     -2.66208005E+03
     -4.82724479E+02      5.67093095E+02     -8.26251428E+02
      1.22547131E+03     -5.63741091E+02     -3.28594407E+03
     -8.27282468E+02      9.86123854E+02      9.66083984E+02
     -6.01372103E+02      1.93532785E+03      1.18842681E+03
  }
}

Hamiltonian = DFTB {
  SCC = Yes
  SCCTolerance = 1e-6
  MaxSCCIterations = 200
  ForceEvaluation = Dynamics
  MaxAngularMomentum = {
    C = "p"
    H = "s"
  }
  Charge = 0.0
  SpinPolarisation = {}
  Eigensolver = Standard {}
  Filling = Fermi {
    Temperature [Kelvin] = 300.0
  }
  SlaterKosterFiles = Type2FileNames {
    Prefix = "../../pbc-0-3/"
    Separator = "-"
    Suffix = ".skf"
    LowerCaseTypeName = No
  }
  KPointsAndWeights = {
    0.0000000000000 0.0000000000000 0.0000000000000 1.00000000000000
  }
  Dispersion = LennardJones { 
    Parameters = UFFParameters {}
  }
}

ParserOptions = {
  ParserVersion = 3
}
