Geometry = GenFormat {
<<< "system.gen"
}

Driver = VelocityVerlet{
  Steps = 100000
  TimeStep [fs] = 0.2
  MDRestartFrequency = 5
  Thermostat = None {
    #InitialTemperature [Kelvin] = 300.0
  }
  Xlbomd{ 
    IntegrationSteps = 6 
    MinSccIterations = 2
    MaxSccIterations = 200
    SccTolerance = 1e-6 
  }
  Velocities [m/s] {
      1.80267114E+02      8.17701495E+02      5.54383498E+02
      8.12640595E+01     -5.29652597E+02     -2.09163169E+03
      1.47910795E+03     -6.45328527E+02      1.38060682E+03
      1.60442091E+02     -2.43078059E+02     -9.01981419E+01
     -4.94531517E+02      7.24004519E+02     -1.16046236E+03
      3.70228403E+03      1.64665392E+03     -1.57738628E+03
     -4.25747222E+02      2.01937447E+02      5.66617720E+01
      3.98764558E+03     -1.29882317E+03      7.68972683E+02
      1.39491802E+03      1.26830909E+02      4.14159062E+02
     -8.47589962E+01      7.09887970E+02      4.42562649E+01
     -7.48755085E+02     -3.71885705E+03     -2.24597537E+03
     -2.17382300E+03      1.89270930E+03     -4.09703576E+02
      5.00401355E+01      6.63090173E+02      3.90930392E+02
      7.83042296E+02     -1.64601945E+02      2.15730348E+03
     -5.23742480E+02     -4.31403196E+03      2.67851057E+03
     -9.47600982E+01      3.06713912E+02     -5.89072570E+02
     -9.24205380E+02      1.03598857E+03      1.36349967E+03
      3.49180689E+03     -4.41071005E+02      1.77270440E+02
      1.44898543E+02      8.97246501E+01     -5.76976650E+02
     -1.10687391E+03     -1.35251935E+03      7.26596815E+02
     -1.50128161E+03     -9.45363757E+02      7.37147414E+02
      4.24725603E+02      5.84136356E+02      9.53258938E+01
     -7.65635476E+00      2.01103758E+03     -9.85844670E+02
      5.22653288E+02     -2.56758959E+03     -2.70489999E+03
     -5.14660183E+02      7.19334353E+01     -3.93300044E+02
     -6.53940147E+03      8.21096726E+02     -1.60352979E+02
      5.77132568E+02      1.53040962E+03      6.22849228E+01
     -3.13786022E+03      3.25259040E+02     -1.67108958E+03
      2.38231669E+02     -2.89071302E+02     -1.02039087E+03
      4.24739511E+02      2.61065419E+02      1.51756929E+01
     -8.85502110E+02     -1.39052360E+02     -2.08659033E+03
      9.77760402E+02      2.95452278E+02     -1.44153589E+03
      3.03641457E+01     -1.77557922E+03      3.96407643E+01
      3.16594850E+03      2.40977507E+02      1.55535729E+02
      7.29326593E+01     -2.53451329E+03     -5.19691398E+02
     -1.86112012E+02      4.73281409E+02      7.55899570E+02
     -5.15443580E+02     -1.64343454E+02     -5.87578869E+02
     -1.85595849E+03     -1.46175182E+03     -2.60100163E+03
     -1.71996192E+02      2.81166732E+02     -3.47500797E+02
     -2.01350369E+03     -1.48812178E+03      4.20273970E+03
     -2.11403276E+03      1.17052417E+03      2.52668933E+03
     -4.51195708E+02     -7.22555292E+00     -4.58726494E+02
      7.61529833E+02      6.04976495E+00      2.28402477E+02
     -8.90172631E+02     -4.91562874E+02      6.90113573E+02
     -2.20590296E+01     -3.08834054E+02      2.47045085E+02
      3.57244268E+00      1.69387143E+03     -1.97751036E+03
     -2.14809641E+01     -1.64589609E+03      1.90019104E+03
      1.58839585E+02      8.54540868E+02      3.88289652E+02
      3.50666949E+03      4.67105049E+02      6.19704664E+02
     -1.35999709E+03     -1.90501481E+02      2.23806688E+02
      2.99496387E+02     -3.63946497E+02      8.44952914E+02
     -3.27443789E+02     -2.03746755E+03     -2.95066266E+03
      2.33219797E+03      1.82593147E+03      1.83248496E+03
      2.40081473E+01     -4.47704090E+02     -4.79185858E+02
     -7.83453927E+02      7.31284005E+02      1.31490501E+03
      1.51643235E+03     -2.18715754E+03     -4.87514860E+02
     -7.28408768E+02      1.58052252E+02     -3.68611617E+02
      2.02120683E+02     -5.12085082E+02      1.08058790E+02
     -2.05928182E+03     -2.03493119E+03     -9.94779662E+02
     -2.66310504E+03      1.86387983E+03     -8.11588409E+02
      8.61021708E+02      5.88303203E+02     -2.87914154E+02
      8.66228037E+02     -1.26100284E+03     -8.40893964E+02
     -5.93062269E+02     -1.23035948E+03     -2.54653991E+03
     -2.21536344E+02     -2.57555447E+03     -3.92996134E+02
     -1.94787993E+01      1.80118077E+02      5.21436621E+02
     -1.28279780E+03     -2.76560148E+02      1.50519368E+03
      4.44814706E+02      2.72900617E+03      1.41651683E+03
     -1.39625392E+02     -2.25442666E+01     -3.25515311E+02
      1.69363587E+03      1.92003399E+03      2.22018684E+03
      1.48644358E+03      3.49591199E+02      2.47318427E+03
     -4.29758993E+02      5.91624749E+02     -1.56025805E+02
     -3.44194767E+03     -7.35193990E+02      1.00182982E+03
     -2.34159210E+03     -2.24236254E+03      3.14249134E+02
      1.68381014E+02      2.79555355E+02      2.78447936E+02
      1.15930631E+03      2.45155148E+02     -8.56176392E+02
     -1.94392428E+03      3.77566787E+02     -2.36593937E+03
     -2.13555920E+02     -1.77510644E+02      4.68538576E+01
      1.69110844E+03      7.83123996E+02      1.28542692E+03
     -9.20698496E+02      5.84263819E+01      1.90243334E+03
     -3.01765527E+02      6.96683481E+02      1.20931339E+00
      6.17190783E+02      2.22077739E+03     -6.50892560E+02
      1.49157088E+03      1.45952363E+03      1.44687660E+03
      2.67026239E+02     -4.43582781E+02     -4.89670384E+02
     -8.40203889E+02     -8.04865346E+02      7.51857424E+02
      6.40721046E+02      4.08165681E+02      5.21660958E+02
     -5.11660098E+02      5.06868312E+02     -5.92999630E+02
      9.88859392E+02     -2.48567020E+02     -2.01839570E+03
     -2.29389061E+02      1.69375295E+03      2.27628515E+03
     -9.23521437E+02      9.73304378E+02     -3.98785142E+02
     -1.17445196E+03      3.13469788E+02     -5.86437633E+02
      2.03951875E+03     -8.15937498E+02      1.46209345E+03
      1.28729725E+03     -9.89916927E+02     -1.15135159E+03
     -1.60491718E+02      8.41451243E+00      4.02064508E+02
     -1.17545184E+03      3.56731719E+03      4.82977925E+01
     -1.61207536E+03      1.39383171E+03      6.06225462E+01
      3.69393554E+02      2.91471549E+03     -1.42760116E+03
     -4.86310607E+02     -3.09023822E+02     -3.64338885E+02
      2.37210317E+02     -7.48823818E+02      9.76632187E+02
     -1.98679774E+03     -1.25327272E+03     -1.18009548E+03
     -4.42310881E+01      8.85578546E+01      2.33403433E+02
      1.14755311E+03     -1.59738231E+02      1.18603657E+02
     -2.86297460E+02     -1.97673728E+03     -1.51540639E+03
      6.51941002E+02      6.61633501E+01     -2.95063119E+02
     -4.21637706E+02      1.28898752E+03     -1.25671904E+03
     -1.68816320E+03     -4.90050222E+02     -1.56020308E+03
      4.98333702E+01      1.26098734E+02     -5.61880675E+02
      9.57802466E+02     -7.12141864E+02      1.78116222E+03
     -7.17767667E+02     -1.26091600E+03     -5.08716952E+02
      4.43568693E+02     -3.48304731E+02     -8.13421251E+02
      7.08547984E+01      4.53419884E+03     -2.37971963E+03
      2.17808667E+03     -7.37075837E+02     -1.77321133E+03
     -7.33878708E+01      5.41807071E+01     -7.97610309E+02
     -2.72176651E+03      5.37824456E+03     -1.65124527E+03
      3.65725936E+02      3.35654940E+02     -3.32394931E+03
     -3.25621758E+02     -5.12330114E+02     -4.46262746E+02
     -9.85591548E+02      1.83921358E+03      1.75390965E+03
     -1.52622038E+02      3.03341330E+03      6.90040432E+01
      3.81509189E+02      3.05369704E+02     -9.34456552E+02
      1.78854529E+02     -1.13481178E+03      3.24777483E+03
      2.46614231E+03      2.13885510E+03      9.02297245E+02
     -1.46297162E+02      1.04846471E+03      1.28168089E+02
      1.74589696E+03     -2.00782817E+03     -1.30120796E+03
     -6.05959419E+02     -1.82145474E+03     -2.36856152E+03
     -3.65874109E+02      1.95316110E+03      2.55650511E+03
     -1.96748267E+02      7.54621029E+01     -1.17763887E+02
      1.69084787E+03     -1.36789366E+03     -2.72759890E+03
     -1.20976288E+03     -8.76531434E+02      6.93806789E+02
      6.38914841E+02     -1.77485524E+03     -9.67223873E+02
      5.32888192E+02     -5.16145239E+02      1.30907961E+02
     -1.50975890E+03      3.23542303E+01     -1.51427254E+03
     -4.92392973E+02     -2.61288743E+01     -1.97669203E+03
      3.19098516E+02     -6.11525376E+01     -4.86747050E+01
      2.08318706E+03     -2.46285467E+02     -1.87748522E+03
     -1.96178442E+03      1.98168970E+03     -7.55569666E+02
     -2.82459095E+02     -1.74472844E+01      3.86479219E+00
      1.04913174E+03     -6.68719107E+01      6.99077407E+02
      5.38550678E+00     -1.02838159E+03      1.00263648E+02
      1.36349486E+02      9.50210240E+02      2.51867312E+02
     -2.45715126E+02      6.40271614E+02      1.83155703E+02
     -2.93626114E+03      6.71142838E+02     -1.04622975E+03
     -4.26017567E+02      2.18043921E+02     -4.37003661E+02
     -7.11569612E+02     -6.30014385E+02     -1.64326947E+03
     -1.10375376E+03      2.20878804E+03     -1.15332165E+03
     -3.39595109E+02      4.01581537E+02     -3.03148256E+02
     -8.65772350E+02     -1.02055428E+03     -2.48362459E+03
      1.64338245E+02      1.30192428E+03      1.03078340E+02
      2.06498511E+02     -3.25140727E+02     -5.78636263E+02
      2.11167930E+03      1.64032090E+03      2.95682980E+02
     -1.65821168E+02     -2.24738963E+02      1.12990822E+03
      8.77106387E+01      1.67458663E+02     -4.41223868E+02
     -1.65191256E+02      5.09411177E+02     -2.73710893E+03
      2.25810982E+02     -1.94417537E+03     -2.37596622E+03
      4.37163654E+02      7.26697730E+02      1.41473489E+02
      2.24917935E+03      1.57610529E+03      8.51202329E+02
      2.05267289E+03     -9.21933824E+02      1.15276310E+02
     -1.52437566E+03      5.50432400E+02     -1.98248207E+03
     -5.38030841E+02     -3.74178216E+02      5.28235001E+02
      1.04941079E+03     -8.40004991E+02      9.22732522E+02
     -3.80593081E+02      2.40677868E+03     -2.71313467E+02
     -1.74778443E+03      1.82174468E+03      1.23352402E+03
      3.48692671E+02      1.22714981E+01      4.86070562E+02
     -1.83178068E+03      2.70144631E+03      1.33764843E+02
     -1.52134648E+03     -6.77591380E+02     -2.71460508E+03
      3.95191879E+02      1.06327957E+03      1.08595685E+02
     -3.95294123E+02      2.01599656E+03      2.21089418E+03
      4.11158678E+02      2.56934928E+03      2.79800882E+02
      1.98693569E+02     -4.08991644E+02     -2.55196992E+02
     -2.37257253E+03     -7.05381303E+02     -2.11763976E+03
      4.15061629E+02     -2.70663839E+02     -2.44590501E+03
      3.09380292E+02     -2.13742084E+02     -7.87211965E+02
      9.31327971E+02      5.44435497E+02      7.24892120E+02
      1.31213600E+03     -2.72186762E+03     -1.70907617E+03
     -1.00577832E+01      4.58076322E+02      1.04009641E+03
      8.60386954E+02      2.21597115E+00      1.74807783E+03
      2.28408793E+03     -6.73090798E+02     -2.33663496E+03
      1.82280026E+02     -1.76597229E+02     -9.90447821E+01
     -1.62455542E+03      1.17696108E+03      2.64830736E+02
     -6.07851573E+02     -2.06860631E+03      1.63886705E+01
     -2.70620418E+02      1.12771362E+03     -2.86005496E+02
     -6.03243179E+02     -8.51934074E+02     -6.38654925E+02
     -1.16308211E+02      2.67051570E+03      2.15450788E+03
      4.48567395E+02      2.03661266E+02     -3.93561580E+02
     -1.02930852E+03      1.40118315E+03     -4.40308817E+02
      8.48016365E+02      8.67075317E+02     -1.81996862E+03
     -6.23516341E+01     -1.41422605E+02     -5.89295886E+02
      7.14749166E+02     -1.21200645E+03      4.97783617E+02
      1.03615451E+03     -2.56797948E+03      1.51006300E+03
     -9.42583647E+02     -4.34775769E+02     -3.20245578E+02
      2.88097703E+02     -2.52490087E+02      3.84980624E+02
      1.75260327E+03     -1.41181776E+03     -4.15683783E+02
     -2.00062405E+03      2.17807984E+03      2.07091624E+03
      9.16130587E+02     -2.29825045E+03     -1.24290442E+02
     -1.33245764E+02     -1.69524687E+02      5.21620772E+02
      1.09471056E+02      1.59107430E+03      1.04230158E+03
      7.41500195E+02      3.38812869E+03     -1.10424777E+03
      7.04268093E+02      2.16952994E+02     -4.89504707E+02
     -6.14533462E+02     -6.98797752E+02      2.11511189E+02
     -3.63407358E+02      1.35713703E+03     -1.58527682E+03
     -1.41018929E+03      6.75643068E+01      6.15330756E+02
     -1.71856204E+03     -4.75692644E+02      4.11877624E+02
     -3.80529597E+03      1.26001643E+02      1.09264204E+03
      1.54794439E+01     -6.51174097E+01     -1.31621207E+02
     -1.40290897E+03      5.95161603E+02      8.20055615E+02
     -1.66905873E+03     -2.80360603E+02     -9.98006436E+01
     -1.58768483E+02      3.34707708E+02      3.05603086E+02
      2.24966550E+02      1.08885563E+03     -3.75272275E+03
     -2.29620432E+03      8.89067813E+02      4.92713980E+02
      3.22157724E+02      2.30937909E+02     -3.84475792E+02
     -1.03808252E+03      1.45230626E+03      3.61806255E+02
     -1.03012309E+03     -1.97074105E+03      1.51248295E+03
      2.91370506E+02     -3.06087041E+02      3.95732840E+02
     -2.43137288E+02     -9.02690085E+02     -1.53000009E+03
     -2.99852020E+03     -8.67891839E+02     -1.65277027E+03
      1.60253466E+02      6.57726060E+02     -7.87361791E+02
      1.97065711E+03      3.31087007E+03      1.08224348E+03
     -1.00364887E+03     -4.30388516E+03      1.89917061E+03
     -3.17606282E+02     -7.09882733E+02      1.45634284E+02
     -2.02705393E+03      4.02483023E+03      5.42415609E+02
      1.39847565E+03      2.50811338E+02     -1.57479328E+03
     -3.05200921E+02      6.90268332E+02     -2.15121563E+03
      3.27701114E+01      4.58396148E+02     -3.90715237E+02
      1.05668003E+03      6.92675651E+02      1.03820094E+03
      3.23132336E+02     -1.24723167E+03      7.59407386E+02
     -1.87937314E+03     -1.57095026E+03     -2.47791537E+02
      1.71792239E+02     -1.22617528E+02      8.17910583E+00
     -1.43632740E+03     -2.50559583E+03     -1.57862600E+03
     -2.08386992E+03      2.34235434E+02      6.77220808E+01
     -4.34372896E+02     -2.27409464E+00     -3.87979792E+02
      2.27799365E+03      9.96895321E+02     -3.36121640E+02
     -3.56936608E+02      9.05415852E+02      5.36911652E+02
     -5.47883747E+02     -7.91805524E+02      9.70803199E+01
      4.00414717E+02      8.31800228E+02     -6.98323105E+02
     -3.40661983E+03      1.96240867E+03     -1.22765864E+03
     -6.66856717E+02      8.78660448E+01     -1.27134826E+02
     -1.11420212E+03      9.95576585E+02     -3.13351903E+03
     -2.60639798E+03      2.38472351E+03     -1.48269245E+03
     -3.56009594E+02      7.34580977E+02      3.42006361E+02
      1.00068850E+03     -3.04253188E+01     -1.48262028E+03
     -3.15458262E+03     -1.14971848E+02      1.58977788E+03
      1.33417587E+02     -2.56289686E+02     -1.10983451E+03
     -1.21603789E+03     -9.93507364E+02      5.91146004E+02
      3.43912931E+03      8.11957128E+02     -1.00622825E+02
      1.21097786E+02      5.69243156E+02     -4.14658281E+02
     -1.42457012E+03      1.21448949E+03     -2.47518400E+03
     -1.26799727E+03      6.14905295E+02      1.05251770E+03
     -7.39139094E+02     -9.05332632E+01     -3.95375010E+01
     -6.88664751E+02     -2.71328584E+03      1.31217852E+03
      1.23400968E+03      1.71088089E+03     -1.17381958E+02
      7.36096141E+02      4.98258155E+02     -2.59485094E+02
      1.31082181E+03     -3.78611599E+03     -1.91512763E+03
     -2.41075830E+03     -4.36121596E+02      1.40310693E+03
     -9.07598937E+02     -2.77922203E+02     -7.00316721E+02
     -7.86421868E+02      2.65307764E+01     -2.76253571E+02
     -1.58538042E+03      4.70500008E+02     -1.22215066E+03
     -9.73636353E+02      2.16197494E+03      3.19623677E+01
     -3.13491647E+03      1.23723539E+03      3.16447374E+03
      3.13790164E+02      6.21783078E+02     -8.67806480E+02
     -8.15402500E+02     -6.13260466E+02     -2.56401357E+01
     -8.68377012E+02     -1.32585277E+01      2.24949317E+03
     -1.06343631E+03      6.22089951E+02     -6.46042706E+02
      1.41398139E+03     -1.04057442E+03     -1.60843780E+02
     -1.02683262E+03     -2.56000616E+03     -2.87418943E+03
      8.22483338E+02      7.29593866E+02     -8.48275450E+02
      1.50060580E+03      8.81263915E+02      2.42027140E+02
     -1.13061402E+03      7.29412597E+02      2.39780894E+03
     -3.50316198E+01     -1.85486082E+02     -8.51137966E+01
     -2.67283670E+03     -1.44774623E+03      3.87002796E+02
      1.03805742E+03      5.00403136E+02     -1.92644562E+02
     -3.58011510E+02     -3.73456938E+01      9.22310790E+01
      1.62852664E+03     -6.36485927E+02     -1.36348234E+03
      1.94269143E+01      1.21508074E+03      1.15220517E+03
      3.92845115E+02     -6.61183838E+02     -7.39060871E+02
     -3.03075054E+03     -5.59054369E+02      1.06713230E+03
     -4.68788877E+02     -1.03325510E+03      1.19458608E+03
      1.23392199E+01     -6.03459935E+02     -6.63588316E+02
      1.18917958E+03      1.56270906E+03      1.36987708E+03
      6.96588877E+02      2.49116170E+02      2.43247215E+03
      3.00659451E+00      5.78789840E+02     -4.02641320E+02
      9.30952943E+02      7.14487544E+01     -2.49986205E+02
     -2.02743067E+03      7.49300579E+02      1.07745225E+03
     -4.19138473E+02      8.06255035E+02     -3.44745313E+02
      1.22568883E+03      6.59102881E+02     -3.47586952E+03
     -1.96843517E+03     -1.80670071E+03     -7.92972759E+02
      2.41604011E+03     -1.51054594E+02     -2.01644176E+03
     -3.22716065E+02      8.97421277E+02      4.81695875E+02
      4.66934112E+02     -1.52460278E+03     -9.79824501E+02
      4.90434395E+01      2.20851727E+02     -4.72197735E+02
     -1.58323521E+03      6.10268159E+02      7.51680610E+02
      2.53852409E+02     -4.79216457E+02     -3.25641223E+02
      9.64075917E+02      1.44590419E+03     -7.77191903E+02
      2.00773138E+03      2.59743588E+03     -1.47531866E+03
      8.88540954E+02      6.33062679E+01     -1.69324666E+02
      5.43997438E+02     -8.37124093E+02     -9.71719828E+02
     -1.67680178E+03      1.79439144E+03      3.41539425E+03
      8.69876013E+02      5.30837899E+02     -4.47104605E+02
     -9.45064191E+02      2.37344719E+02     -1.89635695E+03
     -1.02028788E+02     -2.29171150E+02      9.40405695E+02
      3.40386050E+01      6.67795800E+02     -1.10181383E+03
      2.32474415E+03     -8.09742771E+01      1.10821998E+03
      8.64197252E+02      1.09109257E+03      6.69174405E+02
     -4.02359864E+02     -2.01289182E+02      1.28345363E+02
      2.30483428E+03      1.32582746E+03     -2.82673203E+02
     -2.25724291E+03      1.17079675E+01      2.16650398E+03
     -4.24304253E+02     -4.74734730E+02     -2.46029655E+02
      1.08674010E+03     -1.18567020E+03     -1.97020277E+03
      1.20650311E+03      6.34935856E+01     -6.20100873E+01
     -8.16103099E+02      9.34234704E+02     -2.10105709E+02
      5.04490577E+02      6.59753764E+02      7.22483597E+02
     -1.94231031E+03     -4.18175188E+02     -4.01276035E+02
      4.12304741E+01      1.06084140E+03     -6.01895517E+02
      2.09943750E+03      1.90471471E+03      6.54208830E+01
      5.04675389E+02      1.11792219E+03      1.79326989E+03
     -2.08676284E+02     -3.31173181E+02      7.11376560E+01
     -1.84591917E+03      2.83725800E+03      3.40130724E+03
      3.87926985E+02     -1.68349747E+03     -1.74646425E+03
      4.23859072E-01     -3.51541653E+02      3.59445287E+03
      8.87810307E+03     -1.71356334E+04      2.04157914E+04
     -3.27496958E+02      1.63352130E+02      1.61988682E+03
      1.07615712E+03      4.84801222E+02      3.46424565E+03
      6.71791404E+02     -1.41784207E+03     -2.14321236E+03
      2.92064575E+02      3.49800365E+02      1.37171772E+02
     -1.50194238E+03     -2.03553660E+03     -1.07725256E+03
     -5.99125795E+02     -5.32112540E+02     -1.69083513E+02
      1.95537887E+02     -1.65675822E+01      2.86035652E+02
      2.11183349E+03      6.09082205E+02     -6.14071937E+02
      3.54777292E+02      6.14197449E+02     -1.02662584E+03
      5.80297837E+01      4.29105954E+02     -3.90837229E+02
      7.18657714E+02      4.31655655E+02     -5.88796311E+02
     -8.50269010E+02     -1.37561481E+03      2.17828478E+03
     -3.00373489E+02     -5.07820924E+02     -1.75802304E+02
      1.81296982E+02     -8.60636115E+02     -3.23778483E+03
     -3.32968591E+03      1.10606556E+03      1.02387554E+03
     -6.00320601E+02     -5.03755553E+02      8.03211240E+01
     -1.88190645E+03      1.48139214E+03     -3.06754366E+03
     -1.10676984E+03      8.51042069E+02      1.47638152E+03
     -7.18520047E+01      8.19459301E+02      2.16616550E+02
     -3.08420070E+02      1.87292287E+03     -6.21166957E+01
      1.16073547E+03     -2.72353211E+03     -1.07194780E+03
     -3.40873400E+02      2.07757655E+02     -8.86660990E+02
     -2.79479597E+02      2.57930666E+03     -2.23099732E+03
     -3.69513985E+01     -1.78438373E+03     -1.60740970E+03
      5.04442592E+02     -1.73974651E+01      5.76937739E+02
     -1.80654641E+02      3.38088274E+02      2.52095216E+02
      4.69960210E+01      2.76527855E+03      1.08900344E+03
     -5.18432118E+01     -3.92520549E+02     -4.05401515E+02
      3.93617098E+02      4.40712266E+02     -1.42618982E+02
     -5.48622522E+02      1.10993583E+03     -2.32050571E+03
     -3.34779820E+03      7.85730572E+01     -4.32439910E+02
     -6.69434686E+02     -3.09256130E+02     -1.04913534E+03
     -8.52952509E+02      1.07621549E+03      1.20275014E+03
     -1.98138305E+03      1.03016575E+02      2.37892126E+02
     -2.53010317E+03     -1.34996929E+03      2.09008616E+03
  }
}

Hamiltonian = DFTB {
  SCC = Yes
  SCCTolerance = 1e-6
  MaxSCCIterations = 200
  ForceEvaluation = Dynamics
  MaxAngularMomentum = {
    C = "p"
    H = "s"
  }
  Charge = 0.0
  SpinPolarisation = {}
  Eigensolver = Standard {}
  Filling = Fermi {
    Temperature [Kelvin] = 300.0
  }
  SlaterKosterFiles = Type2FileNames {
    Prefix = "../../pbc-0-3/"
    Separator = "-"
    Suffix = ".skf"
    LowerCaseTypeName = No
  }
  KPointsAndWeights = {
    0.0000000000000 0.0000000000000 0.0000000000000 1.00000000000000
  }
  Dispersion = LennardJones { 
    Parameters = UFFParameters {}
  }
}

ParserOptions = {
  ParserVersion = 3
}
