Geometry = GenFormat {
352  S
C  H
1 1    0.3637928264E+02    0.2916454136E+02    0.4020507080E+02
2 2    0.3538545835E+02    0.2936448156E+02    0.3979378825E+02
3 2    0.3702025703E+02    0.2855808508E+02    0.3945879033E+02
4 1    0.3705473080E+02    0.4582855714E+02    0.4061832244E+02
5 2    0.3713233128E+02    0.4646049975E+02    0.3971676283E+02
6 2    0.2274767274E+02    0.4561751282E+02    0.4100302089E+02
7 1    0.3624956952E+02    0.4641544761E+02    0.4176990113E+02
8 2    0.2018306801E+02    0.4576061944E+02    0.4228733361E+02
9 2    0.3561758826E+02    0.4742673579E+02    0.4150771382E+02
10 1    0.2190014834E+02    0.4692010489E+02    0.4281407629E+02
11 2    0.2130959144E+02    0.4764289845E+02    0.4352718295E+02
12 2    0.2266714838E+02    0.4761330590E+02    0.4230405751E+02
13 1    0.3807091335E+02    0.4577319910E+02    0.4353272550E+02
14 2    0.3861286451E+02    0.4515896909E+02    0.4267897131E+02
15 2    0.3742486817E+02    0.4497235629E+02    0.4404738578E+02
16 1    0.2380904797E+02    0.4633696621E+02    0.4452409516E+02
17 2    0.2334019875E+02    0.4687183381E+02    0.4537921724E+02
18 2    0.1915156012E+02    0.5115283585E+02    0.3280174896E+02
19 1    0.4033234301E+02    0.4540955624E+02    0.4487504729E+02
20 2    0.4108834003E+02    0.4602474761E+02    0.4542912622E+02
21 2    0.4092001561E+02    0.4506904709E+02    0.4397695910E+02
22 1    0.4016567520E+02    0.4416386795E+02    0.4578838691E+02
23 2    0.2580526364E+02    0.4364363620E+02    0.4595128216E+02
24 2    0.2424010383E+02    0.4341838916E+02    0.4529754045E+02
25 1    0.3622067124E+02    0.2823307628E+02    0.4147159974E+02
26 2    0.3536393904E+02    0.2755898903E+02    0.4115743248E+02
27 2    0.3722888601E+02    0.2765081542E+02    0.4158524024E+02
28 2    0.3598223362E+02    0.2848680467E+02    0.4250044708E+02
29 1    0.3965474881E+02    0.4427258880E+02    0.4719514473E+02
30 2    0.3858346336E+02    0.4419148293E+02    0.4730087896E+02
31 2    0.4011865006E+02    0.4341417285E+02    0.4786665235E+02
32 2    0.4024978490E+02    0.4515560134E+02    0.4772807551E+02
33 1    0.2786951923E+02    0.3279131312E+02    0.3424820003E+02
34 2    0.2754903853E+02    0.3387287735E+02    0.3425807343E+02
35 2    0.2720092533E+02    0.3210637934E+02    0.3369627247E+02
36 1    0.2931550874E+02    0.3263975259E+02    0.3364156552E+02
37 2    0.2967192237E+02    0.3171268458E+02    0.3398586957E+02
38 2    0.2994031510E+02    0.3338526735E+02    0.3420971091E+02
39 1    0.2942587724E+02    0.3256752972E+02    0.3214746842E+02
40 2    0.3055513371E+02    0.3244737943E+02    0.3199854030E+02
41 2    0.2921541265E+02    0.3359505708E+02    0.3177654473E+02
42 1    0.2848503105E+02    0.3154979290E+02    0.3144409553E+02
43 2    0.4322223799E+02    0.3208868771E+02    0.3068361750E+02
44 2    0.2769715603E+02    0.3118861702E+02    0.3204314745E+02
45 1    0.2919506729E+02    0.3039539333E+02    0.3066531933E+02
46 2    0.2845600669E+02    0.2948124682E+02    0.3048286976E+02
47 2    0.4530010372E+02    0.3005548327E+02    0.3135328526E+02
48 1    0.4506664899E+02    0.3085915610E+02    0.2930972370E+02
49 2    0.4598808330E+02    0.3145857780E+02    0.2938074332E+02
50 2    0.4419275848E+02    0.3145896934E+02    0.2899991089E+02
51 1    0.3018770198E+02    0.2975970522E+02    0.2842380500E+02
52 2    0.3074365692E+02    0.2895269142E+02    0.2891414844E+02
53 2    0.3065650505E+02    0.3027884198E+02    0.2758058289E+02
54 1    0.4423692631E+02    0.2916008270E+02    0.4302706126E+02
55 2    0.4330665503E+02    0.2946164030E+02    0.4347907081E+02
56 2    0.4435167109E+02    0.2807427640E+02    0.4327623350E+02
57 1    0.2783262210E+02    0.3236232696E+02    0.3579505581E+02
58 2    0.2878495581E+02    0.3262143552E+02    0.3630701668E+02
59 2    0.2694482102E+02    0.3267822729E+02    0.3639008667E+02
60 2    0.2782065275E+02    0.3128089258E+02    0.3592884790E+02
61 1    0.2879560682E+02    0.2943087194E+02    0.4153449623E+02
62 2    0.1848319004E+02    0.3655384048E+02    0.3391948788E+02
63 2    0.2781121578E+02    0.2978480411E+02    0.4123652868E+02
64 2    0.2961488249E+02    0.2926533086E+02    0.4091189485E+02
65 1    0.3833647495E+02    0.4197297851E+02    0.3776436028E+02
66 2    0.3857009720E+02    0.4309378625E+02    0.3762989263E+02
67 2    0.3741482873E+02    0.4207201645E+02    0.3841318379E+02
68 1    0.3796601157E+02    0.4125650138E+02    0.3638731059E+02
69 2    0.3782623483E+02    0.4017519188E+02    0.3656469027E+02
70 2    0.3884788081E+02    0.4136611411E+02    0.3569036490E+02
71 1    0.3666405406E+02    0.4159709576E+02    0.3564653376E+02
72 2    0.3571797486E+02    0.4141358749E+02    0.3613729496E+02
73 2    0.3687358964E+02    0.4088439532E+02    0.3474895153E+02
74 1    0.3649497448E+02    0.2766747238E+02    0.3509313366E+02
75 2    0.3715963860E+02    0.2808905260E+02    0.3426205675E+02
76 2    0.3661724297E+02    0.2835782125E+02    0.3593217168E+02
77 1    0.3503821317E+02    0.2774110997E+02    0.3449147817E+02
78 2    0.3475692313E+02    0.4208272703E+02    0.3396023762E+02
79 2    0.3494100224E+02    0.4388635961E+02    0.3375064643E+02
80 1    0.3393830582E+02    0.2808345702E+02    0.3553075237E+02
81 2    0.3403423336E+02    0.2911902636E+02    0.3594904865E+02
82 2    0.3410334778E+02    0.2744545866E+02    0.3642153487E+02
83 1    0.3248869979E+02    0.2783753678E+02    0.3503181368E+02
84 2    0.3170313031E+02    0.2778924219E+02    0.3580656402E+02
85 2    0.3243851139E+02    0.2678371164E+02    0.3462288955E+02
86 1    0.3202025619E+02    0.2883989327E+02    0.3404216647E+02
87 2    0.3278691400E+02    0.2973994905E+02    0.3396921108E+02
88 2    0.3105107262E+02    0.2926774907E+02    0.3442227508E+02
89 1    0.3935365813E+02    0.4104802905E+02    0.3850668058E+02
90 2    0.4012680774E+02    0.4163166771E+02    0.3893604350E+02
91 2    0.3895179535E+02    0.4030482358E+02    0.3912502899E+02
92 2    0.4008831421E+02    0.4053087369E+02    0.3777313934E+02
93 1    0.3165421175E+02    0.2829316894E+02    0.3259597217E+02
94 2    0.3205565262E+02    0.2881779343E+02    0.3174334892E+02
95 2    0.3205321561E+02    0.2728497177E+02    0.3263469678E+02
96 2    0.3062143691E+02    0.2822906831E+02    0.3244133003E+02
97 1    0.3329780877E+02    0.3914598660E+02    0.3830094859E+02
98 2    0.3382442385E+02    0.3933682765E+02    0.3919027958E+02
99 2    0.1987328895E+02    0.5164456842E+02    0.3437409453E+02
100 1    0.3232779623E+02    0.4014821423E+02    0.3755943105E+02
101 2    0.3252910803E+02    0.4016781226E+02    0.3638653703E+02
102 2    0.3243873826E+02    0.4105884249E+02    0.3799704966E+02
103 1    0.3176951699E+02    0.3898485010E+02    0.3823828914E+02
104 2    0.3122761735E+02    0.3841162706E+02    0.3767833200E+02
105 2    0.3124099285E+02    0.3911887731E+02    0.3923911580E+02
106 1    0.1921843909E+02    0.5111952512E+02    0.1851516220E+02
107 2    0.1859693435E+02    0.5068813168E+02    0.1927644492E+02
108 2    0.2431975022E+02    0.4723648976E+02    0.2877872304E+02
109 1    0.2563717002E+02    0.3428723367E+02    0.2798041904E+02
110 2    0.2474521608E+02    0.3383490145E+02    0.2752267025E+02
111 2    0.2657917922E+02    0.3370592851E+02    0.2761016923E+02
112 1    0.2567102242E+02    0.3514665165E+02    0.2924318480E+02
113 2    0.2656785537E+02    0.3587803622E+02    0.2920537055E+02
114 2    0.2577947317E+02    0.3453135570E+02    0.3016038378E+02
115 1    0.2439914886E+02    0.3592411165E+02    0.2936744386E+02
116 2    0.2441358658E+02    0.3673569496E+02    0.2858553760E+02
117 2    0.2454889248E+02    0.3636379679E+02    0.3025200065E+02
118 1    0.2300161397E+02    0.3518161524E+02    0.2934410400E+02
119 2    0.2284452525E+02    0.3415933687E+02    0.2972740880E+02
120 2    0.2258453491E+02    0.3498155093E+02    0.2831485130E+02
121 1    0.3413924011E+02    0.3820061577E+02    0.3728494667E+02
122 2    0.3439003281E+02    0.3734526417E+02    0.3794278207E+02
123 2    0.3362421896E+02    0.3769965349E+02    0.3645349924E+02
124 2    0.3522229019E+02    0.3859212762E+02    0.3711196539E+02
125 1    0.2191008862E+02    0.3617542677E+02    0.2995099784E+02
126 2    0.2211201156E+02    0.3633304887E+02    0.3104429058E+02
127 2    0.2201551339E+02    0.3712051542E+02    0.2940602042E+02
128 2    0.2090455983E+02    0.3571474580E+02    0.2981796061E+02
129 1    0.3070479814E+02    0.3792556889E+02    0.2943582906E+02
130 2    0.3085833019E+02    0.3901143192E+02    0.2953012378E+02
131 2    0.3068063431E+02    0.3782601874E+02    0.2826473494E+02
132 1    0.3196547896E+02    0.3710792396E+02    0.2981263571E+02
133 2    0.3244666206E+02    0.3728557809E+02    0.3078740785E+02
134 2    0.3276966919E+02    0.3748565398E+02    0.2917381095E+02
135 1    0.3187934094E+02    0.3557908602E+02    0.2986213600E+02
136 2    0.3113528099E+02    0.3509062216E+02    0.2918389986E+02
137 2    0.3142389730E+02    0.3531772907E+02    0.3088017382E+02
138 1    0.3331311065E+02    0.3481060071E+02    0.2996989406E+02
139 2    0.3370477318E+02    0.3488569090E+02    0.3100760454E+02
140 2    0.3409781971E+02    0.3537385148E+02    0.2931446869E+02
141 1    0.3317665309E+02    0.3333893318E+02    0.2953259124E+02
142 2    0.3365229368E+02    0.3320819175E+02    0.2857431981E+02
143 2    0.3211246668E+02    0.3310661988E+02    0.2943762712E+02
144 1    0.3387952373E+02    0.3235127869E+02    0.3046694713E+02
145 2    0.3367538380E+02    0.3237043919E+02    0.3154107119E+02
146 2    0.3493272266E+02    0.3251823311E+02    0.3043662329E+02
147 1    0.3374282026E+02    0.3089012091E+02    0.2978188047E+02
148 2    0.3364244382E+02    0.3087829029E+02    0.2866855785E+02
149 2    0.3279186281E+02    0.3052695951E+02    0.3011136961E+02
150 1    0.3481304025E+02    0.2991376573E+02    0.3035472184E+02
151 2    0.3475583215E+02    0.3009922783E+02    0.3145079644E+02
152 2    0.3584325105E+02    0.3020825103E+02    0.3001685057E+02
153 1    0.2940035311E+02    0.3767673861E+02    0.3001044625E+02
154 2    0.2940268914E+02    0.2205603983E+02    0.3111257734E+02
155 2    0.2875531145E+02    0.3863747850E+02    0.2990796523E+02
156 2    0.2879642642E+02    0.3682711216E+02    0.2957400705E+02
157 1    0.3477059971E+02    0.2839516573E+02    0.3024340996E+02
158 2    0.3505442992E+02    0.2806709313E+02    0.2921184495E+02
159 2    0.3549208979E+02    0.2788908639E+02    0.3088617339E+02
160 2    0.3384127556E+02    0.2786373994E+02    0.3048224052E+02
161 1    0.3379568439E+02    0.2373192914E+02    0.3279335338E+02
162 2    0.3317955790E+02    0.2282655658E+02    0.3288861502E+02
163 2    0.3422978763E+02    0.2381773685E+02    0.3382289626E+02
164 1    0.3496766443E+02    0.2337538711E+02    0.3181146369E+02
165 2    0.3466404959E+02    0.2339799833E+02    0.3077525793E+02
166 2    0.3538830861E+02    0.2232839117E+02    0.3188803374E+02
167 1    0.3615241767E+02    0.2431509487E+02    0.3196985241E+02
168 2    0.3572799267E+02    0.2518646880E+02    0.3245070100E+02
169 2    0.3640198962E+02    0.2463587491E+02    0.3095719123E+02
170 1    0.3748080455E+02    0.2358547026E+02    0.3262723775E+02
171 2    0.3757489577E+02    0.2269137925E+02    0.3203365339E+02
172 2    0.3735853953E+02    0.2327526814E+02    0.3367285847E+02
173 1    0.3858891817E+02    0.3992674773E+02    0.3245062772E+02
174 2    0.3832779761E+02    0.4084661766E+02    0.3302402146E+02
175 2    0.3861662602E+02    0.2492694660E+02    0.3142186195E+02
176 1    0.3999780149E+02    0.3941964678E+02    0.3280267706E+02
177 2    0.4021492501E+02    0.3839321534E+02    0.3226848828E+02
178 2    0.4005675952E+02    0.3918430623E+02    0.3387250521E+02
179 1    0.4105083087E+02    0.4043809284E+02    0.3251099331E+02
180 2    0.4171633686E+02    0.4042435625E+02    0.3340366542E+02
181 2    0.4068645500E+02    0.4150052530E+02    0.3262914422E+02
182 1    0.4174073966E+02    0.4007539575E+02    0.3116943008E+02
183 2    0.4108641297E+02    0.4020759298E+02    0.3022049890E+02
184 2    0.4206330352E+02    0.3906452688E+02    0.3123465583E+02
185 1    0.3295789473E+02    0.2485494951E+02    0.3224907905E+02
186 2    0.3243615888E+02    0.2454602511E+02    0.3132065587E+02
187 2    0.3212989552E+02    0.2515666947E+02    0.3291486178E+02
188 2    0.3364976389E+02    0.2564117390E+02    0.4720913855E+02
189 1    0.4300049259E+02    0.4087711963E+02    0.3097965515E+02
190 2    0.4365057429E+02    0.4090299168E+02    0.3185298493E+02
191 2    0.4367882429E+02    0.4035528678E+02    0.3020951723E+02
192 2    0.4265346412E+02    0.4193604643E+02    0.3063280723E+02
193 1    0.4016019615E+02    0.2315945471E+02    0.4252312573E+02
194 2    0.3946651318E+02    0.2237817988E+02    0.4211260846E+02
195 2    0.4111872840E+02    0.3801936412E+02    0.4284531422E+02
196 1    0.4055770909E+02    0.2401736403E+02    0.4123852500E+02
197 2    0.3966290618E+02    0.2442727178E+02    0.4074522402E+02
198 2    0.4081209365E+02    0.3859071448E+02    0.4055542587E+02
199 1    0.4160927374E+02    0.2511215787E+02    0.4128511308E+02
200 2    0.4121167383E+02    0.2577491961E+02    0.4211437776E+02
201 2    0.4157004952E+02    0.2574084317E+02    0.4038106693E+02
202 1    0.4306917708E+02    0.2459167089E+02    0.4134460973E+02
203 2    0.4340218893E+02    0.2395940387E+02    0.4053655843E+02
204 2    0.4336657179E+02    0.2408570691E+02    0.4238581929E+02
205 1    0.4409687557E+02    0.2574000061E+02    0.4105893169E+02
206 2    0.4400318919E+02    0.2657462850E+02    0.4176981740E+02
207 2    0.4402374979E+02    0.2609380737E+02    0.3997982734E+02
208 1    0.4554269571E+02    0.2533481673E+02    0.4120347184E+02
209 2    0.4577621472E+02    0.2441228110E+02    0.4054419550E+02
210 2    0.4556838023E+02    0.2498689308E+02    0.4228672981E+02
211 1    0.4665852259E+02    0.4172474180E+02    0.4105911399E+02
212 2    0.4619464550E+02    0.4268632640E+02    0.4125841559E+02
213 2    0.4674833665E+02    0.4178578580E+02    0.3995113917E+02
214 1    0.4808456200E+02    0.4133925217E+02    0.4177672743E+02
215 2    0.4891927654E+02    0.4207854849E+02    0.4132196135E+02
216 2    0.4839064799E+02    0.4023008497E+02    0.4147200270E+02
217 1    0.3963526567E+02    0.2395422701E+02    0.4365331944E+02
218 2    0.3853128752E+02    0.2407235481E+02    0.2828517373E+02
219 2    0.3993793971E+02    0.2360967300E+02    0.2932615833E+02
220 2    0.3989068847E+02    0.2504122172E+02    0.4371221612E+02
221 1    0.4804043257E+02    0.4157944214E+02    0.4324225536E+02
222 2    0.4900798514E+02    0.4129156774E+02    0.4385492638E+02
223 2    0.4772753040E+02    0.4262091787E+02    0.4349660360E+02
224 2    0.4729759338E+02    0.4090885737E+02    0.4365420220E+02
225 1    0.3265707979E+02    0.4605140223E+02    0.3908588772E+02
226 2    0.3368062617E+02    0.4558870415E+02    0.3897896042E+02
227 2    0.3265829670E+02    0.4694627211E+02    0.3839533295E+02
228 1    0.3169157045E+02    0.2967283531E+02    0.3859670758E+02
229 2    0.3134259324E+02    0.2914673361E+02    0.3947793109E+02
230 2    0.3229289824E+02    0.2893612676E+02    0.3801950723E+02
231 1    0.3048785235E+02    0.4556210572E+02    0.3791597766E+02
232 2    0.3069971447E+02    0.4579819283E+02    0.3686156430E+02
233 2    0.3023453417E+02    0.4646281161E+02    0.3850201921E+02
234 1    0.2928135736E+02    0.4456036983E+02    0.3805902308E+02
235 2    0.2832843569E+02    0.4491866116E+02    0.3765330121E+02
236 2    0.2904784864E+02    0.4430067558E+02    0.3902340748E+02
237 1    0.2956193700E+02    0.4316264070E+02    0.3735000105E+02
238 2    0.3032556227E+02    0.4261363603E+02    0.3804611003E+02
239 2    0.2997727662E+02    0.2781827884E+02    0.3627219500E+02
240 1    0.2839219383E+02    0.4212285652E+02    0.3729458856E+02
241 2    0.2796586231E+02    0.2656958486E+02    0.3823760275E+02
242 2    0.2877888958E+02    0.2582674049E+02    0.3693319589E+02
243 1    0.2722528191E+02    0.4250960898E+02    0.3625631187E+02
244 2    0.2669731545E+02    0.4343535538E+02    0.3653276042E+02
245 2    0.2643459036E+02    0.4175022984E+02    0.3623630468E+02
246 1    0.2767566860E+02    0.4264883209E+02    0.3482168534E+02
247 2    0.2681829346E+02    0.4241028075E+02    0.3417645645E+02
248 2    0.2832695145E+02    0.4184051604E+02    0.3451539842E+02
249 1    0.3252070221E+02    0.3116447070E+02    0.4057189167E+02
250 2    0.3221969343E+02    0.3222378146E+02    0.4063561721E+02
251 2    0.3175335044E+02    0.3073433775E+02    0.4117456419E+02
252 2    0.3347442453E+02    0.3103894654E+02    0.4111377100E+02
253 1    0.2807330456E+02    0.4401755331E+02    0.3428570380E+02
254 2    0.2914039807E+02    0.4418469758E+02    0.3457408706E+02
255 2    0.2798043551E+02    0.4401365207E+02    0.3321082958E+02
256 2    0.2751417047E+02    0.4487859711E+02    0.5005463944E+02
257 1    0.4473847135E+02    0.3653291030E+02    0.3430527746E+02
258 2    0.4446823966E+02    0.3552079482E+02    0.3458897706E+02
259 2    0.4487173776E+02    0.3648927765E+02    0.3318194132E+02
260 1    0.4361398631E+02    0.3738365238E+02    0.3477977347E+02
261 2    0.4408430755E+02    0.3846381087E+02    0.3450559904E+02
262 2    0.4345927210E+02    0.3736781948E+02    0.3586940894E+02
263 1    0.4220597289E+02    0.3722075308E+02    0.3402522645E+02
264 2    0.4239146468E+02    0.3720480627E+02    0.3290538353E+02
265 2    0.4159108943E+02    0.3815119231E+02    0.3430163006E+02
266 1    0.4142994627E+02    0.3608581586E+02    0.3472310653E+02
267 2    0.4130714356E+02    0.3635914418E+02    0.3579871371E+02
268 2    0.4201859092E+02    0.3521234498E+02    0.3450961246E+02
269 1    0.3996416269E+02    0.3596283492E+02    0.3411627604E+02
270 2    0.3994161185E+02    0.3591749612E+02    0.3300707833E+02
271 2    0.3932568688E+02    0.3687472167E+02    0.3416021897E+02
272 1    0.3937454944E+02    0.3468183998E+02    0.3485082876E+02
273 2    0.3838327464E+02    0.3476799634E+02    0.3525372696E+02
274 2    0.3997554803E+02    0.3465800098E+02    0.3574276251E+02
275 1    0.3949475821E+02    0.3353713772E+02    0.3389464744E+02
276 2    0.3968231059E+02    0.3253290201E+02    0.3447836364E+02
277 2    0.4040710171E+02    0.3360876922E+02    0.3336984887E+02
278 1    0.3840681088E+02    0.3339134647E+02    0.3278953041E+02
279 2    0.3875026574E+02    0.3284508347E+02    0.3178641679E+02
280 2    0.3830794653E+02    0.3436033698E+02    0.3231266158E+02
281 1    0.4601020843E+02    0.3692782270E+02    0.3495916005E+02
282 2    0.4597740419E+02    0.3699683221E+02    0.3613541292E+02
283 2    0.4692763683E+02    0.3622010042E+02    0.3487722789E+02
284 2    0.4623811017E+02    0.3806338459E+02    0.3478793316E+02
285 1    0.3705011203E+02    0.3275750934E+02    0.3320989870E+02
286 2    0.3647675034E+02    0.3349988832E+02    0.3377881596E+02
287 2    0.3656299254E+02    0.3261164474E+02    0.3227093749E+02
288 2    0.3723840583E+02    0.3191898616E+02    0.3382307910E+02
289 1    0.3098650740E+02    0.3452511368E+02    0.3980553151E+02
290 2    0.3055160425E+02    0.3496839267E+02    0.3888481480E+02
291 2    0.3176515795E+02    0.3380087860E+02    0.3946694312E+02
292 1    0.3170600187E+02    0.3577424188E+02    0.4029334917E+02
293 2    0.3113566184E+02    0.3678083585E+02    0.4041796156E+02
294 2    0.3242390848E+02    0.3605965056E+02    0.3952243293E+02
295 1    0.3244796870E+02    0.3558511500E+02    0.4170692642E+02
296 2    0.3275626126E+02    0.3453674082E+02    0.4174532823E+02
297 2    0.3171855638E+02    0.3559437812E+02    0.2720982337E+02
298 1    0.3358339234E+02    0.3650184088E+02    0.2652549108E+02
299 2    0.3382680326E+02    0.3659128628E+02    0.4294553725E+02
300 2    0.3333475295E+02    0.3750264981E+02    0.2608290226E+02
301 1    0.3490933597E+02    0.3589983424E+02    0.2584819685E+02
302 2    0.3475606595E+02    0.3554671977E+02    0.2473875128E+02
303 2    0.3515355538E+02    0.3492209151E+02    0.4177269298E+02
304 1    0.3609729456E+02    0.3691964713E+02    0.2588155367E+02
305 2    0.3609546784E+02    0.3731691864E+02    0.2685335434E+02
306 2    0.3594353176E+02    0.3788249199E+02    0.2534253433E+02
307 1    0.3743811142E+02    0.3618793389E+02    0.2550927980E+02
308 2    0.3734837721E+02    0.3512859034E+02    0.2587810222E+02
309 2    0.3842605564E+02    0.3653158348E+02    0.2604579828E+02
310 1    0.3775753543E+02    0.3621491532E+02    0.2398491980E+02
311 2    0.3689907597E+02    0.3567259936E+02    0.2337024544E+02
312 2    0.3861151324E+02    0.3541008005E+02    0.2374646622E+02
313 1    0.2994308516E+02    0.3390444293E+02    0.4072781837E+02
314 2    0.2913262213E+02    0.3461495930E+02    0.4102486774E+02
315 2    0.2953506333E+02    0.3302203114E+02    0.4026716955E+02
316 2    0.3039857789E+02    0.3354183613E+02    0.4161020004E+02
317 1    0.3814219835E+02    0.3758431782E+02    0.2343513845E+02
318 2    0.3917345622E+02    0.3795921930E+02    0.2365553729E+02
319 2    0.3806190458E+02    0.3745004814E+02    0.2235022972E+02
320 2    0.3733099843E+02    0.3833576884E+02    0.2373163316E+02
321 1    0.3371406955E+02    0.3235315537E+02    0.1947856292E+02
322 2    0.3409837169E+02    0.3291521454E+02    0.1865484690E+02
323 2    0.3323861525E+02    0.3152084689E+02    0.1903614992E+02
324 1    0.3475642547E+02    0.3179985665E+02    0.3573094893E+02
325 2    0.3511254896E+02    0.3103053810E+02    0.3502274500E+02
326 2    0.3430744688E+02    0.3111037010E+02    0.3645105232E+02
327 1    0.3584689968E+02    0.3262912596E+02    0.3635052217E+02
328 2    0.3555399813E+02    0.3349006349E+02    0.3693775428E+02
329 2    0.3634206384E+02    0.3322793921E+02    0.3559772635E+02
330 1    0.3689900120E+02    0.3172723836E+02    0.3721157690E+02
331 2    0.3633567055E+02    0.3089958246E+02    0.3761456504E+02
332 2    0.3713122107E+02    0.3242938029E+02    0.3808128985E+02
333 1    0.3824513290E+02    0.3127177094E+02    0.3667344030E+02
334 2    0.3831994793E+02    0.3124710902E+02    0.3551201527E+02
335 2    0.3815113984E+02    0.3013923849E+02    0.3691001001E+02
336 1    0.3942461697E+02    0.3177263230E+02    0.3745953108E+02
337 2    0.3907085554E+02    0.3242183518E+02    0.3830612863E+02
338 2    0.4006853539E+02    0.3253233049E+02    0.3691339544E+02
339 1    0.4033232984E+02    0.3066195062E+02    0.3793461301E+02
340 2    0.4063109142E+02    0.3009643157E+02    0.3698404455E+02
341 2    0.3989640839E+02    0.2983911215E+02    0.3863251735E+02
342 1    0.4144028853E+02    0.3110753183E+02    0.3880894075E+02
343 2    0.4192510740E+02    0.3195624804E+02    0.3835684058E+02
344 2    0.4229185887E+02    0.3038837024E+02    0.3883993063E+02
345 1    0.3271357418E+02    0.3318110909E+02    0.2027711670E+02
346 2    0.3319151833E+02    0.3410947438E+02    0.2078620573E+02
347 2    0.3185000667E+02    0.3357914969E+02    0.1962696103E+02
348 2    0.3229522109E+02    0.3259171972E+02    0.2107180482E+02
349 1    0.4086123989E+02    0.3162285812E+02    0.4012093418E+02
350 2    0.4008766262E+02    0.3237201278E+02    0.4010504058E+02
351 2    0.4028398742E+02    0.3081947307E+02    0.4074602217E+02
352 2    0.4169622400E+02    0.3198220369E+02    0.4077983934E+02
0.0000000000E+00    0.0000000000E+00    0.0000000000E+00
0.1532620600E+02    0.0000000000E+00    0.0000000000E+00
0.0000000000E+00    0.1532620600E+02    0.0000000000E+00
0.0000000000E+00    0.0000000000E+00    0.1532620600E+02
}
Driver = VelocityVerlet {
  Steps = 50000
  TimeStep [fs] = 0.2
  MDRestartFrequency = 25
  Thermostat = None {}
  Xlbomd = {
    IntegrationSteps = 6
    MinSccIterations = 2
    MaxSccIterations = 200
    SccTolerance = 1e-6
    PreSteps = 0
  }
  Velocities [AA/Ps] = {
1.89835647 7.29478852 10.63608789
20.25032308 -21.71154154 10.27425888
-10.58890939 -26.43896463 29.59872566
11.14602622 0.61349246 2.87287484
-3.63874650 35.36264324 26.59081407
27.19791169 -4.96873296 -12.85986562
1.98406376 -1.82091223 5.66661227
37.19821560 3.39794998 -46.24338266
-15.16341045 -27.70392439 -13.70871476
-2.70974873 -1.76701825 -8.58748162
-15.47719101 1.79671848 17.25786776
16.26953704 -27.92181921 9.69459883
-4.46769166 -16.13715603 -3.91477890
25.70251160 18.63345611 -30.12187635
35.50365914 4.16379889 -2.32731294
-4.29307769 -4.23004772 2.34176374
-39.20481932 15.88014279 -1.62726189
-5.82747153 27.34087766 38.18454872
5.12770870 -20.84394638 3.55420705
-18.91719469 1.35044818 16.04183335
1.86360838 10.77161049 -25.61632940
-2.67011869 3.08973794 2.59566469
-29.99872794 -2.12512458 21.66020719
20.33811586 -2.87417599 -74.05145539
0.20963812 -4.59900680 1.40831006
10.60605660 2.16276454 -19.71877679
-35.82056455 -10.42652354 4.30275813
-27.95922400 31.54912120 17.43813394
-2.22804902 10.11136175 -4.69263527
23.47320459 12.87208268 -27.90720979
0.60028387 5.50174163 28.48958212
-2.84967575 24.56750939 8.94123100
-4.72437334 8.24239126 -8.72151820
1.31928750 -15.41326065 2.37438764
8.45584006 35.83638174 9.47418712
-5.00208865 1.73211852 -16.64171921
1.92003079 22.15701852 5.42883407
9.97929421 -9.54077864 -14.88739394
-2.97623604 -0.23653989 -0.64771510
18.01102357 -5.42430754 20.92378994
-7.71264784 -5.85834454 -6.03145131
-5.30152858 -5.31765202 -5.86693667
-24.74312342 9.13061651 8.10351255
-15.82744182 1.00694485 -16.61553810
2.26424184 6.41311749 2.29047169
-3.02569685 10.75265222 18.76611754
-55.81600422 -13.28680899 9.75645219
2.49674037 -3.16603486 -7.38610503
-12.27274157 6.95170842 10.60346545
21.48414324 16.41460474 -3.51346655
-8.14543421 -2.50975564 6.49201238
21.65490870 9.24624676 13.67242735
-40.96308960 31.81360108 0.30562250
-1.49907269 8.67422702 9.10646410
6.66542728 38.06736691 0.81597280
11.48673858 3.02605981 16.91419041
-7.35466357 -2.85535923 5.42121580
37.42596748 -12.12072862 -3.26534418
-15.38565512 -19.53546707 -5.85189308
-3.77473347 6.30867656 -24.57154161
-1.01055929 1.74806487 -2.74700831
-31.16424198 4.17348055 -14.17219156
21.42463741 -11.18123588 -42.01234194
25.18587138 -16.92803015 16.13070129
3.99219050 -7.16352236 3.25821269
-18.56104807 0.20313732 -3.27978562
16.35840213 -0.66651706 26.36179332
2.23854049 -1.92636449 -4.01969782
-26.42981383 40.02963680 -12.48545876
-12.28550695 -3.46403579 15.36373329
4.95878652 4.41891366 1.36900956
-13.05137293 4.56641033 -0.90232060
29.14967886 -6.61894307 -19.29066254
-0.43108125 1.83368928 14.44808960
1.51632929 -20.00241193 11.91977080
-20.05812836 15.63040249 -15.88108314
1.49110576 -0.02566295 4.81657341
37.36902740 -6.15313914 -16.73533800
19.34731149 6.86820889 -34.91212190
2.52925197 1.84258488 10.51844167
0.79018707 6.58439229 -6.12778176
8.68846615 -0.25145411 13.56253490
11.50296846 -1.97508421 -5.24408604
-8.94723750 -29.63003936 -3.02099444
0.00644561 27.15380169 -32.07669717
5.00659320 11.92240705 1.79013983
-0.18473238 12.74600334 0.47485406
8.54250159 -0.58576097 22.74656250
-3.23515828 -0.90331097 -4.13239955
10.27653780 -11.21082711 16.70723735
42.84849579 0.27259947 -40.97290407
6.04274257 -21.13910258 -25.34833877
10.32626870 4.94401017 -3.03418599
12.02158477 -32.03558438 12.65077478
-42.20117374 -14.38864272 13.00974916
-13.36497976 -4.25153843 20.19697988
5.69525714 -19.17276612 -5.25529449
-21.47841722 17.38600898 -13.32623786
35.68087588 -10.10697375 -6.84332343
-4.14554720 15.88378931 7.50824955
18.77330974 -10.82917410 -30.46355820
-9.03405402 -0.30580373 -50.20638704
-2.56912676 4.34633327 7.06812672
-37.16422493 -86.82043784 22.74856711
-65.14534461 -10.07962733 -56.82292747
-4.61439650 -3.16816434 -5.94579077
-9.33529369 19.63350192 2.29984255
31.34512799 -33.10175134 20.99230837
0.61317539 -0.88436834 -1.74923605
18.96104157 8.71717744 -0.00484565
13.62468688 -3.38074620 33.11976099
-5.74005173 -4.35336330 7.12235963
15.71660673 1.13061916 14.02037814
-21.53246843 31.08431307 20.69111400
1.38750544 -6.05299362 2.72274489
7.96256935 -21.97025831 14.40031134
-26.65683797 -9.32981942 11.52045772
-9.70623137 -0.01253810 -1.24762336
7.73924667 14.40753494 21.86843459
-1.19878804 1.30522362 38.87880122
8.69757310 0.90220967 17.36659061
6.47960837 29.91041137 -26.31736053
-41.23560528 7.43335290 -44.23641219
-52.54751580 -15.44269031 -9.74874089
7.06440566 -0.13015173 -5.25603319
-13.65879883 -1.78361413 6.70628143
12.56641664 -28.17214855 13.29399921
4.30934992 -9.31826026 11.23080129
-1.24846033 -3.23148672 -3.50813379
19.80811725 26.65932470 -13.53409434
-16.92691168 -3.33309726 8.05273567
-4.54886408 -2.80845609 -13.49073971
3.40463500 14.82788368 5.37278638
0.07016075 0.80621120 -2.91601701
-4.49635650 5.15815910 -7.27974603
6.96026454 40.11177640 -17.02836458
32.11375292 -17.61031614 -3.04366934
-0.94530316 2.83598338 -4.09313421
27.52422988 -3.82691121 -53.51569787
-7.96911171 1.16794266 -3.03502185
3.80907775 -0.13156881 -5.98308653
6.27809236 -5.39863152 -16.39059555
50.84583531 -10.95035548 -8.80586590
2.92061328 -8.92440161 -5.81798033
-13.54385312 10.95137250 2.73108528
36.46574095 20.02513343 -14.15417662
1.94100468 -8.90225326 -0.42955264
-19.76230139 -7.27886046 -24.53181361
7.26791883 -24.22749494 -11.51454100
-2.98110434 0.46732410 8.76861782
-23.96716984 -2.61850956 22.64689688
37.67182604 -16.31710908 35.98359242
-9.26870912 -3.35954405 0.30429462
8.63213154 18.49958664 -6.77550175
6.17151394 -12.01933942 -36.26781998
-8.44346287 -36.34544248 4.98837832
3.27902437 5.78832551 -4.00325813
2.35397325 -6.67506003 2.63142194
-32.09535388 -35.94807692 0.38469668
-12.32369537 11.72245788 1.22682226
-5.54839570 -11.47579017 0.50964973
24.61511421 -21.52903229 3.49913367
-22.48242066 -14.59955205 -11.01731534
-7.76148759 1.18555919 0.32901062
5.63920949 3.69672919 -24.98339723
-30.92300423 23.85475869 -12.29162400
-6.12650854 5.94519592 0.44131586
-4.68244519 21.04636907 15.78094449
-12.76234342 -1.10406198 3.60098709
0.97265153 5.21704112 2.30095080
-11.09357382 -0.68748004 36.20329552
-12.73585162 -17.44484741 -34.51089319
-1.49673015 15.49183416 -5.74252197
34.69292876 4.98762332 -14.07463921
0.84208123 -14.73272669 -29.05484046
-2.57358106 -2.37155732 0.38518452