Geometry = GenFormat {
<<< "system.gen"
}

Driver = VelocityVerlet{
  Steps = 50000
  TimeStep [fs] = 0.2
  MDRestartFrequency = 25
  Thermostat = None {
    #InitialTemperature [Kelvin] = 300.0
  }
  Xlbomd{
    IntegrationSteps = 6
    MinSccIterations = 2
    MaxSccIterations = 200
    SccTolerance = 1e-6
  }
  Velocities [AA/Ps] {
1.89835647 7.29478852 10.63608789
20.25032308 -21.71154154 10.27425888
-10.58890939 -26.43896463 29.59872566
11.14602622 0.61349246 2.87287484
-3.63874650 35.36264324 26.59081407
27.19791169 -4.96873296 -12.85986562
1.98406376 -1.82091223 5.66661227
37.19821560 3.39794998 -46.24338266
-15.16341045 -27.70392439 -13.70871476
-2.70974873 -1.76701825 -8.58748162
-15.47719101 1.79671848 17.25786776
16.26953704 -27.92181921 9.69459883
-4.46769166 -16.13715603 -3.91477890
25.70251160 18.63345611 -30.12187635
35.50365914 4.16379889 -2.32731294
-4.29307769 -4.23004772 2.34176374
-39.20481932 15.88014279 -1.62726189
-5.82747153 27.34087766 38.18454872
5.12770870 -20.84394638 3.55420705
-18.91719469 1.35044818 16.04183335
1.86360838 10.77161049 -25.61632940
-2.67011869 3.08973794 2.59566469
-29.99872794 -2.12512458 21.66020719
20.33811586 -2.87417599 -74.05145539
0.20963812 -4.59900680 1.40831006
10.60605660 2.16276454 -19.71877679
-35.82056455 -10.42652354 4.30275813
-27.95922400 31.54912120 17.43813394
-2.22804902 10.11136175 -4.69263527
23.47320459 12.87208268 -27.90720979
0.60028387 5.50174163 28.48958212
-2.84967575 24.56750939 8.94123100
-4.72437334 8.24239126 -8.72151820
1.31928750 -15.41326065 2.37438764
8.45584006 35.83638174 9.47418712
-5.00208865 1.73211852 -16.64171921
1.92003079 22.15701852 5.42883407
9.97929421 -9.54077864 -14.88739394
-2.97623604 -0.23653989 -0.64771510
18.01102357 -5.42430754 20.92378994
-7.71264784 -5.85834454 -6.03145131
-5.30152858 -5.31765202 -5.86693667
-24.74312342 9.13061651 8.10351255
-15.82744182 1.00694485 -16.61553810
2.26424184 6.41311749 2.29047169
-3.02569685 10.75265222 18.76611754
-55.81600422 -13.28680899 9.75645219
2.49674037 -3.16603486 -7.38610503
-12.27274157 6.95170842 10.60346545
21.48414324 16.41460474 -3.51346655
-8.14543421 -2.50975564 6.49201238
21.65490870 9.24624676 13.67242735
-40.96308960 31.81360108 0.30562250
-1.49907269 8.67422702 9.10646410
6.66542728 38.06736691 0.81597280
11.48673858 3.02605981 16.91419041
-7.35466357 -2.85535923 5.42121580
37.42596748 -12.12072862 -3.26534418
-15.38565512 -19.53546707 -5.85189308
-3.77473347 6.30867656 -24.57154161
-1.01055929 1.74806487 -2.74700831
-31.16424198 4.17348055 -14.17219156
21.42463741 -11.18123588 -42.01234194
25.18587138 -16.92803015 16.13070129
3.99219050 -7.16352236 3.25821269
-18.56104807 0.20313732 -3.27978562
16.35840213 -0.66651706 26.36179332
2.23854049 -1.92636449 -4.01969782
-26.42981383 40.02963680 -12.48545876
-12.28550695 -3.46403579 15.36373329
4.95878652 4.41891366 1.36900956
-13.05137293 4.56641033 -0.90232060
29.14967886 -6.61894307 -19.29066254
-0.43108125 1.83368928 14.44808960
1.51632929 -20.00241193 11.91977080
-20.05812836 15.63040249 -15.88108314
1.49110576 -0.02566295 4.81657341
37.36902740 -6.15313914 -16.73533800
19.34731149 6.86820889 -34.91212190
2.52925197 1.84258488 10.51844167
0.79018707 6.58439229 -6.12778176
8.68846615 -0.25145411 13.56253490
11.50296846 -1.97508421 -5.24408604
-8.94723750 -29.63003936 -3.02099444
0.00644561 27.15380169 -32.07669717
5.00659320 11.92240705 1.79013983
-0.18473238 12.74600334 0.47485406
8.54250159 -0.58576097 22.74656250
-3.23515828 -0.90331097 -4.13239955
10.27653780 -11.21082711 16.70723735
42.84849579 0.27259947 -40.97290407
6.04274257 -21.13910258 -25.34833877
10.32626870 4.94401017 -3.03418599
12.02158477 -32.03558438 12.65077478
-42.20117374 -14.38864272 13.00974916
-13.36497976 -4.25153843 20.19697988
5.69525714 -19.17276612 -5.25529449
-21.47841722 17.38600898 -13.32623786
35.68087588 -10.10697375 -6.84332343
-4.14554720 15.88378931 7.50824955
18.77330974 -10.82917410 -30.46355820
-9.03405402 -0.30580373 -50.20638704
-2.56912676 4.34633327 7.06812672
-37.16422493 -86.82043784 22.74856711
-65.14534461 -10.07962733 -56.82292747
-4.61439650 -3.16816434 -5.94579077
-9.33529369 19.63350192 2.29984255
31.34512799 -33.10175134 20.99230837
0.61317539 -0.88436834 -1.74923605
18.96104157 8.71717744 -0.00484565
13.62468688 -3.38074620 33.11976099
-5.74005173 -4.35336330 7.12235963
15.71660673 1.13061916 14.02037814
-21.53246843 31.08431307 20.69111400
1.38750544 -6.05299362 2.72274489
7.96256935 -21.97025831 14.40031134
-26.65683797 -9.32981942 11.52045772
-9.70623137 -0.01253810 -1.24762336
7.73924667 14.40753494 21.86843459
-1.19878804 1.30522362 38.87880122
8.69757310 0.90220967 17.36659061
6.47960837 29.91041137 -26.31736053
-41.23560528 7.43335290 -44.23641219
-52.54751580 -15.44269031 -9.74874089
7.06440566 -0.13015173 -5.25603319
-13.65879883 -1.78361413 6.70628143
12.56641664 -28.17214855 13.29399921
4.30934992 -9.31826026 11.23080129
-1.24846033 -3.23148672 -3.50813379
19.80811725 26.65932470 -13.53409434
-16.92691168 -3.33309726 8.05273567
-4.54886408 -2.80845609 -13.49073971
3.40463500 14.82788368 5.37278638
0.07016075 0.80621120 -2.91601701
-4.49635650 5.15815910 -7.27974603
6.96026454 40.11177640 -17.02836458
32.11375292 -17.61031614 -3.04366934
-0.94530316 2.83598338 -4.09313421
27.52422988 -3.82691121 -53.51569787
-7.96911171 1.16794266 -3.03502185
3.80907775 -0.13156881 -5.98308653
6.27809236 -5.39863152 -16.39059555
50.84583531 -10.95035548 -8.80586590
2.92061328 -8.92440161 -5.81798033
-13.54385312 10.95137250 2.73108528
36.46574095 20.02513343 -14.15417662
1.94100468 -8.90225326 -0.42955264
-19.76230139 -7.27886046 -24.53181361
7.26791883 -24.22749494 -11.51454100
-2.98110434 0.46732410 8.76861782
-23.96716984 -2.61850956 22.64689688
37.67182604 -16.31710908 35.98359242
-9.26870912 -3.35954405 0.30429462
8.63213154 18.49958664 -6.77550175
6.17151394 -12.01933942 -36.26781998
-8.44346287 -36.34544248 4.98837832
3.27902437 5.78832551 -4.00325813
2.35397325 -6.67506003 2.63142194
-32.09535388 -35.94807692 0.38469668
-12.32369537 11.72245788 1.22682226
-5.54839570 -11.47579017 0.50964973
24.61511421 -21.52903229 3.49913367
-22.48242066 -14.59955205 -11.01731534
-7.76148759 1.18555919 0.32901062
5.63920949 3.69672919 -24.98339723
-30.92300423 23.85475869 -12.29162400
-6.12650854 5.94519592 0.44131586
-4.68244519 21.04636907 15.78094449
-12.76234342 -1.10406198 3.60098709
0.97265153 5.21704112 2.30095080
-11.09357382 -0.68748004 36.20329552
-12.73585162 -17.44484741 -34.51089319
-1.49673015 15.49183416 -5.74252197
34.69292876 4.98762332 -14.07463921
0.84208123 -14.73272669 -29.05484046
-2.57358106 -2.37155732 0.38518452
-2.51976329 -1.13252003 -15.71565558
-47.18738926 4.72577681 17.18585066
-5.32769098 10.56443499 11.09164021
-34.05543817 22.57415525 -22.15930174
-1.43679968 17.17290381 -22.90720979
-5.39965634 1.34732303 -5.05904983
-25.59577495 -24.15804097 -1.18428766
-17.88699629 1.37561695 7.92744073
6.03497281 9.19556228 10.57580780
8.26593158 23.28748515 9.74632842
25.00663373 30.74125980 -0.34406741
32.00207017 -6.75257165 0.74858338
1.78110102 -1.56890162 0.23336532
5.73038804 -6.14617349 17.51795552
-21.04452493 5.63112348 -29.07370488
-1.86746175 -1.19677218 -9.90594197
1.05593228 -3.22542788 -6.57861698
4.80952231 24.18229802 11.79298291
-4.38021132 10.40599265 43.68308924
-2.82596839 1.27106216 -3.76576239
-2.95726570 14.57313033 -29.09694046
18.56716403 18.38022605 1.96354998
-2.92607115 -5.12400713 -0.11776920
-31.34021117 6.14859816 48.64390152
-15.38060427 -39.19126142 2.32170130
-0.18193219 -5.25242873 -3.07739951
36.51600893 10.29530656 -1.82629302
-3.15504939 37.78938723 14.81525932
-0.10024457 4.40917492 -0.74893977
-11.27024775 -14.51968429 -0.80683081
16.36619722 -4.16583261 -16.32875860
-0.07607255 4.89716919 9.00645498
2.87510707 23.96431919 -12.52277830
-6.76436637 -4.95204868 1.79269905
0.74856378 2.68319256 -8.58712028
12.02324332 -10.38945219 29.57882484
-14.46344671 -31.20596778 -0.15932709
6.69476439 13.96055259 1.70125410
-22.88148677 19.85204603 18.99606724
-16.07433077 -4.46136205 12.65713361
2.88922631 -7.81815885 -6.18058078
-13.49609037 -14.48284416 17.08913596
18.17880754 -8.63776937 1.76387906
-19.16992964 -36.08481916 16.63972533
0.10078578 -2.93192974 1.48594068
25.98364966 26.12621792 -13.94797082
-52.35912694 -28.86104068 25.05628979
16.08082709 9.27032122 -6.75798246
-3.47581858 -1.64100524 0.15580630
-12.41577785 -18.74198771 -39.59447679
18.11367008 27.09334079 -3.21607415
5.54506443 -3.86480790 -1.42991598
-2.38299471 -16.17601666 10.74492378
-33.80546700 5.64054001 24.85790151
-5.24500597 0.57765048 6.15195258
14.32462912 -38.56544082 41.03367379
-11.28907816 16.60165445 -13.10069523
3.84381186 -13.50056784 -3.52400052
-26.84711431 1.48923535 3.69597201
24.01674992 -12.12563123 -4.07853203
0.54330179 7.05870991 -1.06906443
12.67992857 6.26547926 4.35746308
17.12487938 -25.58159608 15.61514458
-0.82473929 14.36150656 10.03678081
-4.60441011 2.20286435 3.66139261
-13.12156671 -0.33008066 -17.67071940
-6.16603245 11.83917261 -11.97505554
-7.33558840 8.50050829 -2.43569263
-8.96360327 -2.87528138 -9.66811814
-6.50551477 -0.32687939 5.07865930
19.34067041 -6.67469356 4.15766679
-3.47510063 0.27814286 28.57851769
5.20125646 2.57502879 -10.58459922
-5.92834954 2.04635949 23.84913290
-20.92021900 -1.62691465 -10.63472775
-2.54457533 52.90964988 26.01353979
-5.39117015 2.49757581 -1.45604235
28.55667959 -5.52678742 -20.12425625
-33.13115557 -15.08991754 -8.00354282
17.36184158 13.88288499 -30.75815634
0.80525607 1.08643004 0.23484547
-17.83022177 13.77140569 -9.05913617
45.62034219 34.30948268 10.01495086
0.34428369 11.20839120 1.55607213
36.58367059 -21.68203690 29.11621754
-26.01044642 11.56953789 7.03028985
-4.51399410 -0.58525549 17.68372695
-1.51694832 -0.22753868 18.12458692
-11.77322755 -33.94838453 2.24121776
7.55297216 -0.28353108 14.28391956
-0.42113324 -7.91027289 3.34084551
-18.32344423 -0.88218242 -29.36480348
6.58964381 2.13900527 1.44594602
5.08464894 -14.71850071 -16.45435971
30.01377594 3.38434738 -21.48278766
-0.93762439 -6.69910561 -3.03620760
-15.54150696 25.24144289 31.34272512
-17.07629711 25.71095298 14.13306588
10.29919271 4.55255898 -4.15204743
-1.54642519 -7.70845643 -3.38199609
5.86219842 -19.92222662 46.67188840
-6.74938211 -11.53528962 -5.45819640
-5.98136260 2.05479131 -1.26748427
11.67052433 15.89170787 -21.70755389
1.37423332 -9.47029169 4.39318444
14.06847300 30.88935890 2.61197262
-17.59764877 -9.28086098 24.11670902
20.76464231 -9.14393546 1.16219934
-6.68706739 3.52642288 8.51571041
-10.65424529 1.63770905 -21.13890940
11.35212871 19.23029450 30.68578329
-20.03247398 9.62556637 16.13165984
3.01935289 7.30594154 10.23501899
-7.31450672 4.76162819 -5.31727788
-10.90117578 9.58907184 -17.13035301
-0.85743132 1.18800729 1.49683955
5.16717666 10.76489246 -4.15041715
-50.62204285 1.67780425 -5.56997394
-4.38847649 5.46965371 2.18485723
10.09812238 14.21589751 -29.79603361
-11.83466205 -9.68637834 -39.69559758
-3.62456361 -4.95685669 -1.28079885
12.56473806 -2.88370179 -48.45189934
16.74017437 6.78678975 -8.61313343
13.42399965 -1.95396876 -4.82825467
7.76794275 -33.72498676 6.69899560
4.39975907 -7.72633610 27.79762617
1.72315021 5.07576672 -0.20339370
12.73898100 11.65163135 -9.57392153
-1.35828389 32.38744011 24.60032252
-5.80795092 -4.11833859 -1.16900915
12.33450992 -3.20609241 -30.61383568
-3.92454814 26.01864166 1.74173089
5.60225446 2.16349825 -1.96902999
4.40548855 -1.59784232 24.63365395
7.38276770 24.89073075 -4.25046534
8.15653171 -2.91148648 -0.51504659
-28.45029488 18.90586231 -18.10624246
-32.48682042 -14.83338151 6.99517300
-17.08429856 -18.29589742 3.71397013
5.61140713 -0.92722312 -5.92988441
-27.65574543 18.78477564 -3.90538731
7.02036447 12.43943778 -10.69651698
27.16127806 6.92610547 -2.79803351
-2.50642891 -3.51151036 -2.24839766
-6.68682521 -43.91002246 18.12118697
37.55135622 -4.44421284 -26.64900259
0.56195641 -2.74006074 4.12232725
-30.95912945 10.94129256 4.63641598
1.26506888 -19.00356021 24.06208611
8.03286937 -5.88907757 -3.44957509
15.75059110 -6.57933995 -46.00762430
6.87600241 2.88106236 -57.58630592
-0.37117239 6.05167040 6.87234145
33.46871652 -24.23040268 -6.40356694
24.38390595 -7.27845580 17.21471255
0.79255118 3.16706920 4.27639920
-19.11072356 23.74219494 -9.66274909
-28.82704806 11.37640328 18.21506247
3.40523595 -3.01514710 -6.46300741
-17.16381665 -31.72000607 -9.21842075
3.71365882 -17.03781766 -17.18077170
10.45450672 -5.08026503 0.66862325
1.04688942 -21.65040951 -12.44342603
-29.45560309 5.08287457 -16.88396631
-9.45137319 -3.60659869 -1.52678565
-37.36025270 7.82841130 -3.29329865
-19.35787675 -36.37913533 -10.41983529
13.67396333 -6.62013089 -1.79810178
15.46919992 7.13442812 -21.02831011
12.66933228 33.51500282 20.35575284
9.04028297 -7.70572425 11.40267094
3.98039040 -10.13051001 0.90951016
12.64811200 -27.31320063 36.52301328
-3.84331638 1.60130820 -28.73874084
-14.22941574 -11.54339241 -6.07883662
  }
}

Hamiltonian = DFTB {
  SCC = Yes
  SCCTolerance = 1e-6
  MaxSCCIterations = 200
  readinitialcharges = yes
  ForceEvaluation = Dynamics
  MaxAngularMomentum = {
    C = "p"
    H = "s"
  }
  Charge = 0.0
  SpinPolarisation = {}
  Eigensolver = Standard {}
  Filling = Fermi {
    Temperature [Kelvin] = 300.0
  }
  SlaterKosterFiles = Type2FileNames {
    Prefix = "/usr/workspace/troup1/second_set/real_data/decane_run_first_50/pbc-0-3/"
    Separator = "-"
    Suffix = ".skf"
    LowerCaseTypeName = No
  }
  KPointsAndWeights = {
    0.0000000000000 0.0000000000000 0.0000000000000 1.00000000000000
  }
  Dispersion = LennardJones {
    Parameters = UFFParameters {}
  }
}

ParserOptions = {
  ParserVersion = 3
}
