Geometry = GenFormat {
<<< "system.gen"
}

Driver = VelocityVerlet{
  Steps = 100000
  TimeStep [fs] = 0.2
  MDRestartFrequency = 5
  Thermostat = None {
    #InitialTemperature [Kelvin] = 300.0
  }
  Xlbomd{ 
    IntegrationSteps = 6 
    MinSccIterations = 2
    MaxSccIterations = 200
    SccTolerance = 1e-6 
  }
  Velocities [m/s] {
     -3.10368683E+02     -5.91481199E+01     -5.48017271E+02
      3.46940173E+03      1.16591652E+03     -1.94452515E+03
      9.76543390E+02      4.29288866E+02      1.27513633E+03
     -6.77093434E+01      2.28296554E+02      6.01119858E+02
      8.54887480E+02     -2.72063745E+03      1.31341497E+03
     -8.63776187E+01     -4.08264316E+02      1.72535652E+03
     -1.14234606E+04      1.92735669E+04     -1.68289957E+04
      4.95548652E+02     -9.50283989E+01     -1.61075591E+03
      5.78562758E+02     -1.04867473E+03      1.20965529E+03
      6.95787385E+02     -8.12681450E+02      2.04200338E+02
     -3.40238731E+02      1.22890841E+03      2.72296049E+01
     -4.61590879E+02     -3.86427991E+02      1.80651414E+03
      4.80840972E+02     -7.79045703E+02     -5.61921082E+02
      9.69899534E+02      8.47579776E+02      1.34049769E+03
     -2.98440100E+03     -2.40677910E+03      2.96994154E+03
     -9.99187560E+01     -8.82998526E+02     -7.58170740E+01
     -1.34966698E+03      2.51936052E+03     -6.25233838E+02
      9.08438522E+00     -3.63436462E+02     -1.00421629E+03
      1.18740433E+02      4.59046502E+01      6.38485854E+02
      7.94195742E+02     -1.90963514E+02     -1.56659427E+02
     -7.52695391E+02      1.97386267E+03     -7.00815877E+02
     -6.28193668E+01     -1.02933789E+03      1.97550119E+02
      2.10061193E+03     -8.86471717E+02     -1.69024253E+03
      2.53284154E+03     -2.86728241E+03     -3.20671714E+03
      4.10486392E+02      8.39445486E+02     -3.90370465E+02
      2.03011804E+03     -1.40417762E+03     -2.34667743E+03
      1.41703975E+03      2.08589880E+03     -6.83696425E+02
      1.65008641E+03     -2.43492586E+03      2.01297131E+03
      4.23152914E+02      1.45226296E+02     -4.95656018E+02
     -1.31542084E+03     -1.17457812E+03     -4.93784511E+01
      8.69655424E+02      4.26834908E+02     -2.40097659E+03
     -2.29968097E+03      2.74195079E+03     -2.97930964E+03
      5.81192820E+02     -5.91830834E+02     -7.26341143E+01
      1.70094988E+03     -1.15756331E+03     -1.23192846E+03
     -1.18728982E+03     -6.37704832E+02     -1.26743759E+03
     -3.38901844E+02     -2.58989587E+02      5.55840224E+02
     -7.09524052E+01      2.42580643E+03      1.62058436E+02
     -5.15850618E+02      2.30478456E+03     -1.83456112E+03
      3.14190330E+02      3.63729261E+02      3.87790090E+01
      1.15616355E+03      8.64668904E+02      1.19678143E+03
     -9.65019393E+02     -2.97420826E+02      2.13841552E+03
      8.57421349E+01     -8.18548408E+02     -3.53689693E+02
     -1.44026248E+03      3.09773606E+03     -5.34563345E+02
      4.58519467E+02     -2.12344579E+03     -1.09168950E+03
     -3.36012464E+02      6.66163293E+01      4.47413077E+01
     -7.16723630E+02      1.96108772E+03     -9.25915048E+02
      4.27884888E+01      5.75170583E+02     -1.00735021E+03
      3.65872833E+02      4.22560662E+02      1.84658398E+02
      1.36782486E+03     -2.35585053E+03      7.09227123E+01
      7.79574910E+02     -1.11921156E+02     -5.28868137E+02
      2.33120038E+02     -1.96670133E+02      1.62126438E+02
     -4.38829941E+02      1.45756481E+03      3.24014560E+02
     -4.11043791E+03     -1.86146371E+03     -3.58837594E+02
     -2.54348811E+02     -1.02499095E+02      3.07279285E+02
     -2.11365015E+03      4.58033077E+02      1.09368494E+03
     -3.90931009E+02     -1.53283934E+03     -3.18448523E+03
      3.77795856E+02     -2.57863560E+02     -6.67846720E+01
     -6.85936565E+02      2.17686775E+03     -1.65625639E+03
      3.44863976E+02      2.23178572E+03     -2.51387487E+03
      2.53729992E+02     -1.07408315E+03      5.73242199E+02
     -5.97164586E+02      6.02902547E+01     -2.33237482E+02
      1.75137623E+03     -1.97797339E+02     -1.60903420E+03
      1.27778739E+03      4.86443382E+02      7.19306147E+02
     -6.33489174E+02     -2.05964086E+03      7.48415862E+02
      9.48696465E+02     -4.67819319E+02      9.04374479E+02
      7.90538096E+02     -8.52778357E+02      2.23680164E+03
      1.21211955E+03     -4.19206216E+02     -1.91521023E+03
      2.31208785E+02     -3.80827624E+02      2.12262007E+02
      8.29117431E+01      4.02321160E+02      1.02351068E+03
      6.86001929E+02     -4.37949088E+03      1.63683941E+03
     -1.37943684E+02      2.55841815E+02     -8.35028342E+01
     -2.58155170E+03      2.08166399E+03     -6.15712198E+02
      1.24109482E+03     -3.67812391E+02      3.26337686E+03
     -6.41155464E+02      4.83912826E+02      4.80611240E+02
     -1.14811305E+03      3.43534631E+03     -2.88152831E+03
     -5.65854522E+02      2.10087040E+02      9.40463888E+02
      1.02248189E+03     -2.62514467E+02      6.41616229E+02
     -1.28768571E+02      4.02855316E+02      9.94427874E+02
      9.48515354E+02      1.76455704E+03     -4.80544011E+02
      6.69628858E+02      6.75546089E+01      5.21781659E+02
      5.73159815E+02      3.67781659E+03     -1.82344971E+03
      1.11044731E+03      1.16300470E+02     -1.66332049E+02
     -6.63547001E+02      1.50675804E+02     -9.56110078E+01
     -1.72497278E+03      8.78311272E+01     -1.11879393E+03
      3.48321662E+03     -1.20223416E+03     -1.88244323E+03
     -8.41425268E+01      4.03652694E+02     -4.77681967E+02
     -1.33605761E+03     -9.30863526E+02     -2.09830388E+03
     -4.02339850E+02     -7.04372962E+02      4.30944518E+02
     -2.81353925E+02     -6.48001446E+01     -1.16229777E+01
      1.65384894E+03     -5.84266238E+02      4.63198514E+03
      6.71015135E+02     -4.17326824E+02     -1.53483309E+03
      6.52579445E+02     -3.30604104E+03     -6.60946910E+02
      8.07314366E+02     -7.18408539E+02     -2.20641503E+02
      2.93720368E+03      1.60707814E+02     -1.08622437E+03
     -3.78667062E+02      1.70300667E+03      2.36962376E+03
      9.70115103E+02     -2.30889161E+03      1.14992063E+03
      1.48610680E+02      2.49086329E+01      3.67511591E+02
     -3.40249371E+02     -2.50544815E+03      2.95047728E+01
      2.31712564E+03     -2.17971147E+03     -7.60489749E+01
     -9.07471220E+02     -6.58417750E+01      3.76043408E+02
      2.28288646E+02     -1.08936996E+03      9.26889053E+02
      9.79072096E+02     -1.73184423E+03     -1.75006903E+03
     -2.51831012E+02     -6.77274891E+01      1.05844848E+03
      1.60778186E+02      1.04041027E+03      5.49572466E+02
     -1.70420911E+03     -1.17153400E+02      2.88625506E+03
      2.54232452E+02      2.88206361E+02      6.86165374E+01
      1.62567697E+02     -1.68521638E+03      1.38823280E+03
      6.42026267E+02     -4.11587444E+02     -2.37440628E+01
     -1.68784101E+02      3.62779843E+01     -1.59349106E+01
     -2.65088079E+01     -1.46531184E+03      1.87605588E+03
     -1.95637109E+03     -4.75604624E+03      5.80428442E+02
     -2.79689080E+02     -1.18915013E+02      4.80057715E+02
      1.45085287E+03      1.55529036E+03      4.74809041E+02
      1.59262660E+03     -2.23904788E+03     -1.16279346E+03
      3.11877860E+02     -1.51203344E+02      5.52284648E+02
      1.20370894E+03     -2.19449564E+03      4.34922422E+02
      9.41620174E+02     -7.95803286E+02     -5.11099398E+02
     -6.22013644E+02      2.21940435E+02      2.12508837E+02
      1.08813573E+03     -3.03340767E+03      1.40762442E+03
     -1.34853782E+03     -9.19177408E+02      2.91109356E+02
      7.44593284E+02     -5.15299623E+01      1.27644520E+03
      2.52297259E+03     -5.77592550E+02     -3.83494533E+02
      9.75783975E+02      1.36146752E+03     -5.59817050E+02
     -1.49242712E+02     -1.54718883E+03     -8.02423256E+02
      7.68383027E+02      2.02624178E+02      4.06872651E+01
     -1.05208328E+03      7.60658681E+02      4.08408319E+01
     -1.33068546E+03     -1.29252382E+03     -1.48462308E+03
     -2.16619868E+02     -1.14842169E+02     -2.93998820E+03
     -4.03369361E+02     -1.18577505E+02     -2.80492663E+01
      1.38498517E+03     -2.47023760E+03     -1.18543192E+03
     -9.76431404E+01     -5.13589350E+03      3.63666313E+03
     -3.90441258E+02      3.60281301E+02     -7.32554371E+02
     -1.68707684E+03     -4.27529041E+02      2.41895343E+03
     -1.22732681E+03      8.67786202E+02     -2.61595530E+03
     -3.31281493E+02      3.73587284E+02      6.47531820E+02
      2.60706495E+02      3.57491192E+02      1.49222599E+03
     -1.48270425E+03      2.29662588E+02      8.05240038E+02
      9.79115132E+01      3.21928774E+02     -4.83741233E+02
     -1.92014149E+03     -6.35803426E+02     -1.59075270E+03
      3.28435965E+03      5.42358992E+02     -7.08165538E+02
      3.80735629E+02      2.81325220E+02     -2.36038312E+02
     -8.30049445E+02      1.87818420E+02      5.15657943E+02
      5.32592632E+03      1.40908201E+02     -1.61783380E+03
      8.78375960E+02     -2.57494780E+02     -6.92676678E+02
      4.74371764E+02      1.66893065E+03      3.48891138E+02
     -1.85522302E+03      5.81085840E+02      1.07374680E+03
      7.19895004E+02      3.77977034E+01      4.54909270E+02
      3.49887527E+03      1.63087857E+03     -2.69606561E+03
     -2.47875336E+00      4.39286553E+02      9.97168237E+02
      2.20526562E+02     -5.59378722E+02      5.43683342E+02
     -1.54812774E+03     -5.77339032E+02      5.84994034E+02
     -3.48388492E+02     -5.31700721E+02     -7.77513129E+02
     -4.70627651E+02      4.55629490E+02     -3.38919719E+02
     -1.21573477E+03      5.22603054E+02     -5.05767196E+02
     -3.95626794E+03     -1.24934896E+03      3.70897714E+02
      4.68855922E+02     -1.36811216E+02     -8.93174022E+00
      3.39928105E+02     -5.07148916E+02     -4.80650138E+01
     -1.15607484E+03      2.13635939E+03      9.15992792E+02
      2.94443224E+03      7.58123675E+02     -4.93594898E+02
      1.86822453E+03     -7.08573834E+02     -1.76434130E+03
     -2.14738745E+02     -8.56558721E+02     -5.74895023E+02
      1.00820198E+03     -3.11007745E+03      3.74049653E+03
      2.42843382E+03     -2.51665456E+03      2.20465700E+02
      3.35617610E+02     -2.28339895E+02      7.63765755E+02
     -3.07382773E+02      2.79519089E+03      3.42341883E+02
      5.37844759E+02     -6.42523704E+02      1.61930339E+03
      1.64978001E+02     -2.90491934E+02      2.97260502E+02
     -1.35791445E+03      2.07654976E+03      1.38244234E+03
      2.56082511E+03     -1.92992781E+02     -5.97361480E+02
     -3.82782415E+00     -7.83195917E+02     -1.95140639E+01
      1.49561053E+02     -8.14796857E+02      1.96254158E+03
      8.03131665E+02     -1.90718311E+03     -7.74499627E+02
     -3.76372026E+02      4.25945212E+02     -1.36932405E+02
     -4.88135752E+02     -2.31285008E+03     -1.69124732E+03
      1.43438485E+03     -4.43039223E+03      3.67427357E+02
      1.23799881E+03     -1.02735029E+03      3.59137935E+02
     -1.81690360E+02     -3.36025710E+03      2.22646911E+03
      1.27884828E+03     -7.32966334E+02      2.26964543E+03
      3.29191131E+02     -2.76252916E+02      5.25990630E+02
      1.46322023E+03     -1.74972554E+02     -6.18022018E+01
      4.60934875E+02      1.78547746E+03     -1.17683758E+03
      4.30745029E+02     -3.46146919E+02      4.62194778E+02
      1.69095787E+03      1.41567313E+03     -5.81026129E+02
      2.01506150E+03      1.67898197E+01      7.19490518E+02
     -2.65979860E+02     -2.08406042E+02     -6.34708476E+02
     -2.17471192E+03     -6.41347147E+01      1.34679368E+03
     -6.04260657E+02      7.68053464E+02     -1.34889883E+03
     -6.75158552E+02     -5.76320294E+02     -1.53394290E+02
     -8.52950043E+02     -1.43241878E+02      1.62669048E+02
     -3.62190007E+03     -9.44621631E+02     -8.18652209E+02
      2.74336921E+03     -3.10224014E+03      1.20336925E+03
      2.49194291E+02      1.54965725E+03     -1.28413950E+03
     -6.41078454E+02      5.63757563E+02      1.03172187E+02
     -5.10654574E+02      1.41147428E+03      1.15686100E+03
      1.48248606E+03      1.79068526E+03     -2.60781420E+03
      2.05176889E+01     -7.13575111E+01     -1.29560767E+02
      1.36363095E+03      2.37482529E+03      3.39293540E+02
      1.11611899E+02      2.39962595E+02     -2.56868352E+03
      2.32685641E+02      4.87249651E+02      7.58130682E+02
      3.06471247E+02      2.32978630E+02      1.63406687E+03
     -2.45975337E+03      1.18495481E+03      1.25568920E+02
      5.04808459E+01      3.24994502E+01      4.39236905E+02
     -1.26958054E+03      9.49020857E+02     -1.01383425E+03
     -1.16344977E+03      6.26350776E+02      2.67068049E+02
      9.91847394E+02      5.00452690E+02     -7.86081944E+01
      2.99281948E+03     -3.71008078E+02      3.21161631E+03
      1.64509725E+03      1.17220947E+03      3.69564162E+02
      2.13358421E+02     -3.98139227E+02     -1.18589769E+02
     -1.72074843E+03     -2.76311853E+03     -6.06365067E+02
     -3.44301438E+03      5.34819791E+02     -1.29982747E+03
     -1.67130727E+02     -1.16942631E+03      3.82085645E+02
      5.57130596E+03      1.69347894E+03     -3.00759889E+03
     -1.07135280E+03     -1.06475071E+03      9.72469010E+02
      7.26393808E+02     -1.00696705E+01      1.57163319E+02
     -2.70870233E+01      1.29936415E+03     -3.52881491E+02
     -2.83648388E+03      1.11012722E+03      4.24732178E+02
      7.40282547E+02     -6.38063228E+01      6.34148048E+02
     -2.39500857E+02     -1.62164475E+02      1.29053306E+03
      4.00186037E+03     -2.69876330E+02     -1.33919737E+03
     -6.27121462E+02      8.81187650E+02     -8.50381603E+02
     -7.61874383E+01     -1.75122979E+02     -6.63461671E+02
     -1.61229297E+03     -1.48582021E+03      1.21931347E+03
     -1.36376184E+03     -2.58176204E+03     -1.15431385E+03
      2.29973386E+03      8.85283757E+02      2.54384263E+03
     -2.40230272E+02     -1.79049673E+02      7.48967300E+02
      1.84923736E+03     -6.64641285E+02      5.14879873E+02
      3.60730545E+03     -3.61654859E+02      5.80306538E+02
      4.14255205E+02     -2.39960521E+02     -1.08271749E+02
      9.42011319E+02     -1.25309487E+03      1.54396413E+02
      2.83552531E+03     -1.32257212E+03     -4.19170111E+02
     -1.03276620E+02     -7.32212107E+02      2.65581991E+02
     -6.36603934E+02      1.02957475E+03      1.02057680E+01
     -1.13640992E+03      3.05843644E+02     -3.89747181E+02
     -7.93343814E+02     -1.88615546E+02      6.62792051E+02
     -1.86747867E+03     -1.50344049E+03     -1.07081688E+03
     -7.25488527E+02      4.64292325E+03     -4.45375047E+02
     -6.98037053E+02      3.36182678E+00      6.05773798E+02
     -1.15808526E+03      1.40276657E+03      2.99527919E+03
      3.44571906E+03      1.09140275E+02      1.64388962E+03
      3.87467487E+02     -5.24640762E+02      3.95493868E+02
     -3.57957319E+02     -7.96244564E+02      5.76783467E+01
      5.71479664E+02     -1.93794263E+03     -4.46603927E+02
      2.98732411E+02      2.78867350E+02      1.97158035E+02
     -7.95116552E+02     -1.05575972E+03      5.39156110E+02
      1.06404216E+03      2.65434574E+03      3.15750637E+02
      6.21683535E+02     -3.21882703E+02     -4.94466781E+01
      8.91421588E+02     -1.62156311E+03      1.07423723E+03
     -2.66015557E+03     -1.66387626E+03      3.89982803E+02
     -1.04141439E+03     -3.06763351E+02      3.12736204E+02
     -2.11625291E+03     -1.25367644E+03     -8.15811276E+00
      4.40708405E+02     -1.28690361E+03     -1.92404309E+03
      1.91329487E+03     -1.68991825E+03      2.02699125E+02
     -6.03887343E+02     -4.99701104E+02      3.21985650E+02
     -1.63195649E+03     -1.06452019E+03     -9.43664460E+02
      2.21566969E+03      1.86903416E+03      1.28387901E+03
      2.92887882E+02     -1.05877581E+03      2.99027126E+03
     -9.28144325E+01     -2.57114661E+02      1.19466348E+02
      1.60859168E+03      2.43617231E+03      1.18708274E+03
      3.34902484E+03      2.43752733E+03     -2.25094218E+03
      7.19024082E+01      7.30418498E+01      2.93379652E+02
      8.61946900E+02     -1.03394088E+03     -5.53114335E+02
      1.37087052E+02      1.24700678E+03     -1.40093457E+03
      2.38800863E+02     -3.59018272E+02      4.28024824E+02
     -4.94282711E+02      4.73075278E+03     -3.67004091E+02
      1.54244421E+03      7.33141671E+02     -2.60303410E+03
     -2.26486145E+02      7.43258801E+02     -4.82847229E+02
     -1.25116490E+03     -3.60191532E+03      1.86304212E+03
     -1.88309466E+03     -2.68705326E+03     -1.67826718E+03
     -1.15281474E+03      1.28658725E+02     -7.02037186E+01
      1.39086868E+03     -2.33639104E+03      8.37139724E+02
      1.23401301E+03     -4.79386353E+02      1.93445932E+03
      4.38367083E+01     -3.22558338E+01      2.90811850E+02
      2.59410244E+03      6.25299243E+02      1.32887811E+03
      2.35748517E+03      4.19200449E+02      8.35213293E+02
      2.09971346E+02     -7.53281960E+02      1.78370799E+02
      7.36209405E+02      1.16173524E+02      1.45745668E+02
     -1.31466703E+03      2.11723509E+03     -1.98997058E+03
     -1.30407677E+02      1.04261527E+03      1.94856794E+02
     -8.87362650E+02     -3.02605458E+03      9.23004384E+02
     -1.35969904E+03     -5.23428201E+02      1.25549869E+03
      5.10663921E+00     -4.67177174E+02      1.93177219E+02
      9.63747164E+02      2.87033512E+02     -9.40466262E+02
      2.19256292E+03     -3.70729663E+03      6.94591197E+02
     -1.10960506E+03      2.23697921E+03     -1.04876892E+02
      4.59590649E+02     -6.71746612E+02      6.45173077E+02
      6.40608234E+02     -2.42730501E+03     -8.92688541E+01
      1.67795049E+03     -1.52752308E+03     -1.49788487E+03
      1.32456087E+02      2.16737547E+03     -2.43496883E+02
      7.04422267E+02     -2.18097809E+02     -2.38418374E+02
     -3.15928763E+02      4.04993014E+02      3.11599552E+03
      8.58370983E+02      2.33360039E+02     -2.39054217E+03
      1.90047990E+02     -3.93183535E+02      7.09240745E+02
     -2.86513762E+03     -1.34234398E+03     -1.03794992E+03
      1.08277173E+03      9.65450029E+02     -4.27638076E+02
      3.45333356E+02     -9.17570570E+02     -1.79027181E+02
      2.30241897E+02     -2.66553239E+03     -2.14807598E+03
      8.48526516E+01     -9.11170064E+02     -3.12612150E+02
      4.18096203E+02      2.82135425E+02     -3.75895560E+02
     -1.86124848E+03      1.52435424E+03     -1.43395419E+03
     -3.34373718E+03      1.19806898E+03      9.23338115E+02
      4.12840370E+02      6.28074245E+02     -4.16437020E+01
      1.19017497E+03      1.46756753E+02      2.03676122E+02
     -1.87710123E+03     -1.65601350E+03      8.66746889E+02
     -5.72220064E+02      4.09209657E+02      2.70365704E+02
     -8.57543733E+02     -1.49448540E+03     -5.53395909E+02
      2.83266519E+03     -1.10635138E+03      1.69501560E+03
     -1.35447496E+02      2.02258653E+02      4.60345181E+02
     -1.19260168E+03      3.22713689E+02      9.67468528E+02
      7.87566437E+02     -7.80570558E+02      6.17309079E+02
     -8.42891090E+02     -3.73344191E+02     -3.32985611E+02
     -8.81522849E+02     -2.32437975E+03     -1.07364451E+03
      7.32852693E+02      3.80107454E+01      1.08577595E+03
      1.17004483E+02     -2.38260675E+02      5.20721570E+02
      7.55620537E+02     -1.53981038E+03     -2.73998414E+03
      1.26367966E+03      1.59019661E+03      3.66713469E+00
      1.50626500E+03      1.52808797E+03      1.67358088E+03
     -2.78193376E+02     -5.30194843E+02     -7.50455673E+01
     -1.27434526E+03     -9.67100086E+02      1.39358344E+02
      6.69704070E+02      5.50671379E+02      1.72769681E+02
      1.27814257E+03      4.95633427E+00     -2.88247125E+03
     -5.71951352E+02     -6.90274247E+02      7.52579798E+02
     -1.96430260E+02     -2.52198468E+03      1.37794565E+03
     -1.77551613E+03     -1.68129864E+03     -2.06157927E+03
      1.08244567E+03      2.99841900E+02      7.30298439E+01
      1.33378526E+03     -2.47694454E+03     -1.13626684E+03
     -4.83484742E+02     -3.29938600E+03      1.93254321E+03
      1.63425476E+02     -1.49175136E+02      3.91938465E+02
      1.04405350E+03     -8.49022704E+02      4.18623273E+03
     -1.12639399E+03      1.40453728E+03      5.48468184E+02
      3.58596718E+01     -4.81437029E+02     -5.13093419E+01
      1.42166571E+03      6.16664779E+02      1.52975340E+03
      5.16049718E+02     -6.52358448E+02     -9.33584377E+02
     -7.21549006E+02     -1.90752738E+02      1.02605399E+02
     -1.24030153E+03     -8.41009626E+02      2.88040095E+02
      5.11803558E+02     -7.41763985E+02      3.29195381E+03
     -1.10791588E+02     -6.30208367E+02     -2.16894241E+02
     -3.35296404E+02      8.05896205E+02      2.03833617E+03
     -2.00467817E+03      1.15673835E+03      5.96977933E+02
      8.62431452E+02     -2.17852794E+02     -3.57532225E+02
     -1.65025949E+03     -2.12580595E+03     -1.76797722E+03
      3.82478966E+02      1.65721312E+03      4.13258211E+03
      6.47510813E+01     -3.49789208E+02      6.59867873E+02
     -1.16343002E+03     -6.91854522E+02      1.09219933E+03
      5.71488457E+02      3.44059240E+02     -2.90830563E+03
      8.80591616E+02      8.79312380E+01     -8.02676940E+01
     -2.51382337E+02      3.81437741E+02      1.25454065E+03
      2.66033701E+03      8.09875015E+02      2.85010569E+03
      4.70573139E+02     -3.24012576E+03     -1.61834432E+02
     -5.33512397E+02      4.37791843E+01      5.86004309E+02
      3.11933333E+02     -1.64107757E+03      3.64445833E+02
      7.93093127E+02     -1.21389219E+03     -1.33539375E+03
      1.25201808E+03      9.08201801E+02      7.62072108E+02
  }
}

Hamiltonian = DFTB {
  SCC = Yes
  SCCTolerance = 1e-6
  MaxSCCIterations = 200
  ForceEvaluation = Dynamics
  MaxAngularMomentum = {
    C = "p"
    H = "s"
  }
  Charge = 0.0
  SpinPolarisation = {}
  Eigensolver = Standard {}
  Filling = Fermi {
    Temperature [Kelvin] = 300.0
  }
  SlaterKosterFiles = Type2FileNames {
    Prefix = "../../pbc-0-3/"
    Separator = "-"
    Suffix = ".skf"
    LowerCaseTypeName = No
  }
  KPointsAndWeights = {
    0.0000000000000 0.0000000000000 0.0000000000000 1.00000000000000
  }
  Dispersion = LennardJones { 
    Parameters = UFFParameters {}
  }
}

ParserOptions = {
  ParserVersion = 3
}
