Geometry = GenFormat {
<<< "system.gen"
}

Driver = VelocityVerlet{
  Steps = 100000
  TimeStep [fs] = 0.2
  MDRestartFrequency = 5
  Thermostat = None {
    #InitialTemperature [Kelvin] = 300.0
  }
  Xlbomd{ 
    IntegrationSteps = 6 
    MinSccIterations = 2
    MaxSccIterations = 200
    SccTolerance = 1e-6 
  }
  Velocities [m/s] {
      9.10396045E+02     -1.15956357E+02     -4.10008016E+01
      8.39505672E+00     -1.59186673E+03     -1.39322296E+03
      6.27450524E+02     -1.88404280E+03     -2.03217487E+03
     -4.85942096E+02      3.71873996E+02     -8.29453822E+01
      9.88520026E+02      8.48054554E+01     -8.60918293E+02
      5.46062493E+02      1.04056950E+03     -3.10869988E+03
     -1.63687584E+04     -1.41385661E+04      2.45303521E+03
      1.19790789E+03     -2.02821909E+03      1.84602468E+03
     -8.21967618E+01      2.57982206E+02      2.93081680E+03
     -3.99241015E+02      2.41249249E+02      1.34782080E+02
      3.45925855E+02      2.92383164E+03      1.47409425E+03
     -7.24346456E+02      2.99068945E+01     -5.55624528E+02
      5.18126688E+02      1.97175156E+02      6.69331622E+02
     -1.96600338E+03      5.54370602E+01      3.00255200E+03
      2.07112944E+03     -6.60871748E+00     -4.77594208E+02
      2.79045811E+02     -9.19649816E+01     -2.90850998E+02
      7.38284512E+01      1.98986669E+03     -1.58970818E+03
     -4.83760661E+02      1.46040829E+02     -2.26131828E+03
     -1.22070555E+03      5.50134231E+02      7.53852798E+02
      1.06215938E+03     -2.84571444E+03      1.42316880E+03
     -3.13113585E+02     -2.09440382E+03     -2.03365503E+02
      1.36562552E+02      8.81637630E+02     -1.81259713E+02
      1.71280867E+03     -6.00637842E+02     -2.52118846E+03
      2.52894830E+03      2.57885048E+03     -5.21671752E+02
     -5.90563729E+02      3.55790800E+02      2.34259806E+02
      2.15506589E+03     -1.14672428E+02      1.30088861E+03
     -1.21020231E+03     -2.69295092E+03     -1.17999253E+03
      1.52001770E+02      3.13904385E+02      2.93504710E+03
      5.35274179E+01     -5.48393951E+01     -5.90003804E+02
     -6.30071649E+02      3.45678464E+03     -3.02736605E+02
      7.86992383E+02      2.42876544E+03     -1.09361692E+03
     -2.60599839E+03      1.20105042E+03      1.10793050E+03
     -4.55038327E+02      5.52947302E+02      6.56988263E+00
     -2.35392411E+03      1.45009001E+03      2.32030171E+03
      5.90101760E+02      1.26830402E+03     -2.72316844E+03
      6.00058442E+02      3.42936463E+02      1.81810764E+02
      4.96380807E+02      8.99585410E+02     -1.36862796E+03
     -1.03940353E+01      2.93269258E+03      1.43635218E+03
     -4.57339389E+02      7.85202509E+01     -4.25650478E+02
      3.16024462E+03     -3.89950072E+03     -1.15296820E+03
     -1.30714425E+03     -1.36131804E+03     -2.56030359E+02
      8.89705440E+01     -2.44757458E+02      4.18700998E+02
     -9.09784767E+02     -2.74797873E+02     -1.07210712E+03
     -3.73088780E+02      8.18642396E+02     -1.74091433E+02
      3.28801941E+02     -1.87380293E+02      1.85009687E+02
      1.11834409E+03      2.07386026E+03     -3.72250385E+02
     -7.23595211E+02      9.23840286E+02     -1.02495346E+03
     -2.74179722E+02      5.58353114E+02      8.92812231E+02
     -2.47708815E+03      1.49550833E+03      3.96202759E+02
     -1.70173892E+03      8.18756362E+02      3.19784686E+02
      4.07564638E+02      1.68931333E+02     -2.95935488E+02
     -4.08049530E+02      1.26379985E+03      3.29472964E+02
      1.24183200E+03     -6.52334115E+02      1.54639760E+03
     -9.58358835E+01      3.93993236E+02      2.33249432E+01
     -4.89276100E+02     -4.01756344E+03     -7.34692647E+02
      1.24830876E+03     -1.98331249E+03     -1.26082936E+03
      4.23413269E+02     -2.94025027E+02      1.26253871E+02
     -7.08330751E+02     -2.07385790E+03      1.46913974E+03
      3.44268128E+02     -1.27271132E+03     -3.68044390E+02
      1.74206179E+03     -1.72052555E+03      2.59952872E+03
      2.71551526E+01      3.45066549E+02      6.20451083E+02
      2.74406084E+03     -1.66576135E+03      1.61764532E+02
      1.46681525E+03     -1.34769095E+03      7.86553038E+02
      3.57793030E+03      1.62597409E+03      5.48210289E+02
      1.78569740E+02      3.81509423E+02      3.97755561E+02
      1.80022738E+03      1.19741272E+03      8.64826908E+02
     -2.27735677E+01     -2.75528049E+02      3.05578558E+02
      2.86491763E+01      3.82625400E+02      1.71996510E+02
      6.61446240E+02     -8.27127954E+02     -8.04559017E+02
     -1.54368863E+03      8.39423056E+02      1.45898572E+03
      5.28209966E+02     -2.92124444E+02      1.54016587E+02
     -1.81463036E+03      3.54782680E+03      2.01904433E+03
     -1.58326837E+03      6.98577385E+02     -1.08320892E+03
     -2.92687437E+02      7.91059456E+02     -2.18054227E+02
      8.65600065E+02     -1.05219199E+03     -1.19898174E+03
      3.46664527E+02      2.22567198E+03     -1.54748003E+03
      2.16821687E+02      6.25169893E+02      7.01630258E+02
      1.78448247E+03     -2.85639103E+02     -2.23660228E+03
     -2.08004533E+03      6.92042552E+02      2.45130300E+03
      1.03170203E+03      7.31581024E+02      4.22184050E+02
      2.64258651E+03      3.20096430E+02     -2.38358027E+03
     -2.29737416E+03      5.73766215E+02      9.42525033E+02
      3.87897907E+02      4.64966465E+02      7.18746850E+01
      4.15329853E+03      5.46717217E+02      1.40626673E+03
     -2.76978003E+03      2.02503199E+02      2.08974164E+03
      4.96659681E+02      3.93347435E+02      4.92226594E+01
      1.11467953E+03      4.73706022E+03     -4.16809236E+02
      8.60354602E+01      1.08391079E+03      3.75880258E+03
     -5.24588438E+02     -1.17261363E+02     -3.61969450E+02
     -8.16477630E+02      4.97739562E+02      3.90275695E+01
      1.31739784E+03     -1.70216794E+02     -1.52476938E+03
      2.09620588E+03      1.10238966E+03      1.24589060E+03
      3.87586175E+02      5.33967242E+02      2.08719258E+02
     -2.08144000E+03      2.16085798E+03      9.01052632E+02
     -1.23991059E+02     -2.58136028E+02     -1.18034627E+03
     -1.43743412E+02      2.32960008E+03     -8.85243662E+02
     -3.81397889E+02      5.89161971E+02      4.04432293E+02
     -2.98487675E+03      4.26998246E+02      1.46616925E+03
      1.71996522E+03      2.53991910E+03     -2.47878228E+03
     -8.14612054E+02      5.09251940E+02      2.50197301E+02
     -1.53357564E+03      2.51727147E+03     -1.65568418E+03
      6.90171168E+02      9.29874262E+02      9.11079506E+02
      4.08879559E+02      3.42463013E+02     -4.04917454E+02
      1.25128615E+03     -6.13333644E+02     -1.54735411E+03
      2.51744806E+02      6.29140943E+02     -1.79922949E+03
      2.89720251E+02     -3.79311355E+02     -9.28451787E+01
     -1.56861098E+03      5.73270908E+02      1.61906834E+03
      5.22056619E+02     -1.98069171E+03     -1.57795919E+02
     -2.62371512E+02      5.58847212E+01      5.39795254E+02
     -6.02450767E+02     -5.68304851E+02     -3.53474784E+02
     -3.04110335E+02     -1.52317483E+03      1.01858901E+03
      3.69829899E+02      6.17336346E+02     -1.08110306E+03
     -7.85548038E+02      1.10040135E+03      1.45879143E+03
     -1.83966894E+03      1.88541475E+02      1.85525372E+03
      1.28541214E+02     -8.10718997E+02     -7.45183715E+02
      8.29037401E+02      1.35821524E+03     -2.16629323E+02
     -2.48037922E+03      6.78865714E+02     -2.14855082E+03
      8.06143254E+02      6.49152058E+02      8.85059204E+01
     -2.76826601E+02      2.58641687E+01      5.74622602E+02
      5.66639562E+02     -1.03987564E+03      2.95544334E+03
      8.31001966E+02      3.53853788E+02     -8.64026518E+02
     -1.54915325E+03     -3.47298108E+02     -9.70641364E+02
     -2.79546889E+03      1.93936338E+03     -2.22887609E+03
      1.54963863E+03     -8.20006831E+02      5.73830148E+02
      1.31131234E+02      7.63631841E+01      3.46052961E+02
      1.85290366E+03     -1.24672217E+03     -9.61507417E+02
     -9.90925267E+02      2.90580467E+03     -7.31483829E+02
     -3.46105413E+02      1.40403798E+03      4.39876182E+02
     -1.09775250E+02     -6.26381630E+01      4.28100294E+01
      1.33227095E+03     -1.09236130E+03     -9.63574558E+02
      1.35841312E+03      2.27463401E+02     -3.64832561E+02
     -7.23256623E+01     -6.33278515E+02      7.85416916E+02
      5.13610676E+02      1.23027348E+03      6.90278213E+02
     -8.47354012E+02     -1.51298209E+03     -2.64688015E+02
      5.05856513E+01      6.74810975E+02     -4.24313046E+02
     -3.78052681E+02      1.81233107E+03     -3.76408794E+03
      3.91500444E+02     -8.51840786E+02      5.55243807E+02
     -3.26879765E+02     -5.72650037E+01     -1.64943007E+02
      1.99958868E+03     -1.67129160E+03     -6.83686403E+02
     -4.24968480E+02      3.12755305E+03      8.42033500E+02
      4.77634864E+01      4.30986997E+02     -7.58206661E+02
      3.39507907E+02      1.08215170E+03      8.66987927E+02
     -2.29967670E+03      4.90551535E+03      2.01888009E+03
      7.91127147E+02     -5.33426356E-01     -2.96262589E+02
     -1.17342767E+03      1.81538996E+03      1.26998476E+02
      5.34732108E+00     -1.76000978E+03     -2.63101487E+02
      2.10801537E+02      1.15017431E+02     -1.07217120E+00
      1.19279795E+03      2.59280787E+02     -2.51020119E+03
      1.17003182E+03     -7.89946433E+02     -2.91797832E+03
     -1.88903895E+02      1.39628806E+02      2.87685777E+02
     -3.31959343E+02      9.32822406E+02     -9.61986291E+02
      4.15220344E+02     -1.81934693E+03     -1.70402580E+03
     -5.26335477E+02     -1.67347428E+00     -1.07789460E+03
      2.45968450E+02     -6.12712585E+01     -1.25792933E+03
     -1.98045841E+02      2.28451934E+03      3.44666375E+03
      2.09714316E+03     -3.01005803E+02      2.63550900E+03
     -1.48715354E+02      1.25450489E+03     -4.64397148E+01
     -2.30833753E+03     -1.17444444E+02     -8.05035498E-01
     -5.63975337E+02      2.73003928E+03     -1.23968600E+03
     -6.89436471E+02      2.36375808E+02     -5.29470434E+02
      5.67128633E+02     -5.45955000E+02     -5.10849605E+02
     -2.83390013E+03      2.46250146E+03      1.17808789E+02
      2.59005050E+03      2.24374383E+03      7.74779500E+02
      5.22844925E+02      1.08427544E+03     -9.80757165E+02
     -5.04517430E+02      2.98181944E+03     -7.60135668E+02
     -5.66750180E+03      6.01127694E+02      1.59086444E+02
     -1.26269538E+02      4.14210527E+02     -1.67746058E+02
     -3.30182456E+02      1.64419945E+03     -1.20782753E+03
      2.15793220E+03     -1.12551701E+03     -2.36452063E+03
      4.17420027E+02     -6.86388289E+02     -5.48780662E+02
      2.27759948E+02     -9.36692621E+02      3.04279400E+02
      4.65442114E+02     -1.65764698E+03     -2.85888823E+03
     -5.69643173E+02      7.35290137E+01     -6.48864655E+02
     -4.18258485E+03     -5.68962142E+02      8.03937300E+02
      2.87219467E+03      2.98784978E+03      2.70720373E+03
      7.80753738E+02      5.52589618E+02      5.06876894E+02
      2.70740354E+03      1.33248850E+03      1.48599510E+03
     -6.50166527E+01     -6.06472825E+02      4.77590732E+02
      3.96164792E+02      4.39744539E+02      3.17971681E+02
      2.21676251E+02     -1.10277675E+03     -1.19160757E+03
     -1.46021900E+03      1.26716431E+03     -7.53804419E+02
      4.66240133E+01      4.43430190E+02     -7.70921498E+01
     -8.02606013E+02      2.60838337E+03      1.98802825E+03
      3.50227376E+02     -2.24898436E+03     -3.86101394E+03
     -5.94567760E+02     -7.32275901E+02      9.83199599E+02
      1.31233693E+03     -1.82375158E+02     -5.58588796E+02
     -1.09437608E+03     -2.55877692E+03     -1.37986801E+03
      2.01893628E+03      3.68480574E+02      3.27969334E+03
      4.60658567E+02      3.18210156E+02      4.69401743E+02
     -5.97425030E+02      3.52640437E+02      1.16542531E+03
      6.99201573E+02     -1.28713218E+02      9.59650977E+02
     -1.32833375E+03     -1.48199479E+03      2.15761418E+03
      2.13963744E+02     -6.06739734E+02      3.43091984E+02
      2.89078900E+03     -3.37566236E+02     -5.48700628E+02
     -4.72428950E+02     -8.19665635E+02      8.80201357E+02
     -1.38452360E+02     -6.25788944E+02      4.41982439E+01
      1.10682081E+02      2.64364472E+02     -7.33323604E+02
     -1.70659013E+03      4.02956417E+02      7.16550685E+02
     -6.19614023E+01      7.50438460E+01     -3.60741531E+02
      1.20622645E+03      4.81412571E+02      1.98342897E+03
      2.48497111E+03     -4.13344235E+02      4.88768121E+02
      7.92382029E+02      2.22526968E+02      3.23985817E+02
      1.14312234E+03     -3.34491667E+03     -7.47259610E+02
      7.00211328E+02     -1.68047509E+03      1.59792787E+02
     -3.51464362E+02     -8.41035547E+01      6.19347246E+02
     -3.52119889E+02      1.20385468E+03     -1.24419500E+03
      5.49228168E+02     -9.85086123E+02     -7.75476539E+01
     -3.43439768E+02      3.08320869E+02      1.60196876E+02
     -8.99473298E+02      7.19108125E+02      5.38829809E+02
      1.20715924E+02     -8.85319210E+02      2.89226158E+03
      1.86844007E+02     -5.54336534E+01      4.32344183E+01
     -2.86209684E+02      1.14503789E+03      3.29101399E+02
      1.81561194E+03      1.94303512E+03     -2.64264957E+02
      1.08094458E+02      4.50539454E+02      2.12526085E+02
      1.05663999E+03      1.67082829E+03      1.15542041E+03
     -1.76237231E+03      6.19892782E+02     -1.30256954E+03
      7.77041356E+02     -4.15946392E+02     -1.13888664E+02
     -6.66465095E+02     -1.02324558E+03      2.39017609E+03
     -1.92245099E+02      1.14004116E+02     -1.75795524E+03
     -1.61893370E+03      7.50037919E+02     -4.87409386E+02
      5.95432734E+01     -1.47550703E+02      8.98661504E+02
      2.50311631E+03     -5.65241911E+02      2.93306109E+03
      3.47505564E+02      2.53063677E+02     -3.33004675E+03
      2.30808737E+02     -8.30989665E+02      3.94940755E+02
     -1.25651758E+02     -1.43866971E+02      1.28992633E+01
      5.51639915E+02      7.31731494E+01      4.16036557E+03
     -2.10822262E+02     -1.04002970E+03      1.80087352E+03
      3.84076781E+02      5.15372977E+02      6.95091058E+02
     -9.04206832E+02     -3.88136920E+03     -3.33262154E+03
     -2.05830289E+02      1.00177645E+03     -2.47231741E+02
      1.94271422E+01      2.40028210E+02     -4.72338826E+01
     -2.28823628E+03      2.38641983E+02      4.27101344E+03
      1.99732167E+03     -2.75825936E+03     -3.65554413E+03
     -1.71846535E+02     -1.16253244E+02     -7.60038043E+01
      1.93720502E+03      1.83665916E+03      1.70733905E+03
      2.68377475E+02     -1.26857853E+03      1.58231537E+03
     -2.39037678E+02     -5.87444345E+02     -7.63494162E+01
     -6.51978360E+02      8.17788121E+02      8.01676893E+02
     -3.31799056E+02      2.00717050E+03      1.15973813E+03
     -3.51760077E+02     -6.20997690E+02     -5.13636702E+02
     -1.30348103E+03      4.28495282E+02      8.32170346E+02
      1.05000808E+03      1.60828758E+03      1.96446002E+02
      1.15472763E+02     -6.95786962E+01     -2.59891761E+02
     -1.27243489E+03     -1.02316337E+03     -1.64896883E+03
     -3.66292967E+01     -1.67278320E+03     -1.67912947E+02
      1.30442231E+02     -1.56757888E+02     -7.51016477E+02
      1.08022076E+03     -8.56882271E+02      2.10058822E+03
      1.72858943E+03      2.92149765E+03     -3.56153766E+03
      4.92975538E+02     -5.98076312E+02     -3.57420743E+01
      2.88066601E+03      7.82545438E+02     -2.05965230E+03
     -3.57403500E+03      1.08852569E+03      7.05652643E+02
      1.15691105E+03      3.24783034E+02     -2.01895499E+03
      4.09674708E+02      7.02348736E+01      1.23935675E+03
     -9.67471412E+02     -3.39109739E+03     -1.67869379E+02
      1.62967969E+03      2.76374521E+03     -1.07103585E+03
     -2.91848561E+03     -1.57113177E+02     -6.93767222E+02
      4.19134591E+02      1.85419464E+02      4.01994903E+02
      9.14887167E+02      2.57005145E+03     -1.58911052E+03
     -6.02442048E+02      1.81248428E+03     -2.25024167E+02
     -3.16781717E+02      6.96672897E+02      1.25979527E+02
     -1.68352870E+02     -2.59838451E+03     -1.58814445E+03
      6.09342857E+02     -2.04061937E+03     -1.30586795E+03
      3.34944335E+02     -5.58353373E+02      3.97095205E+02
     -6.30362033E+02     -1.07942287E+03      1.84057878E+03
     -1.53090846E+02      5.71508013E+01      2.54012143E+03
      9.07470107E+02      1.54964581E+02     -2.84391234E+02
     -9.19999574E+02      4.44950387E+01      7.23752051E+02
      9.11795039E+02      1.02186828E+03     -7.05951332E+02
      7.35738952E+02      3.47999118E+01     -3.35841276E+02
      1.36288749E+03      1.43360010E+03     -1.17122954E+03
     -3.40173587E+02     -8.11479400E+01      1.64301495E+03
      9.41198104E+02      1.02298776E+03     -4.94669164E+01
     -4.52210081E+01     -5.23606114E+02      9.13008482E+02
      1.01817912E+03      9.67307739E+01     -1.58995238E+03
      1.39201727E+02      6.96986594E+02     -1.62551299E+02
      6.01374109E+02     -1.41165769E+03      1.49797130E+03
      4.17138424E+03     -3.60112635E+02      3.44833553E+02
     -1.08514610E+02      1.18773939E+02     -8.91332215E+02
     -8.44519769E+01      5.02181850E+02     -3.66927496E+02
     -1.17935782E+03      2.27528971E+03      2.11425299E+02
     -6.62736667E+02     -4.64064321E+02     -2.26536612E+02
      3.32469728E+02     -8.35867050E+02     -3.21034528E+02
     -3.11517236E+03      3.33117143E+02     -5.35738123E+02
     -8.59796234E+02     -1.95497336E+02     -1.85010162E+03
      5.94688573E+02     -2.33688904E+02      4.08224784E+02
      1.14571762E+03      8.49169832E+02      9.70396698E+02
      3.41168260E+03      3.42834109E+03     -1.23235478E+03
      9.67312629E+02      5.22004914E+02      1.28727595E+03
      1.53141886E+02     -9.68164749E+02     -1.22234614E+03
     -4.78842596E+02     -2.75230401E+02      1.15881022E+02
     -8.34033440E+02      3.82540120E+02     -9.79928901E+02
      2.75823759E+02      1.23127419E+02     -8.96917273E+02
     -2.47432921E+03     -1.06403374E+03      1.39807042E+03
      2.47063003E+03     -1.99972795E+03      1.44401494E+02
      4.62924084E+02     -7.54544169E+02      5.62603640E+02
     -2.77158416E+02      7.94689851E+02      1.55734027E+03
     -6.25095195E+01      3.10321802E+03      1.89986704E+03
      2.25518840E+02      7.71389762E+01     -2.75647216E+02
     -1.00402130E+03     -1.55441079E+03     -1.06404412E+03
     -5.06108094E+02      2.37113129E+03     -3.33175893E+03
      4.04556277E+02     -2.55289800E+02     -2.49296220E+02
      3.51682039E+02     -2.06469851E+02      1.60700312E+03
     -2.62773078E+02     -2.08340607E+03     -2.01528385E+03
      5.84493825E+02     -2.32120523E+02     -8.34057540E+02
     -6.89873003E+02      2.71989825E+03      2.45622822E+01
     -2.32858371E+03     -7.21297938E+02     -2.07531296E+03
      9.71340780E+01      6.18553545E+02     -5.93954565E+02
     -6.58363212E+02     -5.78361229E+02      2.12685037E+03
      3.01533757E+03      1.91299165E+03      8.23344977E+02
      1.53399839E+02     -9.60302902E+01      3.90184449E+02
      6.14457798E+02     -1.44930922E+03      2.90124119E+02
      2.12897730E+02      1.28882216E+01      2.76707299E+01
      3.71292589E+02     -5.41804994E+02     -4.77351571E+02
     -5.36565711E+02     -1.32163509E+03     -2.86261663E+03
     -6.04647099E+01     -6.85165709E+01     -1.34342243E+03
     -9.51031829E+02     -1.24601218E+03     -2.14199511E+03
      3.81971770E+02     -2.39976190E+02      2.78264936E+02
     -7.75066570E+02      6.50824524E+02     -1.62775170E+03
      4.09384009E+03     -2.79093103E+03      8.59227364E+02
      1.40776530E+03     -1.85416275E+03     -3.20491977E+03
      8.31190015E+01      3.45011362E+02     -9.73941466E+02
     -5.98843991E+02     -2.78716274E+03     -1.57542004E+02
     -9.69448198E+02     -3.42017538E+02      4.79891251E+02
     -3.06328013E+02     -4.85729475E+02     -7.06403164E+01
     -1.79028983E+03     -1.47567463E+03      1.11296973E+03
      3.08439691E+02     -6.17458375E+02      1.48681876E+03
     -1.01500355E+02     -1.51731349E+02      3.50818492E+02
     -1.20778994E+03     -1.77622123E+03      4.03806546E+03
      1.39494399E+03     -1.11601529E+03      3.20225608E+03
      3.61375784E+02     -1.14940250E+02     -2.88722866E+02
     -3.00981081E+02      2.05007106E+03      2.50273534E+03
      1.62723888E+03      2.03097816E+03      2.40745302E+03
     -6.01152010E+02     -1.36453264E+02      1.72418509E+02
     -6.83127461E+02     -1.30214965E+03     -2.47009931E+02
      9.61067094E+02     -4.49278437E+02      2.73192741E+02
      5.70222639E+02     -8.91163679E+01      4.06517513E+02
     -1.04213718E+03      1.72943219E+03     -2.37678067E+03
     -2.08517951E+03      3.55418734E+02      1.68624205E+03
      2.92023242E+01      4.04355821E+02      1.86105145E+02
      2.30148197E+03      4.83586277E+01      9.46344703E+02
      4.42652110E+02     -1.24664722E+03     -1.22482839E+02
      1.19153296E+03      1.20089777E+02     -1.31298612E+03
      5.43797971E+02     -1.76731815E+03      1.17393412E+02
     -1.80041653E+03      2.16411527E+03     -1.45831323E+03
      5.62526960E+02      2.81342701E+02     -1.21014193E+02
     -8.52018472E+02     -7.69662065E+02      3.24398447E+03
      2.18274986E+03      3.48996145E+03     -6.56779362E+02
      7.61843249E+02      1.06336620E+03     -6.51477225E+02
     -5.29854105E+01     -1.75512138E+01      6.64298277E+01
     -3.08901308E+01     -9.73779955E+02      1.35814346E+03
      8.05929676E+02      2.87343041E+03      3.59511234E+02
     -3.23197599E+03      8.96697904E+02     -1.05311487E+03
  }
}

Hamiltonian = DFTB {
  SCC = Yes
  SCCTolerance = 1e-6
  MaxSCCIterations = 200
  ForceEvaluation = Dynamics
  MaxAngularMomentum = {
    C = "p"
    H = "s"
  }
  Charge = 0.0
  SpinPolarisation = {}
  Eigensolver = Standard {}
  Filling = Fermi {
    Temperature [Kelvin] = 300.0
  }
  SlaterKosterFiles = Type2FileNames {
    Prefix = "../../pbc-0-3/"
    Separator = "-"
    Suffix = ".skf"
    LowerCaseTypeName = No
  }
  KPointsAndWeights = {
    0.0000000000000 0.0000000000000 0.0000000000000 1.00000000000000
  }
  Dispersion = LennardJones { 
    Parameters = UFFParameters {}
  }
}

ParserOptions = {
  ParserVersion = 3
}
