Geometry = GenFormat {
<<< "system.gen"
}

Driver = VelocityVerlet{
  Steps = 100000
  TimeStep [fs] = 0.2
  MDRestartFrequency = 5
  Thermostat = None {
    #InitialTemperature [Kelvin] = 300.0
  }
  Xlbomd{ 
    IntegrationSteps = 6 
    MinSccIterations = 2
    MaxSccIterations = 200
    SccTolerance = 1e-6 
  }
  Velocities [m/s] {
      4.75823733E+01     -1.40167570E+02     -6.43300565E+02
      2.01697508E+03      2.00058425E+03      1.61057794E+03
     -1.63105824E+03     -8.70632082E+02     -7.97493638E+02
      1.20241139E+02      9.67229193E+01     -1.69366922E+02
      1.63345139E+03      1.58012052E+03     -1.64552720E+03
      2.38479014E+02     -1.85763226E+03     -9.63742490E+02
      5.40186550E+02     -8.84000411E+02     -1.54944683E+02
      1.69763456E+03      3.11188608E+03     -4.56391801E+02
     -9.85127197E+02      2.23207939E+03     -1.65645185E+03
     -1.70355846E+02     -2.77406562E+01     -5.53194159E+02
      3.30550937E+02     -7.59329139E+02     -1.77718943E+03
     -1.18546998E+03      5.14161568E+02     -2.03797566E+03
      8.51099549E+02      2.31443720E+02     -1.87373616E+02
     -5.04494083E+02      1.41299501E+03      1.08494455E+03
     -1.18726966E+03      3.83093659E+03      2.17587867E+02
     -3.39316077E+02      7.27163732E+02     -6.58866164E+02
     -2.18317173E+02     -2.61158270E+03      6.99719547E+02
     -8.81303892E+02      6.20946636E+02      2.19793355E+03
     -2.61968231E+04     -7.64767274E+03      1.90912131E+04
     -4.61910108E+02      1.62822731E+03      6.08725704E+02
      1.49104478E+03      3.44377113E+02     -6.08681689E+02
      4.56657829E+02     -4.43030008E+02     -2.18868042E+00
      4.43671015E+02      1.11698649E+03     -1.04171439E+03
     -2.53060910E+03     -1.90506347E+03     -3.30190205E+03
      7.10579479E+02      3.01182217E+02     -1.24231724E+02
     -7.17407859E+02     -2.07494895E+03      6.13681023E+02
      1.01685438E+03     -1.10702201E+03     -6.74700933E+02
     -6.45865856E+02     -2.45793729E+02     -3.22318381E+02
      1.37011261E+02      4.01830403E+02     -6.50921044E+02
     -3.08539112E+03      1.84486314E+02      5.27933770E+02
     -5.36586473E+01     -1.51011297E+03     -3.81357581E+02
      1.40046755E+03     -3.27051900E+03      1.13026137E+03
     -1.04929789E+02      8.26651639E+02      5.62164322E+01
     -4.18117422E+02     -1.27504344E+03     -7.65103094E+02
      1.83551819E+03     -7.32799001E+02      1.19056630E+03
     -8.74784063E+01     -2.37305465E+02     -2.86453716E+01
     -2.57630130E+02     -6.25263836E+02     -9.63330357E+02
     -7.50446980E+02      1.27310681E+03     -1.21584435E+03
     -7.15591201E+01     -3.78412787E+02      9.67382902E+00
      1.04497725E+03     -1.00331426E+03      5.14490723E+02
      4.62267223E+02      3.73255857E+02      1.60462623E+03
     -3.92989112E+01      6.80622798E+02     -1.82961426E+02
     -5.90529627E+02      2.32694355E+03     -8.00356287E+02
      6.84921868E+02      2.45354864E+03     -2.11536533E+03
     -4.06864942E+02      5.47299441E+02     -1.24918083E+03
      1.44133881E+03     -1.39716168E+03      6.42359272E+02
     -2.18908003E+03      2.78260346E+03     -3.53844539E+03
      5.88567288E+02      6.27274944E+02      3.92873666E+02
     -5.56694884E+02     -2.28879801E+03     -6.21336232E+02
      1.46986072E+03      7.89421548E+02      6.81715972E+02
      8.79259526E+02     -6.78332626E+02      4.13769254E+02
     -3.40986590E+02      2.90437511E+02      3.33273582E+03
      3.89735338E+03      6.04121897E+01      1.29603033E+03
     -4.93395417E+02     -4.73918991E+02      3.44831087E+01
      6.26493944E+02     -6.02844570E+01     -5.54974660E+02
     -4.78824727E+02     -2.92766348E+01     -5.71617801E+02
      1.59877515E+02     -1.37718342E+01      4.22176824E+01
     -2.14921354E+02     -1.91768905E+03      1.51032779E+03
      1.75203483E+03     -1.44965182E+02     -2.70878848E+03
     -3.13639969E+02      3.08328448E+03     -6.94828257E+02
      2.71209142E+02     -3.85621040E+02     -1.89652944E+02
     -6.10738138E+02      4.72227562E+02     -4.31143040E+02
      1.71997162E+03     -1.45151214E+03     -4.45680845E+02
      1.15678129E+03     -1.64072009E+03     -3.50545003E+03
      5.10418882E+02     -2.00363227E+02     -3.41079721E+02
      5.41380497E+02      1.43693391E+03     -2.59788199E+03
     -1.25216041E+03      5.23807312E+02     -1.36187968E+03
      2.18565520E+02      3.93699956E+02     -5.61210892E+02
      6.79687454E+02     -8.88241168E+02     -2.23523040E+02
      2.31435092E+02      3.82902765E+02     -5.38849891E+01
      1.51346210E+02      6.90583658E+02     -8.67489933E+01
     -1.01627383E+03      2.53610728E+03      1.78520366E+03
      2.41414456E+02      1.08841885E+03      1.94526418E+02
     -9.20980683E+01     -8.70090972E+02     -5.43904820E+02
      2.54981106E+03      8.42967055E+02      1.04636587E+03
      1.68912511E+03      3.13139166E+02      2.60049699E+03
      7.96995960E+01     -7.33944627E+01      5.77395976E+02
     -7.99735670E+01      1.04308975E+03     -1.93769723E+03
     -1.78141173E+02      9.49475425E+02      8.69005304E+02
     -2.03985129E+02      9.03969856E+02     -1.64975600E+02
     -1.36234049E+03     -2.76430390E+03     -4.06501833E+02
      1.56318759E+02      1.14264896E+03      4.41909002E+02
      2.33987020E+02      2.82465759E+02     -2.15563951E+02
     -1.26385974E+03     -2.80937709E+03     -2.70432464E+03
     -2.48040815E+02     -1.53470181E+03     -2.30580954E+03
      2.98314280E+02      3.81227629E+02      5.05200749E+01
     -2.01652685E+02      2.58154103E+03      2.72618001E+03
      4.30608420E+02      1.41168580E+02     -1.41773584E+02
     -6.04531282E+02     -2.94857317E+02     -4.54018717E+01
      3.91649135E+02     -1.41815307E+03      4.49296478E+03
      6.28905268E+02      8.10109488E+02      6.56346848E+01
      6.84709145E+02      1.42859065E+03     -1.39639229E+03
      3.82209146E+02     -7.69699835E+02      3.91482971E+02
     -6.20607671E+02      3.72612895E+02     -3.27158954E+02
      2.19147813E+03     -1.98339616E+03      4.49628397E+02
      2.43741498E+02      1.92085646E+03      8.84755994E+02
     -1.00051020E+02      1.77850178E+02     -4.66917782E+02
      1.69046710E+03     -3.31871389E+03     -6.16585169E+02
      1.02394116E+03      1.81354923E+03     -7.48088607E+02
      8.17959140E+01     -8.58375053E+02     -4.41184168E+02
      2.75210759E+03      4.83425449E+02     -2.26719458E+03
      5.09024569E+02      3.78957119E+02     -5.86963979E+01
      3.46975421E+02      5.23934944E+01     -2.46626915E+02
      1.64553226E+02     -3.39773677E+03     -5.61179000E+02
      2.19716356E+03     -3.18671492E+03     -4.24364331E+02
      5.28068534E+02     -5.74847653E+01      5.13301021E+01
      8.34827628E+02      1.06635190E+03     -2.11832204E+03
     -1.29364209E+03      1.36903516E+03     -1.70686244E+03
      3.46524639E+02      4.01111020E+01      7.15367414E+02
      6.62964084E+02     -3.59276176E+01      2.93564665E+03
      6.48019256E+02      1.27780798E+03     -8.41957893E+02
      6.69699298E+02      1.17071255E+02     -3.19048287E+02
     -1.48100080E+02      1.84775350E+03      2.92040851E+03
      7.42321218E+01      5.79308291E+02     -7.64908935E+02
     -5.61242960E+02      2.55662811E+02     -2.77958789E+02
     -2.72604932E+03      9.51067470E+02      1.85740110E+03
      6.71644764E+02     -6.75207605E+02     -8.49104895E+02
     -5.02944864E+02     -6.09859558E+02      1.44060021E+02
      2.79147055E+03      9.04287632E+02     -4.44761969E+02
      1.49528342E+03      7.05707385E+02     -4.46769940E+00
      3.61072815E+00      5.07936102E+01      3.95198960E+02
     -2.53906985E+03      6.93063936E+01      1.71138540E+03
      7.92974225E+02     -1.76236841E+03      1.55512945E+03
     -2.06960388E+03     -2.45810671E+03      2.58363292E+02
      6.83793747E+02      1.99115285E+02      2.97816859E+02
      5.70484265E+02      1.21404347E+02      2.73755077E+03
      7.62444684E+02     -2.10217134E+02     -2.80668747E+02
      1.00347044E+03     -2.19143703E+02      1.95791903E+03
      1.40955718E+03     -6.24592304E+02     -1.10074329E+02
     -6.17122500E+02      8.46294726E+02     -1.91393512E+03
     -1.17656208E+03      1.22466699E+03      1.04582846E+02
     -3.14188573E+02      7.98205738E+02     -8.52853757E+02
     -5.68064907E+02      7.06319445E+02     -1.38341938E+03
      6.05498225E+02      7.40659566E+02     -6.84778065E+02
     -9.53565526E+01     -4.52234682E+02     -4.75953347E+02
      1.35519612E+03      2.09520128E+03     -5.87215428E+02
      1.03872827E+02      2.68277445E+03     -2.18988174E+03
      8.29731206E+02     -3.66036736E+02     -5.44631881E+02
     -2.53691833E+02     -1.00276430E+03      1.10528959E+03
      7.48867677E+00      8.62480407E+02      3.15574521E+01
      1.04031173E+02     -2.19684393E+02      5.52688057E+01
      5.24354641E+02     -1.33182463E+03      1.00112215E+03
     -1.22886205E+03      1.43391941E+03      2.34529369E+03
      4.08613299E+01      7.01288661E+02     -8.14955651E+01
     -5.10871057E+02     -6.13083164E+01     -1.27139183E+03
      9.67617982E+02     -2.81353715E+03     -2.36733983E+03
     -1.83649637E+02     -7.53787541E+02     -5.63590913E+02
      3.23775715E+02     -1.51080203E+03     -2.43669861E+03
      1.31640664E+03      2.32883160E+02      3.47619713E+03
     -7.36177012E+02     -1.81335153E+02      3.67129584E+02
     -8.25265409E+02     -7.48225102E+02     -1.75652238E+02
     -8.83002011E+02      1.96679748E+03      2.56021367E+02
      4.95071911E+02     -1.41221442E+02      6.02656135E+01
     -1.49669364E+03     -1.80053096E+03     -1.54966238E+03
      2.89035280E+03     -8.83751695E+02      9.62278148E+02
     -1.06458344E+03     -1.72815305E+03      9.23429441E+02
      1.05850056E+02     -1.89934242E+02      1.24474591E+02
     -3.36593954E+02     -1.54144398E+03      8.71808327E+02
      2.71842957E+03      1.56394820E+03      2.82093004E+03
      1.09511402E+02      4.77341296E+02     -7.54309191E+02
      2.52436469E+02      2.95718915E+02      1.16828163E+02
      1.14707064E+02     -2.15061398E+03      5.72696204E+02
     -1.43198494E+03      3.61072208E+03      1.51798899E+03
     -1.34759010E+02      1.91237434E+01     -8.77532180E+01
     -1.07521837E+02      2.06782144E+03      4.62895637E+01
     -1.23240345E+03     -7.64161577E+02      1.89178770E+03
     -5.94701864E+02     -1.34080545E+02     -1.17293468E+02
     -8.52078822E+02      2.10903028E+03     -7.91337341E+02
     -8.18704111E+02     -1.00976056E+02     -1.00926817E+03
      2.31373860E+02     -5.57679818E+02     -4.19708830E+02
      3.10732471E+03      1.11269994E+03     -1.30265908E+03
     -7.15645066E+02      2.03418253E+03      1.84426971E+02
      8.79744626E+01      8.17151671E+01      5.52784723E+01
     -1.35542475E+03      8.78869665E+02      1.00281094E+03
     -1.52463385E+03     -1.62817475E+02      2.62925258E+03
      6.27462738E+02      4.58227908E+02     -7.51822400E+02
     -3.55173263E+02     -1.98451142E+03      1.67761238E+03
      4.02567977E+03      3.12263560E+02      1.28272734E+03
     -2.62156804E+01      3.69977778E+02     -2.38274467E+02
     -1.66178388E+03     -3.79486021E+02      1.31328267E+03
      2.03606118E+03      1.26070260E+03     -7.15602274E+02
     -1.18127817E+01     -6.39921363E+01     -2.41674671E+02
     -5.40363710E+01      1.21087173E+03     -1.00198571E+03
      9.90035973E+02      1.62646391E+03     -5.83975876E+02
     -4.72387988E+02     -7.42167426E+02     -2.72400794E+02
      5.91398361E+02      1.78990407E+03     -2.89267355E+03
      2.10306265E+03     -3.07342947E+02      3.36716931E+03
      3.43313258E+02     -7.17781064E+02      1.83196393E+03
      7.72624086E+02     -2.37591394E+02     -2.93135366E+02
      9.50630535E+02     -1.25657374E+03      1.55581184E+03
     -1.01524801E+03      2.74858704E+03     -1.32569622E+03
     -2.72577582E+03      1.92474054E+03      1.69370613E+03
      4.74901141E+02     -4.43992336E+01     -1.15683809E+03
      2.96668438E+03      8.98374099E+02      4.92514715E+02
     -3.01344317E+03      7.08561308E+02      2.69504264E+03
      4.14245539E+02      3.38877476E+02      5.34981276E+02
      1.06927747E+03      3.10834114E+02      1.84165545E+03
     -2.77980172E+02      1.92092165E+03     -8.97221532E+00
      9.81587775E+01      5.65356328E+02      5.21427411E+02
     -1.63566364E+03     -1.94259797E+03      1.15290724E+02
     -1.12449610E+02      2.26004867E+02      1.24808124E+03
      6.72264758E+02     -3.89059549E+02      2.35151069E+02
      2.74074884E+03      2.89897176E+03      1.71955046E+02
     -1.08350268E+03     -5.52387027E+03     -1.14069261E+03
      9.72239755E+02      9.54170844E+02      6.00596844E+02
      1.19207098E+03     -2.10999076E+03      1.36246530E+02
     -1.52806348E+03     -1.66928154E+03     -3.37172377E+03
      7.01618887E+02     -3.62971428E+02     -5.39011728E+02
     -1.06015045E+03      1.44242542E+03     -1.24418568E+03
      1.61710295E+03     -2.85359892E+03      1.86446542E+03
      5.47650277E+02      4.62695895E+01     -2.31340816E+02
      1.03582474E+03     -1.78964003E+03      5.11406537E+02
     -1.10740653E+03      1.37562938E+03     -1.19798166E+03
     -6.60972627E+01      7.09625518E+02     -4.76042334E+02
     -1.73852203E+03     -1.54081935E+03      5.10964694E+02
      1.56746046E+03     -1.04586081E+03      1.23459031E+02
      6.42598248E+02     -3.30594250E+01      7.50244235E+02
      2.42345330E+02      8.59308314E+02     -1.07210117E+03
     -1.27273900E+03     -3.85842251E+01      6.91400177E+01
     -1.89176087E+02      5.59745919E+01     -1.18475532E+03
     -2.66411897E+02      6.68641449E+02      1.67800635E+02
     -1.73512348E+03     -3.14068534E+03      9.23820838E+02
     -3.23728575E+02      1.10988885E+03     -7.14561084E+02
     -2.71815657E+03      2.69785352E+02     -1.63841147E+03
      6.03489237E+02      2.85438436E+02     -1.60436395E+02
     -1.98130526E+03     -2.21650829E+03      2.24970238E+03
     -1.64351726E+03      1.12621391E+03      1.63412653E+03
      6.50857783E+02      2.34100072E+02     -2.45034978E+02
      2.16595196E+03      2.29552940E+03     -2.51901914E+03
     -1.12567938E+03      6.80106107E+02     -9.19537912E+02
      2.00751418E+02      3.60723491E+02     -9.67916239E+02
     -1.76315122E+02      7.60639796E+02     -7.53100591E+02
     -1.88891728E+03      1.02830467E+02      2.95592596E+02
      1.15043716E+03      2.53669736E+02     -3.58193145E+02
      1.26458643E+03      1.77944091E+03     -1.68928115E+03
      3.42542756E+03      1.70256187E+03     -2.07907333E+01
      1.54608351E+02     -6.08795038E+01     -5.43273981E+02
      1.26622867E+03     -1.35304000E+03      9.77298694E+02
     -8.55472904E+02      6.20053064E+02     -2.95912518E+02
      2.11425456E+02      8.09418435E+01     -1.85830570E+02
     -4.87895220E+02     -2.93155850E+03     -8.25739163E+02
      7.48069488E+02     -1.14969081E+03      7.10256504E+01
     -4.68270957E+02     -1.25215178E+03     -3.71517624E+02
      1.02585629E+03     -4.21020784E+02     -1.00434368E+03
     -1.94905791E+03      5.73656595E+02     -1.92394056E+03
      2.25680464E+02      2.30180652E+02      1.65180408E+02
      3.65154666E+02     -1.39408071E+03      1.69392634E+03
      6.55293114E+02      3.49210128E+02      3.00428482E+03
     -5.55443091E+02     -1.05662044E+02     -5.87998831E+02
     -1.69925091E+03     -7.75136718E+02     -1.00428368E+03
      3.16453593E+02     -3.70406102E+03      8.59922363E+02
     -2.54132385E+03     -2.94152550E+03      1.82650500E+03
     -2.10263157E+02      1.61866948E+01      1.24532251E+02
      9.99716534E+02      2.37908550E+03      1.46155455E+03
      8.87951057E+02     -3.12722025E+02      1.09450144E+02
     -2.17189091E+03      2.70485205E+02     -1.82033868E+02
      8.60324275E+02     -3.83210334E+02     -5.35485259E+01
      1.04180719E+03      8.73322501E+02     -6.62065216E+02
      1.30449484E+03     -3.85203776E+02     -4.20731622E+03
      6.89143008E+02      2.92226447E+02     -1.32436809E+02
      1.93633069E+03      1.10611995E+03     -1.87880666E+03
     -6.72776945E+02      2.18113311E+02      1.08845865E+02
     -1.20280929E+02      5.37304683E+02      4.60491217E+02
      1.22154909E+03     -2.00964599E+03     -1.47276117E+03
      1.11698590E+02     -6.81964403E+02      3.60604899E+02
      1.04973951E+03      2.72650451E+02     -2.93485403E+01
     -1.96254310E+02     -4.58014660E+02     -1.78617194E+03
      1.26647274E+03     -6.05571798E+01      4.62875185E+02
      4.27672940E+02      5.89184562E+02      7.00549924E+01
      5.88210720E+02     -1.97097387E+03     -1.64719153E+03
     -4.77243775E+02     -4.88957999E+02      1.29724269E+03
      1.95524446E+02      7.37175369E+01     -7.97012982E+02
      4.02403068E+02     -1.11585240E+03      6.74713125E+02
     -1.54342715E+03      1.69838912E+03      2.36901341E+03
      1.25562626E+03     -2.66033354E+02     -7.02300763E+02
      1.14947798E+02      2.96600469E+02      8.43445118E+02
     -1.17229660E+03      1.21112579E+03     -3.67096942E+03
      1.17060664E+02     -3.95267686E+00     -1.58019112E+03
     -4.19925238E+02      1.73081766E+03      4.47378952E+02
      8.55209133E+00      1.34252139E+03      6.50264351E+02
      9.99522574E+02      2.42904385E+02     -3.81036139E+02
      1.75223385E+02      4.90971763E+03     -1.29097748E+03
     -1.33624615E+03     -1.85227244E+03      1.21117309E+03
     -8.05978647E+02      2.94114356E+03      7.13013894E+02
      2.89155927E+01      7.05315047E+02      2.13377395E+02
      1.06939043E+03      2.03633541E+03      2.22856827E+03
     -7.88636267E+02      9.94270024E+02      4.45416650E+02
      9.17655084E+02      1.00425066E+02     -2.33425052E+03
     -2.15122130E+02      7.40947133E+01     -1.02324061E+02
      2.66476947E+03     -4.17018262E+02      1.47223741E+03
      1.98760296E+03     -1.93298091E+02     -1.40354685E+03
      2.16383131E+02      8.16111848E+02      3.50560775E+02
      1.20617607E+03      5.83754139E+02     -1.93102169E+03
      1.37646760E+03     -1.38247408E+03     -4.85205250E+03
     -9.17989587E+01      5.57324850E+02      4.25911930E+02
      5.82977224E+02      7.79428350E+02      5.44515021E+02
     -1.16084168E+03      2.47873047E+03      1.40607781E+03
      6.98692277E+02      1.99217110E+02     -5.70518815E+02
      1.94712143E+03      8.71515857E+02      3.10199976E+02
      7.07498623E+02      3.66234524E+02      8.91311787E+02
     -8.79830913E+02      7.59917640E+02     -6.81235425E+02
     -3.00076870E+03     -1.26012190E+03     -1.40873501E+03
      2.38681988E+03     -1.11573823E+02      4.89619182E+02
      1.68262424E+02     -1.72344069E+02      2.92044463E+02
      1.96435764E+02     -1.10249337E+03      1.37795856E+03
     -1.46616775E+03      1.91967525E+03     -5.58042257E+02
     -4.76507456E+01      2.21240654E+02     -4.49495553E+02
      6.60396557E+02     -2.68916833E+03      4.05030816E+02
     -1.22372840E+03     -3.87573928E+02     -2.15750212E+03
      5.24797777E+02     -1.30663980E+02     -2.34891857E+02
      3.46832411E+03     -3.12453366E+03      1.34145579E+03
     -1.59946066E+02     -1.29320440E+03     -1.41187809E+03
      4.67671487E+02      8.69367542E+01     -4.58842374E+02
      9.38937227E+01      6.66594467E+02      3.52409701E+02
      7.00334795E+01     -1.67860592E+03     -3.07075463E+03
     -1.19627883E+03      3.53043664E+03      2.89725067E+03
      5.45213405E+01      3.07511715E+02      1.36345547E+02
      2.39778741E+03      1.35460734E+03     -3.02600980E+02
      4.30556329E+01      1.45245828E+03     -2.89528641E+02
      9.86333925E+02      7.72817953E+02      2.39049153E+03
      9.91508870E+02     -6.76149333E+02      1.63809508E+02
      8.48027474E+02      9.42552474E+02      8.08056345E+01
     -1.47978237E+03     -1.63349002E+03     -3.74708815E+01
     -1.05278435E+02     -1.61905801E+02     -3.59642138E+02
     -1.17031873E+03     -5.75264657E+01      2.29061917E+03
     -1.74837374E+03      2.05245625E+03      5.32731045E+02
      1.44489400E+02     -4.16787326E+02     -1.24851658E+03
     -4.89220708E+02     -8.11447655E+02     -2.88723080E+03
      2.76830101E+03     -1.29880134E+03      4.74800772E+02
      1.02698699E+03     -8.22861733E+01      2.29448810E+02
     -8.20199094E+02      7.08074943E+02      2.15821065E+02
      1.59493782E+03      8.93615506E+02      1.49948378E+02
     -1.04875632E+02     -3.70257642E+01     -2.50760675E+02
     -7.54225884E+01     -1.73336783E+03     -1.10827084E+03
     -6.06871963E+02     -3.56262263E+03      4.12941997E+02
     -1.64772282E+02     -4.30260146E+02     -7.13704851E+02
     -1.90400239E+02     -1.65813814E+03      1.01237051E+03
     -7.35238770E+02      2.36501114E+03     -2.00216637E+03
      1.03213752E+03      5.01315353E+02     -1.06092180E+03
      6.41669818E+02      1.95574957E+03     -2.49145714E+02
     -4.07646121E+03     -3.33333289E+03      4.13532219E+03
      4.68485038E+02      1.39248210E+02      5.22631890E+02
     -3.35408805E+03      8.90964318E+02     -4.04361958E+02
      9.83638524E+02      2.20630082E+03      7.13050071E+02
      1.18411088E+02      5.72761282E+02      1.07007533E+02
     -1.16965172E+03      2.59193340E+03      1.83755646E+02
     -6.92210262E+02     -2.89963152E+02     -8.73266587E+02
      1.23456345E+03      7.70247579E+02     -1.32679522E+03
      4.87639060E+02      4.91385030E+02     -2.23293469E+02
      2.27696783E+02     -4.75449929E+02      4.83776296E+02
      1.23267753E+03     -2.56449220E+02      2.81264227E+03
      2.42532392E+02      1.63062852E+03      1.86758053E+03
  }
}

Hamiltonian = DFTB {
  SCC = Yes
  SCCTolerance = 1e-6
  MaxSCCIterations = 200
  ForceEvaluation = Dynamics
  MaxAngularMomentum = {
    C = "p"
    H = "s"
  }
  Charge = 0.0
  SpinPolarisation = {}
  Eigensolver = Standard {}
  Filling = Fermi {
    Temperature [Kelvin] = 300.0
  }
  SlaterKosterFiles = Type2FileNames {
    Prefix = "../../pbc-0-3/"
    Separator = "-"
    Suffix = ".skf"
    LowerCaseTypeName = No
  }
  KPointsAndWeights = {
    0.0000000000000 0.0000000000000 0.0000000000000 1.00000000000000
  }
  Dispersion = LennardJones { 
    Parameters = UFFParameters {}
  }
}

ParserOptions = {
  ParserVersion = 3
}
