Geometry = GenFormat {
<<< "system.gen"
}

Driver = VelocityVerlet{
  Steps = 100000
  TimeStep [fs] = 0.2
  MDRestartFrequency = 5
  Thermostat = None {
    #InitialTemperature [Kelvin] = 300.0
  }
  Xlbomd{ 
    IntegrationSteps = 6 
    MinSccIterations = 2
    MaxSccIterations = 200
    SccTolerance = 1e-6 
  }
  Velocities [m/s] {
     -5.87066781E+02      3.08371815E+02     -2.20992241E+02
     -1.66626639E+03      5.51589035E+02     -6.32333790E+01
      1.87441656E+03      3.04281078E+03     -1.50528886E+02
      6.96465071E+02     -5.30041982E+01     -6.50378557E+02
      1.31963094E+03     -7.13678912E+02     -1.37909359E+03
      9.47821998E+02      1.20723150E+03      2.45216749E+02
     -1.13659463E+02     -3.84877750E+02     -1.48265676E+02
     -1.16257358E+03      1.57128371E+03     -7.65139379E+02
      1.79147402E+03     -1.71329545E+03     -2.44623076E+03
     -3.43530238E+02     -1.90685585E+02      7.89463005E+02
     -2.73391745E+03      2.66177892E+03     -5.22614141E+02
      7.10327847E+02     -5.84780329E+02      1.10934852E+03
      6.78892033E+02     -3.07292616E+02     -1.08332353E+02
      1.26235479E+03      1.27160948E+02     -5.10980038E+02
      1.48696757E+03      1.51995591E+03     -1.47348666E+03
      3.79282473E+02      3.02562842E+02     -5.81706913E+01
     -1.72838832E+03      9.44913902E+02     -2.35792264E+03
     -1.20415521E+03      1.52136906E+03     -3.52705188E+03
      5.43698353E+02      4.04538295E+01      1.52662398E+02
     -1.74059250E+03      3.13632938E+02     -1.99364432E+02
      1.98666526E+03      1.58689043E+03      1.10308364E+03
      7.90111832E+01     -8.91307581E+02      1.70407641E+02
      1.20221016E+02     -1.38247316E+03     -3.27737302E+03
     -4.19555368E+03     -1.19792896E+03     -7.42602652E+02
     -5.83142773E+02     -2.79061993E+02      2.35019749E+02
      1.83259207E+03     -6.92831514E+02      1.59719848E+03
      1.56383424E+03     -8.78458750E+01     -2.01852891E+02
      2.14083895E+02     -5.87830352E+02      7.01969155E+01
     -5.05374249E+01     -3.54476442E+02      8.07963697E+01
     -2.14021024E+03     -2.91789879E+03     -3.38262382E+03
     -1.78732352E+02     -7.42761920E+02      1.36921606E+03
      2.70447677E+03     -7.57749903E+02      1.93222769E+03
      5.13985183E+01      8.06810313E+02      2.44097831E+02
     -2.18634276E+02     -1.77071133E+03      3.50070826E+03
      1.55187425E+03      6.37410745E+02     -1.16297094E+03
      5.12585983E+02      5.14768885E+02      5.26561579E+01
      1.33334848E+03     -8.44038999E+01      8.25075204E+02
     -3.38250731E+03      3.58796180E+03      5.89098241E+02
     -6.14365828E+01     -2.42781437E+02     -4.30271464E+02
      1.43791474E+03     -1.43181206E+03      9.77962257E+02
      1.51152915E+03      6.75356056E+02     -4.62945670E+02
      4.55053897E+02      2.07965718E+02     -5.40837060E+02
     -1.43534058E+03     -7.65337800E+02      5.39028444E+01
      1.54036471E+03      9.67519312E+02     -5.12013748E+02
      5.73215145E+02     -3.06638498E+02      6.78538704E+02
     -8.41497440E+02     -1.59269400E+03     -2.26874562E+02
      1.57009863E+02      8.34806521E+02      2.95680496E+03
      7.09159168E+02      4.90982145E+02      7.32976959E+02
     -1.80117392E+03      1.54325928E+03      4.13061268E+02
     -7.78878341E+02     -7.20439176E+02      1.00384452E+02
      3.66832418E+02     -2.36501108E+02     -6.66904254E+01
      7.00701864E+02      2.43778556E+03      2.01747451E+02
      2.24735801E+03      8.97924918E+02     -1.14752935E+03
      2.64840406E+02     -1.84428872E+02     -6.82364293E+01
     -6.49395084E+02     -1.04397991E+03     -5.04024848E+02
     -2.30503932E+03      2.05696938E+03      2.11574720E+02
     -7.64356691E+02      1.44342732E+01      4.58595740E+02
      4.54984758E+02      5.55080813E+02     -7.27068287E+02
      1.28530582E+03     -2.63358643E+02      2.64577027E+02
     -2.67935000E+03      1.06182828E+03      1.79517308E+03
      6.77496623E+02      2.66313715E+02      3.95138343E+02
     -7.57695810E+02     -1.67567998E+03      2.01886330E+03
      1.16029614E+03     -1.89626354E+03     -2.89882379E+03
      2.04486622E+03      2.53326277E+02      1.42046217E+03
     -1.65180160E+02      3.23252986E+02      7.47953139E+01
     -1.12689150E+02      7.40686601E+02     -9.50718146E+00
     -3.06914538E+02     -3.07063995E+02      9.66457811E+02
     -9.32369075E+01     -5.36420328E+02      2.30530748E+02
      8.17483700E+02     -6.33798984E+02     -3.11525894E+02
      7.40612149E+02     -1.00682290E+03     -2.44384995E+03
      8.01616415E+02     -1.19151099E+02      9.73407501E+01
      1.44163880E+03      8.04008007E+02      1.15027532E+03
     -1.47109408E+03      9.62051928E+02     -9.39350863E+02
      5.46301213E+02      2.71553591E+01     -2.52679224E+02
      1.72701625E+02      1.18149769E+03      6.89531980E+02
      1.20923270E+03     -2.89784501E+03     -1.95475910E+02
      1.54759201E+02     -4.66134373E+02      1.33057587E+03
     -1.00948305E+03      1.32032424E+03      7.43227800E+02
      8.94980099E+02     -3.53410811E+02      1.24075019E+03
      1.26396743E+02     -5.71582141E+02      3.70312125E+02
     -1.51485036E+03     -1.16046319E+03      9.86742742E+02
      8.47451870E+02     -4.11470438E+02      3.43840777E+03
     -4.10052177E+02     -3.19907088E+02     -6.08436843E+02
     -8.29409255E+02     -2.02456093E+02     -1.70403561E+03
     -3.58067611E+03      1.28668208E+03      1.05090584E+03
      1.05307124E+03      3.85554229E+02     -1.45190489E+02
      2.20827472E+02     -1.13820112E+03      5.60085532E+02
      4.94875595E+02      1.39848143E+03      1.19187204E+03
     -3.02441647E+02     -9.46224637E-01     -7.66186677E+00
      2.30682590E+03     -1.27935717E+03     -1.06217150E+03
     -1.41129244E+03     -7.95717500E+02     -3.30369367E+03
     -2.97767535E+03     -3.97664099E+02      1.31161128E+03
     -1.42603674E+02     -4.89181324E+01      2.18677201E+02
      2.10833322E+03      2.70569252E+03     -1.37204626E+03
      1.40219920E+03     -1.78308287E+03      3.46446345E+03
     -7.07011879E+02      5.02402105E+02     -9.10558709E+02
     -6.15260343E+00      1.13678527E+03     -4.95979225E+01
      1.45709580E+03      2.04736896E+01      2.31499393E+03
     -4.47770384E+02     -6.99684123E+02     -2.00487406E+03
      2.29254006E+02      1.04024885E+02      2.93064963E+01
     -2.54739878E+03      2.00497098E+03      5.12291500E+02
      7.69634575E+02      1.61298072E+02      1.60618309E+02
      2.11738138E+01      2.56860784E+02     -2.56601565E+02
      4.97601274E+02      3.73686870E+03     -1.50833946E+02
     -1.69968089E+03      1.50691699E+03      4.45459111E+03
      9.86272435E+02      1.81409616E+02      1.06853663E+02
      1.34937040E+02     -6.28760752E+02     -5.40958832E+02
     -1.55043107E+03     -4.27561964E+02     -9.01189014E+02
      8.02519451E+02     -2.80001859E+02      1.86991426E+02
     -7.82688516E+02     -7.33015873E+02      1.77220986E+03
     -2.70135514E+03     -1.46713304E+03     -2.26316462E+03
     -2.23119901E+02     -5.01410462E+02     -3.63697900E+01
      7.62353225E+02     -8.21870532E+02     -2.51485804E+03
      4.79978337E+02      2.48597118E+03      3.12429228E+02
      5.49180564E+02      4.49253773E+02      2.89723612E+02
      4.97085712E+02      1.90087579E+03      1.99693563E+02
     -8.22918197E+02      1.53576150E+03      2.63346879E+02
     -1.37170770E+02     -5.97361819E+02     -7.21531860E+02
      9.53380759E+02      1.18073937E+03      9.47461511E+02
     -8.58564263E+02     -1.28046815E+03      7.40524322E+02
     -4.13092183E+01     -5.35600807E+01      7.39698744E+02
      1.99800005E+03     -2.49845022E+03      2.16356236E+03
     -1.30640307E+03     -2.83897833E-01      7.70587397E+02
     -3.05522783E+03     -1.24014167E+03     -8.55044865E+01
     -2.80247978E+01     -2.79871545E+02     -1.48701593E+01
      4.71165051E+02     -2.77904867E+03     -2.56889369E+03
      6.05592192E+02      3.99635491E+03     -3.32553335E+02
     -3.14585413E+02     -3.01232087E+02      9.25027111E+02
     -7.15239824E+01      5.72909391E+01      7.55289658E+02
      1.44292881E+03      2.89507211E+02     -2.15971656E+03
      1.79647693E+03     -5.15872053E+02      1.97353108E+03
      1.01898603E+03      9.06418613E+01     -2.58483378E+02
     -2.25748554E+02     -1.52481176E+03      6.00827638E+01
      1.49192393E+03     -6.78285528E+02      2.92795260E+03
     -8.33377409E+02     -5.75442209E+02      6.06859578E+02
      8.20493527E+02      9.94827568E+02     -1.60777090E+03
      3.68948084E+02      2.01727271E+03      1.42526737E+03
      1.55874804E+02     -7.19665235E+02      1.10779253E+02
      3.67288819E+03     -3.18062809E+02      2.37215891E+03
     -1.99450406E+03     -3.19277888E+03      1.33644087E+03
     -1.38245961E+02     -1.32640746E+02      5.14108417E+01
      9.11376549E+02     -8.56401722E+02      2.06217550E+03
      1.82032741E+02      2.96135381E+03      1.69041176E+02
     -8.67429734E+01     -7.89901421E+01      7.80259429E+02
     -5.13683158E+02     -7.32050101E+01     -9.58016026E+01
      6.85824672E+02      1.02165547E+03      2.83789937E+03
      4.15384290E+02     -4.20871196E+02      5.01637994E+02
      3.09118758E+02     -1.07552373E+03     -8.77453021E+02
     -3.78736132E+02      3.12944040E+02      1.99620351E+03
      2.51934374E+02     -5.82048495E+02     -1.17152935E+01
     -2.24328658E+03      2.38126209E+02      6.02573414E+02
      1.24332375E+03     -2.86274603E+02      1.22323702E+03
      4.26654261E+02      7.86822286E+01      1.01135427E+01
      2.87660450E+03     -2.70587818E+03     -1.13998630E+03
     -1.38345036E+03     -5.00906885E+02     -6.72392277E+02
     -1.90221200E+03     -8.19849996E+02      8.48371139E+02
      2.72743115E+01      1.95589303E+02      1.90399605E+02
     -1.02581960E+03      1.16730271E+03     -8.24655613E+02
     -5.97508402E+02     -7.57064756E+02      1.92735608E+03
      5.49995489E+02      7.28998119E+02      2.06268099E+03
      4.73593395E+02      3.18809145E+02     -8.04352862E+02
      9.53886407E+02      1.50330398E+03     -1.09085469E+03
      9.51078761E+01     -1.38475551E+03     -1.09686169E+03
     -3.42964059E+02     -2.64867947E+02      1.04134483E+03
      2.49508305E+03     -2.18554808E+02     -1.92559585E+03
     -7.36079127E+02      1.71982686E+02     -1.28414021E+03
     -2.16582174E+02     -4.97722055E+02      3.27441232E+02
     -1.14568080E+03      2.23219436E+03      5.34402353E+02
      1.46925099E+02      2.46602775E+03     -2.67706203E+02
     -8.04909669E+02     -5.96765733E+02      1.75623157E+02
      1.39042713E+03     -2.70081528E+03     -1.95116461E+03
     -1.35506269E+03     -1.60763500E+03     -2.56779815E+03
     -1.42356473E+02     -7.10459272E+01      1.14316092E+02
      5.26853451E+02      6.21562704E+02      6.08345630E+02
     -2.06250525E+03     -8.84716068E+02      8.65927819E+02
      8.42361479E+01      7.16720897E+01      3.15255272E+02
     -1.18759996E+03      5.64174666E+02     -1.51188226E+03
      3.00773755E+02      1.71180051E+03      4.29234164E+02
      1.01228408E+02      7.30360432E+01      1.06849507E+02
     -7.25393918E+02     -2.63486525E+02      1.12593516E+03
      2.26176993E+03     -1.80327517E+03      1.87069785E+03
      7.65308294E+02      6.24932780E+01      8.07721270E+02
     -4.84712773E+02     -1.19207555E+03      6.40717338E+02
      3.23427990E+03      1.45564382E+03      2.67500573E+02
     -4.01826850E+02     -9.43286673E+00      1.20973932E+02
     -4.37743517E+02     -1.19237716E+03     -2.23230452E+03
      1.14101135E+03      6.00553607E+01      7.29472852E+02
     -1.55293032E+03     -2.36968668E+03     -1.54064044E+03
      5.70329749E+02      1.48760244E+02      1.13363453E+03
      2.30817396E+02     -2.27004044E+02     -2.62384584E+03
     -1.87488932E+03     -1.75894422E+03     -1.36744131E+03
      2.82808832E+03     -2.02179755E+03     -1.71811051E+03
     -7.06165307E+01     -6.69888118E+02      4.74397609E+02
      2.07689372E+02      1.22289284E+03      4.34828283E+02
     -4.90476712E+02     -3.13526320E+03     -2.35149396E+03
      3.41370747E+02      2.94513121E+02     -4.86235228E+02
      1.64021912E+03      1.98085083E+03     -3.20740489E+03
     -1.54563061E+03     -3.54892958E+02     -1.35218969E+00
     -1.21432651E+03      1.24853677E+02      1.32811368E+03
      4.78720631E+02     -1.18793558E+03      2.96018762E+02
      2.57444551E+03      8.86310453E+02     -6.37026067E+02
     -5.79469512E+01      3.08661867E+02      2.30295384E+02
      9.89955345E+02     -6.12709209E+02     -1.21444223E+03
      2.22580551E+03      9.12427959E+01      2.25178581E+03
      2.84943818E+02     -4.38190034E+02     -5.12570130E+02
     -1.35978691E+03      2.56294966E+03      1.92010059E+02
     -6.65579784E+02      9.07546004E+02     -2.72685118E+02
      1.75256875E+02      3.13092501E+01     -1.01087384E+02
      1.73777243E+02     -3.33897294E+01     -1.15731953E+03
     -1.37749943E+03     -8.73791385E+02     -1.16220647E+03
     -1.74668036E+02      1.61859750E+02      8.89704655E+02
      2.64888290E+03     -1.77855302E+03     -1.44538904E+03
      1.51674981E+03      3.56408148E+02     -1.26213138E+03
      1.10698432E+03      1.83682969E+02      6.27628107E+02
      3.12334861E+01      2.01916680E+03     -1.73715059E+03
     -1.02763083E+03      2.98633405E+03      1.33522598E+03
      3.76217651E+02     -2.89995830E+02     -2.13743838E+01
      1.70284350E+03      1.92844361E+03      5.10402790E+02
      2.51920991E+03     -3.52048176E+01      3.21936710E+02
     -2.43607080E+02      2.73369458E+02      1.68746153E+02
      4.84760779E+02     -2.09987355E+02     -1.00978021E+03
     -1.94324040E+03      2.94638708E+02      1.03414321E+03
     -1.61237227E+03      2.26454005E+03      3.11251218E+03
     -2.46066261E+03      1.04437024E+03     -3.88812784E+02
      8.33122713E+02     -4.83209658E+02     -6.71092179E+02
      1.79702507E+03      6.81261452E+02     -1.75700766E+03
      1.24499077E+03     -2.45994772E+03     -1.94129775E+03
      4.98188076E+02     -4.07528628E+02     -2.54201618E+02
     -6.75039523E+02     -2.74163148E+03     -6.12645511E+02
     -1.69515883E+02     -1.21779229E+03     -2.46690301E+03
     -4.95056273E+01      2.12301724E+02     -4.94837175E+02
      1.25491864E+03     -1.80550685E+03     -3.48886224E+03
     -1.57709337E+03     -3.47981745E+03      2.48467544E+03
     -8.16040702E+02      5.93363780E+01     -1.56337906E+02
     -2.65485851E+03     -1.60590898E+03      3.54967203E+02
     -2.12801828E+03      1.46027695E+03     -4.57798742E+03
     -8.14918247E+01      6.01317532E+02      2.20066641E+02
      1.18450757E+02      2.20826830E+03     -2.38564641E+03
     -2.18793578E+03     -4.35413697E+02     -1.02257751E+03
      3.70984161E+02     -4.87094926E+02     -6.82409185E+02
     -8.57809768E+02      1.31368310E+03     -1.93380878E+02
     -7.02633870E+02      1.05448845E+03     -9.00708055E+02
     -2.97020776E+02      4.71357820E+02     -4.74649922E+01
     -2.14266276E+02      4.03053773E+02      4.67273979E+02
     -1.21346898E+03     -2.25038676E+03     -2.08541335E+03
     -3.75898328E+02      3.96803439E+02     -9.20942478E+01
     -2.04631087E+03      1.12259796E+03      1.35878196E+03
      6.29249957E+02     -7.12987394E+02      7.61795977E+02
      8.32137676E+01      5.40014117E+02     -2.25496846E+02
      1.01595915E+03     -3.77113364E+02     -7.21231607E+02
     -7.59699640E+01     -1.13263062E+03     -5.23507604E+03
      2.55000118E+02      1.04605041E+03      7.72494132E+02
      2.11789812E+02      1.14634388E+02      1.54833340E+02
      6.71157543E+02     -1.65104186E+03      1.60923121E+02
     -3.33900384E+03     -1.53310093E+03     -7.83847960E+02
      2.00710621E+03      1.39323262E+03     -6.21648005E+02
      6.89180588E+02      5.67515578E+02     -4.14385227E+02
      3.09730743E+02     -2.57118165E+03     -3.77376771E+02
      1.62711405E+03     -1.40094983E+03     -1.27530970E+03
     -1.34788376E+04      2.23753817E+03     -1.14680535E+04
      1.38804629E+03      3.15801727E+03      8.97143390E+02
      1.30225898E+03      2.42107259E+02     -2.00338405E+02
     -2.29678798E+02      1.52878192E+02     -1.82197237E+02
     -2.16873117E+03      2.21181358E+03     -3.74682957E+03
      4.24778716E+01     -1.65466503E+03     -2.76653565E+02
      5.98861745E+02     -3.60413977E+02      5.69955134E+02
      2.39293608E+02      2.65853020E+03     -1.68428919E+02
      2.41550222E+03      4.37371215E+03      1.77000880E+03
     -3.21466038E+02      1.97715291E+02      1.98145881E+02
      2.40083352E+01      1.23811993E+02      7.61505770E+02
     -2.85686009E+02     -5.56973050E+02      1.70632891E+03
      1.98925768E+02      5.40214346E+02     -4.91664415E+02
      8.27894188E+02      2.21493567E+03      1.60786695E+03
      7.06455275E+02     -3.62326066E+03      1.14461421E+03
      9.07146415E+02      3.41386148E+02      1.91418794E+02
     -7.68258083E+01      5.61808758E+02     -8.00723688E+02
      9.84701565E+02      1.33190005E+03     -1.76585414E+02
      1.42552912E+02      3.57516789E+02      9.55479198E+02
     -3.11873832E+03      1.03175420E+03     -2.12372644E+03
      1.93274984E+03     -4.82165516E+02      5.68455837E+02
      1.26181514E+02     -4.46186904E+01     -6.87159738E+02
     -7.48854598E+02      1.95306966E+02     -1.02843072E+02
      7.00658019E+02      1.85655405E+03      1.63222218E+03
     -9.70897060E+02      6.63492152E+02     -3.36858911E+02
      4.11636039E+02      3.47097718E+02     -1.21071635E+02
      2.74616436E+02      1.22694205E+03     -2.66904883E+03
     -2.51332355E+03     -3.75299108E+02      2.07797244E+03
      3.82252703E+02     -2.46216126E+03     -1.67250019E+03
      1.52653085E+02     -1.92835910E+02     -3.89926592E+02
     -5.52169090E+02     -6.37985316E+02     -1.08771432E+03
      8.66855444E+02      7.72823812E+02     -3.58352251E+01
     -1.78002251E+02      1.75958213E+02     -1.21937822E-01
      3.59917301E+02      5.04110735E+03      2.34989708E+02
      4.85780286E+03     -2.80781275E+03     -1.64142577E+02
     -5.38680222E+02     -5.31383798E+02      9.92033178E+01
     -2.23526824E+03      1.04992058E+03     -1.35040135E+03
     -4.71481956E+02     -8.63525055E+02     -5.39743813E+02
      2.62459402E+02     -3.26784523E+02      4.27018033E+02
      1.34343359E+03     -1.27945256E+03      6.95761252E+02
      1.90864204E+03     -6.42450717E+02      1.93120753E+03
     -3.48726599E+02     -5.46051447E+02      2.66058261E+02
      3.88464717E+02     -1.73433042E+03      1.24683979E+03
     -1.77886172E+03      8.99716673E+02     -1.63686523E+03
     -9.94702434E+01      6.33729574E+01      3.62640111E+02
     -1.78387971E+03     -2.51248430E+03      2.49140613E+02
     -1.31890678E+03     -2.29275665E+03     -1.69718987E+03
      1.27943463E+02     -2.97768007E+02      4.74618214E+01
      1.79448746E+03     -1.96553542E+03     -2.54178771E+02
     -2.44545309E+02      9.12866922E+02     -4.74134411E+02
      6.58366362E+02      5.25644204E+02      1.09186804E+03
     -1.90788725E+02     -1.50636466E+03     -6.77846328E+02
      1.35762479E+03      1.95114541E+03      9.34003851E+02
      3.60013889E+02     -2.47271937E+02     -3.42861585E+02
      1.08965281E+03     -1.47743193E+02     -1.65764800E+03
      1.03078976E+03     -6.70769432E+02     -7.71066082E+02
      6.82106007E+02      4.93396831E+02     -1.00676679E+03
     -2.53514979E+02     -1.59000355E+02      2.79318302E+02
     -4.43311661E+03     -2.72774203E+03     -2.06725279E+03
     -2.10182700E+03     -1.38799489E+03     -2.75931862E+03
      3.04149453E+03     -7.93904266E+02      5.14626850E+02
      5.84043612E+02     -1.06414563E+02     -2.84765557E+01
      1.26238378E+03     -3.09966598E+02     -1.54604082E+03
     -1.27532366E+03      3.24749512E+02      1.08785169E+03
      2.21967305E+02     -8.49480121E+02      2.41913391E+02
      1.99482202E+03     -7.86006623E+02      1.09353871E+03
     -6.31371511E+02      3.18696593E+03      7.45426265E+02
     -8.19056450E+02      5.11552276E+02      6.87003354E+02
     -3.88010574E+02     -2.14574319E+03      6.51108516E+02
      1.93433158E+03      1.02453080E+03      3.70805712E+03
     -4.32737125E+02     -1.02616754E+02      7.79861629E+02
     -4.48900313E+01      2.31864084E+03      2.17280139E+02
     -7.65737879E+02      1.06243027E+03      4.22382256E+02
      4.60551408E+02      7.09573561E+02      4.55203304E+02
      2.06165930E+03     -2.12481807E+03      2.44129053E+02
     -4.67614014E+02     -5.47874626E+01      4.49077730E+03
     -3.49706140E+02      1.81381818E+01     -3.61656738E+02
     -2.47807302E+03      8.31796768E+02      1.41086143E+03
     -1.26719331E+03     -4.46532180E+02      1.39136634E+03
      7.21969092E+01     -5.30274414E+02     -2.93896232E+02
      2.17742071E+03     -4.66560069E+02     -2.95193300E+03
     -1.13407123E+03     -4.13397524E+02     -1.06624331E+03
      5.50490516E+02      4.48421025E+02      7.19182260E+02
      2.04235850E+03      1.54327503E+03     -2.27459184E+03
      6.30892759E+02      9.04087130E+02     -1.63877510E+03
     -2.25966722E+02      1.04572883E+03      1.26708500E+02
      8.08789654E+02     -1.76642527E+03      2.54516991E+03
      5.68491381E+02      1.32981734E+03     -2.23097513E+01
     -3.48163641E+03      1.28446416E+01      2.45815598E+03
     -1.88239059E+01     -4.23233749E+02      4.78479273E+02
     -4.49070144E+02      2.19640615E+03      7.04720282E+02
      2.28270177E+03     -8.23519408E+02      3.19081370E+03
     -3.14112262E+02     -2.62550324E+03     -7.93029006E+02
  }
}

Hamiltonian = DFTB {
  SCC = Yes
  SCCTolerance = 1e-6
  MaxSCCIterations = 200
  ForceEvaluation = Dynamics
  MaxAngularMomentum = {
    C = "p"
    H = "s"
  }
  Charge = 0.0
  SpinPolarisation = {}
  Eigensolver = Standard {}
  Filling = Fermi {
    Temperature [Kelvin] = 300.0
  }
  SlaterKosterFiles = Type2FileNames {
    Prefix = "../../pbc-0-3/"
    Separator = "-"
    Suffix = ".skf"
    LowerCaseTypeName = No
  }
  KPointsAndWeights = {
    0.0000000000000 0.0000000000000 0.0000000000000 1.00000000000000
  }
  Dispersion = LennardJones { 
    Parameters = UFFParameters {}
  }
}

ParserOptions = {
  ParserVersion = 3
}
