Geometry = GenFormat {
<<< "system.gen"
}

Driver = VelocityVerlet{
  Steps = 50000
  TimeStep [fs] = 0.2
  MDRestartFrequency = 25
  Thermostat = None {
    #InitialTemperature [Kelvin] = 300.0
  }
  Xlbomd{ 
    IntegrationSteps = 6 
    MinSccIterations = 2
    MaxSccIterations = 200
    SccTolerance = 1e-6 
  }
  Velocities [m/s] {
     -6.62136686E+02     -1.04716690E+02      1.29650645E+02
      1.90255285E+03     -1.30378163E+03     -3.20690439E+03
      1.89724857E+03      9.91760567E+02     -2.33291958E+03
     -3.36393736E+02      2.76215273E+02     -1.62975373E+02
     -1.28935253E+02     -1.19069656E+03     -1.19761675E+02
      8.27751357E+02     -5.90184460E+02     -3.62815124E+03
     -4.81776196E-01     -6.31124391E+02      4.03621203E+02
     -1.27053862E+03      7.80047511E+02      4.84214157E+02
     -6.16366706E+02     -4.62073883E+02      1.49831128E+03
     -6.52198375E+02     -4.16163659E+02      3.51692570E+02
      1.07873887E+03     -8.00584387E+02     -1.77892141E+03
      1.86631377E+03      6.07436073E+02     -1.55295890E+02
     -1.52134898E+01     -1.04960918E+02     -3.74854016E+01
     -4.16453409E+02      2.76714027E+03      2.27539759E+03
     -9.63573378E+02      2.03598892E+03     -5.54379538E+01
     -4.53517876E+02     -1.26540581E+02      1.40633151E+02
      6.14861426E+01      1.02923211E+02     -3.57863823E+03
      1.33067221E+03     -6.83380579E+02      2.98880602E+02
      2.67769315E+02     -2.32247985E+02     -7.25490180E+01
     -9.30904780E+02      8.63969358E+02      2.60040080E+03
      2.99332580E+02     -2.93297711E+03      6.57705085E+02
     -4.46918946E+02      3.00433336E+02     -2.25515733E+02
     -7.40165069E+02     -9.49213403E+02      2.42084847E+02
      9.54372216E+01     -1.13747709E+03      7.24395433E+02
     -6.13852802E+02     -7.37723129E+01     -2.37747305E+02
      4.02655676E+03     -6.09072124E+01     -1.47942495E+03
     -2.11937345E+03     -1.16592517E+02      4.68829124E+02
      6.64091089E+02      2.81084308E+02      1.55492477E+03
     -3.83090783E+02     -4.44208676E+02      2.58696726E+02
     -1.09897992E+03     -1.26782860E+02      1.12594773E+03
      3.32880399E+03     -3.03373264E+02     -7.34683760E+02
     -4.51631515E+02      3.53123825E+01     -1.43872573E+03
      1.66193955E+01     -7.25330036E+00     -1.58116849E+02
     -1.77545311E+03     -3.72486504E+02     -1.94836113E+03
      4.80178417E+02     -4.02074402E+02     -1.02191794E+03
      3.22122243E+02      1.73815261E+02      3.04096836E+01
     -2.17136461E+03     -1.18798387E+03      2.51684233E+03
     -8.63191148E+02      6.62241315E+02      2.41566746E+03
     -4.57532480E+02      3.51811861E+02     -3.60810192E+02
     -6.54343042E+02     -5.53835363E+02      9.46322704E+02
      1.58420271E+03     -1.53502598E+03     -5.98769598E+02
      2.14247973E+02     -1.99796489E+02     -1.95867779E+01
     -5.48734555E+01      1.19315447E+03     -1.37598742E+03
     -1.18507698E+03     -2.27040581E+03      2.06343399E+03
      4.32434791E+02     -1.19222950E+01      1.48025644E+02
     -1.03179923E+03     -1.88601312E+03      7.71458620E+02
     -1.88632251E+03     -1.38435256E+02      5.98027043E+02
     -2.98875391E+02     -1.20534759E+02      4.40719108E+02
     -1.13967384E+03      1.57707001E+03     -5.85915090E+02
      1.18514802E+02     -8.45850983E+02      1.61049297E+03
     -6.34866573E+01      1.80334078E+02     -7.24316563E+02
     -1.01386275E+03      5.74704671E+02      6.00414907E+02
      1.74751385E+03     -1.55940228E+02     -1.55876966E+02
     -1.85158369E+02     -4.12166420E+00      1.59999320E+02
     -1.52118181E+03      4.94677293E+02      1.38816603E+03
      5.37554180E+02     -2.59364370E+02      2.11144932E+03
      1.78816222E+02      2.84228565E+02     -2.15449393E+02
      1.79317514E+03     -2.11985931E+03     -1.08545126E+02
      2.42397519E+03     -3.27162542E+02      1.48344866E+03
     -5.89996576E+02     -1.45839902E+03     -2.41770537E+03
     -5.59324445E+02     -5.44927819E+02     -1.34227329E+02
      1.90252288E+03     -4.84753945E+01     -1.37134470E+02
     -2.42382889E+03     -3.98249444E+02      2.33459026E+02
     -1.22639992E+03     -7.99068011E+02      4.07109556E+03
      1.40814132E+02     -2.35108354E+02     -6.09973256E+02
      1.43197781E+03      3.87878756E+02     -8.57961736E+02
      1.08626960E+03      1.37963559E+03     -2.84616300E+03
     -2.23621659E+02     -2.77445032E+02      1.77240191E+02
     -1.30325434E+02      5.88070321E+02     -1.52327745E+03
      2.63356908E+02      2.09912488E+03      2.39418676E+03
      4.21608739E+01      1.03576414E+02     -4.56253319E+02
      5.96420261E+01     -6.89271632E+02     -1.28554938E+03
      7.63058014E+02      1.47776429E+03     -1.27468135E+03
     -2.68758226E+02     -6.70463388E+01     -9.17552793E+02
      2.28513085E+03     -3.69983157E+03     -7.83955899E+01
     -2.03624602E+03      1.11937947E+03     -2.70919508E+03
     -3.25117698E+02      4.43695666E+01     -6.29877158E+02
     -1.03433273E+03      9.81065222E+02     -1.96283207E+03
      3.16114706E+02      6.50832701E+02     -4.69529933E+02
      8.12058864E+01     -5.31340110E+02      5.14474532E+02
      2.66071535E+03     -1.23401650E+02      3.56529937E+02
     -7.76772606E+02      2.62347993E+03      1.47711277E+02
      1.39228630E+02      3.42099430E+02     -3.97706547E+02
      5.04273980E+02     -1.67222482E+03      4.94908691E+02
      3.84472774E+03     -4.52713094E+02      1.66888004E+03
     -9.27899248E+01      2.68565502E+02     -5.71418080E+02
     -2.82610825E+02      1.18955247E+03      5.77327408E+02
      1.33822236E+03     -2.75269945E+03      2.33206384E+02
      6.11172704E+02     -8.23922258E+01      3.29136625E+02
     -2.10263009E+03      9.30786299E+01      9.91173722E+02
      8.79920672E+02      6.75727890E+02     -1.15191682E+03
     -1.16924613E+03      2.05721735E+02     -5.15012183E+02
      1.90089712E+02     -6.41642933E+02     -1.16613921E+03
     -2.89164173E+03     -2.49676955E+02      2.11924353E+03
     -8.97681680E+02      5.37623610E+02      2.26118151E+03
      2.82740195E+03      2.80012312E+03      3.58706534E+03
      6.73095556E+01     -1.19842137E+03     -1.08995693E+02
     -3.85687900E+02      3.77188441E+02      2.07738987E+03
     -6.47449893E+02     -1.02421896E+03      1.69310993E+03
      3.97660710E+02     -7.06729667E+02      1.39052914E+02
      3.93185725E+02      6.41573584E+02      1.65618997E+02
     -1.63739035E+03      6.29965552E+02     -1.00233863E+03
      1.74459000E+02      8.68268264E+02      7.81353012E+02
      9.77962841E+02     -1.05811358E+03      2.94096637E+03
      7.49082403E+02      1.22857215E+03     -1.79582743E+03
     -1.73745091E+02     -6.13569793E+02     -7.12852789E+01
      2.04474287E+03     -7.25007337E+02     -5.74623595E+02
      9.24271538E+02      5.32761099E+02      1.69860414E+03
      6.39189608E+02      1.50745297E+02     -2.78325603E+02
      8.50722883E+01     -6.19012649E+02     -2.35102823E+02
      8.68830305E+02     -5.12120393E+02      2.30019959E+03
     -5.75200271E+01     -5.75234604E+02     -3.67184025E+02
     -3.83858734E+02     -1.20065942E+03     -1.07125776E+03
     -4.05278224E+01     -1.66264190E+03      8.64459148E+02
      9.21781518E+01      3.04731964E+01     -2.29872837E+02
      3.35569392E+02     -6.47941965E+02      8.13340402E+02
     -1.30171038E+02     -1.06469593E+03     -2.22381658E+03
     -3.18507602E+02      5.54926320E+02      5.54033299E+02
      2.82400085E+02      9.99559010E+01     -8.12912131E+02
      3.47714698E+03      2.89452031E+03      1.26715953E+03
     -9.37643771E+01      5.16619873E+02     -1.91702348E+02
     -4.88910311E+02     -3.77326034E+02      2.05700232E+03
      1.92198739E+03     -1.47190704E+02      2.33679744E+03
     -9.36736422E+02      8.93935444E+02     -1.80407817E+03
      1.03773580E+02     -1.29968890E+02     -7.20964864E+02
     -4.00035389E+02      3.62539619E+02      1.90207028E+03
     -4.72278411E+02     -3.25559035E+03     -1.19002238E+03
      3.27316278E+02      4.37705873E+02     -1.57040262E+03
     -2.97869211E+02     -3.15536876E+02     -5.88793929E+02
      1.49670383E+03     -1.87097909E+03     -1.38508350E+03
     -4.09726747E+03     -1.69672685E+03     -1.19496305E+03
      6.26401404E+02     -3.24402668E+01      2.08223734E+02
     -3.18812671E+03      1.73581871E+03      4.88481851E+02
     -1.78275934E+03     -1.51028376E+03     -5.04617565E+02
      1.74975720E+02      2.79525461E+02     -4.60977572E+02
      1.15305435E+03     -1.52072115E+03     -2.42658743E+03
     -9.82388315E+02      2.11974444E+02     -2.64330253E+03
      9.88452384E+02      5.35366788E+02     -5.47052729E+02
     -6.85223685E+02     -1.46339385E+03     -1.05151446E+03
      9.04366605E+02      5.45210754E+02      6.02151588E+02
     -7.99424813E+01     -4.92179428E+02      3.39208119E+02
      2.44694034E+03      2.09272367E+03     -1.60072214E+03
     -6.51949126E+02     -2.59569978E+03      1.54217938E+03
      2.79615214E+02      3.45903805E+02     -2.99245836E+02
      3.54663528E+02     -1.01285575E+03      4.29412960E+03
     -3.00786275E+03      1.02182681E+03      6.43336631E+02
      3.38394082E+02     -7.07308776E+02      1.64025431E+02
     -2.25042572E+03      1.14159701E+02      1.92808233E+03
     -1.96396896E+02      2.22886799E+02     -2.54835684E+03
      1.13310235E+02      5.50745214E+02     -1.22200500E+02
     -2.29167100E+03      8.58465524E+02      1.18091842E+03
     -1.61111948E+02      7.52659612E+02     -8.35290402E+02
      1.08527303E+01     -1.59171677E+01     -1.58619259E+02
      1.80601328E+03      1.48883899E+03      1.03136136E+03
     -6.79482848E+02     -7.33418754E+01     -4.60396674E+02
      2.06070463E+03      3.96050574E+03      1.90827332E+02
      1.85706429E+02     -5.54307543E+02     -9.15907175E+02
     -6.73522850E+02      1.12216442E+03      1.41109057E+03
     -6.38835948E+02     -3.82824568E+03      9.95346973E+01
      6.02821904E+02      3.14569870E+03      1.30155066E+03
      9.18958131E+01     -2.97132870E+02      1.86804326E+02
      2.40398922E+03     -3.10985909E+03     -1.36136093E+03
     -2.42093431E+03     -1.33083763E+02      1.64033684E+02
      3.20072464E+02     -9.24886776E+02     -4.09127884E+02
      1.62520992E+03     -9.66181887E+02      1.18138271E+03
     -1.72739355E+03      1.36168743E+03      5.85140561E+02
     -6.78511196E+02     -4.47701725E+02      2.83111358E+02
     -4.17206689E+03      1.69712551E+03      2.27077959E+03
      1.69823319E+03      4.72158929E+02     -1.04260788E+03
     -8.68177700E+02      3.11627397E+02     -2.16449124E+02
     -3.25394977E+03     -3.40913378E+03     -2.08369861E+03
      1.56810876E+03     -6.57671468E+01     -1.30801771E+03
     -9.62980831E+02     -8.83578752E+02     -1.30892449E+02
      3.80710367E+03     -1.27134084E+01      1.04548858E+03
      1.30283907E+03     -2.81304894E+03      2.13747774E+03
      1.51653057E+02     -5.45917577E+01     -8.88995510E+02
     -1.10086391E+03      1.72846267E+03      1.30025467E+03
      1.07435756E+03      2.64336597E+03     -2.38009378E+03
     -4.16074544E+02     -8.22660840E+01     -9.45603492E+02
      2.62889293E+02      1.85341593E+03     -1.14641128E+03
     -5.31823795E+02      2.36214097E+02     -9.92211743E+02
     -6.53910575E+02      2.08532865E+01     -1.91436104E+02
     -1.57955937E+03     -6.98949766E+02      8.50631836E+02
      7.95793974E+02      8.19003159E+01     -1.26018858E+03
     -1.01785731E+03     -4.92833650E+02     -1.24748621E+03
      1.00715167E+03     -5.94781748E+02      2.31659012E+03
      1.59727496E+03     -7.19102392E+02      2.96389092E+02
     -2.38776335E+02      2.17086239E+03      2.06672399E+03
      9.48497088E+03      1.82905731E+04      7.21706982E+03
     -4.00045504E+02      9.26246024E+02     -7.98903833E+02
     -7.44973701E+02      3.12425996E+02     -1.46871094E+03
     -3.07267168E+02     -1.98424887E+03     -4.93566191E+00
     -2.72085170E+02     -3.83138888E+02      4.59963441E+02
      3.73560252E+01      1.51716691E+03     -2.19497091E+03
      6.75828570E+02     -5.82127300E+02      5.42442569E+02
     -2.84382673E+02     -1.22721900E+02      8.32892147E+01
      1.77027350E+03     -2.94020529E+02      2.02287542E+03
      3.39249199E+03      9.02329774E+02      6.93838487E+02
      6.83867534E+02     -7.98197261E+02     -6.02365541E+00
      2.04578217E+03      2.44315734E+02     -1.31087884E+03
     -8.92675612E+02      2.89428429E+03      3.79514728E+03
     -2.12768465E+02     -4.00928685E+02      3.27051265E+02
     -1.42120428E+03     -1.01588973E+01      1.20690341E+03
     -5.35802276E+02      4.88809815E+02     -1.40010546E+03
     -1.91698175E+02     -5.73744893E+02      1.06479153E+03
     -8.94940280E+02     -3.79110157E+03     -5.52962699E+02
     -3.69038425E+02     -2.86844993E+02     -1.42567098E+03
      1.02721932E+02     -1.18522063E+02     -1.26957520E+03
     -7.35746073E+02     -5.57486929E+01      3.36299466E+01
      3.15235538E+03      5.74454469E+02     -3.19288698E+02
      4.06587901E+02      1.08040178E+02     -3.45051668E+01
      5.29149493E+02     -1.09377624E+02      1.64414227E+03
      1.03742565E+03     -1.71603139E+03     -3.41988180E+02
      3.25357385E+02      5.15290193E+00      3.57194489E+02
     -8.38435235E+02     -1.38845782E+03      1.60004308E+03
     -5.53105492E+02      1.12842029E+03     -1.45021706E+03
      4.40456604E+02      3.18221864E+02     -4.18087147E+02
     -4.07628022E+02     -5.19920359E+02      6.58629071E+02
     -4.35567094E+02     -1.16055679E+02      2.75885714E+03
     -1.93687077E+03      1.92913988E+03     -1.04694436E+03
     -7.87794168E+02     -5.27655880E+02     -3.93968572E+02
      1.08016643E+03      1.83202505E+03     -2.47890058E+02
      3.33614523E+02     -1.28074353E+02      1.71442382E+03
      1.05300264E+03     -2.12306240E+03     -2.04099542E+03
      2.33271152E+02     -1.00684859E+02     -3.23757425E+02
     -2.99933457E+03      9.67239702E+02      2.19099586E+02
     -1.41748642E+03      3.28697176E+03      9.15060025E+02
     -4.49788201E+02      2.43329144E+02     -4.63199204E+02
     -4.80707318E+02     -7.03606372E+02     -3.60253414E+02
     -7.68364413E+02      3.50864992E+02      1.61821552E+03
     -1.54785338E+02      8.96617580E+01      2.36811786E+02
      1.06086256E+03      1.63071324E+03     -4.55557069E+02
      8.50142505E+02     -1.61823885E+03     -3.23724308E+03
      5.49180441E+02     -2.63328436E+02      1.99725656E+02
     -2.52674246E+03      9.78591184E+02      3.05699842E+03
      1.66318984E+03     -1.00176657E+03     -2.00157112E+02
      1.07008511E+02     -3.22500770E+02     -4.02831389E+02
      2.05167468E+03     -8.30658500E+02      2.82367861E+02
      4.30707882E+02      2.60664061E+03     -2.20230930E+03
      5.89913423E+02      9.14994595E+01     -3.65371434E+02
     -2.76551624E+03     -4.16026128E+02     -2.03741518E+03
      2.66607169E+03      2.29808607E+03     -2.12719506E+03
     -4.30963981E+02     -8.25843749E+02     -1.82021093E+01
      3.05848516E+02      1.26090317E+03      1.44292835E+03
      9.03383733E+02     -1.29449024E+03     -6.04140391E+02
     -6.23203870E+02     -5.62270306E+02     -2.88249554E+02
      3.60735977E+01      9.74182636E+02     -1.69672333E+03
     -4.22270362E+03     -1.28186309E+03      1.51568297E+03
     -3.14691147E+02     -5.55553337E+02     -7.30444420E+02
      1.21922587E+02     -7.52033205E+02     -4.18583614E+02
     -1.67139044E+03      1.06528286E+03      1.86197333E+02
     -1.31460154E+03     -3.32326097E+02      9.08774505E+02
     -1.06840062E+02      1.17462868E+02      7.01302744E+02
      1.52919767E+03     -2.19704510E+02      5.33641240E+02
      2.27902114E+03      2.87470963E+03      6.85002028E+02
     -1.56977455E+03     -3.23700335E+03      5.21439910E+02
      6.23597654E+02      8.37633798E+02      5.30326933E+02
      1.15199338E+02     -5.51869220E+02     -1.89767560E+03
      1.68178701E+03      5.04183397E+02      1.56297053E+03
     -4.11657925E+02     -7.70575871E+01      5.44739125E+00
      5.40869904E+02      2.30450398E+03     -5.01821890E+02
      2.48566846E+03     -8.92996031E+02     -1.46689887E+03
     -5.36454395E+02      2.25782693E+02     -4.99387865E+02
     -1.79227429E+03      2.36989553E+02      1.27174408E+03
     -1.65354887E+03      1.21587714E+03      1.19656891E+03
     -1.07754442E+02     -1.41280035E+03      7.76612240E+02
     -1.78761060E+03      3.30776361E+02     -1.71164716E+02
     -2.53010029E+03      9.72885281E+01      1.69882580E+03
     -9.59249512E+02     -4.94181319E+02      2.84622011E+02
     -1.21181234E+03     -2.17976685E+03      9.09296340E+02
     -2.51559940E+03      6.39402560E+02     -9.43042141E+02
      8.64723083E+01     -5.70233237E+02     -2.88284563E+02
      2.28950783E+02     -2.18086963E+03      1.06927826E+03
     -2.85511792E+03     -9.64906103E+02     -2.27211771E+02
      4.79209215E+02     -1.95155649E+02      8.01314224E+01
     -1.17136824E+03     -8.53172204E+02     -1.16956052E+03
     -1.93607937E+02      8.84068874E+02     -3.75361413E+02
     -3.04197532E+02      8.36428011E+01      6.45677441E+02
     -6.12843931E+01     -6.32813416E+02     -1.94584437E+03
      9.98086256E+02     -8.62269510E+02      6.08032831E+02
     -1.53117744E+02     -1.22780277E+02      2.23515003E+02
      4.33461759E+03     -2.48917770E+03     -1.44365457E+03
     -8.43378634E+02     -1.55923336E+03     -2.65589411E+03
      2.02452018E+03      1.64783657E+03      2.14717016E+02
     -7.82254601E+01     -2.42189528E+02      3.55163488E+02
      5.21188672E+02      4.29528233E+02     -3.39129941E+03
     -1.68793126E+02      1.52220871E+03     -8.46495052E+02
     -9.62415677E+02     -1.73707826E+03      3.94476504E+02
     -5.85768781E+02      9.23165526E+02      4.95984093E+02
     -2.06995567E+03      2.06359943E+02     -1.37816631E+03
     -1.18138438E+03      1.54788936E+03      6.55373518E+02
      2.25479635E+02     -8.48112604E+01      5.03564312E+02
     -1.69068203E+03      1.40930290E+03     -3.38255950E+02
     -2.50104671E+03     -8.43050172E+01     -4.53146193E+02
     -2.76764414E+02      1.30014881E+01      1.28723878E+02
     -3.11319839E+02     -2.40733799E+03     -2.77221503E+03
      2.01392620E+02      1.11374781E+03      5.79122736E+02
     -6.52784799E+02     -3.46354509E+02      1.02507187E+01
      5.52352396E+02      1.00683415E+03     -7.72980166E+02
     -7.88056160E+02      1.76144123E+02     -2.16857642E+02
     -4.77973897E+01     -4.57557190E+02     -4.80944744E+02
      1.15991616E+03     -7.36719154E+02     -2.13320473E+03
      1.71118081E+03      7.99724551E+02      1.85162861E+03
     -8.70781003E+02      2.04736941E+02      5.93209102E+02
      9.45734956E+02     -9.82670262E+02      1.54968296E+03
     -4.56016387E+03     -2.75830006E+03     -3.17309960E+03
      6.60894969E+02     -2.69222889E+02     -1.69130458E+02
      1.92380952E+03     -5.40503418E+01      1.60977038E+03
     -1.31541365E+03      4.74791508E+02      2.75829536E+01
     -3.55305681E+02     -5.50330142E+01      8.28288538E+01
      3.36672861E+01     -1.56027746E+03     -1.16513338E+03
      1.28158418E+03     -1.65405932E+03      1.51863722E+02
     -4.57430182E+02     -1.04807852E+02      6.34129181E+01
     -1.00701086E+03      1.15402223E+03     -2.30535487E+03
     -9.58692525E+02     -4.17250647E+02      1.97135112E+03
      2.07908698E+02     -2.18371439E+03     -4.77817562E+02
     -3.97551120E+02     -3.75378667E+02      5.34652669E+02
     -1.07593360E+03      2.04322029E+03      1.03327373E+02
     -3.01012163E+02      1.75178671E+03     -3.71869857E+02
     -3.28237580E+03      1.68529555E+03      4.38184569E+02
     -1.42837390E+02     -9.97911558E+01     -1.65190366E+02
      4.76856616E+02     -4.64929146E+02      2.93879713E+03
     -6.96051995E+01      1.93915404E+03      3.07061653E+02
      6.54489013E+02     -1.70507124E+01     -1.93357367E+02
     -2.73262228E+03      1.38482091E+03      1.98715842E+02
      7.82276620E+02     -2.36398133E+03      2.51631299E+03
      5.93951042E+02     -4.12604434E+02      2.41555726E+02
     -3.25688974E+02      1.92371423E+03     -3.09602987E+03
     -2.70546418E+02     -7.76395593E+02     -4.19190545E+03
      2.30382512E+02     -9.49839823E+02     -3.11456139E+02
     -6.17265459E+02     -2.81676895E+03      3.55532944E+02
      2.10760209E+03     -1.01303317E+03     -2.81107232E+02
     -1.30945114E+02     -3.70062585E+02     -5.87450301E+02
      4.17475553E+03      7.47573126E+02      9.05599582E+02
     -5.68384678E+02     -1.03092715E+03     -7.22783572E+01
     -5.66169361E+02     -3.03966104E+02      3.19837471E+02
      9.06667319E+02      7.70199695E+02      1.49521409E+03
      6.92027901E+02      1.08119925E+03     -5.47567244E+02
     -4.95298370E+02     -2.14054467E+02     -2.74795376E+02
     -1.23745663E+02      2.77215582E+03      2.94134083E+03
     -8.18522118E+01     -1.50817227E+03      1.41122657E+03
      2.76848652E+02     -5.27178825E+02      3.29322583E+02
      2.45744167E+02      3.01001295E+02     -3.13697686E+03
     -3.22261275E+03      6.13765695E+02     -1.25490237E+03
      1.36695237E+02      7.94354863E+01      6.34427792E+02
     -2.23355562E+02     -9.91471892E+02     -2.18088524E+02
      1.00152254E+03      1.20078073E+03      1.77836184E+03
      3.33653371E+01      1.19538874E+03      1.83598951E+03
     -5.78660750E+02     -1.13318787E+03     -3.41195370E+01
      7.92532107E+02      1.78403365E+02     -5.90723487E+02
      9.64370863E+02     -1.11272772E+03      1.68685233E+03
     -2.57133410E+02      1.66985428E+02      6.68154641E+02
  }
}

Hamiltonian = DFTB {
  SCC = Yes
  SCCTolerance = 1e-6
  MaxSCCIterations = 200
  ForceEvaluation = Dynamics
  MaxAngularMomentum = {
    C = "p"
    H = "s"
  }
  Charge = 0.0
  SpinPolarisation = {}
  Eigensolver = Standard {}
  Filling = Fermi {
    Temperature [Kelvin] = 300.0
  }
  SlaterKosterFiles = Type2FileNames {
    Prefix = "../../pbc-0-3/"
    Separator = "-"
    Suffix = ".skf"
    LowerCaseTypeName = No
  }
  KPointsAndWeights = {
    0.0000000000000 0.0000000000000 0.0000000000000 1.00000000000000
  }
  Dispersion = LennardJones { 
    Parameters = UFFParameters {}
  }
}

ParserOptions = {
  ParserVersion = 3
}
