Geometry = GenFormat {
<<< "system.gen"
}

Driver = VelocityVerlet{
  Steps = 100000
  TimeStep [fs] = 0.2
  MDRestartFrequency = 5
  Thermostat = None {
    #InitialTemperature [Kelvin] = 300.0
  }
  Xlbomd{ 
    IntegrationSteps = 6 
    MinSccIterations = 2
    MaxSccIterations = 200
    SccTolerance = 1e-6 
  }
  Velocities [m/s] {
      6.86592941E+02      7.14175285E+02      4.38603462E+02
     -8.27544975E+02     -1.44648825E+03      1.62131397E+02
     -1.72384367E+03      1.24711525E+03      1.65018474E+03
      5.69782100E+02     -5.09662885E+02     -3.07367417E+02
     -1.04092275E+03     -8.25104116E+02      2.41639837E+03
      1.28653269E+03      1.90689255E+02      1.54227727E+03
      3.36384449E+02      6.03279792E+02      1.60955177E+02
     -4.01336764E+02      6.75169980E+02      1.37742070E+03
      9.26012310E+02      2.57360407E+03      7.79113047E+02
      8.59814018E+02      6.98968538E+02     -4.42605427E+02
      2.15523504E+03     -1.71251715E+03     -2.49397199E+02
      6.73374659E+01      6.68108133E-01      1.45062311E+03
      8.14681163E+02      4.51912743E+02      5.94211788E+02
      5.29677785E+02      1.11437073E+03      5.78944239E+02
     -2.68228135E+03     -2.72214226E+02     -1.20947366E+02
     -3.84544525E+02      9.29608267E+02      4.28020392E+02
      1.01169442E+03      4.04661515E+02      1.33634611E+03
     -1.24684112E+03     -3.60382631E+02     -5.62088114E+02
      2.55295939E+01     -5.83869178E+02      1.84193653E+02
      3.16140176E+02     -1.64814164E+03      8.04012572E+02
     -1.88071264E+01     -7.03867758E+02     -1.99723397E+03
      3.67108165E+02     -1.31578853E+02     -2.90099338E+02
      3.62790062E+03     -2.63474097E+03     -4.27182505E+03
     -7.93208863E+02      7.45508707E+01      5.58006930E+02
      8.69630561E+02     -1.24280385E+02     -5.20121130E+02
      2.89709679E+01     -2.32341164E+03     -2.17311451E+03
     -4.09788650E+02      2.04863954E+02      7.41202013E+02
     -9.57936765E+02      2.98140746E+03     -3.04039163E+02
     -1.46900251E+01     -3.04562624E+02      1.96751640E+02
      3.61172482E+03     -1.35851623E+03     -3.28039434E+03
      1.91878508E+03     -5.44010448E+02      4.23151605E+03
     -1.93530053E+03      8.26485579E+02     -1.50693464E+03
      2.58249278E+02     -1.14697095E+03     -1.37860359E+02
      2.05179489E+02     -3.26173954E+02      1.76041604E+03
     -3.07611075E+01     -2.97266921E+03     -6.14757488E+02
     -4.87867691E+02     -3.89193141E+02     -1.60622355E+02
      2.30105495E+03      1.01031825E+03     -9.58161957E+00
      1.27367132E+03     -1.30244760E+03     -6.61939217E+02
     -3.13655809E+02      3.91221721E+02      3.57108755E+02
      9.63566166E+02     -3.79112342E+02     -1.10113070E+02
     -2.47420715E+03     -8.89570253E+02      1.32971402E+03
     -2.83258869E+02      4.01391468E+02     -2.64096296E+02
     -3.45715880E+03     -4.90068231E+02      1.99219583E+03
      2.63931065E+03      2.75494876E+03     -5.43635984E+02
      3.30087231E+01     -5.92659342E+02     -1.70210619E+02
      1.14484977E+03     -1.93171192E+03     -5.84781073E+02
     -1.10231297E+02     -6.40352772E+02     -5.44148209E+02
      8.94459928E+01      3.10775214E+02      1.54750371E+02
      1.72018233E+03      1.49127151E+03      1.84004387E+03
     -2.19602753E+03      7.05604950E+02      1.64331972E+03
      7.00361133E+02     -3.44023012E+02     -1.70215789E+02
     -2.25248286E+03      9.34601977E+02     -1.98310789E+03
      1.82710918E+03     -9.97936178E+02      1.30706164E+03
      9.87605883E+01     -4.93156485E+02      5.78133333E+02
     -7.32811322E+02     -2.66934614E+03      1.55974271E+03
     -2.22063322E+03     -1.89196467E+03      2.89038160E+03
      1.80505173E+02     -5.59284385E+01      5.33481986E+01
     -5.81345776E+02     -1.13009764E+03     -2.92453854E+02
      7.20247987E+01     -1.11092933E+03     -1.23116482E+03
     -7.30508668E+02      9.66879049E+02      2.33897572E+03
     -1.32011286E+02     -4.48925630E+02      9.25499721E+02
      7.49756525E+02     -1.54142544E+03      7.64284178E+02
     -9.81901500E+02     -1.88976081E+03      6.81294675E+02
     -6.72490861E+02      2.80184724E+03     -2.10978244E+03
      4.20610624E+02     -4.98773062E+02      3.05771966E+01
     -1.93046057E+03      2.31966418E+03     -2.62871460E+02
      2.89707496E+03      2.85279497E+03     -3.15443019E+03
     -9.67656346E+01     -1.69679872E+02      2.56914513E+02
      3.80673252E+02     -2.72857307E+03     -2.65736397E+03
     -2.01234141E+03     -2.08805533E+03     -2.67682523E+03
      5.07140530E-01     -6.51404529E+02      9.05988806E+02
     -9.39660830E+02     -5.37257082E+02      8.53006522E+02
     -1.00794070E+03     -1.77743970E+02     -1.82487762E+02
      9.59050817E+02     -5.79940116E+02      2.16346661E+02
      2.24087020E+03      6.60340484E+02     -2.87834945E+03
      7.18681828E+02     -1.93731119E+03     -9.59155100E+02
      2.72514951E+02     -4.47922603E+02      3.06252938E+02
      1.61038941E+03     -2.35636634E+02     -3.57129996E+02
     -1.24602464E+03      2.39209208E+02      1.34689992E+02
      2.15861168E+02      5.47794769E+02      2.36335619E+02
     -2.14208835E+03      7.49059694E+02     -9.79470787E+02
     -2.53088405E+03      1.06470833E+03      4.64874870E+02
      6.70879016E+01      5.02053531E+01      2.98133224E+02
     -1.11936020E+03      2.60784551E+02     -4.58603678E+02
      2.22096007E+03     -1.08370502E+03      1.34868872E+03
      1.72498462E+02     -7.56968573E+02     -1.06081204E+02
      7.55738987E+02     -3.41264276E+03     -3.95579442E+02
     -1.07338632E+03      2.31472654E+03      7.81060318E+02
     -7.31621891E+02     -6.38362922E+02     -5.10529080E+02
     -6.04236837E+02      1.16116050E+03      1.19213372E+03
      9.06120136E+01      2.61436903E+02     -1.72073363E+02
     -1.47177072E+03      7.87766915E+02     -1.07673463E+03
     -1.77530696E+01     -4.56797425E+01     -1.28859519E+03
      2.74781129E+03      5.56223363E+02      1.04195624E+03
      1.79911599E+02     -2.93100331E+03     -5.33285881E+02
      2.07847406E+03      1.58515971E+03      3.08435747E+02
      6.19928447E+02      1.16562527E+02      1.24516322E+02
     -2.46180474E+02     -2.39496037E+03     -3.58722191E+02
      8.70868720E+02     -2.71515249E+02     -2.56120796E+03
      8.18843865E+02     -8.00492447E+02      6.07066315E+02
      3.66271904E+02     -1.82204242E+03      3.80531508E+02
      2.97420717E+02     -8.31616803E+02      4.10235018E+02
     -2.71107952E+02      1.96656395E+02     -1.77685745E+02
      4.94268052E+02      1.15851468E+03      6.82703681E+02
     -7.28091203E+02     -5.42112310E+02      2.92861583E+02
      1.75347372E+02     -4.24030911E+02      3.81236149E+02
     -1.99566608E+02     -4.65164741E+02     -6.60565029E+01
      7.21408673E+02     -5.26713957E+02     -9.48152871E+02
     -4.43962696E+02      1.90892778E+01      1.72225340E+02
      1.56206509E+02     -1.18011863E+03      4.71122880E+02
     -3.51349651E+02     -1.44827968E+03      5.43926119E+01
     -2.45551488E+01     -9.95843337E+01      5.28511571E+02
     -9.82311220E+02     -2.19347465E+03     -5.17526058E+02
     -1.81732810E+03      9.93064263E+02     -5.78281155E+02
     -4.81197216E+02     -6.37724526E+02      6.86110823E+02
      1.61857641E+03     -8.59133292E+02     -1.22833268E+03
      3.82189632E+02      7.34768227E+02     -1.16898224E+03
      4.92104292E+02     -6.52288474E+02     -5.05151248E+02
     -1.06353482E+03      5.19266025E+01      1.10202811E+02
     -2.60542006E+02     -1.87125808E+03      1.43610031E+03
      3.11439841E+02     -1.37094627E+02      7.02382379E+02
     -2.09583729E+03      3.32271981E+02     -7.32111899E+01
     -3.23286770E+03      3.13515202E+03      3.21416232E+03
     -5.20986490E+02      5.05593098E+02     -1.57635070E+03
     -5.01937325E+02     -7.09421655E+01     -6.03316167E+02
     -1.72054483E+03     -3.12599429E+02     -2.90155162E+03
      1.72219392E+02     -2.62194492E+02     -1.50689012E+03
     -1.60655399E+03     -2.63091235E+02      8.00407096E+00
     -1.41266235E+02      1.64010952E+02      8.27112955E+01
      1.07209055E+02      2.33844884E+02      7.37084962E+02
      9.15280453E+02      1.06181719E+03     -7.39977107E+02
      3.73272212E+02     -1.77105726E+02      8.94651222E+02
      3.57232642E+02     -2.02889808E+03      1.06295675E+02
     -2.47035473E+03     -3.13696200E+00     -3.34367457E+03
     -1.81811795E+02     -3.03627964E+02      1.36652826E+02
      1.59881437E+02     -6.32479061E+02      2.61468046E+03
      3.63071055E+02      1.66149179E+03      7.15704662E+02
      4.67486731E+02      1.73055426E+02      3.80673294E+02
      1.17638833E+03      1.55410313E+03     -1.93545880E+01
      2.20337907E+03      1.10786432E+03     -2.51114162E+03
      1.52630716E+02     -4.40196711E+02      1.54325853E+02
      1.28818540E+03     -1.46942044E+03      1.65916034E+03
      5.34080555E+02     -4.40580496E+02      5.06832042E+02
     -1.84100556E+02     -5.24645570E+02     -9.88034716E+02
      2.66029045E+02     -1.94954011E+03      2.45908873E+03
      5.08736273E+02     -2.25343028E+03     -2.89646181E+03
      2.42202298E+02      1.75724710E+01     -2.58255898E+02
      9.86032209E+01     -3.45372075E+02      2.24575637E+03
     -3.66386705E+01     -8.99512121E+02     -3.74445328E+02
     -4.10575515E+02      3.08403862E+02      4.32348969E+02
      2.88164761E+03     -2.76974412E+03     -1.06650001E+03
      1.40783946E+03     -6.94152235E+02     -2.36971762E+03
     -1.80784585E+02     -4.41205970E+02     -3.76187614E+02
      6.46883779E+02     -1.78614334E+02      2.21527871E+03
      3.33805476E+03     -6.37526426E+02      4.25844665E+02
     -1.01852684E+03     -2.49414436E+03     -6.84649680E+02
     -5.01305259E+02     -4.79318410E+02     -2.30812906E+02
      1.27760988E+03     -8.81203974E+02     -1.60887393E+03
     -4.35462988E+02     -2.57693286E+03     -2.84842161E+03
     -1.27712934E+03      1.60406641E+01     -8.08384523E+02
     -7.41209584E+02     -6.74216359E+02      1.41743831E+02
     -1.56876914E+03     -6.74663777E+02      2.61096792E+03
      1.45642205E+03     -2.90989920E+03      1.66565733E+03
     -9.21482916E+03      1.97147262E+04     -9.04832333E+02
     -1.15460540E+03     -1.57208870E+03      8.78458699E+02
      1.08510949E+03      2.99645204E+02     -7.74959435E+02
     -1.57908393E+02     -7.39487428E+02      6.03780977E+02
     -1.79591695E+03      1.07457297E+03     -9.74336831E+02
      1.79253464E+03     -1.96615461E+03     -4.74331016E+02
      7.46398629E+02      4.82145399E+02     -3.53421983E+02
     -3.38485498E+02     -1.53484165E+03      8.83443390E+02
      1.24923229E+03     -1.39169281E+02     -1.54718112E+03
     -5.71118620E+02      1.30202202E+02      2.30156404E+02
     -1.05817185E+03      1.15040463E+03     -8.06378855E+02
     -2.14184155E+03     -1.92610998E+03      1.26017118E+03
     -5.79538282E+02      5.79795716E+02     -5.46181503E+02
     -1.58453420E+03      1.53718086E+03      4.13317177E+01
      1.91308610E+03      4.04874924E+03     -8.62858201E+02
      5.71886482E+02     -7.57614562E+02      3.40914812E+02
     -1.03091945E+03     -3.02785402E+03      7.20860107E-01
      1.50644097E+03     -3.59269986E+03      4.77834311E+02
     -4.05215535E+02     -7.06378326E+01      2.86233040E+02
     -5.33523451E+02      8.06837171E+02     -2.11320362E+03
      2.50991237E+03     -5.85744918E+02     -1.30151761E+03
      6.29197191E+02      3.54030103E+02     -4.37463521E+02
      3.11310007E+03     -1.99869020E+03      3.26387690E+02
     -8.86784583E+02     -3.20398911E+02     -1.62389390E+03
      1.72547569E+03     -4.49991926E+02     -3.26222245E+03
     -4.62112511E+02      6.20414792E+02     -5.68578975E+02
      9.12885969E+02      9.03061386E+02      2.35525798E+03
     -2.19166433E+01     -1.46277206E+03     -1.97459717E+03
      3.53050274E+03      7.09536359E+02     -1.38704132E+03
      8.86550111E+02     -7.85693267E+02      8.65038835E+02
      1.28143073E+03     -9.70099218E+02      1.17708859E+03
      2.36610460E+02      4.23866463E+02      2.69810223E+02
     -2.04462181E+02     -6.31455628E+02     -2.22744308E+02
     -4.83901343E+02      3.61424588E+03      4.45832455E+02
     -8.80593259E+02      4.02611317E+03      1.55490049E+03
      2.54739149E+02      4.83045894E+02      1.84778390E+02
     -6.31994776E+02     -4.72363999E+03     -4.41702193E+02
     -1.23357007E+03      4.21082231E+03      5.43847057E+02
     -2.79365781E+02      3.15984236E+02      1.08514936E+03
     -5.86172104E+02     -5.99331432E+02     -2.45796445E+03
     -1.74024642E+03      1.34382591E+03      3.66514193E+02
     -8.29432464E+01      1.47664378E+02      8.18080070E+02
      1.66290473E+03     -1.98876881E+02     -1.31588015E+03
      1.95120753E+03     -2.37922768E+03     -8.16953901E+02
      5.08107403E+01     -1.34031246E+03     -1.20771239E+02
     -3.91556846E+01     -5.11082431E+02     -1.81106608E+03
      6.74699819E+02      3.67543456E+02     -1.16224513E+03
     -2.96352502E+02     -2.54012949E+02      1.01936523E+03
     -1.06831033E+03     -9.53374429E+02     -1.24108136E+03
      3.35508608E+03     -2.53196816E+02     -1.81096027E+03
      2.12809865E+02      8.19465816E+02     -2.62963138E+02
      8.08480031E+02     -1.30896138E+03     -2.40836040E+03
     -1.28785734E+03      2.18816913E+03     -2.29318600E+02
     -1.67421987E+02     -5.02282285E+02     -9.17641962E+02
     -1.50337797E+03     -2.41271764E+02     -1.91995020E+03
     -1.58865639E+03     -1.98250365E+02     -1.55856171E+03
     -8.37178365E+02     -5.48738372E+02     -2.13007747E+03
      6.49451022E+02     -8.18666977E+02      4.82616235E+01
      9.30565394E+01     -4.90740982E+02      1.77721893E+03
      2.31402460E+03      1.28125564E+03     -2.23662370E+03
     -1.13223000E+03     -6.18596196E+02      6.68075761E+02
      2.82434849E+02     -2.43716252E+02     -7.49256675E+02
     -1.42594206E+03     -3.19556336E+03     -7.66820368E+00
      3.05417555E+03      2.21099511E+02     -1.01473536E+03
     -1.85991971E+02     -7.26503431E+01     -2.88414761E+02
      6.36496177E+02     -1.12196604E+02     -3.64036627E+01
      2.81516952E+02      1.51261727E+03      9.66542628E+02
     -7.70457896E+01     -2.61321529E+02      6.89061504E+02
     -5.16352519E+02      1.06435241E+03      1.50956956E+03
      3.03257516E+03     -7.68607900E+02     -4.39766015E+03
      1.81821067E+02      2.62593831E+02     -6.12131683E+02
      3.37226635E+03      1.72804695E+02     -8.27209589E+02
     -2.30452552E+03     -7.40982026E+02     -2.20495739E+03
      1.28311523E+02     -7.80410860E+02      1.26432462E+03
     -4.81045189E+02      3.66778639E+03     -5.94094369E+02
      5.37014464E+02      2.30211908E+03     -2.05337327E+03
      1.78672519E+02      5.18650247E+02     -2.92482774E+02
     -4.92352895E+02     -1.89611600E+03      1.62780785E+03
     -1.97060943E+03     -7.92168421E+02      4.48936959E+02
      1.24714723E+02     -1.15234480E+02     -6.41501006E+02
     -1.65337839E+03     -2.06334451E+03      7.54373377E+02
     -4.25779439E+02      2.19185024E+03      4.10880717E+02
     -1.23856808E+02      7.15117656E+01     -4.08456441E+02
      1.74777936E+02     -3.58887639E+02      4.77463932E+02
      8.41913863E+01      1.16021422E+03      1.44117490E+02
      8.26257038E+01      4.56126302E+02     -3.41241711E+02
      5.30897563E+03      1.31879706E+03      2.05217147E+03
      6.16350073E+02     -3.27737106E+02      1.39452021E+03
     -9.08893270E+01      2.50457328E+02      4.81907987E+03
     -9.88466142E+02     -1.76625025E+02     -2.04274955E+02
     -5.70725265E+02     -4.95609272E+03      2.27385050E+02
      1.75671119E+03      3.18364446E+02      8.39790813E+00
     -1.31126735E+03      1.45347463E+02     -1.57293827E+03
     -1.60120493E+01     -1.17415863E+03     -4.65773769E+02
     -7.94717612E+02     -6.14583213E+02     -1.82284605E+03
     -9.45555876E+02      8.03171434E+02     -2.71346738E+03
     -1.96552613E+02     -7.39091181E+02     -8.65829782E+02
     -8.78059804E+02     -5.55445125E+02      8.87356176E+02
     -5.98686671E+02     -1.99041763E+02     -6.53994402E+02
      8.82913546E+02      1.29085136E+02     -4.05414769E+02
     -1.11671641E+03     -1.21236206E+03      2.86595336E+02
      1.55290702E+03      7.68277256E+01      1.83078462E+03
      6.11386055E+02      2.32198965E+02     -6.72118940E+02
      1.93597648E+03      7.59525385E+02     -8.06522654E+01
      8.24417110E+02      4.62047611E+02     -2.00610621E+03
     -6.81605949E+02     -3.82422234E+02      5.39141139E+02
     -2.59564927E+02     -1.51589917E+03      3.30028419E+03
     -1.45817913E+03      1.12963752E+03      1.00864795E+03
      1.09327376E+01      6.23534350E+02      5.42915738E+02
     -1.98671311E+03      1.49117059E+03     -1.20539777E+03
     -2.38821845E+03      5.14831503E+02     -7.22136335E+02
     -6.67576347E+01     -1.24063510E+02     -1.56191802E+02
     -1.01514715E+03      2.03659234E+03     -3.53688533E+02
      1.79804167E+03     -2.49610959E+02      3.30326918E+03
      1.64271962E+02      1.86179179E+01      2.45710272E+02
     -3.32815520E+02      1.72917857E+03      2.31272564E+03
      1.32079714E+03      9.49619547E+01     -1.26460690E+03
     -1.64719805E+02     -2.12976261E+02      8.19426611E+02
      6.25087702E+02     -5.32795956E+02     -4.47052068E+01
      2.55038976E+03     -5.41824247E+02     -9.40533775E+02
     -2.56594978E+03     -3.94550899E+02      3.55051829E+03
      3.47974677E+02     -1.67624953E+02      5.94211113E+01
      2.37790826E+02      1.19663094E+03     -5.77735021E+02
      6.89971508E+01      1.67552824E+03      4.81595777E+02
      1.84346997E+03      4.91472833E+02     -1.26424655E+03
      1.02847231E+01     -2.35017957E+02      3.09438299E+02
     -4.45601164E+01     -5.69148504E+02     -1.21543081E+03
      3.68662383E+02     -1.24905668E+03      6.28246465E+02
      1.24531489E+02      3.57281053E+02     -8.54430709E+01
      1.70309682E+03     -2.25472761E+03     -1.80354148E+02
      3.76163222E+02     -2.49421410E+03      8.86120192E+02
      5.57227741E+01     -3.58080801E+01     -1.92031003E+02
      8.96004397E+01      1.82835253E+02      9.25396424E+02
     -1.43295985E+03      1.01527938E+03      1.63952516E+03
      1.06929091E+03      4.58863697E+02      3.76251912E+02
     -9.83948989E+02      4.12324019E+02      2.09405209E+03
     -3.18174493E+02      2.38897733E+03      3.76932120E+03
     -3.96044681E+02     -3.17734270E+02     -6.72512044E+01
      9.81646150E+02     -2.69546847E+03      2.97700821E+02
      5.23811674E+02     -1.14999117E+03     -9.16799968E+02
     -2.14386684E+02      3.11374537E+02      4.69202608E+02
     -2.53812493E+03      1.78497631E+03     -1.40893244E+03
      1.30328151E+02     -1.78734845E+02      8.25009437E+02
      1.71717513E+02     -4.35414199E+02     -3.49434561E+00
      2.23761091E+02     -2.28234320E+03     -2.99271563E+02
      6.20986530E+02      9.90437943E+02     -5.36316752E+02
      1.90595258E+02     -2.05481441E+02     -1.40468221E+02
      3.68215713E+03      4.45567237E+03     -2.28052814E+03
     -9.11523665E+02      4.63511659E+02     -4.18642011E+02
      1.93361072E+02     -1.10688315E+03      2.38041273E+02
     -1.17234392E+02     -2.17949155E+03      1.36587552E+02
      9.96330924E+02     -8.48363876E+02      5.24013011E+02
      2.65015622E+03      5.86063487E+02     -9.44697432E+02
      6.11729214E+01     -4.47117447E+02     -1.09863881E+02
      2.31655578E+03     -3.95015244E+03     -1.08960928E+03
     -1.63590955E+03      9.61072534E+02     -1.01617995E+03
     -1.07337508E+03     -7.11613318E+02      2.56682626E+02
      4.05830405E+02     -1.84827741E+02     -6.16664979E+02
     -2.77897014E+03      5.40767175E+02      7.81504796E+00
     -1.70474692E+02     -7.63431572E+02     -7.55289994E+02
     -4.16109304E+02     -7.46047444E+01      1.22219776E+02
      2.17545743E+03     -9.21829596E+02     -2.01398048E+03
     -6.34714019E+01      2.21493286E+03      8.82628742E+02
     -7.83822847E+02     -4.82432432E+02      1.20279349E+02
     -1.26468364E+03      2.83852016E+02     -3.50743094E+02
     -6.39745748E+02      1.23907529E+03     -1.28575620E+03
      7.61854687E+02     -1.06907544E+03     -8.22456379E+02
      3.23290298E+02      7.50828585E+02      1.49341353E+03
      4.08669555E+02      1.11668716E+02     -2.40881298E+00
      5.65863306E+02      3.71357829E+02     -5.23007896E+02
      2.26798254E+03      2.50487115E+03     -6.14860841E+02
     -1.60847510E+03     -7.90117686E+02      9.10976426E+02
     -6.24399334E+02      3.75678996E+02      1.84275894E+02
      1.05875705E+01     -5.86836201E+02      1.59601160E+03
     -1.48403564E+03     -1.64078046E+03     -2.80098866E+02
      1.50030599E+01      1.61841366E+02      3.16462796E+02
     -4.20945921E+02      2.96059006E+03      4.17241412E+03
     -1.14754006E+03     -1.72544530E+03     -8.27997647E+02
      7.42431252E+02     -1.25463003E+01      1.20005921E+02
      4.25378787E+02     -2.26452417E+03     -1.06731702E+03
      4.20304463E+01      1.43048387E+03     -3.68854874E+02
      5.37497735E+01     -2.80560318E+01     -5.18203243E+02
     -2.08852593E+03     -7.40165689E+02     -1.52594893E+03
      8.69792494E+02     -2.32330345E+03     -3.50185181E+03
      1.05662455E+03     -1.52586757E+03     -2.28628630E+03
     -4.98163551E+02     -2.37285013E+02      1.45374970E+02
     -2.24616781E+02     -4.13249959E+02      1.57837273E+03
     -4.04502414E+02     -1.79785358E+03     -1.93388992E+03
     -1.63298450E+03      7.29704074E+02     -2.52427923E+03
  }
}

Hamiltonian = DFTB {
  SCC = Yes
  SCCTolerance = 1e-6
  MaxSCCIterations = 200
  ForceEvaluation = Dynamics
  MaxAngularMomentum = {
    C = "p"
    H = "s"
  }
  Charge = 0.0
  SpinPolarisation = {}
  Eigensolver = Standard {}
  Filling = Fermi {
    Temperature [Kelvin] = 300.0
  }
  SlaterKosterFiles = Type2FileNames {
    Prefix = "../../pbc-0-3/"
    Separator = "-"
    Suffix = ".skf"
    LowerCaseTypeName = No
  }
  KPointsAndWeights = {
    0.0000000000000 0.0000000000000 0.0000000000000 1.00000000000000
  }
  Dispersion = LennardJones { 
    Parameters = UFFParameters {}
  }
}

ParserOptions = {
  ParserVersion = 3
}
