Geometry = GenFormat {
352  S
C  H
1 1    0.4525457903E+02    0.2864317276E+02    0.3902272535E+02
2 2    0.4434209191E+02    0.2826807504E+02    0.3951174253E+02
3 2    0.4610884674E+02    0.2810713756E+02    0.3948105364E+02
4 1    0.4526714796E+02    0.4360112486E+02    0.3754655182E+02
5 2    0.4572335592E+02    0.4442822344E+02    0.3687744282E+02
6 2    0.2884099373E+02    0.4352823368E+02    0.3710525763E+02
7 1    0.4599773409E+02    0.4224562305E+02    0.3717560673E+02
8 2    0.3159140790E+02    0.4207412857E+02    0.3777912706E+02
9 2    0.4631160547E+02    0.4218748432E+02    0.3612016213E+02
10 1    0.2984286328E+02    0.4082008916E+02    0.3736401730E+02
11 2    0.2903240750E+02    0.4092557512E+02    0.3660871113E+02
12 2    0.2944237247E+02    0.4083263496E+02    0.3839594745E+02
13 1    0.4599381991E+02    0.3960977962E+02    0.3703198389E+02
14 2    0.4553486456E+02    0.3877685891E+02    0.3762977285E+02
15 2    0.4689582068E+02    0.3984090526E+02    0.3754197164E+02
16 1    0.3073238242E+02    0.3934151717E+02    0.3555454047E+02
17 2    0.3090833151E+02    0.4026534365E+02    0.3502260515E+02
18 2    0.2973092500E+02    0.3890590601E+02    0.3515089604E+02
19 1    0.4721370203E+02    0.3838107245E+02    0.3509247327E+02
20 2    0.4687235135E+02    0.3774934476E+02    0.3421182001E+02
21 2    0.4744141459E+02    0.3764812615E+02    0.3587934652E+02
22 1    0.4859792794E+02    0.3903935789E+02    0.3483867126E+02
23 2    0.3405881016E+02    0.3841370519E+02    0.3544591302E+02
24 2    0.3325230589E+02    0.4004687439E+02    0.3522121857E+02
25 1    0.4541411815E+02    0.3005848778E+02    0.3943236164E+02
26 2    0.4467049619E+02    0.3073042312E+02    0.3902569529E+02
27 2    0.4536580991E+02    0.3029310255E+02    0.4051373432E+02
28 2    0.4642059775E+02    0.3051817246E+02    0.3916835519E+02
29 1    0.4916358730E+02    0.3906667530E+02    0.3340708743E+02
30 2    0.5023037176E+02    0.3925208605E+02    0.3339790336E+02
31 2    0.4898606869E+02    0.3819005785E+02    0.3282957812E+02
32 2    0.4871084400E+02    0.3980256715E+02    0.3277304523E+02
33 1    0.2698634118E+02    0.3418884150E+02    0.3485740088E+02
34 2    0.2584622990E+02    0.3413190767E+02    0.3450835359E+02
35 2    0.2698623389E+02    0.3386173659E+02    0.3585024575E+02
36 1    0.2745405686E+02    0.3329090419E+02    0.3376559180E+02
37 2    0.2848660282E+02    0.3342452153E+02    0.3352568825E+02
38 2    0.2701050138E+02    0.3370182848E+02    0.3268782499E+02
39 1    0.2718794042E+02    0.3177313511E+02    0.3396619204E+02
40 2    0.2630651082E+02    0.3159824494E+02    0.3455449255E+02
41 2    0.2802696645E+02    0.3129507306E+02    0.3451827816E+02
42 1    0.2724888937E+02    0.3087259818E+02    0.3267543834E+02
43 2    0.4277045482E+02    0.2980743252E+02    0.3304661171E+02
44 2    0.2799140229E+02    0.3106720560E+02    0.3179332170E+02
45 1    0.2579581315E+02    0.3075582763E+02    0.3202337711E+02
46 2    0.2557560992E+02    0.3168879445E+02    0.3129705500E+02
47 2    0.4036644497E+02    0.3087380247E+02    0.3286519245E+02
48 1    0.4087040792E+02    0.2932382921E+02    0.3146076034E+02
49 2    0.3978991772E+02    0.2919497119E+02    0.3133964917E+02
50 2    0.4117358724E+02    0.2856143590E+02    0.3223090421E+02
51 1    0.2612126943E+02    0.2914732515E+02    0.3000071856E+02
52 2    0.2718660535E+02    0.2911841929E+02    0.3020841333E+02
53 2    0.2593156124E+02    0.3005489819E+02    0.2931756946E+02
54 1    0.4074394744E+02    0.2796653003E+02    0.4481408056E+02
55 2    0.3974988096E+02    0.2818784273E+02    0.4441498644E+02
56 2    0.4714357561E+02    0.2348887026E+02    0.3954453519E+02
57 1    0.2736266111E+02    0.3575133558E+02    0.3488483073E+02
58 2    0.2845295419E+02    0.3600840610E+02    0.3498242316E+02
59 2    0.2685810665E+02    0.3634636615E+02    0.3400675094E+02
60 2    0.2706141146E+02    0.3623022482E+02    0.3578813846E+02
61 1    0.2578788348E+02    0.2656326763E+02    0.4476438305E+02
62 2    0.2543233626E+02    0.2599628129E+02    0.4385291720E+02
63 2    0.2678097405E+02    0.2622092106E+02    0.4486663755E+02
64 2    0.2522439159E+02    0.2594690606E+02    0.4555881869E+02
65 1    0.3329072626E+02    0.4475803249E+02    0.3643168038E+02
66 2    0.3223881606E+02    0.4469960164E+02    0.3636343297E+02
67 2    0.3357309850E+02    0.4381482544E+02    0.3586435512E+02
68 1    0.3373620378E+02    0.4604507206E+02    0.3572470981E+02
69 2    0.3482565704E+02    0.4624740102E+02    0.3585614023E+02
70 2    0.3318106836E+02    0.4692978040E+02    0.3620920961E+02
71 1    0.3350078135E+02    0.4607813594E+02    0.3421426575E+02
72 2    0.3379579083E+02    0.4505053131E+02    0.3387474411E+02
73 2    0.3413901961E+02    0.4672630665E+02    0.3360962696E+02
74 1    0.3206063860E+02    0.3100647174E+02    0.3371540830E+02
75 2    0.3145754237E+02    0.3025979822E+02    0.3425499172E+02
76 2    0.3199153959E+02    0.3073083904E+02    0.3262278644E+02
77 1    0.3133968219E+02    0.3234885746E+02    0.3389187921E+02
78 2    0.3167471723E+02    0.4808036373E+02    0.3482265979E+02
79 2    0.3023416074E+02    0.4741852945E+02    0.3380094731E+02
80 1    0.3161613964E+02    0.3334759184E+02    0.3274352719E+02
81 2    0.3082752240E+02    0.3415381818E+02    0.3270510401E+02
82 2    0.3165491219E+02    0.3272568613E+02    0.3180292156E+02
83 1    0.3310346238E+02    0.3400350579E+02    0.3281533705E+02
84 2    0.3329112343E+02    0.3489999370E+02    0.3214576235E+02
85 2    0.3386858609E+02    0.3319542777E+02    0.3266646498E+02
86 1    0.3338942593E+02    0.3458547708E+02    0.3428053483E+02
87 2    0.3312308958E+02    0.3386056743E+02    0.3512741817E+02
88 2    0.3268980857E+02    0.3534814442E+02    0.3442849325E+02
89 1    0.3381283519E+02    0.4469021340E+02    0.3793022872E+02
90 2    0.3489860139E+02    0.4461193263E+02    0.3800170763E+02
91 2    0.3367201468E+02    0.4563665854E+02    0.3851638909E+02
92 2    0.3336322312E+02    0.4386954312E+02    0.3842001066E+02
93 1    0.3492256206E+02    0.3492771451E+02    0.3437735034E+02
94 2    0.3512026393E+02    0.3580735357E+02    0.3383386596E+02
95 2    0.3531496592E+02    0.3503002130E+02    0.3534616071E+02
96 2    0.3551566041E+02    0.3404029533E+02    0.3400418805E+02
97 1    0.2916519984E+02    0.3997698343E+02    0.4130492122E+02
98 2    0.3013185395E+02    0.3947817302E+02    0.4135162785E+02
99 2    0.2881672583E+02    0.4005652063E+02    0.4022601725E+02
100 1    0.2812373163E+02    0.3913544477E+02    0.4212775101E+02
101 2    0.2779065150E+02    0.3842768253E+02    0.4141933906E+02
102 2    0.2730189252E+02    0.3976569744E+02    0.4238389223E+02
103 1    0.2847866858E+02    0.3845097329E+02    0.4346875363E+02
104 2    0.2752448490E+02    0.3788271073E+02    0.4381302337E+02
105 2    0.2874029215E+02    0.3921198932E+02    0.4415797918E+02
106 1    0.2963711416E+02    0.3737071896E+02    0.2813152237E+02
107 2    0.2971639706E+02    0.3681012971E+02    0.2909944911E+02
108 2    0.3062087954E+02    0.3786118487E+02    0.2786690987E+02
109 1    0.2952132430E+02    0.3628813901E+02    0.2709045859E+02
110 2    0.2952048725E+02    0.3666823765E+02    0.2597624224E+02
111 2    0.2857229554E+02    0.3571232505E+02    0.2717611050E+02
112 1    0.3066102604E+02    0.3526434977E+02    0.2700860179E+02
113 2    0.3150012046E+02    0.3583536426E+02    0.2661524271E+02
114 2    0.3030324382E+02    0.3466606148E+02    0.2616896491E+02
115 1    0.3120895335E+02    0.3445902413E+02    0.2817440625E+02
116 2    0.3048632403E+02    0.3403964936E+02    0.2880209520E+02
117 2    0.3195573218E+02    0.3506768390E+02    0.2872576650E+02
118 1    0.3219940534E+02    0.3347766152E+02    0.2748739017E+02
119 2    0.3301734223E+02    0.3416631657E+02    0.2709547641E+02
120 2    0.3174986890E+02    0.3299626093E+02    0.2663549403E+02
121 1    0.2945419928E+02    0.4135258606E+02    0.4183692192E+02
122 2    0.3046952994E+02    0.4169410759E+02    0.4150842285E+02
123 2    0.2861369424E+02    0.4207714513E+02    0.4168589852E+02
124 2    0.2956256347E+02    0.4126147347E+02    0.4294396064E+02
125 1    0.3270232096E+02    0.3244071235E+02    0.2842184610E+02
126 2    0.3324007483E+02    0.3283950750E+02    0.2933800736E+02
127 2    0.3183170304E+02    0.3182280374E+02    0.2885438961E+02
128 2    0.3348543804E+02    0.3171381871E+02    0.2808336596E+02
129 1    0.3891014166E+02    0.3638063574E+02    0.2779134523E+02
130 2    0.3885241234E+02    0.3593804461E+02    0.2883911957E+02
131 2    0.3870106191E+02    0.3565069252E+02    0.2699495591E+02
132 1    0.3785006947E+02    0.3749261875E+02    0.2778253402E+02
133 2    0.3773263270E+02    0.3796784135E+02    0.2680898178E+02
134 2    0.3812360451E+02    0.3837284739E+02    0.2840719258E+02
135 1    0.3647406910E+02    0.3706506928E+02    0.2830893918E+02
136 2    0.3656201271E+02    0.3663713416E+02    0.2934451958E+02
137 2    0.3613283230E+02    0.3615312422E+02    0.2775575308E+02
138 1    0.3534366690E+02    0.3811068062E+02    0.2844233204E+02
139 2    0.3539219848E+02    0.3860953437E+02    0.2753555394E+02
140 2    0.3569524375E+02    0.3877746587E+02    0.2925128289E+02
141 1    0.3396178142E+02    0.3737463673E+02    0.2881380234E+02
142 2    0.3405630561E+02    0.3679982700E+02    0.2971407669E+02
143 2    0.3362610446E+02    0.3666603367E+02    0.2795238314E+02
144 1    0.3301849444E+02    0.3848908943E+02    0.2922311521E+02
145 2    0.3241981191E+02    0.3890187054E+02    0.2841986389E+02
146 2    0.3329830030E+02    0.3948312064E+02    0.2960477614E+02
147 1    0.3202981144E+02    0.3804688987E+02    0.3023225503E+02
148 2    0.3269498800E+02    0.3773092448E+02    0.3110407373E+02
149 2    0.3153829399E+02    0.3714275848E+02    0.2997256923E+02
150 1    0.3102554468E+02    0.3895163162E+02    0.3096693577E+02
151 2    0.3037551159E+02    0.3957668457E+02    0.3032163731E+02
152 2    0.3164045895E+02    0.3968403854E+02    0.3148169535E+02
153 1    0.4038602516E+02    0.3692135215E+02    0.2760753381E+02
154 2    0.4039509826E+02    0.2220100142E+02    0.2668393729E+02
155 2    0.4064825013E+02    0.3752613685E+02    0.2850059600E+02
156 2    0.4113535055E+02    0.3614375755E+02    0.2747829973E+02
157 1    0.3017442233E+02    0.3819652788E+02    0.3193358941E+02
158 2    0.2993682499E+02    0.3880574704E+02    0.3281610424E+02
159 2    0.2932790983E+02    0.3773449425E+02    0.3141865600E+02
160 2    0.3057935692E+02    0.3717313309E+02    0.3227902802E+02
161 1    0.4498092115E+02    0.2669481731E+02    0.3231085189E+02
162 2    0.4520758344E+02    0.2593155161E+02    0.3146617440E+02
163 2    0.4489811823E+02    0.2760183712E+02    0.3175561859E+02
164 1    0.4374197738E+02    0.2635443111E+02    0.3316521461E+02
165 2    0.4322689141E+02    0.2731391847E+02    0.3336549492E+02
166 2    0.4402199173E+02    0.2583407257E+02    0.3407235207E+02
167 1    0.4274973651E+02    0.2547198344E+02    0.3240498933E+02
168 2    0.4327334083E+02    0.2480189630E+02    0.3169950435E+02
169 2    0.4218598430E+02    0.2610142772E+02    0.3170742252E+02
170 1    0.4177028985E+02    0.2463259395E+02    0.3322118774E+02
171 2    0.4098508069E+02    0.2531589613E+02    0.3354078041E+02
172 2    0.4219178744E+02    0.2407634261E+02    0.3409126652E+02
173 1    0.4101427553E+02    0.3896593751E+02    0.3207972024E+02
174 2    0.4182581439E+02    0.3852504694E+02    0.3150766608E+02
175 2    0.4048320395E+02    0.2439289774E+02    0.3144678682E+02
176 1    0.4012982607E+02    0.3790625155E+02    0.3270915825E+02
177 2    0.4074470246E+02    0.3709853130E+02    0.3314083681E+02
178 2    0.3956649846E+02    0.3728065296E+02    0.3184754747E+02
179 1    0.3917509820E+02    0.3823491438E+02    0.3386228574E+02
180 2    0.3969311435E+02    0.3889386154E+02    0.3463376440E+02
181 2    0.3888763040E+02    0.3730986021E+02    0.3436111366E+02
182 1    0.3790475768E+02    0.3890229415E+02    0.3328767066E+02
183 2    0.3805730700E+02    0.3995419629E+02    0.3290560873E+02
184 2    0.3725377850E+02    0.3912495784E+02    0.3417835505E+02
185 1    0.4618201095E+02    0.2682059017E+02    0.3322785884E+02
186 2    0.4712090902E+02    0.2695076066E+02    0.3267172209E+02
187 2    0.4604928255E+02    0.2769362485E+02    0.3391578017E+02
188 2    0.4623349114E+02    0.2590990346E+02    0.4911740709E+02
189 1    0.3707220987E+02    0.3821013883E+02    0.3216630996E+02
190 2    0.3623457823E+02    0.3889849490E+02    0.3205200482E+02
191 2    0.3759104336E+02    0.3813766751E+02    0.3110295008E+02
192 2    0.3664100962E+02    0.3724081726E+02    0.3233691598E+02
193 1    0.4122825005E+02    0.2963602257E+02    0.3666770287E+02
194 2    0.4114591970E+02    0.2984503117E+02    0.3554962881E+02
195 2    0.4024036043E+02    0.4538032286E+02    0.3686920937E+02
196 1    0.4121530883E+02    0.2800858245E+02    0.3674028689E+02
197 2    0.4223034016E+02    0.2756523855E+02    0.3658033717E+02
198 2    0.4070291942E+02    0.4288095023E+02    0.3584653815E+02
199 1    0.4068883920E+02    0.2742455456E+02    0.3811158147E+02
200 2    0.4119043194E+02    0.2792955112E+02    0.3900682741E+02
201 2    0.4103424351E+02    0.2634384043E+02    0.3832861891E+02
202 1    0.3913490819E+02    0.2756668790E+02    0.3835658244E+02
203 2    0.3879665809E+02    0.2654352815E+02    0.3873315173E+02
204 2    0.3846662363E+02    0.2780153361E+02    0.3750972227E+02
205 1    0.3887742183E+02    0.2870701440E+02    0.3943972882E+02
206 2    0.3856858224E+02    0.2961805302E+02    0.3879486633E+02
207 2    0.3984004097E+02    0.2909048200E+02    0.3992659109E+02
208 1    0.3777137364E+02    0.2816369942E+02    0.4033250127E+02
209 2    0.3712034816E+02    0.2749491945E+02    0.3969037829E+02
210 2    0.3707728221E+02    0.2900259650E+02    0.4056731307E+02
211 1    0.3816714127E+02    0.4253039558E+02    0.4153357987E+02
212 2    0.3888192803E+02    0.4315881497E+02    0.4207117852E+02
213 2    0.3876946756E+02    0.4164232287E+02    0.4098540435E+02
214 1    0.3694718623E+02    0.4207449352E+02    0.4231876021E+02
215 2    0.3649128429E+02    0.4114637832E+02    0.4188668632E+02
216 2    0.3618675111E+02    0.4291058163E+02    0.4227735873E+02
217 1    0.4231057982E+02    0.3054658214E+02    0.3735855922E+02
218 2    0.4303338307E+02    0.3075068168E+02    0.2121731910E+02
219 2    0.4198269540E+02    0.3147126427E+02    0.2243738147E+02
220 2    0.4298308164E+02    0.3002718441E+02    0.3811760096E+02
221 1    0.3751599484E+02    0.4181008178E+02    0.4371943868E+02
222 2    0.3681369659E+02    0.4129344685E+02    0.4435159097E+02
223 2    0.3848607615E+02    0.4114148122E+02    0.4370240956E+02
224 2    0.3792765138E+02    0.4258656465E+02    0.4430240559E+02
225 1    0.2930207587E+02    0.4590862424E+02    0.4348839753E+02
226 2    0.2877758418E+02    0.4521283391E+02    0.4286568504E+02
227 2    0.3037607058E+02    0.4593554308E+02    0.4308860439E+02
228 1    0.2893462259E+02    0.3207132196E+02    0.4337518819E+02
229 2    0.2943299153E+02    0.3255410428E+02    0.4251710730E+02
230 2    0.2940580585E+02    0.3277759022E+02    0.4425265614E+02
231 1    0.2733545843E+02    0.4745680816E+02    0.4332332824E+02
232 2    0.2706521067E+02    0.4854504951E+02    0.4323415460E+02
233 2    0.2693985940E+02    0.4715748549E+02    0.4432313306E+02
234 1    0.2658658686E+02    0.4666034277E+02    0.4227411896E+02
235 2    0.2597892554E+02    0.4574871131E+02    0.4238605985E+02
236 2    0.2723936822E+02    0.4625970796E+02    0.4153286516E+02
237 1    0.2563691481E+02    0.4754031670E+02    0.4125294309E+02
238 2    0.2504716691E+02    0.4815954167E+02    0.4184782879E+02
239 2    0.2515732550E+02    0.3141200932E+02    0.4057309223E+02
240 1    0.2628317694E+02    0.4854147618E+02    0.4042770849E+02
241 2    0.2563942610E+02    0.3333494802E+02    0.3944878729E+02
242 2    0.2719852261E+02    0.3272349888E+02    0.3980614523E+02
243 1    0.2638562648E+02    0.4999675418E+02    0.4070931687E+02
244 2    0.2697288210E+02    0.5031442070E+02    0.4161039889E+02
245 2    0.2531223735E+02    0.5021274013E+02    0.4079235544E+02
246 1    0.2690430691E+02    0.5093252010E+02    0.3962378971E+02
247 2    0.2795793022E+02    0.5098649014E+02    0.3960300900E+02
248 2    0.2663582643E+02    0.5201551605E+02    0.3975318673E+02
249 1    0.2951573773E+02    0.3008732113E+02    0.4489638002E+02
250 2    0.2923442691E+02    0.3079723751E+02    0.4564391805E+02
251 2    0.2905077335E+02    0.2905194431E+02    0.4512502083E+02
252 2    0.3062294324E+02    0.3011618206E+02    0.4522289212E+02
253 1    0.3285869375E+02    0.3838794357E+02    0.2434504987E+02
254 2    0.3329172569E+02    0.3860534586E+02    0.2335286456E+02
255 2    0.2634844896E+02    0.5066982643E+02    0.3862286677E+02
256 2    0.3351016132E+02    0.3855283769E+02    0.4050608818E+02
257 1    0.3789784596E+02    0.3129297415E+02    0.3638230769E+02
258 2    0.3762883045E+02    0.3030701517E+02    0.3601612825E+02
259 2    0.3886790746E+02    0.3118147437E+02    0.3705035290E+02
260 1    0.3831251779E+02    0.3215902210E+02    0.3516050112E+02
261 2    0.3938291421E+02    0.3183261056E+02    0.3486042987E+02
262 2    0.3828489054E+02    0.3321556182E+02    0.3542169403E+02
263 1    0.3760138388E+02    0.3185088258E+02    0.3385330167E+02
264 2    0.3646725340E+02    0.3175776168E+02    0.3397395866E+02
265 2    0.3802922543E+02    0.3088709561E+02    0.3339980999E+02
266 1    0.3787645592E+02    0.3289875723E+02    0.3273926209E+02
267 2    0.3898429569E+02    0.3308564445E+02    0.3247593059E+02
268 2    0.3767717807E+02    0.3389096554E+02    0.3317861211E+02
269 1    0.3695999598E+02    0.3257606751E+02    0.3161168767E+02
270 2    0.3588827529E+02    0.3234174855E+02    0.3186418497E+02
271 2    0.3727487177E+02    0.3162052633E+02    0.3108012793E+02
272 1    0.3687598219E+02    0.3370813000E+02    0.3061006133E+02
273 2    0.3788042523E+02    0.3407671133E+02    0.3065333849E+02
274 2    0.3614638002E+02    0.3454647169E+02    0.3085223150E+02
275 1    0.3673578426E+02    0.3361439343E+02    0.2907174371E+02
276 2    0.3674996804E+02    0.3471418297E+02    0.2862758280E+02
277 2    0.3571894964E+02    0.3319862928E+02    0.2873698307E+02
278 1    0.3794299466E+02    0.3298462353E+02    0.2827395126E+02
279 2    0.3858981009E+02    0.3241136754E+02    0.2897660375E+02
280 2    0.3849930414E+02    0.3389542374E+02    0.2794298037E+02
281 1    0.3666111559E+02    0.3190360379E+02    0.3729269560E+02
282 2    0.3603936205E+02    0.3252042927E+02    0.3662334256E+02
283 2    0.3605545095E+02    0.3119835104E+02    0.3774786865E+02
284 2    0.3703860071E+02    0.3249761991E+02    0.3808119496E+02
285 1    0.3759558884E+02    0.3220979899E+02    0.2701438444E+02
286 2    0.3680445593E+02    0.3258905544E+02    0.2643349568E+02
287 2    0.3840376166E+02    0.3210772737E+02    0.2626518507E+02
288 2    0.3739422356E+02    0.3118251377E+02    0.2725446356E+02
289 1    0.3315299597E+02    0.2710887519E+02    0.4147635601E+02
290 2    0.3236481876E+02    0.2785947987E+02    0.4131145883E+02
291 2    0.3408522623E+02    0.2775235708E+02    0.4135373156E+02
292 1    0.3295757840E+02    0.2643770766E+02    0.4279464503E+02
293 2    0.3384406929E+02    0.2581999807E+02    0.4309639743E+02
294 2    0.3219930846E+02    0.2565934056E+02    0.4286700282E+02
295 1    0.3259301169E+02    0.2739883510E+02    0.4394936691E+02
296 2    0.3208516767E+02    0.2682886465E+02    0.4474074206E+02
297 2    0.3178382280E+02    0.2811712313E+02    0.2826530061E+02
298 1    0.3367311427E+02    0.2822633581E+02    0.2922835596E+02
299 2    0.3313250683E+02    0.2894920324E+02    0.4520016349E+02
300 2    0.3408450984E+02    0.2875497371E+02    0.2817595494E+02
301 1    0.3467940841E+02    0.2744852159E+02    0.3007872682E+02
302 2    0.3529860346E+02    0.2679710610E+02    0.2947044108E+02
303 2    0.3419843493E+02    0.2687780593E+02    0.4619114515E+02
304 1    0.3570380834E+02    0.2837577680E+02    0.3068178279E+02
305 2    0.3520362361E+02    0.2922649845E+02    0.3120736207E+02
306 2    0.3629576204E+02    0.2887581616E+02    0.2984687698E+02
307 1    0.3668141281E+02    0.2763847819E+02    0.3168311956E+02
308 2    0.3776694080E+02    0.2804541113E+02    0.3146218862E+02
309 2    0.3664127905E+02    0.2656145782E+02    0.3153967995E+02
310 1    0.3622648821E+02    0.2778942982E+02    0.3317607843E+02
311 2    0.3521982285E+02    0.2728096273E+02    0.3338130246E+02
312 2    0.3621457766E+02    0.2884162310E+02    0.3336691648E+02
313 1    0.3316550732E+02    0.2609331979E+02    0.4031959937E+02
314 2    0.3380922433E+02    0.2626055081E+02    0.3944023941E+02
315 2    0.3357095039E+02    0.2512054542E+02    0.4061545101E+02
316 2    0.3205443941E+02    0.2593176979E+02    0.3991450057E+02
317 1    0.3731559041E+02    0.2723368382E+02    0.3412325897E+02
318 2    0.3822564377E+02    0.2696327245E+02    0.3368043130E+02
319 2    0.3774404754E+02    0.2780992986E+02    0.3499305938E+02
320 2    0.3702837191E+02    0.2627461357E+02    0.3466548058E+02
321 1    0.3754740709E+02    0.3643681744E+02    0.2211917744E+02
322 2    0.3676105111E+02    0.3643494161E+02    0.2122578734E+02
323 2    0.3761764125E+02    0.3745610383E+02    0.2253724083E+02
324 1    0.3713261208E+02    0.3547282966E+02    0.3857709633E+02
325 2    0.3792987597E+02    0.3507390400E+02    0.3922983317E+02
326 2    0.3672377125E+02    0.3455453280E+02    0.3816525748E+02
327 1    0.3604555405E+02    0.3591060935E+02    0.3955576446E+02
328 2    0.3528663940E+02    0.3646371319E+02    0.3899529630E+02
329 2    0.3644568218E+02    0.3670772014E+02    0.4018668049E+02
330 1    0.3545136945E+02    0.3473360484E+02    0.4030444205E+02
331 2    0.3497631702E+02    0.3501561160E+02    0.4125380949E+02
332 2    0.3630055237E+02    0.3414749730E+02    0.4065818791E+02
333 1    0.3457238373E+02    0.3392069251E+02    0.3944608307E+02
334 2    0.3411094092E+02    0.3321485412E+02    0.4017963213E+02
335 2    0.3510124232E+02    0.3334112173E+02    0.3859270033E+02
336 1    0.3332933563E+02    0.3472742360E+02    0.3881118120E+02
337 2    0.3370005175E+02    0.3525027956E+02    0.3791482431E+02
338 2    0.3308792795E+02    0.3568955446E+02    0.3930234394E+02
339 1    0.3218007147E+02    0.3381369509E+02    0.3841085975E+02
340 2    0.3189294260E+02    0.3305181357E+02    0.3926434972E+02
341 2    0.3255889456E+02    0.3318934833E+02    0.3754661346E+02
342 1    0.3082274936E+02    0.3451095157E+02    0.3800750820E+02
343 2    0.3102997526E+02    0.3506707726E+02    0.3702501734E+02
344 2    0.3052487369E+02    0.3511800586E+02    0.3889566823E+02
345 1    0.3892922286E+02    0.3601411254E+02    0.2147689225E+02
346 2    0.3879449131E+02    0.3516551061E+02    0.2080195557E+02
347 2    0.3930397682E+02    0.3687810557E+02    0.2094989588E+02
348 2    0.3952206301E+02    0.3560972972E+02    0.2230472624E+02
349 1    0.2956926054E+02    0.3372904772E+02    0.3757074090E+02
350 2    0.2935300189E+02    0.3379475812E+02    0.3651053799E+02
351 2    0.2968056708E+02    0.3272590101E+02    0.3775951915E+02
352 2    0.2855929333E+02    0.3394480366E+02    0.3807891077E+02
0.0000000000E+00    0.0000000000E+00    0.0000000000E+00
0.1532620600E+02    0.0000000000E+00    0.0000000000E+00
0.0000000000E+00    0.1532620600E+02    0.0000000000E+00
0.0000000000E+00    0.0000000000E+00    0.1532620600E+02
}
Driver = VelocityVerlet {
  Steps = 50000
  TimeStep [fs] = 0.2
  MDRestartFrequency = 25
  Thermostat = None {}
  Xlbomd = {
    IntegrationSteps = 6
    MinSccIterations = 2
    MaxSccIterations = 200
    SccTolerance = 1e-6
    PreSteps = 0
  }
  Velocities [AA/Ps] = {
1.07042361 6.80491595 4.72395208
-17.62956224 -7.03240791 21.06918500
3.04628967 16.49129579 12.22756176
-10.39679987 11.16490566 -3.53221280
24.98894784 23.44128658 5.34860863
-13.22278628 27.12401811 28.36008172
-6.86016423 3.22797737 -2.96006436
10.41581450 6.20207290 -42.05636257
-30.19560251 26.94162108 -32.53147629
3.79737786 -4.01019372 5.97378216
38.14966496 -0.40060696 -3.03988367
39.69910689 18.27476414 -0.73196139
-8.64286435 -8.66864600 13.44682109
-0.42572628 19.34068483 -19.79005070
1.56299768 -1.29290281 -28.52234480
-0.77920683 -1.51363543 2.87589223
48.13700337 5.84884982 -22.56211231
-14.40906979 -11.21065584 26.75829787
-4.47668584 -5.38987738 4.05678877
-2.38862304 -13.72933575 19.94784156
7.47254619 24.18499301 18.56856233
-6.86932171 7.47295922 0.69119717
-25.29974974 4.49605383 15.54467490
-3.83435708 -22.40347783 -29.77442807
-2.51586872 1.22221419 -1.21147014
-0.06852392 -4.53162226 -25.18313316
-14.88256268 9.41431911 -12.24433160
1.85513833 27.43871235 -10.66238534
15.02039753 -4.16486015 -0.89614922
-11.55185553 -17.15332839 -7.40874939
20.83097606 9.33675795 7.87552226
24.62569943 -13.70439665 0.85479213
11.70087547 7.29507672 -7.71105895
-78.16336519 -13.19773906 18.22060481
-5.24501842 9.67422748 -22.30307718
1.07909682 5.36190836 -1.87151701
23.51259609 16.46262211 -2.94723043
33.51964443 -7.73106691 -14.62667920
-0.66080123 -1.30937903 -4.67608924
11.95519093 41.08681437 -13.35848148
14.42920750 -38.84936051 22.03304761
8.73616020 -4.36686534 -2.87121845
-25.34518593 -21.40386166 22.59805975
-12.74673485 25.26971165 -15.29424748
-3.24097576 9.06556203 -8.58111072
11.01427026 -1.69461973 -66.58813546
-7.57872747 28.09813764 -0.97579928
-9.01836536 -0.59169052 9.51215633
29.26698433 9.53845939 -0.95869310
19.36638448 -13.55015391 4.89880580
11.61112182 6.51491690 0.15619828
-2.98317809 33.55095293 -13.83927553
52.46474078 -38.32095879 24.93610716
-11.46494422 -2.64994928 -5.80948200
-7.41537118 17.80402169 8.54941927
16.62400591 54.89210118 37.55701545
-4.67991286 -2.78292585 10.69250801
4.88285893 -46.60711975 -5.45273593
-2.41294570 -2.92871295 7.35423796
-10.94491446 13.70475520 0.50557677
-6.28304254 -1.46960464 1.09690177
-7.14412343 -15.46372903 54.89844130
-16.57628434 -1.18201466 -25.11791042
36.93710990 -17.64228929 21.89029045
0.23394813 4.34506223 2.94005977
28.73219288 -28.04486465 -2.68932743
21.69105708 2.98209807 37.20614033
-0.78740674 7.90237282 10.82072275
31.58095065 0.53775348 18.44373148
42.89446221 28.36367448 31.24494250
-7.00008747 -0.10196095 5.35511382
7.21447782 8.73092370 4.01245681
4.41205764 -6.88223443 30.21227097
-13.82580323 8.99128219 12.15037309
-1.01548427 -28.16630859 -18.75591995
-8.43747117 -15.37764423 34.41538314
-5.17805524 4.33649006 2.61678483
6.06275165 13.02711174 -2.96778378
-9.05834735 2.10201101 -31.68047778
-3.90618494 -2.75852516 2.58103175
-2.90358875 -17.76417380 6.97539962
32.39735528 -41.39650103 7.51411697
1.28863448 5.49033826 -2.69087898
-26.50262063 -10.41471433 -2.07681436
29.30134060 18.02889457 12.23707404
-2.04743572 1.67469261 -2.73976964
-26.40567164 -14.69499742 -9.36708528
0.83690368 7.38440661 9.78469120
-6.62163059 -1.98852143 -2.83122476
-30.53512371 -15.39692543 1.93701915
12.44445559 -8.13915578 -50.71219300
8.39949504 -6.79220681 13.30985594
9.80265094 3.31886576 11.31811025
21.39442665 1.87249558 -9.57110319
-5.85925606 16.34581813 19.29583429
26.86791895 -11.50565134 -14.60463518
3.13372931 -9.29543547 1.74495399
5.07721278 -27.28569734 -5.16898401
19.03468321 -17.25656540 36.84285842
2.72804146 6.28882984 10.01407773
-19.27513846 9.83564198 -39.86311241
-7.79020775 -12.76886970 0.51400657
9.22747285 -9.64239591 -1.14436206
-2.06279889 -23.37109685 5.05206600
-42.97467917 10.84938315 26.67474322
-2.64626639 -9.08042989 12.73973653
2.12291070 -0.98079398 -12.93631348
32.11095183 -19.51702038 18.42612055
-3.70223229 -4.50717904 -6.78261350
7.74792260 33.84162263 8.78484259
30.22970826 -6.32167742 -29.16265038
1.20549302 -4.80909775 6.00848756
-8.02915014 -0.98552000 10.19772732
-14.16882165 13.01964740 -16.53346451
9.01538674 1.60597966 0.72416234
25.76471184 28.29194428 -19.73767296
17.22714486 15.09917586 10.48342922
-3.20078866 -3.11320114 4.21714643
29.76188970 -46.98680920 -21.11576464
-23.80233097 -14.96197695 -5.34302971
-9.11667077 4.90372645 -0.23195352
37.04477404 -2.27160663 15.65500170
6.26259080 6.18428027 -18.87898610
-8.12966300 -18.94065760 11.58223102
8.91174081 -3.71589373 12.13728036
14.38917987 26.38564482 14.25514691
25.78399204 -11.16790611 47.78468169
11.85508868 -0.14720508 22.86340688
4.70743672 4.00666291 -0.14252396
7.68230330 5.59678016 17.89439132
-32.43078664 17.87338393 1.53569064
-0.65048626 -11.27627948 11.90768236
25.57861457 -8.98681848 10.64575644
22.30524049 -12.81109189 21.88442557
-3.92280402 -7.62233814 -3.38632824
4.09455492 -2.84796961 5.77968285
2.67732400 2.67769033 -49.69970766
-6.92176778 13.14491151 4.94462302
10.96715462 -2.11324823 -3.06030885
-32.78514322 27.99309374 21.79529677
-8.92868571 6.60614638 -7.33511036
-13.02381135 -7.83023860 -3.04018883
-30.78994166 32.81381810 5.62481752
-4.77124348 -2.89059814 7.13586054
37.67812396 -3.99811396 -21.73314844
-27.94517546 23.40804853 -18.02399077
-1.84779686 -0.67203221 9.99956249
-10.94388329 -5.84745761 -39.75758763
25.47755882 -5.92122224 -10.25989699
-10.35732629 13.15199121 14.20271295
-19.49180925 2.66299706 -13.25288104
-45.08440089 -34.03888624 48.21304208
0.55727884 -5.73303367 1.42246722
-26.14176956 -30.45661371 -0.52211514
-33.33345214 26.52408867 -30.95761165
16.96583422 30.38626457 26.70865848
-5.55797377 -5.32358435 -0.36422660
-26.40441008 11.92664171 -9.09370653
-15.30699660 1.45141396 -5.58019330
12.31384407 -8.10884858 -20.44589615
6.86018135 -11.91478051 -3.52647334
22.92523606 -23.44008655 -5.64032500
12.65383568 -14.31597805 2.27634390
-8.51933372 -5.12641025 -8.64596152
21.53102321 -15.96526997 6.71124810
-50.39717270 13.20734618 -10.89188300
6.43589435 -2.88017163 -7.90650105
18.73200242 -43.05059824 12.79906173
-2.83642919 29.37350627 1.17801329
0.35960113 -0.47891929 -0.08599458
20.99784614 35.59609441 -21.79553066
16.47247581 -6.15120227 9.86105368
-8.87747992 0.07866355 6.21033805
-28.76914868 9.29057784 -11.33617243
22.26316593 41.65031872 -9.67356337
-1.37793983 -1.80972675 -3.79307918