Geometry = GenFormat {
<<< "system.gen"
}

Driver = VelocityVerlet{
  Steps = 50000
  TimeStep [fs] = 0.2
  MDRestartFrequency = 25
  Thermostat = None {
    #InitialTemperature [Kelvin] = 300.0
  }
  Xlbomd{
    IntegrationSteps = 6
    MinSccIterations = 2
    MaxSccIterations = 200
    SccTolerance = 1e-6
  }
  Velocities [AA/Ps] {
1.07042361 6.80491595 4.72395208
-17.62956224 -7.03240791 21.06918500
3.04628967 16.49129579 12.22756176
-10.39679987 11.16490566 -3.53221280
24.98894784 23.44128658 5.34860863
-13.22278628 27.12401811 28.36008172
-6.86016423 3.22797737 -2.96006436
10.41581450 6.20207290 -42.05636257
-30.19560251 26.94162108 -32.53147629
3.79737786 -4.01019372 5.97378216
38.14966496 -0.40060696 -3.03988367
39.69910689 18.27476414 -0.73196139
-8.64286435 -8.66864600 13.44682109
-0.42572628 19.34068483 -19.79005070
1.56299768 -1.29290281 -28.52234480
-0.77920683 -1.51363543 2.87589223
48.13700337 5.84884982 -22.56211231
-14.40906979 -11.21065584 26.75829787
-4.47668584 -5.38987738 4.05678877
-2.38862304 -13.72933575 19.94784156
7.47254619 24.18499301 18.56856233
-6.86932171 7.47295922 0.69119717
-25.29974974 4.49605383 15.54467490
-3.83435708 -22.40347783 -29.77442807
-2.51586872 1.22221419 -1.21147014
-0.06852392 -4.53162226 -25.18313316
-14.88256268 9.41431911 -12.24433160
1.85513833 27.43871235 -10.66238534
15.02039753 -4.16486015 -0.89614922
-11.55185553 -17.15332839 -7.40874939
20.83097606 9.33675795 7.87552226
24.62569943 -13.70439665 0.85479213
11.70087547 7.29507672 -7.71105895
-78.16336519 -13.19773906 18.22060481
-5.24501842 9.67422748 -22.30307718
1.07909682 5.36190836 -1.87151701
23.51259609 16.46262211 -2.94723043
33.51964443 -7.73106691 -14.62667920
-0.66080123 -1.30937903 -4.67608924
11.95519093 41.08681437 -13.35848148
14.42920750 -38.84936051 22.03304761
8.73616020 -4.36686534 -2.87121845
-25.34518593 -21.40386166 22.59805975
-12.74673485 25.26971165 -15.29424748
-3.24097576 9.06556203 -8.58111072
11.01427026 -1.69461973 -66.58813546
-7.57872747 28.09813764 -0.97579928
-9.01836536 -0.59169052 9.51215633
29.26698433 9.53845939 -0.95869310
19.36638448 -13.55015391 4.89880580
11.61112182 6.51491690 0.15619828
-2.98317809 33.55095293 -13.83927553
52.46474078 -38.32095879 24.93610716
-11.46494422 -2.64994928 -5.80948200
-7.41537118 17.80402169 8.54941927
16.62400591 54.89210118 37.55701545
-4.67991286 -2.78292585 10.69250801
4.88285893 -46.60711975 -5.45273593
-2.41294570 -2.92871295 7.35423796
-10.94491446 13.70475520 0.50557677
-6.28304254 -1.46960464 1.09690177
-7.14412343 -15.46372903 54.89844130
-16.57628434 -1.18201466 -25.11791042
36.93710990 -17.64228929 21.89029045
0.23394813 4.34506223 2.94005977
28.73219288 -28.04486465 -2.68932743
21.69105708 2.98209807 37.20614033
-0.78740674 7.90237282 10.82072275
31.58095065 0.53775348 18.44373148
42.89446221 28.36367448 31.24494250
-7.00008747 -0.10196095 5.35511382
7.21447782 8.73092370 4.01245681
4.41205764 -6.88223443 30.21227097
-13.82580323 8.99128219 12.15037309
-1.01548427 -28.16630859 -18.75591995
-8.43747117 -15.37764423 34.41538314
-5.17805524 4.33649006 2.61678483
6.06275165 13.02711174 -2.96778378
-9.05834735 2.10201101 -31.68047778
-3.90618494 -2.75852516 2.58103175
-2.90358875 -17.76417380 6.97539962
32.39735528 -41.39650103 7.51411697
1.28863448 5.49033826 -2.69087898
-26.50262063 -10.41471433 -2.07681436
29.30134060 18.02889457 12.23707404
-2.04743572 1.67469261 -2.73976964
-26.40567164 -14.69499742 -9.36708528
0.83690368 7.38440661 9.78469120
-6.62163059 -1.98852143 -2.83122476
-30.53512371 -15.39692543 1.93701915
12.44445559 -8.13915578 -50.71219300
8.39949504 -6.79220681 13.30985594
9.80265094 3.31886576 11.31811025
21.39442665 1.87249558 -9.57110319
-5.85925606 16.34581813 19.29583429
26.86791895 -11.50565134 -14.60463518
3.13372931 -9.29543547 1.74495399
5.07721278 -27.28569734 -5.16898401
19.03468321 -17.25656540 36.84285842
2.72804146 6.28882984 10.01407773
-19.27513846 9.83564198 -39.86311241
-7.79020775 -12.76886970 0.51400657
9.22747285 -9.64239591 -1.14436206
-2.06279889 -23.37109685 5.05206600
-42.97467917 10.84938315 26.67474322
-2.64626639 -9.08042989 12.73973653
2.12291070 -0.98079398 -12.93631348
32.11095183 -19.51702038 18.42612055
-3.70223229 -4.50717904 -6.78261350
7.74792260 33.84162263 8.78484259
30.22970826 -6.32167742 -29.16265038
1.20549302 -4.80909775 6.00848756
-8.02915014 -0.98552000 10.19772732
-14.16882165 13.01964740 -16.53346451
9.01538674 1.60597966 0.72416234
25.76471184 28.29194428 -19.73767296
17.22714486 15.09917586 10.48342922
-3.20078866 -3.11320114 4.21714643
29.76188970 -46.98680920 -21.11576464
-23.80233097 -14.96197695 -5.34302971
-9.11667077 4.90372645 -0.23195352
37.04477404 -2.27160663 15.65500170
6.26259080 6.18428027 -18.87898610
-8.12966300 -18.94065760 11.58223102
8.91174081 -3.71589373 12.13728036
14.38917987 26.38564482 14.25514691
25.78399204 -11.16790611 47.78468169
11.85508868 -0.14720508 22.86340688
4.70743672 4.00666291 -0.14252396
7.68230330 5.59678016 17.89439132
-32.43078664 17.87338393 1.53569064
-0.65048626 -11.27627948 11.90768236
25.57861457 -8.98681848 10.64575644
22.30524049 -12.81109189 21.88442557
-3.92280402 -7.62233814 -3.38632824
4.09455492 -2.84796961 5.77968285
2.67732400 2.67769033 -49.69970766
-6.92176778 13.14491151 4.94462302
10.96715462 -2.11324823 -3.06030885
-32.78514322 27.99309374 21.79529677
-8.92868571 6.60614638 -7.33511036
-13.02381135 -7.83023860 -3.04018883
-30.78994166 32.81381810 5.62481752
-4.77124348 -2.89059814 7.13586054
37.67812396 -3.99811396 -21.73314844
-27.94517546 23.40804853 -18.02399077
-1.84779686 -0.67203221 9.99956249
-10.94388329 -5.84745761 -39.75758763
25.47755882 -5.92122224 -10.25989699
-10.35732629 13.15199121 14.20271295
-19.49180925 2.66299706 -13.25288104
-45.08440089 -34.03888624 48.21304208
0.55727884 -5.73303367 1.42246722
-26.14176956 -30.45661371 -0.52211514
-33.33345214 26.52408867 -30.95761165
16.96583422 30.38626457 26.70865848
-5.55797377 -5.32358435 -0.36422660
-26.40441008 11.92664171 -9.09370653
-15.30699660 1.45141396 -5.58019330
12.31384407 -8.10884858 -20.44589615
6.86018135 -11.91478051 -3.52647334
22.92523606 -23.44008655 -5.64032500
12.65383568 -14.31597805 2.27634390
-8.51933372 -5.12641025 -8.64596152
21.53102321 -15.96526997 6.71124810
-50.39717270 13.20734618 -10.89188300
6.43589435 -2.88017163 -7.90650105
18.73200242 -43.05059824 12.79906173
-2.83642919 29.37350627 1.17801329
0.35960113 -0.47891929 -0.08599458
20.99784614 35.59609441 -21.79553066
16.47247581 -6.15120227 9.86105368
-8.87747992 0.07866355 6.21033805
-28.76914868 9.29057784 -11.33617243
22.26316593 41.65031872 -9.67356337
-1.37793983 -1.80972675 -3.79307918
-1.87453471 5.51062759 -13.46528936
26.76177447 -17.99578514 -16.14023661
-3.44739778 1.01119489 -4.37454493
-42.63363259 12.36995652 -7.92673234
-1.38470396 9.23612946 37.77474924
-4.34081232 2.05971960 -5.34039769
-26.11045238 6.04220662 4.73184216
1.21479641 -12.44968700 1.00025321
-3.87388139 -5.79291916 -6.33415875
-22.66342920 -11.95126079 6.40312995
-13.55765865 -23.05065806 -0.11276676
9.30757430 -21.16876753 -22.25150484
1.90419902 -0.42456706 -2.33660957
17.51738403 36.35029845 -23.31830832
22.88995803 -35.83279446 3.31268103
28.47709314 21.38403063 -51.96822867
-4.43186201 2.42861208 4.78133697
-27.69838547 -2.57715712 -26.61642818
3.35056749 4.66624961 6.10309339
-8.91675236 4.57324469 -15.57398775
5.86908221 10.77205989 -27.72928848
5.11013212 -11.73299698 20.16959522
3.83698732 -7.99620210 -14.34416419
-24.66953789 20.52032090 16.68732584
-6.92863214 -28.25026294 -18.53027215
-9.10103307 -3.92285586 -5.73020347
10.17262597 -34.69760252 -21.26133653
0.10096690 -7.52147315 11.34289642
10.43731939 -5.20479103 3.03175120
51.45049988 12.13509706 -24.44074498
16.11302737 -23.53639847 -16.80947492
16.08918409 1.31348292 -8.07336151
-29.42700249 25.18022248 -1.49064984
47.14183954 -4.06628113 -17.89768580
-9.74176113 -1.00006813 -1.71159314
-23.84550724 -15.56584786 38.56585693
5.56673259 22.95178404 7.76636955
-0.44489883 5.15213921 -1.29548206
11.67783407 28.07056527 3.15542495
4.22227478 15.54346594 -9.82563485
0.61143482 -2.54525630 -2.36285165
30.56772989 -10.49850065 15.64318836
10.75504840 15.92665196 -10.11275265
-39.49268272 18.27896295 -0.90506054
4.61867815 -0.90111166 -1.24202809
-14.93531105 -12.80983710 -12.99629515
2.24986840 6.45914450 14.51199318
25.22514925 2.21108820 -8.81928177
9.89391901 2.01671133 -1.35071192
-14.85948709 -20.15636094 36.90625247
-31.08438403 -14.95533938 2.89185342
12.04130618 -1.82630919 0.19609553
28.76672556 2.86524922 -13.52088527
-1.91492553 12.98623744 -16.96531641
4.62793153 -23.96228800 -2.68845811
-4.81308442 9.96183490 -22.25669244
14.56766347 -32.01417342 -42.34147985
-9.51843513 -1.26911084 3.96923294
28.39639508 3.93246588 26.82203509
-72.04835974 20.26634842 19.13548046
1.39129410 10.75939856 -4.82062166
2.56606262 0.56951238 1.29573457
21.34969512 15.04415591 1.10175876
-0.64071148 9.10350568 6.60361890
-27.21636831 46.73468036 25.53595263
-30.62409204 -0.59137328 63.38223377
5.38508851 3.96298036 -7.64654224
-29.72105716 -25.91305839 19.79820971
3.53099701 54.47118342 -3.81378726
10.97169404 -12.85504482 -7.27410178
1.64146692 3.67117513 44.73142330
5.43203971 66.72808753 3.11508197
-14.78279759 -1.95551015 1.70371563
-27.38767877 42.18261894 3.62988638
-19.40462173 -42.21413279 -39.40041521
-52.07499973 13.21016083 0.61059643
12.00411513 -4.25727214 -10.01343049
70.51145700 -13.15038427 63.15555562
6.06498438 13.29359311 17.87197204
-28.79449292 44.08213823 6.68265625
8.32769674 4.63446405 1.33303781
16.47096023 -4.69961480 23.19881169
-8.41120888 16.29397351 -26.10693389
-8.18264365 0.58651969 -0.44411748
-6.47268465 -3.25101808 -18.63257535
8.59107057 0.40321972 1.49333776
7.99924576 5.39315736 -5.33342576
37.18041812 0.86807346 -0.44626020
12.68822955 -10.79138367 9.35336756
-2.36178514 -2.07797228 -0.67303418
34.63025622 9.81113496 7.13125045
45.80682647 0.82107865 -37.28048581
7.98765501 0.96010854 -5.86012287
21.88609618 14.23085023 -9.90267457
-7.08618617 -43.50715005 -19.62468313
5.69310397 1.67551289 -7.92983935
25.36586101 8.48201077 20.92412036
24.44697631 18.02149501 21.30465916
-4.56063437 -8.46232492 -0.42005468
1.37073074 31.30294376 4.83313855
-16.49194970 5.38299830 -3.92401696
8.79791481 12.16043608 4.76396032
-2.39723576 -25.29524765 -4.34223077
23.27394578 13.65278400 8.51724186
-7.23729667 4.38688810 -6.89151269
-13.88433499 -24.73800125 -0.62727772
3.23174206 13.95187344 14.87587424
57.23695305 -7.25958949 -13.85779591
6.73741190 0.86031640 -8.84557667
12.34298780 -2.28728212 -5.43271883
-2.76005259 20.32253168 -21.89274426
24.25802553 1.48626609 43.06734268
4.08789303 13.35361941 -4.80798009
-18.94855589 -9.12124346 2.37743249
25.80883119 -32.51918321 8.40648521
-1.69136385 7.53206496 -2.21654683
-10.96786856 17.21012941 -15.23540014
-9.76179695 -12.52218880 0.16698256
7.72028275 4.72580869 -7.01649801
24.00690074 4.60480469 6.08148188
38.20121648 14.74621604 -5.60092034
0.68635158 -3.19135940 -2.94422723
-21.06833718 11.32073405 -21.07833290
3.12948578 38.98752453 -7.77611716
10.20501982 3.01864633 11.94970735
1.38571667 -27.06608620 27.40061874
-11.03962860 -9.23320811 17.94809938
-7.10342938 7.49747769 3.25029341
-11.90701165 -25.56783779 -4.02968791
10.64290503 -0.22755162 9.13979473
-5.62938334 -3.11297232 3.34458001
6.40772502 -0.37708782 -0.48068996
-5.13148257 7.93423625 -26.72753029
-0.60694318 -7.18453797 -1.42511606
23.86149896 5.60080283 -16.56468218
32.30044306 5.05838855 14.28108397
-2.22461042 -3.41099493 -7.33409897
-52.01315496 26.97671135 26.27294020
-23.67515688 29.43037095 14.40155916
9.18661444 -24.52143561 3.85121217
-6.16621637 -0.94884119 0.49665040
14.76178542 14.82169040 -33.85048895
-3.48029755 -20.71382110 7.11771763
20.47875700 10.03301906 4.16263018
-11.20521766 -5.74819419 0.72816804
-0.67340973 11.64761537 17.35520217
-21.33580933 28.82343645 -33.40816251
0.27182702 -13.31774938 10.37944500
-13.87358245 10.21776338 34.10461524
13.36585978 8.87015744 35.50620641
-4.50354880 -4.56191096 -4.69799672
-21.90478799 -3.43313905 -17.85749370
0.48552191 -33.56233385 14.83229471
3.08963302 -0.93630383 2.32633252
-11.28978838 -3.12197428 13.83749394
-20.52828744 -22.21305285 -5.16396402
1.14027212 2.01544503 -3.07416407
18.41420040 -22.03049414 -3.71639483
-13.96760271 0.16707412 6.76217576
-3.05100913 -2.72932878 -0.49402747
-17.40491513 20.81770887 4.21400639
41.61692402 -1.71771248 -17.47069813
4.13372644 -13.50830898 -2.53971185
-30.80412744 -37.64466009 -1.32472984
2.33023556 -7.19699647 14.14030686
1.68637537 6.66176988 -1.50115392
17.75307441 10.73840528 -15.28962320
-32.58252854 -13.60204004 18.56410899
-2.23556598 4.43975095 -2.49473335
3.83763942 -24.26470256 40.19600338
-25.67294820 -15.42997959 -31.64357804
-3.20274296 40.57409213 -8.93475851
-0.95601224 -7.75786723 -4.59836184
-22.80328110 -7.01281678 -8.97808944
30.64575166 9.40471163 35.53534585
8.40906226 23.39281189 -14.73721937
  }
}

Hamiltonian = DFTB {
  SCC = Yes
  SCCTolerance = 1e-6
  MaxSCCIterations = 200
  readinitialcharges = yes
  ForceEvaluation = Dynamics
  MaxAngularMomentum = {
    C = "p"
    H = "s"
  }
  Charge = 0.0
  SpinPolarisation = {}
  Eigensolver = Standard {}
  Filling = Fermi {
    Temperature [Kelvin] = 300.0
  }
  SlaterKosterFiles = Type2FileNames {
    Prefix = "/usr/workspace/troup1/second_set/real_data/decane_run_first_50/pbc-0-3/"
    Separator = "-"
    Suffix = ".skf"
    LowerCaseTypeName = No
  }
  KPointsAndWeights = {
    0.0000000000000 0.0000000000000 0.0000000000000 1.00000000000000
  }
  Dispersion = LennardJones {
    Parameters = UFFParameters {}
  }
}

ParserOptions = {
  ParserVersion = 3
}
