Geometry = GenFormat {
352  S
C  H
1 1    0.4157845170E+02    0.2458485403E+02    0.4029582125E+02
2 2    0.4179216873E+02    0.2360275036E+02    0.4054277854E+02
3 2    0.4061501616E+02    0.2486385734E+02    0.4083596769E+02
4 1    0.4251996486E+02    0.4101952437E+02    0.4082461448E+02
5 2    0.4169460211E+02    0.4178656257E+02    0.4105319915E+02
6 2    0.2792969820E+02    0.4135684527E+02    0.4004829799E+02
7 1    0.4337710544E+02    0.4067629913E+02    0.4210441620E+02
8 2    0.2895525694E+02    0.4022921928E+02    0.4180124595E+02
9 2    0.4289223359E+02    0.3998769302E+02    0.4271585785E+02
10 1    0.2854327928E+02    0.4195076300E+02    0.4280756130E+02
11 2    0.2758471429E+02    0.4253276640E+02    0.4328142328E+02
12 2    0.2884511298E+02    0.4271030286E+02    0.4212802447E+02
13 1    0.4487579366E+02    0.4184446727E+02    0.4388263494E+02
14 2    0.4446359635E+02    0.4139907528E+02    0.4483273013E+02
15 2    0.4508141578E+02    0.4281241482E+02    0.4438519636E+02
16 1    0.3078755924E+02    0.4112153868E+02    0.4343494825E+02
17 2    0.3146442982E+02    0.4167753812E+02    0.4281402994E+02
18 2    0.3044868490E+02    0.4023346726E+02    0.4288683437E+02
19 1    0.4689158851E+02    0.4035292529E+02    0.4451694146E+02
20 2    0.4601158199E+02    0.3982852323E+02    0.4513895822E+02
21 2    0.4730321460E+02    0.4108951323E+02    0.4530882221E+02
22 1    0.4792758652E+02    0.3944232275E+02    0.4399438361E+02
23 2    0.3290799899E+02    0.3852738219E+02    0.4465783338E+02
24 2    0.3345255738E+02    0.4019345818E+02    0.4381186418E+02
25 1    0.4127328973E+02    0.2457535757E+02    0.3874759526E+02
26 2    0.4216967498E+02    0.2451342126E+02    0.3803544967E+02
27 2    0.4062806845E+02    0.2369746986E+02    0.3852387367E+02
28 2    0.4081615621E+02    0.2555826706E+02    0.3863231284E+02
29 1    0.4778987442E+02    0.3879649252E+02    0.4254802137E+02
30 2    0.4683949437E+02    0.3851626281E+02    0.4209600887E+02
31 2    0.4831957349E+02    0.3930784351E+02    0.4169331112E+02
32 2    0.4832380925E+02    0.3783363989E+02    0.4250278440E+02
33 1    0.2868249770E+02    0.2932382354E+02    0.3686346632E+02
34 2    0.2817660458E+02    0.2840553726E+02    0.3680551619E+02
35 2    0.2955426249E+02    0.2886526653E+02    0.3740217009E+02
36 1    0.2906714117E+02    0.2984613845E+02    0.3552594817E+02
37 2    0.2968996092E+02    0.2914029821E+02    0.3501132979E+02
38 2    0.2970587122E+02    0.3077499503E+02    0.3575073669E+02
39 1    0.2784586721E+02    0.3010576697E+02    0.3467038215E+02
40 2    0.2732180493E+02    0.3101576460E+02    0.3488664779E+02
41 2    0.2728422257E+02    0.2915552371E+02    0.3476977017E+02
42 1    0.2818047974E+02    0.3023808251E+02    0.3314109742E+02
43 2    0.4385570959E+02    0.2930055021E+02    0.3274645650E+02
44 2    0.2896351614E+02    0.3095158384E+02    0.3306766004E+02
45 1    0.2698590596E+02    0.3077690752E+02    0.3234786709E+02
46 2    0.2657967291E+02    0.3164947371E+02    0.3283295361E+02
47 2    0.4139728681E+02    0.3008812570E+02    0.3219850232E+02
48 1    0.4264961757E+02    0.3122884710E+02    0.3093872278E+02
49 2    0.4334956177E+02    0.3207243976E+02    0.3104399590E+02
50 2    0.4166996405E+02    0.3174849461E+02    0.3061956504E+02
51 1    0.2769494378E+02    0.3022386222E+02    0.2987330449E+02
52 2    0.2686056965E+02    0.2962153069E+02    0.2975713300E+02
53 2    0.2841327047E+02    0.2951600479E+02    0.3041574139E+02
54 1    0.4353229429E+02    0.3098436678E+02    0.4390799456E+02
55 2    0.4395716778E+02    0.3023473984E+02    0.4317560337E+02
56 2    0.4426900011E+02    0.3169716742E+02    0.4428503878E+02
57 1    0.2791811478E+02    0.3009922279E+02    0.3787325604E+02
58 2    0.2687330653E+02    0.3031396742E+02    0.3758658746E+02
59 2    0.2786037453E+02    0.2950983244E+02    0.3878300924E+02
60 2    0.2840574943E+02    0.3103187505E+02    0.3807033367E+02
61 1    0.2717800741E+02    0.3187384637E+02    0.4321714431E+02
62 2    0.2641188107E+02    0.3127901209E+02    0.4265935706E+02
63 2    0.2657801075E+02    0.3266267094E+02    0.4376649461E+02
64 2    0.2762559694E+02    0.3250096920E+02    0.4237365300E+02
65 1    0.3496268492E+02    0.3657344522E+02    0.3647021516E+02
66 2    0.3460497502E+02    0.3627302206E+02    0.3542090597E+02
67 2    0.3526653436E+02    0.3572073100E+02    0.3701997940E+02
68 1    0.3601568734E+02    0.3762492124E+02    0.3638455382E+02
69 2    0.3561418118E+02    0.3848765274E+02    0.3571197350E+02
70 2    0.3682017252E+02    0.3721395010E+02    0.3577859455E+02
71 1    0.3655652193E+02    0.3810949166E+02    0.3770341438E+02
72 2    0.3698209483E+02    0.3723367452E+02    0.3836870513E+02
73 2    0.3567731435E+02    0.3851692797E+02    0.3824648104E+02
74 1    0.3760425464E+02    0.2390871414E+02    0.3753609024E+02
75 2    0.3856546649E+02    0.2347442954E+02    0.3708889826E+02
76 2    0.3780451846E+02    0.2427724179E+02    0.3857067206E+02
77 1    0.3727194767E+02    0.2511031766E+02    0.3653174859E+02
78 2    0.3714364527E+02    0.3993654793E+02    0.3553814921E+02
79 2    0.3824225266E+02    0.4102054745E+02    0.3640427434E+02
80 1    0.3617562507E+02    0.2605478097E+02    0.3698635344E+02
81 2    0.3613559443E+02    0.2607662444E+02    0.3813670391E+02
82 2    0.3514214543E+02    0.2559374519E+02    0.3681560959E+02
83 1    0.3620590542E+02    0.2749955237E+02    0.3651706766E+02
84 2    0.3716801974E+02    0.2791902929E+02    0.3677527920E+02
85 2    0.3547625129E+02    0.2809818223E+02    0.3711990636E+02
86 1    0.3585322326E+02    0.2771118486E+02    0.3501727830E+02
87 2    0.3479306692E+02    0.2738859309E+02    0.3482281133E+02
88 2    0.3657203753E+02    0.2720281926E+02    0.3430929069E+02
89 1    0.3370565343E+02    0.3704530343E+02    0.3712338409E+02
90 2    0.3362858034E+02    0.3708552855E+02    0.3821936567E+02
91 2    0.3351284372E+02    0.3795733522E+02    0.3662540183E+02
92 2    0.3289349030E+02    0.3636637681E+02    0.3679761513E+02
93 1    0.3610009658E+02    0.2917072495E+02    0.3470831603E+02
94 2    0.3704643830E+02    0.2972908467E+02    0.3497257904E+02
95 2    0.3588902070E+02    0.2944766316E+02    0.3364635792E+02
96 2    0.3518565417E+02    0.2973888503E+02    0.3512234019E+02
97 1    0.2988674510E+02    0.3763532898E+02    0.3919026838E+02
98 2    0.2971039067E+02    0.3866390513E+02    0.3936715067E+02
99 2    0.3077213552E+02    0.3728709196E+02    0.3980675367E+02
100 1    0.2870586306E+02    0.3686794542E+02    0.3992810107E+02
101 2    0.2880651700E+02    0.3573707120E+02    0.3976220463E+02
102 2    0.2781330036E+02    0.3718197428E+02    0.3944047455E+02
103 1    0.2877081739E+02    0.3721283215E+02    0.4142640624E+02
104 2    0.2854452453E+02    0.3829585329E+02    0.4158698765E+02
105 2    0.2981559725E+02    0.3703571229E+02    0.4174119422E+02
106 1    0.2781181844E+02    0.3636715798E+02    0.2694574506E+02
107 2    0.2808628440E+02    0.3533739210E+02    0.2698357088E+02
108 2    0.2684042750E+02    0.3622114333E+02    0.2645177339E+02
109 1    0.2751653253E+02    0.3679579410E+02    0.2833078723E+02
110 2    0.2690256982E+02    0.3593873214E+02    0.2876379915E+02
111 2    0.2670833542E+02    0.3750973444E+02    0.2840010705E+02
112 1    0.2865648580E+02    0.3725140213E+02    0.2932690159E+02
113 2    0.2825244477E+02    0.3828724089E+02    0.2973662511E+02
114 2    0.2953110114E+02    0.3743563463E+02    0.2866342018E+02
115 1    0.2908271878E+02    0.3636757802E+02    0.3054798414E+02
116 2    0.2820427450E+02    0.3633576647E+02    0.3125808840E+02
117 2    0.2995847709E+02    0.3690992025E+02    0.3105522154E+02
118 1    0.2949587385E+02    0.3488321476E+02    0.3026397932E+02
119 2    0.2858423890E+02    0.3435803145E+02    0.2995388021E+02
120 2    0.2980294166E+02    0.3430771137E+02    0.3118706422E+02
121 1    0.3001702978E+02    0.3737900170E+02    0.3771227581E+02
122 2    0.3012403295E+02    0.3630514654E+02    0.3764803894E+02
123 2    0.2904899087E+02    0.3757154557E+02    0.3730951672E+02
124 2    0.3065373863E+02    0.3809710262E+02    0.3714748911E+02
125 1    0.3069066647E+02    0.3469187022E+02    0.2926294312E+02
126 2    0.3149103684E+02    0.3543059876E+02    0.2973247030E+02
127 2    0.3100564605E+02    0.3364884741E+02    0.2927547926E+02
128 2    0.3048699634E+02    0.3510526150E+02    0.2827491750E+02
129 1    0.3525221197E+02    0.4003414886E+02    0.3310764381E+02
130 2    0.3448168011E+02    0.4045050035E+02    0.3380855630E+02
131 2    0.3620512320E+02    0.4010307440E+02    0.3363857411E+02
132 1    0.3482083778E+02    0.3866949013E+02    0.3270640370E+02
133 2    0.3463283579E+02    0.3810850361E+02    0.3361520138E+02
134 2    0.3570650661E+02    0.3825291340E+02    0.3210856828E+02
135 1    0.3350677373E+02    0.3852053414E+02    0.3188955833E+02
136 2    0.3373739757E+02    0.3866303247E+02    0.3080959574E+02
137 2    0.3285607134E+02    0.3933377633E+02    0.3227327956E+02
138 1    0.3283414293E+02    0.3705471688E+02    0.3188995220E+02
139 2    0.3338176811E+02    0.3646777027E+02    0.3119259648E+02
140 2    0.3189982545E+02    0.3727793253E+02    0.3134708283E+02
141 1    0.3253575765E+02    0.3634700040E+02    0.3309110439E+02
142 2    0.3340539178E+02    0.3634296421E+02    0.3384570654E+02
143 2    0.3219791459E+02    0.3527171394E+02    0.3276359189E+02
144 1    0.3135489828E+02    0.3692846787E+02    0.3381580189E+02
145 2    0.3062137940E+02    0.3745962790E+02    0.3315145812E+02
146 2    0.3173955512E+02    0.3775878971E+02    0.3446758798E+02
147 1    0.3061060314E+02    0.3598424839E+02    0.3475392796E+02
148 2    0.3001007667E+02    0.3664695717E+02    0.3540107671E+02
149 2    0.3126732933E+02    0.3540595438E+02    0.3546035934E+02
150 1    0.2977216696E+02    0.3487213702E+02    0.3408893489E+02
151 2    0.3039454095E+02    0.3439609085E+02    0.3331499707E+02
152 2    0.2888869180E+02    0.3531905460E+02    0.3354755841E+02
153 1    0.3545577329E+02    0.4111909661E+02    0.3198239164E+02
154 2    0.3521839905E+02    0.2525776976E+02    0.3108382923E+02
155 2    0.3483066610E+02    0.4206286764E+02    0.3206159220E+02
156 2    0.3647537064E+02    0.4148420160E+02    0.3189324179E+02
157 1    0.2933109270E+02    0.3373947520E+02    0.3497843174E+02
158 2    0.3033587822E+02    0.3319726671E+02    0.3530483320E+02
159 2    0.2879147225E+02    0.3409425817E+02    0.3591970689E+02
160 2    0.2878064481E+02    0.3296725636E+02    0.3446047068E+02
161 1    0.3750382529E+02    0.3120406446E+02    0.3099041141E+02
162 2    0.3796535317E+02    0.3159441157E+02    0.2998845480E+02
163 2    0.3648429422E+02    0.3166695553E+02    0.3108714198E+02
164 1    0.3749648484E+02    0.2973256236E+02    0.3085149702E+02
165 2    0.3675890375E+02    0.2949940800E+02    0.3001546158E+02
166 2    0.3705286364E+02    0.2915747983E+02    0.3168112338E+02
167 1    0.3896572008E+02    0.2917633723E+02    0.3054019703E+02
168 2    0.3977325027E+02    0.2979144746E+02    0.3118359915E+02
169 2    0.3908236300E+02    0.2941826948E+02    0.2941378118E+02
170 1    0.3909151486E+02    0.2766051636E+02    0.3067777420E+02
171 2    0.4013613260E+02    0.2730539586E+02    0.3037496293E+02
172 2    0.3843203657E+02    0.2716054676E+02    0.2997323763E+02
173 1    0.3894907509E+02    0.4255955562E+02    0.3211848789E+02
174 2    0.3798974358E+02    0.4267915174E+02    0.3261268008E+02
175 2    0.3950633937E+02    0.2799814369E+02    0.3274164897E+02
176 1    0.3946211261E+02    0.4108117344E+02    0.3230099417E+02
177 2    0.3930403924E+02    0.4045612843E+02    0.3147514060E+02
178 2    0.3882849543E+02    0.4048402985E+02    0.3306101098E+02
179 1    0.4095319237E+02    0.4113865691E+02    0.3270373479E+02
180 2    0.4160034558E+02    0.4192264640E+02    0.3222422603E+02
181 2    0.4133723242E+02    0.4016672324E+02    0.3236573515E+02
182 1    0.4112556737E+02    0.4122785188E+02    0.3420901410E+02
183 2    0.4071947337E+02    0.4027416609E+02    0.3459293198E+02
184 2    0.4046737507E+02    0.4200217859E+02    0.3462529669E+02
185 1    0.3836637463E+02    0.3183149157E+02    0.3209695574E+02
186 2    0.3933976781E+02    0.3146988231E+02    0.3234831423E+02
187 2    0.3848404701E+02    0.3289053225E+02    0.3184128231E+02
188 2    0.3775291436E+02    0.3187866201E+02    0.4842123002E+02
189 1    0.4255848110E+02    0.4143756354E+02    0.3483730047E+02
190 2    0.4308087518E+02    0.4234542413E+02    0.3435926437E+02
191 2    0.4246053493E+02    0.4186527736E+02    0.3584629500E+02
192 2    0.4327386693E+02    0.4064197857E+02    0.3472316671E+02
193 1    0.3971910150E+02    0.3213406809E+02    0.4059490192E+02
194 2    0.3893009423E+02    0.3278142803E+02    0.4020101769E+02
195 2    0.3935803538E+02    0.4704061876E+02    0.4169384468E+02
196 1    0.3988870746E+02    0.3076994454E+02    0.3977859824E+02
197 2    0.4008693587E+02    0.3004889837E+02    0.4062468749E+02
198 2    0.4069636741E+02    0.4611843319E+02    0.3894653777E+02
199 1    0.3848630688E+02    0.3037798159E+02    0.3899465529E+02
200 2    0.3882328152E+02    0.2976708791E+02    0.3811216820E+02
201 2    0.3797227300E+02    0.3146648956E+02    0.3872521061E+02
202 1    0.3758795203E+02    0.2932260715E+02    0.3974565520E+02
203 2    0.3729399382E+02    0.2859911161E+02    0.3903197627E+02
204 2    0.3661552407E+02    0.2964412291E+02    0.3996102123E+02
205 1    0.3822020473E+02    0.2846718441E+02    0.4101891040E+02
206 2    0.3928403426E+02    0.2871504839E+02    0.4103739104E+02
207 2    0.3733943829E+02    0.1907196616E+02    0.3601830103E+02
208 1    0.3829687656E+02    0.2689195741E+02    0.4113486955E+02
209 2    0.3932036660E+02    0.2643809256E+02    0.4147408253E+02
210 2    0.3780275941E+02    0.2636197036E+02    0.4025807876E+02
211 1    0.3739140148E+02    0.4229599480E+02    0.4241657541E+02
212 2    0.3816327579E+02    0.4417073477E+02    0.4322248574E+02
213 2    0.3783626905E+02    0.4202531214E+02    0.4338924041E+02
214 1    0.3589458494E+02    0.4177614164E+02    0.4234701939E+02
215 2    0.3507878887E+02    0.4154850254E+02    0.4331472646E+02
216 2    0.3596629688E+02    0.4056512904E+02    0.4218957978E+02
217 1    0.4087132654E+02    0.3302886094E+02    0.4043825449E+02
218 2    0.4179262490E+02    0.3256486977E+02    0.2482597954E+02
219 2    0.4064515772E+02    0.3373823362E+02    0.2420415415E+02
220 2    0.4118309083E+02    0.3384065063E+02    0.4124415078E+02
221 1    0.3498282386E+02    0.4228500749E+02    0.4128133083E+02
222 2    0.3389083724E+02    0.4180996769E+02    0.4142394746E+02
223 2    0.3475028999E+02    0.4338365160E+02    0.4131780949E+02
224 2    0.3544043212E+02    0.4198284821E+02    0.4040272221E+02
225 1    0.3197453542E+02    0.4291741547E+02    0.3938976093E+02
226 2    0.3295319558E+02    0.4255161602E+02    0.3959991877E+02
227 2    0.3208371251E+02    0.4377737781E+02    0.3860675061E+02
228 1    0.3104422042E+02    0.2645182679E+02    0.3896196019E+02
229 2    0.3004976647E+02    0.2685749634E+02    0.3863047520E+02
230 2    0.3085226495E+02    0.2584561897E+02    0.3991640742E+02
231 1    0.3154153986E+02    0.4095669924E+02    0.3781275488E+02
232 2    0.3056680804E+02    0.4059532272E+02    0.3726238875E+02
233 2    0.3216483011E+02    0.4007425636E+02    0.3811433819E+02
234 1    0.3234488349E+02    0.4168761429E+02    0.3672880023E+02
235 2    0.3339672605E+02    0.4200565386E+02    0.3694896087E+02
236 2    0.3190928624E+02    0.4266230584E+02    0.3658088681E+02
237 1    0.3231661611E+02    0.4090240952E+02    0.3535168504E+02
238 2    0.3240497065E+02    0.3980500280E+02    0.3551642885E+02
239 2    0.3307672063E+02    0.2607591926E+02    0.3470150794E+02
240 1    0.3091495978E+02    0.4118540157E+02    0.3476338408E+02
241 2    0.3046403708E+02    0.2687206938E+02    0.3498802947E+02
242 2    0.3018121913E+02    0.2515403442E+02    0.3516738579E+02
243 1    0.3099348635E+02    0.4110099420E+02    0.3320657286E+02
244 2    0.3041334560E+02    0.4024890859E+02    0.3275997330E+02
245 2    0.3200528262E+02    0.4093348369E+02    0.3273763955E+02
246 1    0.3041577591E+02    0.4250642423E+02    0.3256673541E+02
247 2    0.2951386127E+02    0.4267591360E+02    0.3323995723E+02
248 2    0.3002062297E+02    0.4230483932E+02    0.3155325007E+02
249 1    0.3138086557E+02    0.2826696344E+02    0.4065326449E+02
250 2    0.3043388440E+02    0.2889902141E+02    0.4045585101E+02
251 2    0.3105967713E+02    0.2752178509E+02    0.4140432343E+02
252 2    0.3206630870E+02    0.2895813909E+02    0.4110491739E+02
253 1    0.3140489160E+02    0.4361825466E+02    0.3261755930E+02
254 2    0.3125272922E+02    0.4449349060E+02    0.3196056075E+02
255 2    0.3154074348E+02    0.4391200941E+02    0.3366258303E+02
256 2    0.3242538376E+02    0.4331153896E+02    0.4772278691E+02
257 1    0.4171475812E+02    0.3636996975E+02    0.3647156504E+02
258 2    0.4255977912E+02    0.3621084366E+02    0.3567436288E+02
259 2    0.4214039009E+02    0.3701788587E+02    0.3725033867E+02
260 1    0.4055584381E+02    0.3711882544E+02    0.3581301138E+02
261 2    0.4089860121E+02    0.3817325511E+02    0.3563256851E+02
262 2    0.3973801851E+02    0.3734419940E+02    0.3649484392E+02
263 1    0.4004005154E+02    0.3646986440E+02    0.3450783619E+02
264 2    0.3981897810E+02    0.3537149120E+02    0.3481111964E+02
265 2    0.4093140121E+02    0.3652280348E+02    0.3379124994E+02
266 1    0.3886152608E+02    0.3716215387E+02    0.3379957133E+02
267 2    0.3871495494E+02    0.3819635415E+02    0.3409809612E+02
268 2    0.3789732453E+02    0.3665288488E+02    0.3432000727E+02
269 1    0.3876923040E+02    0.3708650618E+02    0.3218814413E+02
270 2    0.3960431384E+02    0.3771273220E+02    0.3161622740E+02
271 2    0.3785999018E+02    0.3773594311E+02    0.3187324670E+02
272 1    0.3858338299E+02    0.3573233989E+02    0.3165034947E+02
273 2    0.3763620421E+02    0.3534333926E+02    0.3201039284E+02
274 2    0.3932154454E+02    0.3504043174E+02    0.3211195697E+02
275 1    0.3851465296E+02    0.3578956959E+02    0.3019370507E+02
276 2    0.3814983552E+02    0.3674476659E+02    0.2980367187E+02
277 2    0.3784085096E+02    0.3500587780E+02    0.2988358634E+02
278 1    0.3987571055E+02    0.3554592142E+02    0.2952714025E+02
279 2    0.4064087606E+02    0.3476257706E+02    0.3005109765E+02
280 2    0.4027531750E+02    0.3653140525E+02    0.2946465693E+02
281 1    0.4125532659E+02    0.3495244166E+02    0.3694837760E+02
282 2    0.4024800470E+02    0.3495045002E+02    0.3740522595E+02
283 2    0.4114401832E+02    0.3426246078E+02    0.3611653567E+02
284 2    0.4182508147E+02    0.3438073794E+02    0.3760726907E+02
285 1    0.3963981356E+02    0.3489981783E+02    0.2820192824E+02
286 2    0.3899050546E+02    0.3551950460E+02    0.2754629559E+02
287 2    0.4050163632E+02    0.3456844601E+02    0.2764094076E+02
288 2    0.3912584871E+02    0.3389847772E+02    0.2830663411E+02
289 1    0.3006732575E+02    0.3304601079E+02    0.4046454608E+02
290 2    0.2996253987E+02    0.3363789047E+02    0.4141785079E+02
291 2    0.2920261119E+02    0.3343229931E+02    0.3983529335E+02
292 1    0.3141607794E+02    0.3340448036E+02    0.3966930697E+02
293 2    0.3116824544E+02    0.3429355505E+02    0.3899612170E+02
294 2    0.3156405562E+02    0.3254620087E+02    0.3893970378E+02
295 1    0.3277459795E+02    0.3372436357E+02    0.4028148927E+02
296 2    0.3342771589E+02    0.3398773819E+02    0.3938568892E+02
297 2    0.3310048937E+02    0.3275086395E+02    0.2534899280E+02
298 1    0.3295112577E+02    0.3476056944E+02    0.2607939133E+02
299 2    0.3234314517E+02    0.3435522610E+02    0.4233047216E+02
300 2    0.3231338010E+02    0.3569933331E+02    0.2584369117E+02
301 1    0.3429804925E+02    0.3517064512E+02    0.2677279625E+02
302 2    0.3477113481E+02    0.3422851968E+02    0.2706058246E+02
303 2    0.3399359489E+02    0.3575382088E+02    0.4304699171E+02
304 1    0.3530385430E+02    0.3597020852E+02    0.2595672349E+02
305 2    0.3488085492E+02    0.3660158159E+02    0.2510952273E+02
306 2    0.3597213058E+02    0.3529404371E+02    0.2537143128E+02
307 1    0.3622315157E+02    0.3685442042E+02    0.2685031482E+02
308 2    0.3674103795E+02    0.3646806332E+02    0.2777488018E+02
309 2    0.3560728589E+02    0.3763264464E+02    0.2730724014E+02
310 1    0.3740898440E+02    0.3756907335E+02    0.2604043390E+02
311 2    0.3699415838E+02    0.3816086424E+02    0.2526575723E+02
312 2    0.3809534523E+02    0.3681941776E+02    0.2564042541E+02
313 1    0.2984674949E+02    0.3157918368E+02    0.4072365969E+02
314 2    0.3023559923E+02    0.3135684030E+02    0.4172252154E+02
315 2    0.2878545164E+02    0.3132827643E+02    0.4072392842E+02
316 2    0.3033557707E+02    0.3084195811E+02    0.4004608753E+02
317 1    0.3812165098E+02    0.3855401040E+02    0.2705416298E+02
318 2    0.3911857723E+02    0.3812577414E+02    0.2745053339E+02
319 2    0.3836504548E+02    0.3953345595E+02    0.2678322540E+02
320 2    0.3751922050E+02    0.3880690691E+02    0.2794898979E+02
321 1    0.3274167451E+02    0.3140997267E+02    0.2032685453E+02
322 2    0.3292886698E+02    0.3067054815E+02    0.1938294512E+02
323 2    0.3238787605E+02    0.3088207394E+02    0.2116822067E+02
324 1    0.3385057922E+02    0.3237736575E+02    0.3598903709E+02
325 2    0.3482221899E+02    0.3185469459E+02    0.3612201689E+02
326 2    0.3355237533E+02    0.3279983293E+02    0.3690165926E+02
327 1    0.3396965594E+02    0.3335120496E+02    0.3478517780E+02
328 2    0.3490585842E+02    0.3391977640E+02    0.3493788239E+02
329 2    0.3300983352E+02    0.3406151519E+02    0.3471499895E+02
330 1    0.3431930643E+02    0.3281876099E+02    0.3340312772E+02
331 2    0.3502777392E+02    0.3205144880E+02    0.3360389334E+02
332 2    0.3495418331E+02    0.3360776623E+02    0.3296156118E+02
333 1    0.3325475223E+02    0.3236593069E+02    0.3233391388E+02
334 2    0.3263301497E+02    0.3326497509E+02    0.3210469214E+02
335 2    0.3231654381E+02    0.3162819521E+02    0.3264206765E+02
336 1    0.3382496376E+02    0.3178779830E+02    0.3106170254E+02
337 2    0.3457849334E+02    0.3090136977E+02    0.3136032107E+02
338 2    0.3458625881E+02    0.3242592361E+02    0.3059238238E+02
339 1    0.3271965449E+02    0.3124597333E+02    0.3010760714E+02
340 2    0.3186776435E+02    0.3198624685E+02    0.3017858267E+02
341 2    0.3215434849E+02    0.3032119336E+02    0.3058546291E+02
342 1    0.3340027478E+02    0.3076853016E+02    0.2879561028E+02
343 2    0.3380464850E+02    0.2954378574E+02    0.2888119261E+02
344 2    0.3413256889E+02    0.3164133438E+02    0.2853766470E+02
345 1    0.3744884280E+02    0.4391047501E+02    0.2697842972E+02
346 2    0.3188911573E+02    0.3205543606E+02    0.1998201257E+02
347 2    0.3642684617E+02    0.4415215910E+02    0.2692691764E+02
348 2    0.3707869115E+02    0.3472923596E+02    0.2030206794E+02
349 1    0.3249570759E+02    0.3069878987E+02    0.2763573735E+02
350 2    0.3202821837E+02    0.3164672463E+02    0.2749683087E+02
351 2    0.3286218600E+02    0.3043882618E+02    0.2669300716E+02
352 2    0.3180231780E+02    0.2986946142E+02    0.2782174188E+02
0.0000000000E+00    0.0000000000E+00    0.0000000000E+00
0.1532620600E+02    0.0000000000E+00    0.0000000000E+00
0.0000000000E+00    0.1532620600E+02    0.0000000000E+00
0.0000000000E+00    0.0000000000E+00    0.1532620600E+02
}
Driver = VelocityVerlet {
  Steps = 50000
  TimeStep [fs] = 0.2
  MDRestartFrequency = 25
  Thermostat = None {}
  Xlbomd = {
    IntegrationSteps = 6
    MinSccIterations = 2
    MaxSccIterations = 200
    SccTolerance = 1e-6
    PreSteps = 0
  }
  Velocities [AA/Ps] = {
-2.21450219 1.78323794 2.19025673
4.23882372 -12.98962238 -34.27862129
1.79492552 -38.05620116 2.41212139
1.43190379 5.34578758 -5.33912804
-40.26988628 -6.40332414 -9.49177098
6.17079264 32.03695476 19.04347833
3.40768903 -12.42331039 -6.00954195
-5.36042408 -3.97213750 3.10695215
2.07930476 -7.89127839 3.21769621
2.39368460 -9.62708456 0.53505180
-2.67337785 -18.43298585 5.70620055
9.75904333 9.27461679 4.28607388
4.93022096 9.33800144 9.63769175
12.03841643 -5.18239610 -18.98548796
-31.12910754 -6.58761476 1.79350451
6.57232878 1.33664352 3.81534005
-40.44069850 13.06111012 -2.92729669
-20.03343619 18.24216401 22.28581611
-2.34136852 4.97019766 0.20969957
-4.22634473 11.96722417 7.54814520
-4.89455549 4.35119827 3.42027444
-1.75915536 1.13892272 3.74533551
31.44741066 -11.09871066 -5.91572608
-14.16669969 13.67437709 -21.13572112
-1.06499185 4.78733503 -2.91418895
24.47537460 -10.73046674 16.11678628
-3.46994282 -8.98052706 -19.77546897
10.11551277 4.03769611 -18.51028986
-8.22887139 -5.13622983 -1.00170534
-9.06379973 -22.54732891 19.68117841
3.88949542 -59.44441632 -14.02566007
8.74677531 14.57380504 2.73133546
-2.68451503 5.77793789 -5.86641695
-10.86948978 1.93782994 -13.37458766
1.21501089 6.65722333 20.39042565
8.22742690 -6.70965340 -4.14351352
-16.20700714 1.96972279 14.10027359
11.81445449 -8.57753574 -39.68085684
-2.14204498 1.36290332 -4.91563095
16.98462310 -12.33238538 15.03447433
11.85995312 26.69558660 -5.95923717
0.58910886 -2.01234752 1.62958700
-15.71254259 -2.15394185 19.18909866
25.92117477 30.56666036 17.48303112
-1.97268004 -6.31391347 -0.45138006
14.02881043 -10.71586510 -7.04408216
9.66786600 -17.69776304 22.50692337
-5.31154640 1.37418268 -6.22076896
-11.83150209 29.02442762 -22.83344621
-25.70213115 -26.19284354 -32.61694449
6.15797359 2.10710715 -6.85127741
-23.27767475 -1.71208261 4.20421592
-18.63606466 -14.09769969 14.86894728
3.52270991 10.45623969 10.47297631
-15.15128157 -4.81125319 1.22412568
-11.51130557 14.91239857 46.99700327
-9.21861335 -2.12306868 7.11042205
-26.25067092 4.68122009 -21.69248374
3.45118576 0.17388581 11.98860902
-15.72172700 -19.03791125 8.57979192
-1.61839721 12.05986717 -4.41439017
29.84202462 5.47473337 -13.25432034
-23.19352137 19.71767960 18.84127607
-11.81293572 11.16909999 14.60835955
-4.98340994 4.29571333 19.75829515
61.84291161 -39.48901981 -5.76995895
-21.80096516 3.91825742 23.92967679
4.09760327 6.67225071 -2.15423997
-13.22121157 15.07099664 -26.40189599
-5.25216434 34.11570571 -20.29387298
-2.42338929 1.00923860 0.31869356
-22.54936695 -18.15678925 46.04739972
-10.52402120 37.82624934 -25.57415579
6.64939866 6.11262603 2.18770070
27.40216605 -19.65201574 -1.34611244
2.52412137 -2.49885511 -2.47367299
-5.67886051 1.75610645 0.37352802
-16.33233920 -29.85125351 25.73113710
52.81758668 24.26678313 5.87560861
-3.81532988 -4.58378774 4.96160327
-6.10528853 -9.39118148 16.19371083
-8.13644846 13.83891085 -29.60123611
-7.89204196 -2.18151820 8.79233587
-8.97583773 15.13905546 -4.90990269
5.65180685 -2.15240064 12.40906775
9.38289217 4.05215139 5.03628370
9.47996103 -11.96527657 19.44811506
-21.82222707 18.98792291 -5.14439005
-1.08562822 -4.56101127 4.19063705
17.84322711 -4.01239677 11.33346177
-4.41451599 5.10248941 5.03692576
9.58155974 -12.49061203 -2.92730192
3.01333858 7.54929992 -2.20143657
-10.32834480 -8.96533303 35.38874358
13.08577015 26.06615375 6.78591375
-20.50629873 -33.63904978 -10.89931626
-3.55102441 0.89369445 -4.85809728
29.92227759 11.86822892 -0.87210168
25.38026926 17.43195495 33.66287307
5.85070305 13.21527932 7.48494996
24.00528778 13.43894341 27.09308533
-4.33250148 3.27071824 -7.85815469
-2.56533472 4.03585111 2.93755889
22.01066769 3.92510863 -21.40210001
-14.42206539 -11.53014971 5.29178768
6.32229385 -8.67674298 -0.56939579
8.56779678 19.48249246 -18.38214648
-7.46232195 -47.40886704 16.25846906
5.05616913 1.83519349 -4.48237580
16.79831587 -8.79916984 10.54132719
-18.74976262 45.08656321 -11.09457538
2.82837481 0.52293467 -10.87278317
0.22926652 -35.41758079 -13.46042265
8.14060478 31.45422477 0.46789781
-9.96293770 -5.90972240 -4.00339212
24.37307536 -0.42220693 -11.05100006
-14.39357689 -15.72480732 1.16046212
-6.79070483 -1.40918220 -0.26276155
14.78865921 20.11672838 -27.68305565
-20.36062414 -8.95986285 25.43305545
4.78591020 2.80996822 -1.29376027
2.70910991 -4.07643239 5.17756843
13.83413137 15.14593458 -6.37203729
11.12732456 33.60748164 -20.30285808
4.05978831 -5.83252295 1.79170609
10.73493122 -3.02508894 -6.64206817
-0.35880753 3.62701629 -7.50082093
17.44862797 -5.71737676 -15.72676171
-2.68431245 3.56991505 5.22266155
18.27814902 -1.62530008 8.07415753
-12.54535431 13.40348390 12.68844924
-4.97517009 8.69382991 8.72500071
10.04267913 -19.63187693 45.10826157
-32.31489738 -16.21841081 -2.30294930
-3.53080195 -1.90738234 10.39486522
-7.98326035 3.16495256 16.43161318
-6.27838066 -20.61775477 35.36835588
9.21395774 3.64416580 -4.40825773
10.16511299 28.87020728 45.12764400
5.29942054 -0.06543147 -10.19534513
5.20163114 8.04627841 -10.94185634
-15.85656920 6.31313963 -10.23076642
22.82464912 13.81637353 -22.19366028
0.13201505 -0.65361663 1.16458402
-15.76220111 -7.10477367 -43.50903099
-23.62484349 -9.52428054 -3.05403112
1.08603121 -0.01004260 -10.82898356
13.55173901 -13.99858801 -1.79688594
28.59682102 3.14783452 2.25773989
-5.80639939 8.56172175 2.08020013
-0.17725357 -5.55294368 3.67284429
-5.88316841 11.27800296 -12.22192030
-16.80707202 0.42661353 -0.29626094
-10.69929572 -24.26992010 17.33322701
-9.04714404 -22.79699678 -2.51330035
-31.88389508 41.46492210 -9.08686546
-4.77785114 3.94207210 2.04643219
-6.26683047 19.47878674 1.75881002
-16.43402178 -14.41599001 44.48204718
25.21099002 10.75036572 1.76256611
4.36044614 5.87519063 -9.64847556
51.53558533 -5.61259223 -4.30343019
27.55065548 23.06643201 13.62996732
-20.14765377 -5.80412977 0.59870314
-11.17653831 14.91444477 4.93271779
-25.53687955 10.33165781 -20.87412093
-0.58242829 -10.75588106 6.30575294
-9.33358120 9.85471402 -1.95700815
2.15653577 -6.81038779 32.30260708
-3.97311354 0.77590099 12.07853159
16.54952019 8.16794782 7.35855334
-17.51076913 16.24476009 -5.14364802
-2.16307816 9.31631081 3.83128910
8.14238489 24.87289818 53.92154397
-18.20510554 -16.68475633 -7.43744372
-2.60095084 -8.09256672 1.07815117
8.67584665 12.24337954 18.73883118