Geometry = GenFormat {
<<< "system.gen"
}

Driver = VelocityVerlet{
  Steps = 50000
  TimeStep [fs] = 0.2
  MDRestartFrequency = 25
  Thermostat = None {
    #InitialTemperature [Kelvin] = 300.0
  }
  Xlbomd{ 
    IntegrationSteps = 6 
    MinSccIterations = 2
    MaxSccIterations = 200
    SccTolerance = 1e-6 
  }
  Velocities [m/s] {
     -8.60621125E+02     -1.27191545E+02     -6.76704842E+02
      7.04437416E+02      6.15790772E+02     -1.81879959E+03
      1.16737176E+03     -1.46214831E+02      5.89083203E+01
      4.43145526E+02     -1.22772260E+02     -7.52463128E+01
     -5.08406425E+02      1.38445545E+03     -4.84612692E+02
      2.64672804E+02     -2.70654605E+03     -1.47436913E+03
      5.61962545E+01     -2.02016729E+02      8.78047760E+01
      3.87744366E+03      1.58357872E+03     -2.24406548E+03
     -8.12683159E+02      1.96577327E+03      7.62502962E+02
      5.16583117E+01      5.69654649E+01     -3.01967520E+02
     -2.22807924E+03     -3.49151307E+02      1.13462223E+03
     -1.61965177E+03     -1.07998112E+03     -1.85870152E+03
     -1.42373664E+02      1.44921250E+02     -5.06091009E+02
     -2.45584128E+03      1.05458673E+03     -1.44809257E+02
      3.22963666E+03     -2.68631188E+03      4.82386735E+01
      8.43696099E+02     -2.42001903E+02     -5.97414850E+02
      5.09775372E+02     -1.49959281E+03     -5.68732263E+00
     -1.60414547E+03      2.91297688E+03      3.99588235E+03
      8.09083010E+01      2.78013168E+02      1.16122351E+02
      5.29655946E+02      1.04776987E+03      3.59247566E+01
     -1.60867691E+03     -2.64202900E+03      7.69041436E+02
     -5.17610693E+02      8.75430785E+02     -4.86375357E+00
     -1.23183647E+03     -5.85351034E+02     -1.02634213E+03
      7.49015220E+02      1.95281666E+02     -2.79417146E+03
      6.72270717E+00      5.26428816E+02     -1.49976011E+02
      8.91142056E+02      1.55188437E+03      3.04480969E+03
     -1.59847465E+03     -1.96896951E+03     -2.25139142E+03
     -5.40567675E+02      4.09910398E+02     -1.29654849E+03
     -2.72724269E+02      1.57471593E+02      4.10463520E+02
     -4.80139601E+02      3.12865854E+03     -6.66973937E+02
     -9.23377210E+02     -1.75193223E+03     -1.32498910E+03
     -3.05538600E+03     -4.00423705E+02     -2.37457960E+03
      6.89899477E+02     -4.62799407E+02     -2.33574019E+02
      1.06675057E+03     -3.34048507E+03      1.07561349E+02
     -2.55893392E+03     -2.70439235E+02     -2.31329207E+03
      1.60514331E+02     -4.32790763E+02     -2.47354846E+02
     -2.01268126E+03     -3.64807488E+03      1.69096322E+03
      1.85946688E+03      1.21545444E+03     -1.35284798E+03
      4.50537691E+02      1.50030602E+02     -3.28851559E+02
      4.65374456E+02      7.35601197E+02      1.48483260E+03
      7.87244440E+02      3.80153732E+02      1.25034379E+03
      6.56524573E+02      4.23501395E+02     -6.55027204E+01
      5.86696815E+02     -2.43488095E+03      1.66852774E+03
     -2.32976572E+02     -9.91871973E+01      4.72593637E+02
      1.42744499E+02      4.16666051E+00     -4.53589128E+02
      1.42735021E+03      9.63828433E+02      1.56427300E+03
     -3.74461449E+01     -2.11454155E+02     -3.67559691E+02
     -5.87739250E+02      3.48963083E+02     -8.99231483E+01
     -8.46406994E+01     -2.00403380E+03     -1.43584210E+03
     -1.19751952E+03      3.29227319E+02     -7.76643287E+02
     -5.50566181E+01      5.17398677E+02      9.48341209E+01
      8.15952911E+02     -1.78846551E+03      2.70761210E+01
      7.60879720E+02      7.06049454E+02     -3.89197716E+02
     -1.25885007E+02      4.60260689E+02      1.01460774E+02
     -1.18189355E+03      1.11287974E+02      1.94878703E+02
     -2.82695478E+03      5.39625498E+02     -1.54595723E+03
     -2.09824550E+02     -3.01837716E+02      3.88349923E+02
      8.70749183E+02      1.13202254E+02     -2.19465165E+03
     -1.00000510E+03      9.13632765E+02      2.26358658E+00
     -5.13632223E+02      1.04626645E+02      2.13311504E+03
     -6.92470050E+02     -1.23119283E+02     -3.17498308E+02
      4.85127050E+02     -1.83220670E+03     -6.24035779E+02
     -9.91581996E+02      4.13672891E+02      9.14843296E+02
     -1.06296204E+03     -2.02082653E+01     -4.07566663E+03
      5.89752955E+02      3.42687859E+02     -2.37289819E+01
      3.72999370E+03      3.76788258E+02      1.72909683E+03
      2.77722281E+03      1.06617840E+03      1.18444345E+02
      2.44430021E+01     -2.30172658E+02      1.45478645E+02
     -2.66671299E+03     -9.88789788E+02     -7.29443679E+02
      1.31806761E+03     -6.49890548E+02      2.37296489E+03
      4.30220431E+01      5.03849462E+02     -9.16696573E+01
     -1.58226219E+03     -1.76120234E+02      1.40750924E+03
      2.09969417E+02     -3.20780008E+02      1.43483715E+03
      5.24782462E+02     -5.77265798E+01      6.48834928E+02
     -3.53639590E+03      1.37867944E+02      7.07832756E+02
     -3.23395252E+03      9.55226871E+02     -8.40266884E+02
      3.37205394E+02     -3.44426341E+02     -1.98134434E+02
     -8.28421090E+02     -1.72891381E+03      2.65414362E+03
     -9.29991826E+02     -6.50614315E+02     -2.21682780E+03
     -2.36548668E+02      3.94990745E+01     -1.34456233E+02
      2.76832999E+03      6.05574280E+01      1.11040945E+03
      1.90813095E+03     -1.45057121E+03     -4.96546579E+03
      2.03905905E+02     -5.12592031E+01     -9.40803741E+02
     -1.19965525E+03      1.43992317E+02     -1.38779882E+03
     -2.83232977E+02      2.01021278E+03     -6.41394981E+01
      6.62818601E+02      4.24298885E+02     -2.32975298E+01
     -3.63970775E+02     -1.29142104E+03      1.24223642E+03
     -3.11308804E+02     -1.74863224E+03     -1.59262086E+03
      9.57929267E+01     -7.54890612E+01     -1.88391814E+02
      7.93220453E+02     -6.40912337E+02     -2.53486178E+03
     -2.55283128E+02      1.02887865E+03     -9.61832791E+02
     -2.02151066E+03      2.14075359E+03      3.20642552E+02
      1.10870804E+03     -9.56810176E+01      1.49823322E+02
     -3.10913485E+02      3.16949135E+03     -1.24754200E+03
      2.41579523E+03     -5.24626207E+02      6.57691444E+02
      2.36335768E+03      1.80371994E+03      3.28793057E+02
      6.13381368E+02      7.29921215E+01      2.72496866E+02
     -6.26005354E+02      4.29186434E+02     -1.74734199E+03
      9.90578360E+01      3.60407084E+02     -1.76556973E+03
     -1.94514457E+04     -5.81251015E+03      7.95646782E+03
     -2.09555715E+03     -2.82859041E+02      4.31933185E+01
      3.63261021E+02     -2.70123067E+03     -8.60767058E+02
     -3.77914736E+02     -3.97745436E+02     -1.99075363E+02
      1.72841856E+02      6.53794229E+02      1.36815694E+03
     -5.11204744E+02     -3.49014514E+02     -7.52635997E+02
      4.41653904E+02      5.34068864E+02     -3.74309927E+02
      7.58675062E+02      1.54510115E+03     -1.97845536E+03
      3.13843018E+02      6.87096993E+02     -8.27145750E+02
      2.21185979E+02      4.18978845E+02      1.23379995E+02
      2.72671370E+03      1.91609815E+03      8.81824827E+02
      1.40287616E+03      1.23105049E+03      9.94831121E+02
      2.59721273E+02      1.08630599E+03     -4.32677138E+02
      4.76289904E+03     -7.13935679E+02     -8.56419472E+02
      4.22920296E+02      4.44001845E+02     -8.39466301E+02
     -3.18555326E+02      4.17523702E+02     -8.81812952E+02
     -6.58495189E+02      1.44727891E+03     -1.31838200E+03
      4.01936508E+02      5.24311354E+02     -9.95507739E+02
      4.85972098E+02     -1.13024310E+02     -2.42273352E+02
     -1.96740667E+03      6.85629761E+02      4.17118521E+02
      8.60113598E+02     -1.23829862E+03      9.15824394E+02
     -2.75161521E+02      1.05137445E+03      1.07741372E+02
      1.20398694E+03      6.49039497E+02     -1.11686851E+03
     -2.58716707E+03      1.67662058E+03     -1.88813066E+03
      1.07578197E+03      2.83976392E+03      2.41916307E+03
      3.32649807E+02     -9.91900928E+02     -9.58237536E+00
     -1.59609793E+03      2.76232963E+02     -2.00469171E+02
     -3.81961576E+03     -1.40418027E+03      2.53665344E+03
      4.76418536E+02     -3.11088231E+03      1.36859273E+03
     -5.47919981E+02      2.88695621E+02      4.01660482E+02
      1.72185853E+03      6.34656580E+02      8.14142651E+02
      3.60078648E+03     -1.52065253E+03     -2.47256845E+03
     -5.35511544E+02      1.29317487E+02      9.06998565E+02
      2.65384277E+02      7.52688663E+02      1.67577609E+02
     -5.69736888E+00     -1.55387952E+03     -1.07258990E+03
      5.25800295E+01      5.89469431E+02      9.79838135E+01
      1.59095823E+03      2.27301548E+03      1.06220575E+03
     -1.10026709E+03      3.96906089E+02      1.65655384E+03
      7.12624412E+02      4.71455064E+02      2.24760310E+02
      8.52408082E+02      2.01683945E+03      3.61188256E+02
     -3.80095713E+02      3.20362345E+03     -1.15909300E+03
     -6.15359092E+02      3.42081547E+02     -7.17392569E+02
      2.79154264E+03      2.07148115E+03      3.54772580E+02
      3.69280405E+03      7.31587469E+02      2.04620609E+03
      1.20082264E+02     -3.58304240E+02      3.26260977E+02
     -2.08387342E+03      4.83193143E+01      5.67419319E+02
     -1.85345618E+03     -2.14006953E+02     -3.67819386E+03
      5.97815443E+02      6.56977172E+02     -8.93815977E+01
     -1.55616527E+03      3.19824323E+03     -1.33186022E+03
     -2.52143982E+03      3.04639786E+03     -1.85405381E+03
     -3.12347706E+02      3.39145921E+01     -5.12644180E+02
      2.41172885E+02     -3.09043498E+03      2.99722863E+03
     -1.01513158E+03     -8.44237232E+02     -4.68573301E+02
     -4.52608338E+02      6.55026449E+01      7.50007870E+02
      1.52938278E+03      2.59754034E+03      1.84986215E+03
     -5.58740233E+02     -2.38528093E+02     -6.81017586E+02
      1.41839369E+03      1.09206393E+03      6.75401782E+01
      4.69545570E+02      3.58326880E+01     -2.13827910E+02
      1.86924668E+03      1.69005750E+03      1.59468921E+03
     -1.22191706E+03     -1.99665534E+03      3.47356876E+02
      2.66593255E+03     -2.23913871E+02      3.79213586E+03
      4.29122611E+02      2.02297755E+02     -3.94997244E+02
     -3.63494460E+03     -7.67124445E+02      1.56702140E+03
     -6.35194308E+02      3.14041894E+03      1.58990262E+03
      2.14310158E+02     -2.04372647E+02     -4.73395487E+02
     -1.06464468E+03     -1.34238700E+03      5.12206055E+02
      9.23748470E+02     -2.95810460E+03     -1.30879941E+03
      4.49108246E+01     -2.93999245E+01     -5.94766988E+02
      3.21471004E+01     -1.64493379E+02      2.01426889E+03
      1.17259269E+03      7.90258097E+02     -2.19662567E+02
      5.25243789E+02      5.90338374E+02      2.38899871E+02
     -3.78961820E+02     -1.15920111E+02      2.42514694E+03
      1.07793834E+03      9.46079070E+02     -2.96688008E+03
      3.31994055E+02      8.32189865E+02     -2.43586337E+02
     -8.93743936E+01      7.35700174E+01     -9.51033247E+02
      3.53423736E+02      1.35646133E+03     -4.49462411E+02
      9.04822332E+02     -4.55759943E+02     -2.65938712E+02
     -1.83577804E+03      2.91732675E+01      3.15661684E+03
      3.52942975E+03     -1.39724940E+03      2.02347420E+03
      2.32993761E+02      4.43830281E+02     -1.56874876E+02
      1.09207459E+03      1.20325900E+03     -2.88633686E+03
      1.03680919E+03      1.94346153E+03     -3.47566972E+01
      5.20381804E+02      3.14489468E+02     -6.69934025E+02
      2.61422912E+02     -1.37291518E+02     -5.10936186E+02
      1.48139485E+03     -3.24816482E+03      1.23111139E+03
      5.97255443E+02     -1.31833423E+02     -1.96218083E+01
     -1.60361592E+03     -1.26163023E+03      7.02058557E+02
     -1.69291626E+03     -2.22735620E+03     -1.22774062E+03
     -4.80414204E+02     -3.97396230E+02     -1.48915661E+03
      3.02157709E+02     -1.62438835E+02     -2.93175510E+02
     -4.13392177E+02      1.04197764E+03      1.02950132E+03
     -2.46216605E+01     -3.70790932E+03     -2.08466954E+03
      3.14580904E+02     -6.88083407E+02      2.83031622E+02
      2.78197835E+02     -2.75068297E+02     -3.49350309E+02
     -3.09251822E+03      2.91175212E+03      1.51989588E+03
      2.45723091E+02      6.97936905E+02     -1.42407681E+03
      8.29613365E+01     -1.70109509E+01     -9.93707806E+01
     -2.46304706E+03     -1.17992452E+03      1.62657980E+03
     -1.38278002E+03     -9.17232825E+02     -1.44661400E+03
      1.03751563E+02     -4.12809479E+02      4.83192002E+02
     -3.56208662E+02      2.03455326E+03     -8.72033280E+02
     -1.86112458E+02      2.38725644E+03      1.29848806E+03
      9.87873578E+02     -7.86783060E+02     -4.81049586E+02
     -1.59495307E+02      1.09451324E+03      5.88643087E+01
      8.80944375E+02      2.95230621E+03     -1.28466849E+03
      4.67780169E+02      4.32522643E+02     -1.18478673E+03
     -9.51209618E+02     -2.81391213E+03     -1.11034824E+03
      2.32550658E+03     -1.45847009E+03     -1.93274721E+03
     -1.25738429E+02      1.83567177E+02      9.51781328E+01
     -1.33535198E+02      1.92119056E+03      1.29947229E+03
     -3.60853243E+02      1.16015066E+03      1.04929900E+03
     -3.20939731E+02      1.69979363E+02     -2.19559791E+02
     -2.73603412E+03     -2.65078967E+03     -9.37401551E+02
     -3.11369164E+02      2.34316474E+03      2.26674810E+02
      6.12168314E+02      7.02031127E+02      2.41202117E+02
     -1.30825339E+03     -1.41431440E+02      3.10126877E+03
     -9.61631187E+02      9.16261656E+02      1.60977494E+03
      1.97789724E+02     -9.17238762E+01      2.35879161E+02
     -1.66016058E+02     -1.34853154E+03     -4.72830969E+02
     -4.67881959E+02      1.18282350E+02      3.83178935E+02
     -1.46187705E+03     -1.30239666E+02     -1.75747047E+02
      2.77072283E+02     -5.01910042E+02      3.03096976E+01
      3.33172531E+03      4.76947166E+02     -1.77488040E+03
     -1.05909315E+03     -8.51846084E+02      8.61389326E+02
      3.01738447E+03      3.27400273E+03     -4.80632887E+03
     -3.22091915E+02      4.97198180E+02      4.36200054E+01
     -2.71976992E+03      9.23107287E+02      1.01537838E+02
     -1.94807588E+03      8.65963704E+02      1.78999938E+03
     -1.80630544E+01     -2.12435169E+01      2.62288204E+02
     -5.03431295E+02      3.60972899E+03     -1.90330408E+03
      5.37544372E+02      1.00730712E+03      1.07856428E+03
      1.64735986E+02     -3.78591084E+01     -3.32262226E+02
     -1.66696833E+03     -3.12579163E+02      3.28050790E+02
     -2.57365040E+03     -1.50193329E+03      7.14001010E+02
     -1.37816033E+02     -3.10158374E+02      3.52645972E+02
     -2.10964280E+03     -1.01457342E+03     -1.60030732E+03
      1.96491527E+02      2.71701682E+03     -8.97531374E+02
     -2.49598701E+02     -3.69511204E+01     -3.64689105E+02
      1.24185735E+03      2.50309039E+03     -4.83229323E+02
      1.77775474E+03      1.08417084E+03      1.85036920E+03
      9.62714085E+01      5.92468168E+02      7.43979854E+02
      1.23771527E+03     -1.63151621E+03     -1.03694732E+03
     -1.68610185E+03     -1.41166712E+03     -2.27364963E+03
      2.85857558E+02      1.05120221E+03      7.03694191E+02
     -2.60664893E+02     -8.23172396E+02     -3.80292873E+03
      2.68294564E+03     -9.38904982E+01      2.07919202E+03
      3.49035525E+02     -3.20740494E+02      5.58851675E+02
     -3.40109704E+02     -1.61990853E+03     -4.00595983E+03
      4.45083722E+03      2.23744555E+03      1.10576807E+03
      4.09195166E+02     -5.03132916E+02     -2.02030753E+02
     -3.75578287E+03     -1.30359223E+03     -2.88162765E+02
     -2.39510981E+03     -7.34781291E+02      9.59682269E+02
      3.26978605E+03     -9.40525026E+01      1.45269137E+03
      5.54926124E+02     -2.08246718E+02      2.14952515E+02
     -2.71130881E+03      1.36306587E+03     -1.94441555E+03
     -1.75046328E+03     -1.47843559E+03     -5.66092182E+02
     -1.39899734E+03      3.57012723E+02      1.05853152E+03
     -5.45902449E+02     -7.24950248E+01     -8.85065273E+02
      7.92277117E+02      1.38259235E+03      1.60941616E+03
      1.36878928E+03      1.12842808E+03     -1.25487277E+03
      1.68129720E+02     -2.14202293E+02      1.11878015E+02
     -3.93532257E+02      4.92116512E+02     -1.54568971E+03
      2.74516265E+03     -2.11511642E+02      1.07172254E+03
      8.91490125E+02      1.60899658E+02     -1.83417992E+02
      5.32959482E+02     -6.28965020E+01     -1.31970117E+03
      2.21609595E+03     -7.66445328E+02      1.98047826E+03
      4.49470356E+02     -2.90353324E+02      6.84375482E+02
      3.82911762E+03      4.75212303E+01      6.62280635E+02
     -2.08696080E+03     -1.23582396E+03      3.79510898E+03
      4.00279836E+02     -2.79369496E+02      4.73776458E+02
      4.07697217E+02      5.30019711E+02      4.31023876E+03
     -1.54105126E+03     -1.44943442E+03      3.36101924E+03
      5.72662043E+02     -3.14766438E+02      7.73101895E+01
     -2.45498282E+03      1.17274990E+03      9.62215627E+02
      3.89806531E+02      1.39020252E+02     -2.78616114E+03
      1.03471576E+02      8.67262246E+02      8.65026268E+01
      1.53730276E+02      1.14273802E+03      2.36188886E+02
      2.82763953E+03     -9.68860954E+02     -3.07480555E+03
     -1.07690019E+03      7.05938374E+02      2.21549128E+02
     -1.49723906E+03     -2.29405274E+03     -1.35990540E+03
      2.97050485E+03      3.54454010E+00      6.10489696E+02
      2.97702817E+02     -3.49463292E+02      3.92706599E+02
      3.64654945E+02     -1.13415524E+02     -1.93760250E+03
      1.79725990E+03      1.33822686E+03     -1.88227686E+02
     -1.75919002E+03      8.29702445E+02      6.94880754E+02
     -5.23978358E+02     -7.53389255E+02     -7.81878226E+02
     -1.58255678E+03      1.35982211E+03      8.31380730E+02
      1.81079245E+02     -5.04530930E+02     -5.38602368E+02
     -1.12527413E+03      1.79403343E+03      3.36498967E+02
     -2.93092998E+02     -3.24194411E+02      1.81447649E+02
     -1.69268690E+03      8.92267818E+02      3.29003374E+02
      2.77987699E+03      1.41306102E+03     -1.37172810E+03
      1.10560086E+03     -1.74502325E+02     -1.45403379E+02
     -2.81405370E+03     -1.01178987E+02      4.40758253E+02
     -3.23918804E+02     -1.99252689E+03     -3.05157435E+02
      9.91148006E+01      7.74278848E+02      2.71902388E+02
      1.91704326E+03      4.05815808E+02      1.04256774E+03
      3.80007367E+02      6.41967458E+02      2.19550458E+01
      1.68443729E+02      3.00676559E+02      4.19678988E+02
      4.53046577E+02      5.89864299E+01     -4.54351125E+02
     -3.21579173E+03      1.74958697E+01      1.65506255E+03
     -1.83202068E+02     -6.63225241E+02      8.20199011E+02
      2.63117179E+02     -8.96911863E+02     -2.77212935E+03
      3.07860546E+03     -1.13032303E+03      1.94327410E+03
      9.69401770E+01      4.33441701E+01     -5.04830222E+02
      8.14483505E+02     -7.02487112E+02     -1.20849988E+02
      2.54027106E+03     -1.65198976E+03      3.97679805E+02
      4.06043791E+02     -8.15460986E+00     -3.51929097E+02
     -9.37891188E+01     -9.46551280E+02     -1.15254665E+03
      2.23578438E+03     -1.40023776E+03     -2.02814397E+03
      1.44844743E+02     -5.05922616E+01     -2.08137773E+02
      1.14200469E+03     -1.01405757E+03      2.79932049E+03
     -2.82120917E+03      4.11731730E+01      6.46826684E+02
      4.74831827E+02     -6.92844487E+02     -6.42862175E+01
     -1.04367700E+03     -1.71889196E+03     -2.23937375E+03
      4.31967708E+03      8.66214632E+02     -4.29150017E+03
     -1.05117725E+03     -1.19461056E+03     -1.54587085E+03
      1.10021856E+03     -1.06356646E+03     -1.02257113E+02
      9.43054987E+02     -2.03410718E+03      4.41298658E+02
     -9.34009979E+02     -7.06848833E+02     -7.01924122E+02
      1.89600679E+03      7.69574646E+02     -8.88214218E+02
      1.24334731E+01     -7.85318634E+02     -2.53576762E+02
     -1.09520925E+03     -1.35609560E+02     -8.15722385E+02
     -3.89531798E+02      9.83580097E+02     -2.32514961E+02
      2.12003788E+02      4.77702428E+02     -4.33573929E+02
      4.87439176E+03     -7.01897707E+02      9.43243084E+02
     -2.35647210E+03      1.15159752E+03     -1.03138321E+03
      1.00964165E+03      7.24791737E+02      4.10961884E+02
      2.88545389E+02     -1.36256095E+03     -6.95235849E+02
      1.51522858E+03      3.47714468E+03     -1.56395681E+03
     -1.21499081E+02     -1.32537479E+03     -3.13978276E+01
      8.64242763E+02      2.22954515E+03      1.79265612E+03
      8.77194194E+02      5.53174498E+02      4.20885928E+02
      2.78083125E+02      1.01717622E+02     -5.74156335E+02
      2.78117022E+02     -3.06681606E+01      1.29325265E+02
     -4.31540581E+02     -1.08821046E+03      1.74244249E+03
      4.43085691E+02     -1.19297781E+02      3.15922834E+02
      3.90331778E+01     -2.45327586E+03      2.90556661E+03
      4.65314535E+02     -2.80557096E+03      1.21114527E+03
      3.19580797E+02     -7.43055270E+02      1.08135129E+02
     -1.70918104E+02      1.01150894E+03     -3.63713918E+02
      1.52397301E+03     -7.47924351E+02     -1.18732914E+03
      1.52514535E+01      3.48550095E+02     -2.10799904E+02
     -2.30460594E+03      1.79852600E+02     -2.97510357E+02
     -2.14668910E+02     -1.98662430E+03      1.03912405E+03
      3.19289334E+02      2.34144704E+02     -7.49961769E+01
      3.53148088E+02      5.86371640E+02      9.05224799E+02
     -1.47035679E+03      2.89344005E+01     -1.29584163E+03
     -4.57806286E+02      2.08323972E+03      2.25263294E+02
      7.18363946E+02     -1.50545651E+02     -2.23554258E+01
     -5.21085709E+02     -5.22849854E+02     -1.19154390E+03
      3.12425673E+02      5.55007688E+02      1.99605358E+03
      2.27001716E+03     -5.99613751E+02      2.95874716E+02
  }
}

Hamiltonian = DFTB {
  SCC = Yes
  SCCTolerance = 1e-6
  MaxSCCIterations = 200
  ForceEvaluation = Dynamics
  MaxAngularMomentum = {
    C = "p"
    H = "s"
  }
  Charge = 0.0
  SpinPolarisation = {}
  Eigensolver = Standard {}
  Filling = Fermi {
    Temperature [Kelvin] = 300.0
  }
  SlaterKosterFiles = Type2FileNames {
    Prefix = "../../pbc-0-3/"
    Separator = "-"
    Suffix = ".skf"
    LowerCaseTypeName = No
  }
  KPointsAndWeights = {
    0.0000000000000 0.0000000000000 0.0000000000000 1.00000000000000
  }
  Dispersion = LennardJones { 
    Parameters = UFFParameters {}
  }
}

ParserOptions = {
  ParserVersion = 3
}
