Geometry = GenFormat {
<<< "system.gen"
}

Driver = VelocityVerlet{
  Steps = 100000
  TimeStep [fs] = 0.2
  MDRestartFrequency = 5
  Thermostat = None {
    #InitialTemperature [Kelvin] = 300.0
  }
  Xlbomd{ 
    IntegrationSteps = 6 
    MinSccIterations = 2
    MaxSccIterations = 200
    SccTolerance = 1e-6 
  }
  Velocities [m/s] {
      4.43463281E+02     -8.99559903E+01      1.04553301E+03
      1.87419622E+03      8.11708691E+02      1.44048913E+03
     -2.31421205E+03      3.45472114E+02     -3.30869810E+03
      1.99641750E+01      3.87008220E+00     -4.53949571E+02
     -2.77495310E+02      2.89397246E+03     -5.84334254E+02
      1.54591447E+03      3.88869271E+02      4.74445601E+02
     -8.33294594E+02     -2.55437508E+02      4.91801673E+02
     -1.08134357E+03      2.48377817E+03     -4.69927216E+01
     -3.52647097E+03     -1.58919937E+03     -2.14872200E+03
     -6.67044204E+02      2.88320719E+00      4.45430801E+01
     -1.11576225E+03      1.27531347E+03      9.85191752E+02
      9.90212055E+01     -1.56274898E+03     -9.13027664E+02
     -9.40693191E+02      1.13018618E+02      9.41385413E+02
     -1.62233128E+03     -2.03488236E+03      2.32133051E+02
     -5.60615502E+02      8.38485688E+02      1.04715191E+03
     -9.23106278E+02     -1.30960175E+02     -3.97687307E+02
      7.97701378E+02     -1.24192167E+03     -2.77020753E+03
     -1.53178114E+03     -1.76744598E+03     -6.06979642E+02
      9.84360482E+00     -3.35718468E+02     -7.99533196E+02
     -9.00818326E+01     -1.17398890E+03     -8.78313405E+02
      8.55973356E+02     -1.18728613E+03     -3.67999346E+03
     -1.59992644E+02     -4.64902575E+02     -4.06646491E+02
     -8.01105698E+01     -1.49547271E+03      8.77521125E+01
     -6.22120905E+02      1.29514051E+03      3.25930654E+02
     -2.09550477E+02     -3.66500384E+02     -4.09502255E+01
      1.01095210E+02      2.81970202E+02      7.75017278E+02
      1.59888124E+03      3.18497996E+03      5.72663942E+02
      5.03513810E+02      9.92962804E+02     -2.39287398E+03
      3.03222854E+01      3.53811919E+02      3.12278116E+02
     -4.14663387E+02      1.49829788E+03     -1.85785802E+03
     -9.71440626E+02      6.93968299E+02      3.73128311E+03
     -7.56940984E+02     -1.63301547E+03     -2.45345000E+03
      2.74712908E+02     -6.33103352E+02     -4.47373388E+02
     -7.42997574E+02      8.58183900E+02      1.91264464E+03
     -4.94321699E+02      4.42724859E+02     -3.79084164E+02
     -5.54334740E+02     -2.04265005E+02      7.65906695E+02
      6.86708304E+02     -1.14754156E+03      1.64839874E+02
     -1.96428073E+03     -3.57033737E+03      1.63386005E+03
      5.07663466E+02      2.10899324E+02     -3.85615455E+02
      2.12658812E+02     -1.37338252E+02      2.76588596E+03
     -9.29833859E+02      1.01182162E+03     -2.76330793E+03
      9.32790906E+01      9.77233454E+02      3.09609897E+02
      8.96696907E+02      2.52657077E+03      1.77674274E+03
     -4.22924598E+03     -6.20796622E+02     -2.17072117E+03
      2.90228787E+02      3.91260258E+01     -7.60322555E+02
     -1.68043951E+03      2.40831786E+03     -3.73270227E+02
     -8.80249427E+01     -1.47590334E+03     -2.43849159E+03
     -2.19337674E+02     -6.61347562E+01      5.35205995E+01
     -2.37512024E+03     -1.84592855E+03      8.50042007E+02
     -4.01431702E+02      2.21353367E+03     -1.27617399E+02
      3.80321065E+02     -4.65530184E+02     -1.03576827E+02
      1.69338376E+03      1.08728345E+03      4.87488268E+02
      6.57204274E+02      1.25498806E+03      2.68288078E+02
      1.58540887E+02     -2.45267783E+01     -6.68061563E+02
     -2.80667348E+03      6.61739427E+02      1.47779573E+03
     -1.53121434E+03      9.83350553E+02      1.30905303E+03
     -7.92622974E+01     -7.78194478E+02     -7.39217177E+01
      8.46106302E+02     -1.55672038E+03     -2.86791528E+03
      7.33666905E+02     -4.43814438E+03     -9.42565299E+02
     -9.47585607E+02      2.40150488E+01      1.11052138E+03
     -3.07120994E+02     -5.04489114E+02      4.70106095E+02
     -1.32588951E+03     -1.35489931E+03     -1.03609025E+02
      2.59116471E+02     -4.90214169E+02     -6.94312474E+02
     -1.03106729E+03     -5.25517399E+02      4.39303463E+02
     -5.44592492E+02      3.53387754E+02     -8.28117050E+02
     -1.09142817E+03     -9.10140303E+02     -1.67801096E+03
      1.77753505E+03      9.68851185E+02      1.41274879E+03
      7.15919190E+01      4.41266483E+01      3.15952180E+02
     -5.59281362E+02      1.52045551E+01     -2.11118323E+02
      1.18931376E+03      9.11455382E+02     -1.72407210E+03
     -1.86470138E+02      3.53057792E+02     -4.95770717E+02
     -1.37435288E+03      2.92681936E+02      5.68828043E+02
     -1.19084254E+03      1.10631675E+03      1.16163377E+03
      2.07680836E+01     -1.12141242E+03     -9.43304401E+01
      7.60850666E+02     -1.54156404E+03      6.57391693E+02
     -1.16064484E+03     -5.14725415E+01      2.03779635E+03
     -7.91992859E-02     -4.90611245E+02      4.47445280E+02
      1.23318674E+03     -1.05748073E+03     -5.81447755E+02
     -3.59813774E+03     -6.09387272E+01     -8.90602002E+02
     -5.29627742E+01      5.63394214E+02     -1.96440751E+02
      4.16340771E+03      1.35143004E+03      3.49709753E+03
      6.36009423E+02     -2.52479650E+03     -1.42501285E+02
      1.89194325E+02     -4.15063108E+02      8.55689428E+02
     -5.53582177E+02     -1.64891876E+02     -2.80434663E+02
     -2.01981523E+03      2.08192799E+03      1.34044415E+02
     -2.74017827E+02     -6.14410569E+02     -2.73915146E+02
     -3.47121613E+02      1.73492520E+02     -3.25895596E+03
      1.30431198E+03      1.19859971E+03     -1.13856087E+03
     -4.19269992E+02     -2.95737886E+02     -1.06145389E+02
      1.35601393E+03      1.63211995E+03     -1.09738412E+03
      5.34585965E+02      5.33751870E+02     -4.63448273E+02
      2.03149903E+02     -2.46161390E+03     -1.37100587E+03
     -1.11553078E+03     -3.11177268E+02      3.03531559E+02
     -1.36783176E+03     -1.80115264E+03      7.90184247E+02
      3.14542590E+03      6.73533454E+02     -1.10788623E+03
     -2.82936510E+03      1.22089428E+03     -3.70899020E+02
      8.04947774E+01      3.60862956E+02      1.36463963E+02
     -2.35845518E+03     -1.14861901E+03      2.14359236E+02
     -8.58956890E+00      3.98443186E+02     -3.21116762E+02
     -2.87264738E+02     -2.60705045E+02     -5.74275524E+01
     -2.47624365E+03     -1.39532600E+03     -4.82688020E+03
     -4.18875982E+02      3.63686160E+01     -2.33078124E+03
     -3.83488696E+02      2.41297141E+02      4.71199647E+02
      1.37347248E+03     -2.59282567E+02      2.28888961E+03
     -9.19607069E+01     -2.08851150E+03     -1.83657749E+03
     -3.32838752E+02      2.02682911E+02     -5.16699622E+02
      2.44105097E+02     -1.40877983E+03      3.26388217E+02
     -1.83692904E+03     -1.05532619E+02      2.64813399E+03
      2.79736288E+02     -4.85036274E+02     -1.27211075E+02
      2.88478857E+02     -2.28084474E+03     -8.69053782E+02
     -1.82066370E+03      1.27214482E+03     -8.51369416E+02
      3.03582073E+02     -4.77933799E+02      1.45856368E+02
     -3.56056033E+02      3.74694806E+01     -5.65463241E+03
     -2.33384135E+03     -1.27074661E+03     -6.66159552E+02
      4.99416276E+01     -1.51388161E+02      8.45640322E+01
      1.51063138E+03     -1.91389934E+03     -1.34222161E+03
      1.60050762E+03      1.40599735E+03      1.91789544E+03
      9.21536059E+01     -1.73407673E+01      5.74038870E+02
     -1.81737033E+03     -3.38023317E+02     -7.18092474E+02
      5.82525840E+02      1.94450060E+03      1.80205414E+03
     -4.81377760E+02     -2.97347743E+02     -7.09940217E+02
     -1.71859534E+03      1.38188801E+03     -1.75987780E+02
     -3.20998727E+03      9.81976512E+02      1.22166713E+03
     -2.13711214E+03      1.91861028E+02      3.13200231E+03
     -1.82425353E+02      1.03946036E+02      1.03059168E+03
     -2.36460077E+03     -1.11929481E+03     -1.09109905E+03
     -2.72366988E+02      1.77120371E+03     -2.16282487E+03
      1.68146252E+03     -1.14219377E+03      9.19994959E+02
     -6.40712686E+02     -5.81052086E+02     -4.14441198E+01
      4.97871743E+01      1.49791657E+03      6.72898544E+02
      2.88682571E+03      1.91551770E+03     -2.72934944E+02
      5.17060386E+02      3.69719810E+02     -4.19401965E+02
      2.97670237E+03     -4.46635043E+02      5.17843261E+03
      7.37074168E+02      3.97679262E+02      3.20056668E+03
      2.68550783E+02     -1.70382426E+02     -7.22078445E+00
     -2.76443453E+03     -4.77792566E+02      8.71918191E+02
      3.11273426E+02     -1.15505391E+03      1.06375741E+03
     -5.05453091E+02      2.06743722E+02     -1.92486382E+02
     -1.76999466E+03     -2.18098230E+02      2.15414082E+03
      1.22228911E+01     -4.41655137E+02     -1.07160951E+03
      2.30621155E+02     -4.51817337E+02      6.00738268E+02
      5.74163673E+02     -1.62663864E+03      4.74634615E+03
     -9.39144278E+02      1.36861600E+03     -7.27615956E+02
      4.53801930E+00     -3.86910082E+02      5.66769045E+02
      3.67650037E+02      1.30795037E+01     -8.07099633E+02
     -7.85113807E+02     -1.04366990E+02     -4.33327838E+02
     -6.93693281E+01      4.41811413E+02      8.59637577E+01
     -2.41306187E+03     -2.48108572E+03     -2.76525377E+03
      6.88488067E+02     -7.94884321E+02     -2.62457652E+03
      3.22800893E+02     -7.76664800E+02     -1.00230006E+02
      2.94303165E+03     -1.19909513E+03     -9.14062780E+02
     -1.36492441E+03      1.49860606E+02     -4.50761214E+01
      5.74633681E+02     -5.67874428E+02      5.78748238E+02
     -2.65279161E+02     -1.35909873E+03      1.93810074E+03
     -1.38045772E+03     -2.27145850E+02     -2.38630158E+03
      1.61380229E+03     -2.12095909E+03     -2.28723578E+03
     -7.33456878E+01      1.69943027E+02      5.41327038E+02
     -2.46697373E+02      1.86266819E+03      6.90178288E+02
     -9.02693413E+02      2.26788186E+02     -3.44894832E+02
      1.08534946E+03      3.63036909E+02     -1.00349000E+03
      1.32802765E+02     -4.44407547E+02     -1.04576508E+02
     -2.77982604E+03     -5.28784814E+03      2.10572254E+03
      9.14443208E+02     -1.70663989E+03      1.04163344E+03
     -8.61579019E+02     -3.09492531E+02     -2.55578462E+02
      1.56526834E+03      9.55644557E+01     -1.52497339E+03
     -1.23135119E+03     -2.10208035E+03      1.18741458E+03
      1.79533142E+02     -1.81927023E+02      5.53177772E+02
      1.58290197E+02      3.34138959E+02     -3.25642361E+02
      2.08083589E+03     -2.96128662E+03     -2.39305452E+03
     -7.35122760E+01     -1.03734133E+02      5.49523338E+02
     -1.52118099E+03      3.50040572E+02      8.77584475E+02
     -6.93017524E+02     -1.39435151E+03      8.55499886E+02
     -6.72525595E+02     -4.35931871E+02     -4.65664934E+02
     -9.09812245E+02     -6.29018714E+02      1.82697653E+02
     -2.53395494E+01      3.33671236E+02     -4.87416457E+02
      7.33902513E+02     -4.82312602E+02      3.73580861E+02
     -2.54678766E+03     -1.76362261E+03      1.79515650E+03
     -3.62286124E+03      2.39067524E+03      1.82622676E+03
     -3.84082581E+02      9.68132645E+01     -1.83297941E+02
     -3.21875993E+03      9.79772148E+02      7.38088794E+02
     -1.39757986E+03      6.11125837E+02     -1.83618064E+03
      4.03357154E+02     -2.44609160E+02     -2.79674948E+02
     -5.27226952E+02     -3.73214096E+03      1.66806399E+03
      1.22376572E+03      7.64384817E+02      2.32556616E+03
      5.78358749E+01     -5.65962123E+02     -1.06266239E+03
      1.44417009E+03     -1.51116968E+03     -2.07286503E+03
      2.15474931E+03      4.60322466E+02      1.44704808E+03
     -4.58582725E+02     -1.61623070E+02     -3.35151316E+02
     -5.49911881E+01      1.76660456E+02     -1.07958152E+01
     -1.90443199E+03     -1.64612060E+03      7.95658497E+01
     -2.04277856E+03     -1.00791136E+03      1.55550535E+03
      6.40282651E+02     -8.40567088E+02      5.79114636E+02
     -1.15814115E+00     -6.60201998E+01      8.53349607E+02
      6.54141600E+02      2.85582421E+02     -2.26804202E+03
     -7.63599531E+02     -9.72000847E+02      1.69290995E+03
     -2.48235748E+02      7.51260642E+02     -5.34297033E+02
     -2.73921634E+03     -1.00312836E+03     -2.06791441E+03
      1.32851529E+03     -4.47220595E+02      4.87260068E+02
     -1.76843815E+02     -5.75820827E+02      3.64219780E+02
     -1.68968913E+03      1.32513418E+02     -9.96364915E+02
      3.59312471E+02     -2.34329507E+03     -9.92192625E+01
     -6.34537299E+02     -4.43740138E+02      3.76202289E+02
     -3.54765844E+02     -3.45463095E+03     -1.77183698E+03
     -5.34670468E+02      3.03984289E+02      1.00520941E+03
     -4.60158150E+02     -3.39621774E+02     -2.09364098E+02
      1.87034987E+02     -1.61252263E+03     -9.88295598E+02
      1.51197331E+03      2.76594954E+02      2.22980577E+02
     -1.24932277E+03     -2.48329407E+02     -3.22194713E+02
     -2.34143785E+03     -1.61587693E+03     -1.14083244E+03
      4.58767693E+02      3.14205615E+02      2.47178218E+03
     -4.88037243E+02      3.20613198E+02     -2.04179060E+01
     -1.99415222E+03     -1.47774524E+03     -5.37865566E+02
      1.30443922E+03      5.87814352E+02     -1.18740381E+03
     -6.75116938E+02     -4.61824828E+02      2.57026064E+02
     -7.98373336E+02     -1.88547265E+03     -1.55618816E+03
      2.45733018E+02     -9.12445021E+02      1.99377325E+03
     -3.64871760E+02     -8.84378932E+01     -7.62681007E+01
      1.09874542E+03     -9.55430178E+02     -1.57526565E+03
      8.17839103E+02     -9.54146895E+01     -4.21075610E+02
     -2.59707684E+03     -3.04702405E+03     -2.31191268E+03
     -6.36962297E+02      1.75575605E+02      5.83285526E+02
      1.34971106E+03      1.58299889E+02      7.18138159E+02
     -1.90902966E+03      2.52973467E+03      2.26586853E+02
     -5.76569737E+02     -7.82643661E+02      1.38168110E+02
     -9.43424833E+02     -2.52279468E+02      2.01643026E+02
     -4.80354099E+03     -3.29946969E+02     -5.31478793E+01
     -1.21404765E+03     -7.88119418E+02      1.99038517E+03
      8.63517103E+01     -2.26898850E+02     -3.96994054E+02
     -1.54954370E+03      1.20672339E+03     -8.31866933E+02
      1.04949594E+03     -1.41457524E+03     -9.17203897E+02
      2.52244397E+01      2.56943022E+01      6.14913566E+02
     -1.10730298E+03      2.23911786E+03     -3.40310245E+03
     -2.03402168E+03     -2.13894945E+03     -1.51042083E+03
     -8.92617521E+02      7.84739591E+02      6.51358778E+00
     -7.44439618E+02      1.36165387E+03     -4.39779424E+02
     -1.64353155E+03      2.34298465E+03      2.80596647E+03
     -4.82318272E+02     -5.38832575E+02     -5.35651856E+02
      3.68009769E+02     -2.78189337E+02      1.65339263E+03
     -7.91018345E+02      2.60739498E+03      7.37857674E+02
     -1.04522481E+02      1.39742800E+02     -3.31291709E+02
     -1.49428326E+03     -8.15501959E+02      6.18912673E+02
     -6.93903004E+02      8.08683266E+02     -6.20693195E+02
      2.77171554E+01      7.82334242E+02      1.36623137E+02
      1.57460140E+03      1.97974735E+03      2.05046562E+03
     -2.86112745E+03     -1.84658373E+03      1.69929096E+03
     -5.14870897E+02     -2.64259017E+02      8.09386627E+01
      9.69977946E+02      3.85320043E+02      2.38128296E+03
     -3.00783964E+02     -8.55553245E+02     -2.72549675E+03
     -3.72158402E+02      1.56106488E+02      2.82719373E+02
     -1.84805910E+03     -9.21461234E+02      2.25845768E+03
      3.58163248E+03      9.28700825E+02     -1.16962617E+03
     -1.02510564E+03      1.65109176E+02      1.24224069E+03
     -9.95082695E+02      5.69034867E+01      5.42715333E+01
      1.77536522E+02      1.92067173E+03     -3.94133838E+02
     -7.04971496E+02      1.75149340E+03      3.46099576E+03
      4.55252668E+02      1.02711301E+03     -3.62952411E+02
      2.88557386E+04      1.64113324E+04     -2.47241919E+03
     -3.75744428E+03      4.84607202E+02      5.89950790E+02
     -1.78000442E+03      1.66091711E+03     -8.11622190E+02
     -1.96453945E+02     -7.05389134E+00      1.08370544E+03
     -4.88332835E+01      7.27167361E+02      2.27736112E+03
     -1.32590237E+03     -2.38961357E+03      1.02336364E+03
     -2.96010005E+02     -7.68758020E+01     -1.19413044E+02
      8.52001076E+01      7.27820909E+02      3.00181301E+03
      3.16508438E+02      1.62547146E+03     -2.68973943E+03
      1.42672357E+02     -4.00551453E+02     -7.41413304E+02
      7.61593852E+02      3.84931394E+03     -1.41683822E+03
      1.84951119E+03      6.16108103E+02     -2.37559551E+03
      9.75240728E+01      3.82638396E+01      5.27698446E+01
      2.28164375E+03     -1.03757921E+03      3.13887446E+02
      7.07001323E+02     -9.49241791E+02      1.10825312E+03
     -4.20747976E+02     -6.35270508E+02     -8.09621929E+02
     -2.38572839E+03      8.33695681E+02     -1.82209899E+02
     -1.66979644E+03     -2.20679891E+03      3.19467465E+03
     -1.67500669E+02      9.92038593E+01      5.19840656E+01
      1.48950136E+02      1.03599115E+03      2.31970213E+03
      1.03949277E+03      1.08322717E+03     -1.27480977E+03
     -6.71650541E+02     -1.26927527E+02     -1.88907646E+02
     -1.01606527E+03      1.77263244E+03     -2.96556309E+03
      4.88956790E+03      2.47698181E+02     -2.80712599E+03
     -1.32431633E+03     -6.72762578E+00     -2.91458817E+02
      2.29569728E+03      5.13651531E+02      2.01080149E+01
     -8.42725614E+02     -3.04691921E+03      8.23128710E+02
     -5.03734937E+02      7.95661934E+02      2.66951939E+02
      7.40107497E+01     -2.67367518E+02      3.30020127E+02
     -2.19971522E+03      5.06829305E+02     -1.59615143E+03
     -2.93069757E+03     -1.83889773E+02     -1.00122086E+03
      2.00470239E+03      3.09750949E+02     -2.18289152E+02
      4.52988833E+02      2.59991081E+02     -6.79240180E+02
     -1.20331398E+03      6.70725711E+02     -2.57376376E+03
     -1.86507387E+03      1.22665516E+03     -1.01834463E+03
      1.00883808E+03     -8.09300210E+02      5.98734139E+01
     -9.15835849E+02      1.99684184E+03      3.53636579E+03
     -8.12321778E+02     -3.11461149E+02      1.16085162E+03
     -1.13796819E+03     -8.79069454E+01      1.93955426E+02
     -1.89029788E+03      2.95024562E+03      2.21328399E+03
     -2.40621016E+03      9.00900994E+02      5.10921243E+02
     -1.91467961E+02     -2.68256560E+02      4.63071147E+02
     -9.78241677E+02      2.79740207E+02      1.30413408E+03
     -5.58012056E+02      6.47124884E+01      2.59160841E+03
     -1.50418437E+02      3.93014860E+01     -4.87297856E+02
     -2.56122449E+03      1.30594518E+03     -1.40391736E+03
     -1.99558819E+03     -1.91359659E+03     -1.25867731E+03
     -2.03101044E+02     -1.31908188E+03     -2.39601808E+02
     -2.00581535E+03     -1.99366033E+03     -5.39978610E+01
      2.05738528E+03     -5.67829905E+02      5.31188191E+01
     -4.22669594E+01      2.18671804E+02     -2.59596964E+02
      5.04014924E+02      1.25037808E+03      2.32919098E+03
      3.35958750E+03     -1.22543864E+03     -5.06020118E+02
     -3.27253706E+02      3.09994432E+02     -1.10295194E+02
     -9.18276790E+02     -3.92657152E+03      1.49358742E+03
      4.14176622E+03      2.89285301E+02      2.16946559E+03
     -5.72882442E+02      7.27013576E+01      4.30222148E+02
      6.84054381E+01     -1.82981714E+03      2.30357071E+03
     -1.88308363E+02      4.74788451E+02     -6.57878823E+02
      6.74209957E+02     -4.77146333E+02     -9.38681635E+01
      4.44303354E+02     -3.35960188E+02      1.09642948E+02
     -1.81325643E+03     -1.58423364E+03     -2.35727604E+03
      1.05332194E+03      1.41743026E+02     -3.88570997E+03
     -1.19673222E+02     -6.23936539E+02      1.14952711E+03
     -1.98036926E+02      2.75710480E+02      3.93901003E+02
      7.16211066E+02      1.61113352E+03      3.79536290E+03
      2.54174126E+02      2.16693689E+03      3.70768144E+02
     -1.86159342E+02     -5.81243294E+02     -3.95015016E+02
      1.93851368E+03      1.34714750E+03      2.46319280E+02
      3.07096465E+02      2.37822126E+02      2.11913318E+02
     -5.49283880E+02      1.76417797E+01      1.99783186E+02
      3.45241809E+01     -1.42559032E+03      2.95979602E+02
     -4.18370874E+02      8.23040010E+02     -1.67847628E+03
      2.23093647E+02      3.28122710E+02     -1.53402531E+02
      3.73807145E+02     -3.32719123E+03     -4.86968310E+02
      3.44525363E+03     -2.28679753E+03     -4.79488376E+02
     -2.12003519E+02      1.74127579E+02      3.60881056E+01
     -1.91992825E+03      5.11983809E+02     -1.62663504E+03
     -1.60120369E+03     -1.77982456E+03     -4.09853437E+02
      1.02178891E+02     -2.51898104E+02      7.59867803E+02
     -2.41295790E+03     -4.33383572E+02     -6.80928290E+02
     -2.58981057E+03     -7.95352895E+02      2.52899692E+03
     -1.12660091E+03      2.92358076E+02      2.00281236E+02
     -3.07143570E+03     -4.64036283E+02     -1.52890870E+03
     -2.23541199E+03     -7.91410379E+01     -9.92241724E+02
     -5.51399937E+02     -3.05077407E+02     -3.91179776E+02
      1.40327749E+03      3.10190209E+02     -1.46391036E+01
     -1.16551698E+03     -3.31511086E+03     -2.39809237E+03
     -4.19438855E+02      1.13027624E+02      3.21931290E+02
      9.18117302E+02      1.25871592E+03      3.04170888E+03
     -1.31283098E+03     -2.09927617E+01      9.12588917E+02
     -9.49802809E+02     -2.81879118E+03      6.60836030E+02
     -4.22334695E+00      8.65955680E+01     -6.36269902E+01
      7.89777598E+01     -1.86110026E+02     -2.38010409E+03
      4.19249306E+02     -1.43316793E+03      2.13646698E+03
     -1.33883201E+03     -3.04344494E+02     -7.07923473E+02
  }
}

Hamiltonian = DFTB {
  SCC = Yes
  SCCTolerance = 1e-6
  MaxSCCIterations = 200
  ForceEvaluation = Dynamics
  MaxAngularMomentum = {
    C = "p"
    H = "s"
  }
  Charge = 0.0
  SpinPolarisation = {}
  Eigensolver = Standard {}
  Filling = Fermi {
    Temperature [Kelvin] = 300.0
  }
  SlaterKosterFiles = Type2FileNames {
    Prefix = "../../pbc-0-3/"
    Separator = "-"
    Suffix = ".skf"
    LowerCaseTypeName = No
  }
  KPointsAndWeights = {
    0.0000000000000 0.0000000000000 0.0000000000000 1.00000000000000
  }
  Dispersion = LennardJones { 
    Parameters = UFFParameters {}
  }
}

ParserOptions = {
  ParserVersion = 3
}
