Geometry = GenFormat {
<<< "system.gen"
}

Driver = VelocityVerlet{
  Steps = 100000
  TimeStep [fs] = 0.2
  MDRestartFrequency = 5
  Thermostat = None {
    #InitialTemperature [Kelvin] = 300.0
  }
  Xlbomd{ 
    IntegrationSteps = 6 
    MinSccIterations = 2
    MaxSccIterations = 200
    SccTolerance = 1e-6 
  }
  Velocities [m/s] {
     -6.71092245E+02      6.29036472E+02      3.59793527E+02
     -1.29478369E+03     -8.91423207E+02      3.42958647E+02
      1.69813127E+02      2.23233936E+03     -3.89595686E+02
     -2.91411696E+01     -3.97381219E+02     -1.56713676E+02
      2.08823059E+03     -8.24627323E+01      7.59026670E+02
      1.37047562E+03      1.39792350E+03     -8.07731417E+02
      2.88880450E+02     -3.04469343E+02      5.99462148E+02
     -1.36602148E+03      2.46970677E+03     -1.58562717E+02
     -6.94637460E+02      1.40331334E+03      4.76049475E+02
      3.20728961E+02     -2.65111908E+02     -8.89085138E+02
     -2.39978521E+03     -2.69009798E+02      1.24438804E+03
      6.99743644E+02      1.42750824E+03      5.02184209E+02
     -4.11137054E+02      2.79909155E+02      4.07334216E+02
      8.25359236E+02     -1.98949970E+02      1.52438510E+03
      4.32674379E+02      1.29095850E+03      1.61361702E+03
      5.08099741E+02      1.27040221E+00      1.76900123E+02
      2.86543815E+02      2.15331693E+03     -3.55653090E+02
      1.45281668E+03     -1.27865020E+03      2.99612469E+02
     -4.01169596E+02     -1.74632963E+02     -5.92098155E+02
     -2.87049937E+02      1.80185468E+03      5.86361046E+01
      1.92288049E+03     -8.59779545E+02      1.89554260E+03
      2.51917848E+02     -3.93171165E+02      2.76022462E+02
      1.05185472E+03     -1.01649768E+02     -9.97740512E+02
      1.22189135E+03     -1.30732552E+03      2.51376322E+03
     -2.54507106E+02     -4.95228373E+02      6.20132406E+01
      2.85226023E+03     -4.62281120E+02     -2.00986662E+03
      2.51464698E+03      2.93937218E+02      3.10768119E+03
     -2.49831371E+03     -1.31452427E+02      3.94641194E+03
     -4.39108369E+02     -7.60552384E+01     -2.39394671E+01
     -1.46760553E+03      2.52003014E+02      3.62054140E+02
     -4.57196404E+02     -3.76358651E+03     -8.56370424E+02
     -1.75438262E+03     -3.41228962E+03      1.18196945E+03
     -1.25581235E+02      3.80469847E+02      1.35213291E+02
      1.61582394E+03     -9.62830037E+02      3.54974895E+02
     -6.98181649E+02      1.16194843E+03      3.41277524E+02
      6.73067947E+02      9.12137186E+01     -3.81692079E+02
     -5.50660718E+02      5.64403361E+02     -1.65820523E+02
      1.36177313E+03     -3.00732341E+03     -2.01731022E+03
      8.23956284E+02      1.28378834E+02     -6.03582694E+01
     -1.68503193E+03     -3.92757492E+01     -9.35184009E+02
      1.15571788E+03      4.52959792E+03      9.59357851E+02
      7.26836085E+02      1.78297663E+02      5.55655637E+01
     -4.70923379E+02     -1.75049680E+03     -2.23349571E+03
      1.80594326E+03     -7.35572190E+01      2.44376745E+02
     -1.30982323E+02     -2.51103122E+02      8.93658107E+01
      1.74786465E+03      1.04272605E+03     -5.26540842E+02
     -6.31181882E+02     -8.17505381E+02     -3.77830555E+02
     -5.46634948E+02      2.22097499E+02     -4.42890557E+02
      9.95174341E+02     -2.76638359E+02     -2.27178098E+03
      1.44286475E+03     -1.08344792E+03     -3.98894050E+02
     -3.93837129E+02      1.95846617E+01      1.86584375E+02
     -1.16842297E+03     -1.51868323E+03      2.55568026E+02
     -7.39899862E+02      2.30052669E+02      1.89607378E+03
     -4.82314126E+02     -3.88772097E+02     -3.83487963E+02
      7.60665178E+02      2.16393359E+03     -7.52338413E+02
      1.65988239E+02     -5.51610117E+02      1.65961031E+03
     -1.93152112E+02     -5.32963932E+02     -1.92656040E+02
     -9.65308541E+01      6.45347834E+02     -2.73987558E+03
      1.46204713E+03      2.44859760E+03      1.22981086E+03
     -1.60373619E+03     -3.55795773E+03     -2.26730106E+03
      6.37268855E+01     -4.01683506E+02      4.43922222E+02
     -1.26662762E+03     -1.78786246E+03     -1.89253850E+03
     -1.15891320E+03      6.07479708E+02     -7.45008278E+02
     -2.22475025E+03     -1.74172644E+03      1.46774150E+03
      5.18107884E+02     -5.19451405E+02     -6.21976930E+02
      2.65787238E+02     -2.14500905E+01     -2.42154429E+03
     -1.27768640E+03     -1.86346010E+03      1.00530564E+03
      3.11901931E+02      1.29327756E+02      2.08427881E+02
      2.63616620E+03     -8.47745820E+02     -8.89853206E+01
     -2.26730792E+03     -5.07492475E+02      5.33797136E+02
      7.32576736E+02      3.08191775E+02     -1.10082976E+03
     -4.73960216E+02     -2.23065787E+03     -1.30023723E+03
      5.11553242E+02     -4.97593426E+02      1.42839995E+03
      8.76455453E+02      2.92270316E+02     -7.59723933E+02
     -9.04809560E+02      1.69951847E+03      1.79841446E+03
     -1.25695036E+03     -1.89055958E+02     -2.79689280E+03
      7.19320547E+02     -6.95185240E+02     -5.03286984E+02
     -1.80142151E+03      5.42899043E+02     -1.61915061E+02
      3.30848012E+02      9.24560708E+02      1.44689517E+03
      1.56974548E+01     -2.09885838E+02      3.82591888E+01
     -2.09886040E+02      2.58703760E+03      1.11940873E+02
     -1.79316584E+03      5.13516783E+02     -9.68915625E+02
      6.13614747E+02      2.40004920E+02      1.56969777E+02
      1.26326126E+03     -1.79239361E+03     -1.36694873E+03
      1.52849983E+03     -9.01051351E+02     -1.56004670E+02
      1.45070440E+02      2.64123256E+02      8.62513456E+02
     -3.14091570E+02      1.40832376E+03      1.63954867E+03
      1.31119753E+03     -1.07360931E+02     -1.55704170E+03
      8.54284775E+02      2.07162379E+02      3.20979649E+02
     -2.72657445E+02      2.00597736E+03     -3.29700634E+02
     -2.24585338E+03      2.12278229E+03      2.10551673E+03
      1.15704222E+03     -1.41850727E+03      4.32352554E+03
      4.40893188E+02     -3.98069269E+02     -1.85228213E+02
     -1.38088869E+02     -3.81055814E+02      1.90660495E+03
     -1.16937189E+03     -1.70277163E+03     -2.13975699E+03
     -3.79817439E+02     -1.31001503E+02      2.37329415E+00
     -4.10484883E+02     -1.09537557E+02     -1.91083939E+01
      2.47684203E+02      2.45653458E+03     -1.25440695E+03
     -2.78181884E+03     -3.06835073E+03     -2.83824792E+03
     -3.27227516E+02      1.87929344E+02      2.76071187E+01
     -3.48241142E+01     -8.58743610E+02     -1.02392371E+03
      1.67413948E+03      1.31628461E+03      2.72476819E+02
      7.03432243E+02      6.71807180E+02     -2.33672026E+02
      1.16493243E+03      2.11205051E+03     -4.71095183E+01
      1.10434403E+03     -7.11950390E+02      3.65842285E+01
      1.14860989E+02      5.17400310E+02     -3.73357451E+02
      1.12713706E+03      1.50760553E+03     -3.35195469E+02
     -1.12420142E+03      1.77603068E+01     -3.13441950E+03
      3.82866285E+02      2.74392226E+02      4.84075146E+02
     -9.38836971E+02     -1.94839580E+03     -1.26141444E+03
     -1.07096095E+03     -2.70110539E+02     -1.04902652E+03
     -3.84744974E+02      3.14892431E+02      9.42769589E+02
     -1.38277006E+03      5.34463477E+02      3.08333967E+02
      1.13026544E+03      4.08248916E+02     -2.28809175E+03
     -7.38750279E+02      1.17201660E+02      2.55132650E+02
     -7.83702112E+02     -2.62463396E+03      1.07268189E+02
     -1.36393852E+02     -1.88778101E+03      1.75720288E+03
     -6.48317808E+02     -2.56378638E+02      2.78549612E+02
      3.69225357E+03     -1.13790793E+03      6.56374076E+01
      2.90630896E+02     -8.41329987E+02      3.38182193E+03
     -5.74136683E+02      2.37888479E+01      5.58677570E+01
      5.96034080E+02     -8.67122695E+02      1.74498555E+03
     -1.26973066E+03      5.09105834E+01     -3.02824905E+03
      1.11045562E+03     -3.69398197E+03      1.22353013E+03
     -6.45275997E+02     -2.59289603E+02     -7.12670753E+01
     -1.13006020E+03      1.33446858E+02      2.62031330E+03
      1.26427824E+03      2.47778673E+03     -1.01161402E+03
      7.42182428E+02      1.83883482E+03      1.77875435E+03
     -4.39318985E+02      4.85346931E+02      3.73414017E+02
     -2.44293084E+03      2.25788073E+03     -1.38677238E+03
      1.78300334E+03     -1.56557370E+03     -3.07093671E+02
      6.55170781E+02     -5.20671329E+02      2.69534968E+01
     -3.13765286E+03      2.26186604E+03     -2.01874751E+03
      2.65200386E+02     -6.01980827E+02      8.66748012E+02
      1.09116945E+02      2.17489780E+02      3.31342980E+02
      1.02140395E+03     -2.46768428E+03     -2.69466716E+03
     -2.56168991E+03      2.42891684E+02     -1.70851388E+03
     -5.51997656E+02      2.71465479E+02     -1.00330239E+03
     -7.92138060E+02      4.18454777E+02     -1.98001696E+03
      9.79992045E+02      1.31087328E+03     -1.52655329E+03
     -2.13444292E+02      4.97118717E+02     -2.06286461E+02
     -1.01817635E+03      1.45526730E+03     -4.48690007E+02
     -5.56580140E+01      2.69805514E+03     -1.12441840E+03
      3.85140936E+02      3.12094570E+02      1.43992849E+02
     -1.25162007E+03     -1.35202167E+03     -1.82112082E+03
      1.25218466E+03     -1.40603514E+03     -3.39499698E+02
      1.83949588E+02     -6.35160259E+02     -5.76625637E+02
      1.07667653E+03     -1.75593676E+03      1.06157089E+02
      2.66725913E+02     -2.30558581E+03      7.36355005E+02
      5.43591435E+01     -7.05338862E+02     -2.50484911E+02
      1.78460913E+03      2.82301897E+03     -8.73339431E+02
     -8.14215409E+02     -4.18898412E+02     -1.87749498E+03
     -8.64897060E+02      8.14312089E+01      6.00047842E+02
      6.53053703E+02      3.18110137E+00     -1.70328616E+03
     -2.42501762E+03     -1.28330604E+03     -6.82191639E+02
      6.24810388E+02     -6.56783503E+02     -1.06392172E+03
     -6.14605143E+02      6.30186966E+01     -1.01419561E+02
     -5.00594129E+02      2.10870187E+03     -3.28177968E+03
      1.99682433E+03      7.05351661E+02      3.88741627E+02
      1.14840766E+03      3.52653319E+02      9.99901482E+02
      1.02532534E+03     -5.46004937E+02      5.48584931E+02
      9.13900221E+02     -1.37246819E+03      9.43198285E+02
      1.60657650E+02      9.69350991E+02      1.13998165E+03
      1.39511836E+02     -4.23817672E+02     -8.47511497E+02
     -1.54349440E+03     -1.46376602E+03      1.24199995E+03
     -4.32790566E+02      1.22923972E+03     -4.50968663E+01
     -4.53967234E+02     -2.60945366E+02     -8.45215139E+02
     -4.37554752E+02      8.33788082E+01     -1.06549056E+03
     -5.62537097E+02      1.74033656E+03      3.89948661E+02
      1.61950159E+03     -4.94106643E+03      1.14779427E+04
     -2.09098853E+03     -1.69770568E+03     -3.62327736E+01
      8.84201024E+02      1.41687170E+03     -1.34594555E+03
     -5.46561208E+02      3.89991116E+02     -5.12223550E+02
      2.68568506E+03      8.11044651E+02     -4.83547218E+02
     -3.95134180E+02     -6.29143320E+02     -3.48117953E+03
      3.26494813E+01      1.40129961E+03     -2.38958694E+02
     -6.70804269E+02      6.20481438E+01      6.17074035E+02
     -3.33756632E+02      9.11608762E+02     -1.03845205E+03
     -2.83439692E+02      6.50519252E+01     -2.08125802E+02
      6.42476547E+02      1.37316027E+03     -6.96106400E+02
      1.94280104E+03     -9.51809661E+01      3.75506456E+03
     -6.19537487E+02     -2.33523750E+02      4.87478601E+02
     -3.11967916E+03      9.59414606E+02     -7.33157277E+02
      6.93822860E+02      1.16936353E+03     -8.31519092E+02
     -4.89009650E+02      1.09837392E+03     -4.98049937E+02
     -1.44016578E+03      4.70600696E+02      5.00878193E+02
     -1.31478837E+03      5.92089559E+02      3.39542724E+02
      6.18377146E+02     -1.19805377E+02      2.22727811E+03
      1.95724994E+02      3.74048131E+02      3.52818373E+02
      4.84863463E+02     -5.06125393E+02      1.22893979E+03
     -1.71858071E+03     -3.62663959E+02      3.49326782E+03
     -2.07358340E+03      2.26963928E+03      1.75273653E+03
      9.55554305E+01      3.82424142E+02     -3.83557961E+02
      1.51253229E+02      8.42571914E+02     -5.44701424E+02
      8.11103819E+02      1.46519536E+03     -2.82333339E+03
      6.77747112E+02     -3.45518456E+02     -5.01373572E+02
     -1.12968462E+03     -2.17466634E+03      1.88244322E+03
      6.02241982E+02      2.96960737E+03     -9.19525855E+02
     -2.32461857E+02      4.07186432E+02     -2.98449668E+01
      2.40678004E+03      2.36325032E+03     -1.35210992E+02
     -1.00549355E+03     -1.12452700E+03      1.40806825E+03
     -3.61732957E+02      1.11566327E+02     -1.20578353E+02
      2.03717302E+03      2.65916817E+03      1.17285475E+03
     -1.60545804E+03      7.21313906E+02     -8.78250200E+02
      1.28255580E+02     -5.71367296E+02      5.88378484E+02
      1.69119306E+03      2.55983845E+03      2.59871257E+03
     -5.00151776E+02     -2.46353272E+03     -1.53773042E+03
     -4.26062324E+02      7.45303276E+02      6.59055273E+01
      3.48949217E+02     -1.37055910E+03     -2.13903951E+02
     -2.51601904E+03      1.19744792E+03     -1.26024915E+03
     -5.91240577E+02      2.73880240E+02     -2.29206000E+02
      4.03679742E+00      6.58704476E+02     -1.98652087E+02
      2.73296389E+02     -1.66343024E+02     -3.17873392E+03
      8.74548944E+02      8.12351361E+02     -5.00564261E+02
     -1.82639361E+03      2.33427542E+03      1.32097577E+03
     -1.40646930E+03     -1.94706290E+03     -1.77507385E+03
     -1.19884475E+03      2.65155584E+02     -4.60055379E+02
      3.39023058E+02      1.34164039E+03      1.52245360E+03
      4.47473070E+02      1.29867107E+02     -8.67151774E+02
     -9.22682601E+02      1.06862742E+03     -2.34947936E+03
      8.58372675E+01      6.29912142E+02     -1.77737426E+02
      1.65815532E+03     -1.08637074E+03      3.00385032E+03
     -9.72088590E+02     -1.84276070E+03     -2.68628011E+03
      1.68218430E+03     -7.67753734E+02     -2.21824868E+02
     -1.26285599E+02     -3.97556024E+02      6.71026764E+01
     -1.19777782E+03      2.58366335E+03     -2.69545318E+03
      6.70740079E+02      2.86381166E+03     -1.65968635E+03
      2.88790146E+02      7.67739235E+02     -1.83625153E+02
     -1.98749144E+03     -6.22347499E+02      1.08427944E+03
      3.15261399E+03     -5.01553318E+02     -2.28867922E+03
     -7.69485620E+02     -2.64792910E+02     -4.14980011E+02
      1.52911514E+01     -2.68504692E+03     -1.37516103E+03
     -1.70345024E+02      2.74454564E+03     -6.70807237E+01
      4.91498650E+02     -2.43937561E+02     -5.67057845E+02
      1.23119069E+03      1.33056266E+03      1.94416690E+02
     -9.59676858E+02     -1.01120658E+03     -1.14871669E+02
      7.07532883E+02      1.45250241E+02      1.36551950E+02
     -3.14028669E+02     -4.99058304E+02      2.04301795E+03
      1.15809419E+03     -1.68190833E+02      3.74322407E+02
      2.63892008E+02     -2.96485428E+02      8.70630770E+02
      1.02159210E+03     -1.17855300E+03     -2.07502837E+02
      2.89367316E+02      1.17952296E+03      2.31258041E+03
      1.50857589E+02      9.41057310E+02     -8.81524416E+02
     -8.91308266E+02      1.98564236E+03     -1.32797608E+02
      1.49019324E+03     -1.44107824E+03      1.63655607E+03
      9.22915647E+02     -5.19304748E+01     -4.61793601E+02
     -2.02798541E+03      2.45731857E+03     -1.33731696E+03
     -1.55433096E+01     -2.44116034E+02     -1.71224273E+03
     -6.17101572E+02      2.29885897E+02      2.98307539E+02
      5.70271188E+02     -2.03185300E+03     -1.59572916E+03
      2.07525471E+03     -1.36374709E+03      1.70959907E+03
      7.24814719E+02      2.85714027E+03     -7.03598305E+01
      2.65808053E+02      2.51672287E+02     -2.63950969E+02
     -3.45028721E+02     -2.25793380E+03     -4.18486690E+02
     -2.09863137E+03     -1.74031471E+03     -1.69450237E+03
     -2.39766948E+02     -1.09530803E+03      2.24646428E+03
     -1.03102243E+03     -6.53848190E+02      1.20003168E+02
     -7.60285932E+02     -7.60604328E+02      1.07551322E+03
      1.43050250E+02     -1.76064419E+03     -7.24946250E+02
     -1.19266433E+02      7.83205997E+02      4.29487599E+02
      2.45049945E+03      2.50279593E+03     -4.49723734E+03
     -1.77717687E+02     -5.60054078E+02      2.73088354E+03
     -2.06003878E+01      1.27053724E+03     -7.36884977E+02
     -6.28092330E+02     -2.18395220E+03     -4.53830739E+02
     -4.10635025E+03     -4.40627338E+01     -3.09223347E+03
      1.71755948E+02     -2.65733460E+02     -5.52828142E+02
      1.57465587E+03      1.96071366E+03      3.59924319E+01
     -2.30469462E+02      2.32430776E+02      2.06372704E+02
      7.01407285E+00      3.85567663E+02      3.75348011E+01
     -2.25323641E+03     -2.91925748E+03      3.49559602E+02
     -1.57671613E+03      1.64154154E+03      2.22718304E+03
      4.67428289E+02     -2.65735447E+02     -6.32967969E+01
      1.62826619E+03     -1.10019241E+03     -6.23105278E+02
     -3.64809196E+02      2.69345815E+02     -1.24625449E+02
      2.42335998E+02     -4.56439110E+01     -7.10541473E+02
     -2.66544533E+02     -9.91764655E+02      2.04128381E+03
     -1.63204601E+03     -2.60024423E+02     -1.03500031E+03
     -8.53628211E+02      1.09260965E+02     -2.16298122E+02
      1.88552969E+03     -2.17704900E+02     -2.28015523E+03
      2.20547099E+03      1.52084344E+03      1.26007529E+02
     -3.70695167E+01      9.61499385E-02     -4.03421167E+02
      3.62308005E+03      1.41517993E+03     -1.98308040E+03
     -1.99425657E+03      1.60299485E+03      2.63092620E+03
     -4.40292845E+02      1.60956916E+01      3.47851657E+03
     -4.24078147E+01     -1.17009880E+03      1.83085491E+02
     -1.94656503E+03     -1.81764664E+03     -2.42967999E+03
      7.07478658E+02      2.07898945E+03     -3.41748261E+03
     -2.24225449E+02     -3.04951193E+03     -5.88625406E+02
      1.14445065E+03      9.42534720E+01     -1.84398133E+02
      1.08782024E+03     -8.90715764E+02     -1.25507023E+03
      1.54733105E+03     -1.12737557E+03      1.94427522E+03
      4.84298790E+01     -3.53819115E+02     -5.54701643E+02
     -6.43275839E+02      1.59758582E+03     -2.86315173E+03
      2.22605487E+03      1.58288479E+02      7.91501975E+02
     -5.36735044E+02     -4.17135964E+01      3.18979919E+02
      2.52605074E+01      1.66851264E+03      5.84872206E+01
      3.57850968E+03     -3.49047198E+03     -1.44846465E+03
     -6.85495829E+02      2.44168774E+02     -3.85267593E+02
      2.67879243E+03     -1.69928910E+03     -6.55965926E+01
     -1.02190359E+02      1.82865114E+03     -2.74610846E+03
     -7.40101931E+02     -4.81698454E+02     -2.43798304E+02
     -5.33086331E+02     -3.13056616E+03     -1.09032524E+03
      1.57938566E+03     -1.70001809E+03     -2.00713881E+02
     -4.80690169E+02     -1.47366658E+01     -4.35911687E+01
     -9.19040661E+01      1.15142747E+03      1.03689783E+03
      2.82931384E+02      1.35545640E+03      3.33796519E+03
     -8.55074466E+02      1.90449147E+02     -1.86886085E+02
     -5.76493696E+01      3.22341685E+03     -8.40902620E+02
     -3.51995870E+02     -1.83898803E+03     -1.25445371E+03
      1.79020057E+01      1.28972145E+02     -6.68442750E+02
      2.54363647E+03     -1.28576590E+03      1.19381783E+02
      1.09410556E+03     -5.13376468E+02      3.37023727E+02
      1.39795925E+01     -4.33077350E+01      2.84987037E+01
     -1.12425767E+03     -2.23454265E+03     -5.64125297E+02
      2.25109532E+03      1.84038393E+03     -9.44640140E+02
     -5.00144083E+01      1.66282663E+03      1.10289379E+03
      3.31924583E+01     -2.23845294E+02      1.17113865E+02
     -6.84532613E+02      1.31534573E+03      3.18280506E+02
      9.56009841E+02      4.17068278E+02      3.04461184E+03
     -9.01373783E+02      2.29341034E+03     -9.99490236E+01
      1.57852388E+02     -7.12660290E+01      1.76691222E+02
      1.71259303E+03     -1.11388278E+03     -5.73053660E+02
     -5.25871239E+02     -2.33301206E+02      4.12151899E+02
      3.52304223E+02     -1.66956846E+02     -4.63471641E+02
     -3.23922203E+02      6.19615859E+01      1.64357642E+03
     -1.13347973E+03     -5.26602418E+02      1.97129708E+03
     -3.19504986E+01      4.77105570E+02     -6.74363597E+02
     -8.47464154E+02     -3.99271801E+02      2.33501004E+01
     -1.20449973E+03      7.72570236E+02     -1.57652770E+03
     -6.16126375E+01      2.40774360E+02      6.59700658E+02
      9.30479419E+01     -1.55007714E+03      5.38349907E+01
      8.92077892E+02     -4.32768436E+02     -1.87622464E+03
     -9.70084772E+01     -1.12372661E+02     -2.73825453E+02
     -6.49830203E+02     -1.16129176E+03      2.52750797E+03
     -3.31546381E+03     -1.15562394E+03      4.77817530E+02
      6.15961879E+02     -5.75208012E+02     -3.67849029E+02
     -2.05357786E+03     -6.10830795E+02     -2.63697070E+01
     -2.38933021E+01      7.44163850E+01     -2.53875085E+03
     -4.28456737E+02     -1.10981022E+01      8.67636480E+01
      1.19801456E+03     -1.18047450E+03     -1.81787399E+03
      3.07357454E+03     -1.36867808E+02     -2.55759021E+02
     -5.17614178E+02      8.09036257E+02      2.16014109E+02
     -5.56603285E+02     -7.81800235E+01     -2.07341316E+02
      8.28981628E+02     -2.43866029E+03      3.45643733E+02
     -1.22750075E+02     -2.31079359E+02      5.82879128E+02
      2.37120814E+03     -2.31935558E+03     -1.77618620E+03
      2.82872798E+03     -2.36693712E+02      1.96109245E+03
      1.17772780E+03     -1.94366876E+03     -1.87105182E+03
      3.26756830E+02      3.73655438E+02      7.24436159E+02
     -2.43518664E+03     -1.56957552E+03      1.12672636E+03
     -2.75921291E+02     -9.45352607E+02     -1.11607220E+03
     -2.14755414E+02      1.34235206E+03      3.38748332E+03
  }
}

Hamiltonian = DFTB {
  SCC = Yes
  SCCTolerance = 1e-6
  MaxSCCIterations = 200
  ForceEvaluation = Dynamics
  MaxAngularMomentum = {
    C = "p"
    H = "s"
  }
  Charge = 0.0
  SpinPolarisation = {}
  Eigensolver = Standard {}
  Filling = Fermi {
    Temperature [Kelvin] = 300.0
  }
  SlaterKosterFiles = Type2FileNames {
    Prefix = "../../pbc-0-3/"
    Separator = "-"
    Suffix = ".skf"
    LowerCaseTypeName = No
  }
  KPointsAndWeights = {
    0.0000000000000 0.0000000000000 0.0000000000000 1.00000000000000
  }
  Dispersion = LennardJones { 
    Parameters = UFFParameters {}
  }
}

ParserOptions = {
  ParserVersion = 3
}
