Geometry = GenFormat {
<<< "system.gen"
}

Driver = VelocityVerlet{
  Steps = 50000
  TimeStep [fs] = 0.2
  MDRestartFrequency = 25
  Thermostat = None {
    #InitialTemperature [Kelvin] = 300.0
  }
  Xlbomd{ 
    IntegrationSteps = 6 
    MinSccIterations = 2
    MaxSccIterations = 200
    SccTolerance = 1e-6 
  }
  Velocities [m/s] {
     -9.79590111E+02     -1.01061171E+02      2.60495412E+02
     -4.34660601E+03     -4.40394855E+02     -1.89756014E+03
      8.89704624E+02     -1.11810154E+03      1.84001784E+03
      1.61805599E+02     -3.65320647E+02      2.12052999E+02
      3.92624466E+03     -9.03264011E+01      3.47593078E+03
      1.25106489E+02     -3.22924724E+03     -4.63231641E+02
     -3.17491764E+02      9.99732483E+01      2.13398909E+01
     -8.61709511E+02     -1.48977428E+03     -2.66434884E+02
      1.07795949E+03     -2.36840066E+02      5.12300198E+02
      2.14650201E+02      4.09803192E+02     -2.84376452E+02
     -2.67744666E+02     -1.90290404E+03     -6.03764616E+02
     -7.14252808E+02     -3.88000554E+02     -1.78821103E+03
     -1.23815847E+02      1.19791251E+02     -1.49282353E+02
     -1.42690365E+02     -5.21743508E+02      1.45373738E+03
      8.90787415E+02      1.46309443E+03     -2.12817592E+03
     -5.28139984E+02      2.77996224E+02     -1.45364690E+02
     -3.03194839E+02      2.29862665E+03     -3.26132475E+03
      7.79518018E+00      4.65910604E+02     -5.98818086E+02
      4.04175644E+02      9.65196137E+00     -2.28840984E+02
      2.03957031E+02      3.59663311E+03      6.73549192E+02
      1.36927344E+03     -1.28665952E+03      3.00619499E+02
      8.22643378E+02     -2.37528996E+02      1.13663725E+03
      3.03366920E+03     -3.90737968E+03     -1.73152526E+03
      1.32200012E+03     -4.45931231E+02     -2.18360835E+01
     -3.02635580E+02     -5.25560660E+02      3.21098084E+02
     -2.03865324E+03      7.86831309E+00      3.29805872E+03
      2.17053492E+02     -2.55174492E+03     -7.39035639E+02
      8.10066362E+02     -4.96125219E+02      1.62066579E+03
      3.58706008E+02     -7.14705026E+02      2.13304599E+01
      1.63711070E+03     -1.23986484E+03      3.44341533E+03
      3.55589485E+02      2.38792775E+03     -1.67076051E+03
      2.44246604E+03     -6.72078108E+02      5.34820773E+02
     -4.00494473E+02     -3.75925970E+02     -2.83405648E+02
     -5.39728076E+02     -1.25121441E+03      1.47748557E+03
      1.91537850E+03      3.38907001E+02     -1.39807552E+03
      2.08775229E+02     -7.61445037E+02      6.20304320E+02
      1.73951197E+03     -1.48557980E+02     -1.09315856E+03
     -2.52494994E+03     -1.65838124E+03     -5.79858280E+02
      1.17023326E+02     -1.45809939E+02     -5.35531627E+02
      2.84667505E+03     -1.84340977E+03     -2.83467332E+03
     -2.41570434E+02     -2.67702679E+03      2.41562717E+03
      5.66081804E+02     -2.12551165E+02      1.30475734E+03
     -4.43488408E+02      7.10089882E+02     -3.31409579E+02
      9.12773102E+02      2.87738610E+03     -2.77562540E+02
      6.67653927E+02     -4.48848388E+01     -2.45968793E+01
     -6.96581231E+02      1.12656561E+03      1.68035307E+03
     -9.81708263E+02     -3.70396697E+02     -2.66341810E+01
     -3.12168306E+02     -2.07229783E+02     -1.59123630E+02
      1.31125179E+03      5.19234473E+02      3.00582258E+02
     -1.61702711E+03     -9.94708347E+02     -8.41796153E+02
      6.78867365E+02     -2.09806318E+01      2.86958376E+02
     -2.41808246E+03      1.74508217E+03     -5.81913126E+02
     -2.21449919E+03      1.89936445E+03     -1.90827153E+03
     -5.45793643E+02      1.01032732E+02      1.97015596E+02
     -2.03768536E+03      1.23381274E+03     -3.52165052E+02
     -4.80803929E+02     -1.88965649E+03      1.17297523E+03
     -1.32748916E+03     -1.29702601E+02     -2.22372188E+02
     -1.08208611E+03     -3.72474114E+02     -1.23700583E+01
     -6.56185059E+01     -4.79243307E+02      2.59118164E+03
     -1.04753019E+03      3.55071832E+02      2.26439152E+02
     -2.50705562E+02     -1.45640846E+02     -1.09928016E+02
      2.40867478E+03     -4.13860305E+02     -1.01609949E+03
     -6.26058335E+02     -2.44745284E+03      1.00146061E+03
      3.31525048E+02     -1.84281747E+03      1.08278652E+03
     -3.16228599E+02      3.17446735E+02      3.99291758E+02
      3.14513201E+02     -3.09251287E+03     -1.61874546E+03
      1.66934677E+02     -2.57732710E+03      1.47236069E+02
     -4.36076835E+02     -4.01427282E+02      2.05985766E+02
     -2.94465275E+03      7.01942556E+02     -9.40094494E+02
      3.85939179E+02     -2.95144192E+02      2.13572440E+03
      1.18504635E+03     -8.62758625E+02      8.24315190E+02
      1.09371603E+03      1.81617368E+03     -1.64298308E+03
     -1.28501318E+03     -2.09970183E+03      6.78639789E+01
      9.52511866E+02     -3.51675369E+02     -8.21199095E+02
      2.25275810E+03     -4.90488714E+02     -1.08961938E+02
     -6.95632584E+02     -1.15348238E+03      4.03625803E+02
     -8.03375817E+01     -1.41677675E+02      8.87778819E+02
      1.02610150E+03     -1.82792119E+02     -3.33853251E+03
     -2.02159396E+03      3.11933460E+02      4.22284472E+02
      1.85475704E+02     -3.44302273E+02     -3.98357940E+02
      6.52516080E+02     -2.59003181E+03     -5.89198003E+02
     -4.24429171E+03     -1.27736034E+03     -9.22574002E+02
      1.18929341E+03      8.77359188E+01      2.33819767E+01
      1.06242246E+03     -3.03605636E+03      6.55038766E+02
      1.51041866E+03      3.46731382E+03     -4.35609380E+03
      4.28050503E+02      2.28382033E+02     -3.90616546E+02
      2.61135889E+03     -2.10230311E+03      4.40995880E+02
      2.46018801E+03      9.13562437E+02      6.61762405E+01
     -5.24264453E+01     -1.97166702E+02     -1.67286046E+02
      1.36089369E+02     -1.07405108E+03      3.75865193E+03
     -8.60465866E+02     -2.24448704E+02      1.13587913E+03
     -1.06344467E+03      1.59827754E+02     -3.99552573E+02
      9.51799916E+02     -2.23552741E+01      2.79537632E+02
     -4.54364280E+02      7.71154771E+02     -1.28679298E+03
     -7.74259067E+02     -1.49224298E+02      1.14588769E+03
      7.13452706E+02      2.56975297E+03      1.01685093E+03
     -2.35233720E+02      1.89654498E+02     -3.66107894E+02
     -2.99856013E+03      1.52142454E+03     -1.72793896E+02
     -3.70043467E+02     -1.54336032E+03     -1.10702829E+03
      6.51017925E+02     -7.47088790E+02     -7.60329964E+02
      2.63762137E+03     -1.30925605E+03      8.91827129E+00
     -9.54286305E+02      4.65476458E+02      2.13984810E+02
      1.21208234E+02      5.74299694E+02      1.53206605E+02
      4.23560559E+03      8.13151710E+02     -1.38333174E+02
      2.14345430E+03     -1.25506242E+03      2.15139110E+03
     -5.58735597E+02      3.18870492E+02      4.56117118E+02
      3.67313322E+02     -2.64000667E+03     -7.03143096E+02
      2.40137070E+03      7.93418883E+02      1.82028566E+03
      8.60563569E+02     -4.03948368E+02     -2.73722671E+02
     -2.33575101E+02     -3.72876171E+02      1.71567636E+01
      2.43149270E+03      3.01623098E+02      3.02746671E+03
      1.64681199E+02     -9.78871029E+02      1.63131317E+02
     -8.92221708E+01      1.66506128E+03     -8.89993011E+02
     -1.50698074E+03      4.11033562E+02      1.79485458E+03
     -4.94326730E+02     -1.37221654E+03     -3.42160342E+02
     -3.36218520E+02     -1.44541304E+03      2.22781070E+02
     -2.21437426E+03     -4.29892384E+02     -4.51174461E+02
      5.16531873E+02     -4.88173985E+02     -3.96088086E+02
      4.81439493E+03     -1.85160751E+03     -1.17261524E+03
     -1.82651986E+02      7.12694469E+02     -1.96772349E+03
     -8.38537850E+02      4.65781203E+02      2.95931157E+02
     -1.78952166E+03     -7.26637762E+02      1.43466630E+03
      2.91794267E+01      1.92270014E+03     -1.33305667E+03
     -1.51022987E+03     -1.76399788E+03     -1.80827855E+03
     -1.34004226E+02     -4.22520345E+02      1.80843887E+02
     -2.43113198E+03     -1.04189532E+03      1.94049260E+02
     -3.44163898E+03     -9.36825363E+02      1.23412276E+03
     -1.32371620E+03     -1.05129155E+03      1.73581081E+02
      8.70090511E+02     -2.05850699E+02     -6.05945883E+02
     -1.53037216E+02     -2.04172906E+03     -8.85912445E+02
     -1.88511933E+03     -3.40310171E+03     -2.82827398E+03
     -1.41475109E+02     -5.52438139E+02     -2.13645172E+02
      1.12234963E+03      4.70735487E+02     -3.39142455E+02
      5.67683935E+02      3.24998995E+03      2.22669486E+03
     -1.58839849E+02      5.36889631E+01     -5.32613422E+00
      1.17389447E+03      3.02757258E+03     -6.14580999E+02
      1.11180714E+03     -6.04659776E+02      4.61738488E+02
     -8.60455724E+01     -1.39949030E+01     -2.08461691E+02
      1.26309947E+03     -2.40333443E+03     -3.90725159E+01
     -5.09050514E+02      2.22458322E+03      2.55647192E+03
     -2.78785241E+02     -6.94235569E+02     -1.25997374E+03
     -1.89657018E+03     -2.68361966E+03      1.84281258E+03
     -1.65736571E+03     -1.69007420E+03     -2.24819288E+03
      3.23837147E+02      2.20006047E+02      3.45466418E+02
     -8.29386204E+02     -3.62217340E+02     -1.00083455E+03
     -3.07625013E+03     -1.56884563E+03      7.33931940E+02
     -8.21149345E+02     -1.03062133E+03     -7.77272329E+02
      1.28148389E+03     -2.57171386E+03     -1.70264762E+02
      1.71702874E+03      1.35400220E+03     -1.15019320E+03
      7.70453839E+02     -1.39797404E+02      4.55052492E+02
      1.77913694E+03     -6.30037204E+01      2.19460975E+03
     -4.63844874E+02     -2.35997040E+03     -6.68615006E+02
      1.03873516E+03     -1.41928896E+01     -9.54699172E+01
      2.03108730E+03      4.27742879E+02      8.38753952E+02
      1.09598168E+03     -2.32411620E+02     -4.74723361E+02
     -7.82385567E+02     -1.92675586E+02      1.10994672E+03
      3.75866420E+02     -7.87429018E+02     -2.74756405E+02
      2.67618599E+02     -1.50510438E+03     -1.89243441E+03
      2.25552579E+02      1.34347311E+03      8.84550379E+00
     -1.15543251E+03      4.92001494E+01      1.95873774E+03
     -2.25572184E+02      3.12019600E+01      2.98088633E+02
      2.36918154E+03      1.52641527E+03      6.64613690E+02
      1.97344286E+03     -7.31215018E+02     -2.30965060E+03
     -1.49629813E+02      3.35645913E+02      6.90739755E+01
      2.34008260E+02      7.05107827E+02     -9.14630799E+01
      3.19479328E+03     -7.68243660E+02     -1.86721625E+03
      8.25379777E+02      2.49866773E+02      1.03514035E+03
      4.78151889E+01      2.64501783E+03     -5.46631743E+02
     -2.93336053E+03      4.76711160E+02      1.78904600E+03
      2.51287742E+01      6.21573322E+02     -6.08267476E+02
      2.26299807E+03      4.54500759E+02     -1.54737598E+03
     -1.17301887E+03     -1.04899245E+03     -1.15996010E+03
     -2.52335364E+02     -1.44817851E+02     -3.26836223E+02
     -7.36758691E+02     -1.37593297E+03     -9.41435690E+02
      1.74160936E+03     -3.60041943E+02      3.45007254E+03
     -2.55343161E+02      3.57316205E+02     -3.00648334E+00
      2.35901528E+03      6.51611002E+02      1.08100734E+03
     -2.37303045E+02      4.71207440E+02      8.16164104E+02
      5.65600582E+02      5.80959768E+02      5.57433818E+02
      1.43687981E+02     -1.50401692E+03     -2.81251976E+03
      8.61587437E+02      1.89846857E+03      2.19237969E+03
     -2.87114347E+02     -6.09808630E+01     -6.63080822E+02
      1.70436147E+03     -2.86960452E+03     -2.52680200E+03
      1.78960233E+02      5.43746094E+02      6.97268872E+02
     -4.58946410E+02     -5.43803487E+02     -3.59774651E+02
     -1.87530272E+03     -8.76241098E+02     -4.18438826E+02
      8.45728201E+02      1.84503583E+03     -1.97095379E+03
      2.01052691E+03     -1.35003579E+03     -1.78368340E+03
      5.31291943E+02     -6.45419862E+02      3.87299627E+02
      1.32320936E+03     -5.17114664E+02      2.39678549E+03
     -1.82058254E+02     -3.21631305E+03      4.44511247E+01
     -2.99181478E+03      3.90057045E+02     -1.47594031E+03
      1.48577238E+02     -2.99084302E+00      7.50548323E+02
      1.57489941E+03     -2.37060643E+03     -2.30989108E+03
     -1.80303674E+03      4.61203495E+02     -1.15268473E+03
     -2.37535269E+02     -2.55119542E+02     -2.31529376E+01
     -1.16402509E+03     -1.40486258E+03     -3.72354817E+02
      3.41552112E+03      1.55709007E+02      6.65363066E+02
      1.18850990E+02     -1.48082008E+02     -1.33644877E+02
      4.90733784E+02     -7.56741220E+02     -3.73626913E+02
      7.88555102E+02      3.26347058E+02     -4.11847059E+02
     -3.55514263E+02     -2.80200428E+02     -1.96795169E+02
     -8.66566347E+02     -1.07405982E+02      1.32632310E+03
      6.24003132E+02      1.38497178E+03     -1.85834321E+03
     -1.29341582E+03     -2.43056996E+02      2.54351114E+02
      2.50650729E+03      1.09829672E+03      3.31199470E+03
      7.40283573E+02      8.82129953E+02      2.95121227E+03
      1.10584559E+03     -2.01653991E+02      1.45967094E+03
     -4.18516134E+02     -1.10549150E+03     -6.57545176E+02
      9.10186469E+02     -1.76666854E+03      2.38884487E+02
     -2.16903376E+02     -8.25671884E+02     -7.46156945E+02
     -3.59501146E+01      6.85065127E+02     -3.09778605E+03
     -9.67570970E+02      2.78458165E+03     -2.48566060E+02
     -6.45664963E+02     -1.84764492E+02      3.97402041E+02
      1.56462449E+03      2.15298573E+03     -1.05449272E+03
     -9.45831485E+02      2.24845193E+03      4.45689350E+02
     -1.00638101E+02     -4.25319200E+02     -3.37417463E+02
      3.59338698E+02     -1.56541360E+02     -2.65309235E+03
     -3.65703806E+02     -8.57077513E+01     -1.74374189E+02
     -1.39900277E+03     -1.50336425E+02     -1.27797076E+03
     -4.28980608E+02      4.99005257E+02     -2.89655256E+01
      1.45050917E+01     -1.15554212E+03      1.47617057E+03
      2.97677743E+03      1.36394163E+03     -9.93160729E+02
      1.97317039E+03     -2.51533376E+03     -1.98583723E+03
      9.71021338E+02      5.00765183E+01      4.04507072E+02
      4.61801975E+03     -6.18476485E+02     -2.20184633E+03
     -1.25331926E+03      2.86941987E+03     -1.79354523E+02
     -1.16586914E+02     -5.04555908E+02     -6.09645260E+01
     -2.16358798E+02     -5.32324394E+02     -1.01662199E+01
     -1.05399286E+03      1.30811737E+03     -1.70491706E+03
      6.79331628E+01     -5.73042518E+01     -3.96102414E+02
     -3.06992585E+03     -3.71480339E+03     -2.24079936E+03
     -9.91300183E+02     -1.13588415E+03      1.25517907E+03
     -5.07510368E+02      3.22210614E+02      5.89800331E+02
      5.94284743E+02     -1.30236486E+03      1.54327093E+03
      2.23563829E+03     -4.56906852E+01     -2.52909447E+03
      6.17185410E+01      4.88279706E+02      7.18026076E+01
      2.17160018E+02      1.12432901E+03     -1.98182770E+03
     -2.13533551E+03     -3.65066959E+03      1.61371042E+03
     -9.36799151E+01     -8.86306507E+01     -1.99766102E+02
     -9.98242477E+02     -7.70250888E+02      1.09012952E+02
     -1.39916175E+03      1.64000737E+03      2.44823940E+02
      1.46965871E+02     -1.40973963E+02     -1.51764799E+02
     -2.93926813E+02      2.21710292E+03      5.05899150E+02
     -2.38905796E+03     -1.12060368E+03     -2.78697775E+02
      2.85244663E+02     -2.50128167E+02     -2.83931132E+02
      7.18951716E+02     -1.70857277E+03     -1.60871150E+03
     -2.13565658E+02     -2.39826499E+03     -1.34842385E+02
     -2.11471114E+02     -9.53489847E+02      8.49561552E+02
     -2.50588472E+03     -1.97285783E+03     -7.14240020E+00
     -3.47115646E+03     -8.21369036E+02      1.22339438E+03
      1.64990449E+02     -8.01300783E+02     -9.96316679E+02
      3.13607768E+02      4.47202135E+02      1.16091864E+02
     -1.36516786E+03      1.09131694E+03     -2.09327034E+03
      1.61174933E+03     -5.47225338E+02      1.59563367E+03
      2.31522073E+03     -6.09881735E+02     -8.16643891E+02
     -6.48242968E+02     -8.64132832E+02     -1.79317958E+02
     -2.04762832E+00      2.36572053E+02      1.81723264E+02
     -2.04854571E+03      1.45866009E+03      1.32565110E+03
      2.04758554E+02     -3.45940211E+02      1.46299382E+02
     -7.39200631E+02      1.30049193E+03      1.06704030E+03
     -3.85665612E+02      2.17389212E+03     -1.59650129E+03
     -2.59639146E+02      5.69626153E+02      2.55052036E+02
     -6.60968883E+02      1.18212350E+02      4.43028371E+02
     -1.86460182E+03     -1.76247299E+03      3.00398747E+03
      9.65886566E+01     -3.41349695E+02      1.06035954E+01
      1.01541976E+01      8.36939360E+02     -5.34604936E+02
     -5.96497688E+02     -2.27095311E+03     -4.47394112E+03
     -4.85258824E+01      1.97399950E+02     -5.70636546E+02
     -8.46684972E+00      9.32588296E+02      1.38811484E+03
     -2.90497792E+02     -1.62426791E+03     -2.01587145E+03
      1.01609065E+02     -2.65852870E+02      3.11944799E+01
      2.68620221E+02      7.52244224E+02     -1.10260303E+03
      6.26736848E+02      2.46224294E+03     -7.90835669E+02
     -1.00795850E+04      1.93576259E+04      8.50491455E+02
      2.11249827E+03      1.84877589E+03     -1.65861333E+03
      5.86009800E+02     -2.85492748E+02     -2.39933692E+02
     -1.93022041E+02      1.97459588E+02      1.67300905E+02
     -7.68956099E+02      1.34859631E+03      1.64156515E+03
      9.23746442E+01     -9.83571577E+01      1.37084680E+03
      2.98933065E+02      5.04278136E+01     -5.83829784E+02
     -3.57815259E+03     -6.15331129E+02     -2.84178187E+02
      3.19457915E+03      8.30890181E+02     -3.06085637E+03
      1.25370576E+03     -1.51463465E+03      6.89428965E+02
     -3.06465364E+02     -2.01121351E+02      3.34687214E+02
     -2.54021399E+02     -2.06779947E+03     -3.76884194E+02
     -9.40021802E+02     -3.06869018E+02      3.91372578E+02
      2.99868167E+03     -1.27411764E+01     -2.48743923E+03
     -3.90437015E+01     -1.59078302E+02      4.97432478E+02
     -4.21910455E+02     -3.36710204E+02     -7.24751029E+02
      1.60487408E+03      4.04613659E+02     -6.89336346E+02
      8.96257292E+02      5.71491348E+02      4.75610095E+02
     -3.34536481E+03      1.53120392E+02     -3.87921459E+02
      9.44863372E+02     -5.86134717E+02      9.29041548E+02
      3.48899737E+02      4.79338009E+02      3.09167323E+02
      1.44138653E+03     -8.38133767E+02     -1.04152132E+03
      4.55999687E+02      8.40510357E+02      9.42131068E+02
     -7.58621616E+02      2.85941628E+02      2.78738929E+02
     -1.59086928E+03     -2.79331745E+02     -1.75233841E+03
     -2.70834804E+03     -2.09015903E+02     -2.08071016E+03
     -3.11581731E+02      3.96284188E+02     -5.63574504E+02
     -1.76248986E+02      1.26993933E+03     -1.19298679E+02
      1.25529720E+03      5.07253326E+02     -2.42348558E+03
      5.31088330E+02     -4.98115668E+02     -5.95097569E+02
      1.80249622E+03     -1.87750458E+03      1.11344330E+03
     -6.69125214E+02      3.07778262E+02      2.69986853E+02
      8.44528609E+02      5.13352923E+01      1.26644059E+02
     -1.51299724E+03      1.29198348E+03      2.45997069E+03
     -2.11445273E+03     -1.09450122E+03      2.06728511E+03
      8.94125319E+02     -3.25950567E+02     -2.88280287E+02
      1.96988106E+01     -1.83971398E+02     -1.18540909E+03
      2.63423416E+03     -2.81369648E+03      3.95842465E+01
     -5.01906631E+01     -3.19180113E+02     -7.16782966E+02
      1.21920273E+03     -4.73839254E+02      9.47590355E+02
     -1.39365243E+03     -2.86754690E+03      8.52270103E+02
      3.76019647E+03      8.20487787E+02     -1.21883493E+03
      1.69319859E+02     -3.68981384E+02      9.29365371E+02
      1.19552800E+03      2.68170582E+03      6.30955915E+02
      2.35338352E+02      8.72461553E+02      1.57773744E+02
     -1.94262101E+03      1.41271188E+03      2.46449876E+03
      2.12419751E+02      2.03107235E+02      1.14820306E+02
     -7.48201582E+02     -2.21894776E+03     -2.88196597E+03
      1.83460675E+03     -4.82711020E+02     -2.61716708E+03
      7.56974769E+02      4.72290973E+01     -1.18119761E+01
     -1.05661306E+02      3.51124191E+03      2.24352179E+03
     -3.30589281E+03     -2.08363454E+02      5.24654747E+02
      5.95621568E+02     -1.34532399E+03     -7.68882693E+02
     -1.92562604E+03     -3.28860111E+03     -1.82910266E+03
     -1.95836236E+03     -2.36835789E+03     -2.29057333E+03
      3.36987161E+01      6.78721478E+02      3.41411930E+02
     -5.11119629E+01     -3.92667871E+02      5.58001836E+02
      8.15476809E+02     -1.56038610E+03     -1.33216339E+03
      2.96522214E+02     -4.43805842E+02      6.66815854E+02
      2.23568540E+02     -1.94879333E+03     -1.12314547E+03
     -2.55698795E+02     -2.18806958E+02     -1.45914242E+03
      5.71952693E+02     -1.54156163E+02     -1.44713504E+00
      5.14298511E+02      2.15806844E+03      2.42252996E+03
     -2.02594445E+03     -8.06504901E+02     -4.38958654E+02
      1.99852547E+02     -3.90927376E+02     -7.94967043E+01
      3.28690472E+03     -6.70770016E+02     -3.34034029E+02
     -9.40299703E+02     -2.27795210E+03      4.52715040E+02
     -2.49776428E+02      1.73492897E+02     -5.27805477E+02
      1.95237654E+03      7.99771301E+02     -4.28472151E+02
     -9.83812592E+02      2.19963978E+03     -2.41935529E+03
     -3.96150221E+02      1.15720329E+02     -1.37248640E+02
     -4.28149290E+03      3.45656721E+02     -1.90270606E+02
      1.78146872E+03      2.74443705E+02      2.25312290E+03
      1.93932510E+03      1.68100326E+02      1.10052520E+03
      5.44327648E+02     -1.96321673E+01      1.05717072E+02
      5.21656779E+02      2.87182280E+03      5.25809512E+02
      2.04001931E+03     -2.06316085E+03     -1.16913164E+03
      7.91971839E+02      2.62204442E+03      3.17347018E+01
  }
}

Hamiltonian = DFTB {
  SCC = Yes
  SCCTolerance = 1e-6
  MaxSCCIterations = 200
  ForceEvaluation = Dynamics
  MaxAngularMomentum = {
    C = "p"
    H = "s"
  }
  Charge = 0.0
  SpinPolarisation = {}
  Eigensolver = Standard {}
  Filling = Fermi {
    Temperature [Kelvin] = 300.0
  }
  SlaterKosterFiles = Type2FileNames {
    Prefix = "../../pbc-0-3/"
    Separator = "-"
    Suffix = ".skf"
    LowerCaseTypeName = No
  }
  KPointsAndWeights = {
    0.0000000000000 0.0000000000000 0.0000000000000 1.00000000000000
  }
  Dispersion = LennardJones { 
    Parameters = UFFParameters {}
  }
}

ParserOptions = {
  ParserVersion = 3
}
