Geometry = GenFormat {
<<< "system.gen"
}

Driver = VelocityVerlet{
  Steps = 100000
  TimeStep [fs] = 0.2
  MDRestartFrequency = 5
  Thermostat = None {
    #InitialTemperature [Kelvin] = 300.0
  }
  Xlbomd{ 
    IntegrationSteps = 6 
    MinSccIterations = 2
    MaxSccIterations = 200
    SccTolerance = 1e-6 
  }
  Velocities [m/s] {
      6.01540936E+02     -2.67947569E+02      1.13504509E+03
     -1.35239185E+03     -1.20787516E+03      7.13938959E+02
     -6.50065546E+02     -1.18577981E+03      2.14456171E+02
     -5.17168923E+02      2.33624275E+02      2.71175349E+02
     -7.50693202E+02     -3.53619230E+03     -3.10765092E+02
      2.02861277E+03      2.35745042E+02      1.56987997E+03
      1.01531020E+02      3.58570426E+02      4.94125900E+02
      2.83115099E+03      1.19556871E+03     -9.81300291E+02
     -2.05572571E+03      4.31139249E+02      2.73175342E+03
      1.18797746E+04     -2.76163074E+03     -2.94226945E+03
     -3.32966038E+03     -3.41051090E+02      1.17142280E+02
     -6.28947636E+02     -2.08707352E+03      3.21596800E+02
     -8.05215965E+02     -5.46404296E+01      7.67004729E+02
     -2.99811240E+02      3.33850523E+02     -8.25417818E+02
      9.91236892E+02     -1.26590932E+03     -5.61799419E+03
      4.13694706E+02     -1.13014023E+02     -7.31382321E+01
     -1.36369303E+03      2.39688582E+03      3.39666549E+02
      8.45764288E+02     -7.47533762E+02     -1.53863638E+03
      1.13548194E+02     -3.69039972E+02     -1.70623480E+02
     -3.76814819E+02     -6.61520527E+02      9.19757657E+02
     -1.60663369E+03     -1.30474004E+03      1.03104109E+03
     -1.17958639E+02      4.38559072E+01     -1.79899376E+02
      9.15298316E+02     -2.86935893E+03      2.30259442E+03
     -2.77124491E+03      2.43713745E+03      4.92641242E+01
     -8.29446583E+02     -1.79083537E+02      3.77919339E+02
      9.05752908E+02      1.78551431E+02      1.38370167E+03
      4.23387145E+02     -3.79693914E+02     -2.27914937E+03
     -1.03222497E+03      7.72877129E+02     -4.39021734E+02
      2.96252733E+02     -3.59182214E+01      3.06555753E+02
      1.90453386E+03     -1.57883580E+03      2.09653826E+03
     -7.45594915E+02     -1.50355734E+03     -1.80675146E+03
      2.40983317E+03     -4.63508436E+02      1.39792172E+02
      7.28669980E+01      6.23519752E+01     -2.07497616E+02
     -1.90444342E+03     -2.79673302E+03     -4.78882230E+02
     -5.62378436E+02      1.80597998E+03      6.73929648E+02
      1.54544023E+02     -2.56081166E+02      4.13527132E+02
     -2.65074972E+02     -1.75182833E+03     -1.50044861E+03
      1.51106083E+03     -6.80324708E+02     -1.11084335E+03
     -3.62841828E+02     -2.55456948E+00      1.44601700E+03
      1.19817446E+03      1.04539593E+03     -4.60265951E+02
      8.37138275E+01      6.10847664E+02     -9.49497643E+02
     -5.14530225E+01     -3.57769339E+01      5.04191775E+02
      2.16998909E+03      1.06041629E+03      1.35228386E+01
     -1.33437379E+03      6.54230565E+02      1.90650426E+02
      4.88968637E+02      2.60436665E+02      7.54431696E+02
      2.85760406E+03      2.04085599E+03     -2.26245114E+03
     -8.98416892E+02      1.47132798E+03      2.21644204E+03
     -1.59046238E+02     -2.12230534E+00      1.12850545E+03
      3.83265868E+03      2.03553150E+03     -7.00492364E+01
     -4.47427415E+02      4.87435784E+02      8.19376838E+01
     -3.97005448E+01      2.20914373E+01     -3.17625495E+02
      1.53652200E+02      5.25145111E+02      2.88109385E+02
     -6.78303155E+02     -2.36053016E+03     -1.92584756E+02
      5.93353532E+01     -5.37160330E+02      7.85909493E+02
     -7.50127282E+02     -1.63057793E+03      6.32136666E+02
      1.69203943E+02      1.00838020E+03     -6.16916180E+02
     -2.83830507E+02     -1.53049534E+01      3.56673065E+02
     -1.04000432E+03     -2.36619685E+03      2.85231976E+03
     -5.24666202E+02      1.46727814E+02     -4.34234578E+02
     -1.38915560E+03     -4.38575553E+01      4.50593217E+02
     -3.18515902E+01     -4.85330142E+02     -4.21294761E+02
      6.63418696E+02     -1.33985560E+03      2.72685393E+03
     -3.73896118E+02     -4.36875117E+03      2.03128066E+03
     -2.18295098E+03      2.36837461E+03      5.48281961E+02
     -3.95921051E+02     -2.96400404E+02      8.90519943E+01
      1.30353628E+03      5.71302048E+02     -1.30882404E+03
      1.35188371E+02     -1.15720455E+03      9.30319591E+02
     -2.11896811E+02      5.92392834E+01      1.41547032E+02
     -8.68815999E+02     -1.05509392E+02      3.60865699E+02
     -7.86868323E+02      1.62806337E+03     -2.21662330E+02
      4.82394315E+02      2.49127353E+02      3.51260640E+02
     -9.96733716E+02     -6.86422168E+02     -1.13001527E+03
      2.01985074E+03      2.82771940E+03     -2.01093002E+02
     -7.25250055E+02      7.45036831E+02     -1.46828279E+02
     -2.40469078E+03     -1.13367714E+03      2.96505718E+03
     -1.07472234E+03     -9.08191316E+02      1.61483060E+03
      7.69661123E+02      9.95014581E+02      6.01828386E+01
     -1.54278593E+03      1.52519679E+03     -1.86354391E+02
     -2.23764543E+03     -4.83365101E+02     -1.20443823E+03
     -8.37288808E+02      1.44812693E+02      6.62639947E+02
     -9.83833754E+02     -1.18934411E+03     -1.97479469E+03
     -3.01776768E+03      2.24412210E+03      1.22679256E+03
     -4.71845914E+02     -8.20367099E+01      2.92387250E+02
      6.65530631E+02     -7.11222183E+02     -6.24738116E+02
      7.09422744E+02      6.06414781E+02      5.80983751E+01
     -7.60027852E+02     -2.99157100E+02     -2.87786628E+02
      7.77255457E+02     -2.22295827E+03      1.54389865E+03
      2.94948297E+02     -1.48625735E+03      2.78642100E+02
     -8.54321675E+02     -4.55143763E+01      1.82413782E+02
     -5.89222397E+02      1.20248456E+03     -1.71373276E+03
      2.31892468E+02      1.58620087E+03      6.08599963E+02
      9.19638631E+02     -2.28804801E+03      1.78405854E+02
     -3.96231152E+01      1.68294964E+02      2.51535081E+02
      7.57820585E+02     -2.95609591E+03     -6.38818907E+02
      7.66989222E+02      5.72919425E+02      1.27763060E+03
     -7.54107113E+02      1.26803895E+03     -1.44167201E+03
     -7.35537746E+02     -1.46106568E+02     -6.22520308E+01
     -2.52181509E+03      2.61093486E+02     -1.17574357E+03
     -1.29748873E+03      1.47399079E+02      2.38349522E+03
      8.76685969E+02     -5.19923880E+01     -7.29618802E+02
     -2.88941035E+03     -1.09692998E+03     -3.98942486E+02
      2.09191139E+03     -2.23856378E+03      2.20552590E+03
     -5.19512552E+02     -1.43772920E+02     -8.04738850E+01
      1.79446477E+03     -1.27482024E+02     -1.22007179E+03
     -4.08312938E+02      1.33269787E+03     -2.90436127E+03
      8.63756867E+02     -6.28510374E+02     -1.15774015E+02
      6.32193424E+02     -1.03777798E+03     -2.38264010E+03
     -6.19378934E+02     -7.80856545E+02     -5.24260601E+02
     -8.20635309E+01     -7.52870195E+02     -1.16448933E+02
      5.96846966E+02      7.96684801E+02      1.31839168E+03
     -3.07736903E+02      1.76051286E+03      4.37409055E+02
     -6.11688175E+02     -4.13778358E+02     -1.21623108E+03
     -6.73446996E+02     -6.62996590E+02     -4.27513206E+02
      1.52108298E+03     -1.88921151E+03     -1.11983170E+03
      7.09413148E+02     -5.52581340E+02     -8.22908902E+01
     -5.39745641E+01     -3.21873248E+03     -2.81661144E+03
      7.41996747E+02     -7.18986051E+02      3.49840683E+03
     -9.97333480E+02      7.02278499E+02      3.00938318E+02
     -7.08761008E+01      1.54175242E+03     -4.28768671E+02
      1.00598721E+03     -2.53653375E+03      1.28322789E+03
      3.62000033E+02      1.04302662E+03      1.25342482E+01
      2.00507846E+03      7.10204813E+02     -2.05884256E+03
     -1.43145277E+03      3.10192004E+02      3.77865209E+02
     -9.09241554E+02     -4.42187405E+02     -2.51571399E+03
     -3.75334307E+02     -3.26857547E+02     -6.60248045E+01
     -1.89672464E+03      2.19427196E+03      8.14330449E+02
     -2.67114918E+03     -2.23468889E+03     -1.01912881E+03
      1.01809159E+02      9.48521443E+02      4.44235424E+02
     -6.61488805E+02      1.46361722E+02     -1.53865471E+02
      1.98653742E+03      6.21057978E+02     -1.47629619E+03
     -5.80869168E+02     -5.03845932E+02     -1.51433288E+03
      8.50889488E+01      7.22792723E+02      6.26011883E+02
     -2.32244702E+03     -1.68191293E+02     -1.46818355E+03
      3.68458476E+01     -3.27257873E+03     -1.31770403E+03
     -6.50001201E+02     -4.49372074E+02     -4.26475048E+02
      2.31745205E+03     -3.76690695E+02      1.69356274E+03
     -1.14681216E+02     -9.99656654E+02      3.74758301E+02
     -1.79047382E+02     -7.37553537E+02     -2.50108929E+02
     -8.20794524E+02     -1.76764392E+03      6.73494034E+02
     -3.40832019E+02     -2.71431958E+02      2.99106379E+02
      3.70874457E+01      5.86751447E+02     -1.86839455E+02
      8.25766981E+02     -2.93333113E+03      1.49167755E+03
     -5.61164413E+02     -6.84263668E+02      1.57929302E+03
      6.38127099E+02      6.28251094E+02     -7.68622563E+02
     -9.55396281E+02      8.34798063E+02      1.33338971E+02
     -3.06623553E+02     -2.32689222E+03     -3.23852531E+03
     -8.75788674E+02     -8.54040437E+02      1.71479232E+02
      1.45337325E+03     -9.67828476E+01     -1.20166316E+03
      4.16885191E+02      1.39949014E+03      3.03703993E+02
     -2.85222034E+02      5.68648140E+02     -2.08579832E+02
      3.93962408E+02      6.26374830E+02     -1.16814309E+02
     -3.50557073E+03     -5.32228469E+02     -5.94037465E+02
      4.10086745E+02      3.54843687E+02     -6.82872180E+00
      3.26663775E+03      1.74216298E+03      1.17993257E+03
      1.78105185E+02     -2.47271843E+03      2.15964898E+02
      3.27418661E+03     -4.32414965E+02     -6.70248661E+02
     -7.59360090E+02     -2.58508171E+02      2.11845816E+02
     -5.24344958E+02     -3.72298574E+02     -5.41761711E+02
      1.69771813E+03      7.55842595E+02     -8.15688597E+02
      5.28193039E+02      2.05813921E+03     -2.69816925E+03
     -3.24540728E+02     -3.13802260E+02     -1.44611942E+02
     -1.25266610E+02     -1.21482649E+03      1.76461823E+03
     -9.90629003E+02      1.48317696E+03     -1.62383068E+03
     -5.72304652E+01     -9.45505199E+01      7.25392444E+02
      7.63932364E+01      3.79664745E+03      2.79144920E+03
      1.97822330E+03     -1.69897461E+03      9.14473634E+02
     -5.75337786E+01      3.57989630E+02     -5.26630049E+02
     -8.35280502E+02     -3.14397351E+03      2.63011534E+03
      1.77964474E+03     -1.47277658E+03     -7.26412851E+02
     -6.40687089E+01      7.87834803E+02     -2.28054116E+02
     -1.83551039E+03      8.28929827E+02      3.10773717E+03
     -1.67411254E+03     -1.00629616E+03     -1.25154568E+03
     -9.11228592E+02      3.05938010E+02      2.88010642E+02
     -1.14367275E+03      1.47711288E+03     -7.86933849E+02
     -1.02087517E+03      4.67752834E+02      4.66383610E+02
      2.42803165E+02      1.76567054E+02     -1.74982301E+02
      1.67933984E+03      1.02264625E+03     -2.38613338E+02
     -7.00383073E+02     -5.57035130E+02      8.55473804E+02
     -5.84757946E+02     -9.67483080E+02     -1.11506644E+02
      1.54893398E+03      1.07802966E+03     -7.45777846E+02
     -9.94325013E+02      1.01378076E+03      1.43606494E+03
     -4.55456069E+02      2.54535167E+02      1.00946512E+02
      9.63901537E+02     -7.39214587E+02     -2.30075520E+03
     -1.35364104E+02      2.23031745E+03      9.43584582E+02
      1.64355755E+02      1.13875309E+02      4.27867534E+02
     -2.96060675E+02     -1.79703873E+01      8.94953096E+02
      1.80503295E+03     -9.92792248E+02     -2.63315859E+03
      3.09011675E+03      2.96974376E+03     -7.78381757E+02
      1.00597781E+03      3.03470700E+02     -5.23357122E+02
      1.03996603E+03     -2.04480147E+03      3.76870642E+03
     -2.58115204E+03      6.45593427E+01      1.61207661E+03
      2.75991538E+02     -1.09311089E+03     -2.17953768E+02
      3.69951075E+02     -5.63306600E+02      9.42477764E+01
     -1.51093320E+03      5.44288219E+02     -1.76373387E+03
      4.88637631E+02     -8.18313278E+02      5.80377636E+02
      1.16921983E+03     -4.64204574E+02      4.11981005E+02
     -1.40299526E+03      4.38113008E+02      9.66747437E+01
     -3.21071644E+03     -1.75363545E+03     -7.24594289E+02
     -1.07484212E+02     -6.86200725E+02      1.85608386E+02
     -1.29575268E+03      8.30021357E+02     -2.03654370E+03
     -1.28440346E+03     -2.35950746E+03     -1.28206076E+03
     -6.23872729E+02     -1.93189908E+01     -3.20651326E+02
     -1.34774670E+03      1.65700308E+03     -3.06855795E+01
     -2.51541924E+03     -3.02268586E+02      1.57088702E+03
      7.63138346E+02     -1.84424207E+02      5.41836813E+02
     -9.62260059E+02     -1.86902335E+03      4.40959694E+02
     -1.46627044E+03      1.34224081E+03     -7.33680897E+02
      3.59828285E+02     -1.12366839E+02      2.14990553E+02
     -2.07099341E+03      2.39880979E+03     -1.44505204E+03
     -2.53593210E+03     -1.08768063E+03      6.81388945E+02
     -8.63198446E+02      2.95027472E+02      1.51242026E+02
     -8.59639624E+02     -2.41470202E+02     -2.12113756E+02
      6.39507140E+02      2.27702824E+03     -1.27602205E+02
     -6.45206946E+02     -2.22877992E+02     -2.75305660E+02
      6.77255708E+02     -1.28589708E+03     -1.24065924E+03
     -7.42867740E+02      2.09021308E+03      1.45773937E+03
      4.56337091E+02      8.72828634E+02     -1.87400824E+02
     -1.79550987E+03     -2.49023475E+03     -1.41875057E+03
      8.61168802E+02      5.36445527E-01      3.99223955E+02
      7.08565382E+02      4.03724242E+02      3.81071048E+02
      1.42069675E+02      6.34280620E+02      6.81907467E+02
     -1.58774733E+03      3.08048007E+03      6.56664031E+02
      8.38270200E+02      2.97511606E+03      1.88721183E+03
      2.46191247E+03      1.17133376E+03     -2.27925727E+03
      2.00669302E+02      1.59260370E+02     -5.52658564E+02
      1.56850501E+03      1.38647499E+03     -1.36781136E+03
     -5.78933356E+01      9.66144171E+02      1.19948068E+03
      4.64750936E+01      5.54503772E+02     -5.06115996E+01
     -2.07419465E+02      8.85072447E+02      4.41825521E+02
     -7.96483658E+02      2.91483501E+03     -1.12757023E+03
     -8.91068739E+02     -2.18544605E+02      4.47000376E+02
     -1.09824286E+02      3.54014251E+02      5.17908622E+02
     -2.02092901E+03     -3.52025751E+02      2.61715733E+03
      3.74092933E+02     -7.91032783E+01      2.33349191E+02
     -7.95701746E+02      1.83618889E+03     -2.25230894E+03
      1.32088269E+03     -2.03449821E+03     -9.59363360E+01
     -4.38188471E+02     -4.49803720E+02     -6.12123424E+02
      3.93006494E+02      1.84606217E+03      1.53056921E+03
     -2.37495057E+03     -1.92991893E+03      1.21205249E+03
      1.69756591E+02      5.29333902E+02     -5.29180071E+02
     -2.40995409E+02      9.56312960E+02      1.01338203E+03
     -2.90293242E+03      1.31069704E+03      3.21509043E+03
     -7.44623960E+01      2.78941901E+02     -2.58155600E+02
     -2.30755064E+03     -2.30200048E+03      1.03268840E+03
      6.39917796E+01     -4.06775860E+03      2.96195761E+03
     -8.06883541E+02      8.21944485E+02     -3.54934867E+02
      1.35949193E+03     -1.23174534E+03      2.26522774E+02
     -2.07196937E+03     -1.06916619E+03     -2.28230065E+03
     -2.37696741E+02      1.87244286E+02     -6.66350121E+02
      1.74057847E+03      1.86835777E+03      3.38384427E+03
     -1.06064074E+03      9.31244846E+02     -4.63666402E+02
     -6.51629249E+02      1.74467245E+03      6.02895903E+00
      5.07049760E+02      3.58297431E+01      8.30496774E+02
      1.27552181E+03      1.88630020E+03      3.22717087E+02
     -1.62385425E+03     -1.11180016E+03     -3.75611637E+02
      1.32104072E+03     -1.32377695E+03     -4.76051904E+01
     -2.91230269E+01      3.57164993E+02      1.29465649E+02
     -7.26694243E+02      1.56592588E+02     -2.22226919E+03
      2.80693976E+01      3.33737353E+02     -3.89103963E+03
      2.52952720E+02      3.54945191E+02     -3.73009189E+02
      3.05663182E+03      7.13757343E+02      2.81056970E+03
     -2.32675943E+02      1.22106126E+03      5.33675443E+02
     -3.37971869E+02      7.23108363E+02      1.94632829E+02
      1.07771763E+03      3.58543310E+02     -5.60696328E+02
     -1.77628510E+02      6.32848819E+01     -2.87083333E+03
     -2.33253144E+02      3.19932696E+02     -3.15895205E+02
     -2.40573179E+02      1.19899970E+03      2.60352062E+03
     -1.76798033E+03     -6.37883574E+02     -1.20029547E+03
      1.99347263E+02      5.45358041E+02     -1.78486438E+02
     -3.32655068E+03     -4.49427349E+02     -1.56406961E+03
     -2.45130475E+03     -5.52770256E+02     -2.80053660E+02
      2.77351669E+02     -2.31250590E+02     -3.48063398E+02
      6.95422465E+02      7.75798816E+02      3.32941849E+03
      2.20947519E+02      4.78892002E+02     -9.57520052E+02
     -3.01550410E+02     -3.45881319E+02      3.65267281E+02
     -1.99687190E+03     -3.19294648E+02      1.61615812E+02
     -1.18332701E+03      1.92174429E+02      1.48768212E+03
     -3.43674938E+02     -1.59416563E+02     -2.88276897E+02
     -1.96202468E+02      1.42150850E+03     -1.86191981E+03
     -1.44193365E+03      1.63087555E+03     -6.06715346E+02
      3.80846149E+02      2.07148326E+02     -2.16944658E+02
      2.13189812E+03      5.12399434E+02      3.36137039E+01
     -2.84794788E+02     -2.18408992E+03      2.05856424E+03
     -2.27912306E+03     -4.48271185E+02      8.47168176E+02
     -4.01683736E+01      8.86327261E+02      2.30360191E+01
      2.09313205E+03      8.21159844E+02      1.48787393E+01
     -1.97392772E+03      1.26595149E+03      4.20036494E+02
     -2.86410752E+03      2.06025010E+02      2.52913123E+03
      3.59878672E+02     -2.47194599E+02     -3.26629862E+02
      7.92058888E+02      9.29188539E+02     -2.56942270E+03
      2.37410446E+03     -1.82222644E+03     -8.98729278E+02
      1.15818763E+03      3.63800894E+02      6.53726716E+02
     -1.48905339E+03     -8.75045517E+02      7.35082749E+02
      3.87852267E+02      1.08326347E+02      8.61770727E+02
      2.87688609E+02     -3.05410844E+02     -1.57182358E+02
      2.88746068E+02     -1.65130159E+03      8.26093808E+02
     -3.22523910E+03     -8.19786423E+02     -2.49506914E+03
      2.07456497E+02      5.78972619E+02      1.05806849E+02
     -1.31945778E+03      9.63026535E+02      4.27365478E+02
      4.45021259E+02     -2.57093310E+03     -1.93272310E+02
      7.42545043E+02      1.29929799E+03      3.28707222E+02
      1.92128170E+03     -4.94349204E+02      6.66894241E+02
     -2.50306084E+03     -9.30843474E+02     -8.99654722E+00
     -3.80174629E+02     -3.49956558E+02     -1.26842403E+03
      9.39540026E+02     -8.08879947E+02      1.27324278E+03
     -3.92887658E+03     -5.98039448E+02      6.85101467E+02
      8.34384359E+02     -3.09802634E+01      1.06986366E+02
      7.05314117E+02      1.55642093E+03      1.61108552E+03
     -8.62863551E+01     -9.77169742E+01     -1.20458876E+03
     -1.89629908E+02     -3.21127635E+02     -8.66026082E+02
     -1.02173266E+03     -6.14323594E+02      2.02241583E+03
      8.86297878E+02      2.25688279E+02      1.69391357E+02
     -2.81334388E+02     -3.20958592E+02      1.34284852E+02
      4.34419151E+01      1.76161523E+03     -3.50889456E+02
     -4.96343074E+02      9.58095300E+02      2.72538386E+03
      3.78959878E+02      6.05298171E+02     -1.17106462E+03
      3.05661032E+02     -4.84735921E+02      5.98162405E+02
     -9.41597127E+02      2.36432143E+03     -1.97946357E+03
      1.11210456E+03      1.34462850E+03     -2.17212277E+02
     -4.03125056E+02      1.69744089E+03      7.53075865E+02
     -8.92335937E+02     -9.45363095E+02     -3.78429834E+02
      1.91294498E+03     -3.03239392E+02      7.18332318E+02
     -3.24293499E+03      1.96380719E+03      4.27940356E+03
     -4.80089750E+02     -1.95124628E+02     -4.11526765E+02
     -1.04126211E+03     -2.25363602E+03     -2.81521477E+02
      1.77407241E+03     -5.26812912E+02     -1.51681755E+03
     -1.55763794E+02      1.38405618E+02      1.44734235E+02
      2.05697095E+03     -8.91559838E+02     -1.71965926E+02
      6.69358137E+02      2.71163422E+03     -1.27754227E+03
     -6.04445094E+00     -1.85102861E+01     -3.91652139E+02
     -1.11247857E+02     -4.38478722E+02     -1.12426230E+03
     -1.28067715E+01      2.63797104E+03     -1.55062072E+03
      4.96620931E+02     -2.18218469E+02     -8.17057966E+01
      1.54983882E+03      3.20801664E+03      5.46196457E+02
     -9.00738392E+02     -3.51120211E+03      2.83248983E+02
     -5.65515985E+02      3.73730992E+02     -2.64723446E+02
     -4.26114250E+02      1.23804443E+03      2.89071619E+02
     -5.22161365E+02     -5.40177453E+02     -2.07702081E+03
      2.55085150E+02     -1.05404477E+02     -3.30563575E+02
      9.71771927E+02     -2.24324911E+03      6.63006828E+02
     -5.13012519E+02     -1.93130634E+02     -2.20878410E+03
     -4.75235628E+02      3.58682318E+02      4.29405816E+02
      9.62462833E+01     -3.22083697E+03      1.07513027E+03
     -1.67003347E+03     -5.02122508E+02     -1.96210591E+03
      8.30889871E+01     -3.76555493E+02     -1.46246274E+02
     -3.52786578E+03     -4.36554217E+02      4.28758360E+02
      9.80377175E+02      8.53017308E+02      3.37823022E+02
     -1.80131097E+03     -6.85960637E+02      1.96864180E+02
     -8.01487147E+02     -4.19097580E+01      1.26292472E+02
     -2.55999309E+02     -1.54749826E+03     -6.67541176E+02
      1.54671909E+03      5.77736060E+02     -1.25808839E+03
      8.58097173E+02      1.44869847E+03     -1.16994365E+03
  }
}

Hamiltonian = DFTB {
  SCC = Yes
  SCCTolerance = 1e-6
  MaxSCCIterations = 200
  ForceEvaluation = Dynamics
  MaxAngularMomentum = {
    C = "p"
    H = "s"
  }
  Charge = 0.0
  SpinPolarisation = {}
  Eigensolver = Standard {}
  Filling = Fermi {
    Temperature [Kelvin] = 300.0
  }
  SlaterKosterFiles = Type2FileNames {
    Prefix = "../../pbc-0-3/"
    Separator = "-"
    Suffix = ".skf"
    LowerCaseTypeName = No
  }
  KPointsAndWeights = {
    0.0000000000000 0.0000000000000 0.0000000000000 1.00000000000000
  }
  Dispersion = LennardJones { 
    Parameters = UFFParameters {}
  }
}

ParserOptions = {
  ParserVersion = 3
}
