Geometry = GenFormat {
<<< "system.gen"
}

Driver = VelocityVerlet{
  Steps = 100000
  TimeStep [fs] = 0.2
  MDRestartFrequency = 5
  Thermostat = None {
    #InitialTemperature [Kelvin] = 300.0
  }
  Xlbomd{ 
    IntegrationSteps = 6 
    MinSccIterations = 2
    MaxSccIterations = 200
    SccTolerance = 1e-6 
  }
  Velocities [m/s] {
      9.37490719E+02     -1.65891964E+02     -6.32349639E+01
      1.02875154E+03     -2.10411841E+01      4.70541686E+02
      2.54246546E+03     -1.39581332E+03      1.39711108E+02
     -8.70482996E+02      2.03472507E+02     -1.62952118E+02
      3.84990892E+02     -1.33880301E+03     -3.40871287E+03
      2.19791848E+03      1.55536926E+03      3.56391432E+02
     -2.30012566E+02     -1.46668496E+01      2.16941325E+02
      8.70597081E+02      2.84868096E+03     -1.67862824E+03
     -3.25394360E+02      1.92423264E+03      1.70791087E+03
      5.47780463E+02      2.42881310E+02      1.54367173E+02
     -1.66285784E+03      3.12335593E+02     -1.46697986E+03
      5.85811367E+02     -4.25147021E+03     -6.14298725E+02
     -1.83769793E+02      3.72289775E+02      1.69570011E+02
      2.17264869E+03      5.75651661E+02     -9.67840299E+01
     -1.34071014E+03     -7.89474330E+02      1.43559877E+03
     -3.17330242E+02     -2.42715797E+01      2.94566030E+02
      8.30514489E+02      1.10144552E+03     -1.58834287E+03
     -2.29256324E+03      4.20105853E+02     -2.38720328E+03
      1.84862077E+02     -2.34202032E+02      1.13903439E+02
      1.88481012E+03     -1.76485660E+03     -2.27128508E+02
     -3.66932461E+01     -5.17981305E+02      2.49975417E+03
     -2.92840316E+02      6.49434176E+02      8.07017454E+02
      4.24344552E+01     -1.17386562E+03     -2.08026434E+03
      3.56563401E+03     -4.16003574E+02      3.62426421E+03
     -3.51844288E+02      4.74122388E+02      1.64680224E+02
      1.97581642E+03     -8.59889435E+02      2.67688238E+03
      2.45563367E+03     -1.64861717E+03      2.31619434E+02
     -1.45132637E+03     -2.04347841E+03      5.98652037E+02
     -8.42080340E+01     -9.94158454E+02      8.91975588E+00
     -7.59956859E+02      7.66824281E+02      2.23315458E+03
     -3.40401833E+02     -1.25849940E+03     -1.20350685E+02
      2.22730705E+02      8.07185186E+02      3.78719372E+02
      2.62948170E+02     -5.78658686E+02     -4.59071900E+01
      1.06089487E+02      2.73867586E+03     -3.36250006E+02
     -2.03557461E+03     -5.09983258E+02     -2.22340825E+03
      3.63106131E+02     -3.24682536E+02      9.36674498E+02
      2.36643551E+03      5.54662394E+02      6.52377048E+02
     -2.45420565E+03      1.51240404E+02      3.26499775E+03
      5.22545213E+01      1.65528694E+01      3.98567735E+02
      1.00618201E+03     -1.98353941E+03      1.04886465E+03
      2.99565613E+03     -7.50606926E+02      1.67531263E+01
     -5.18831292E+02      7.83106888E+01      1.38857557E+02
      1.72490399E+03     -4.45184845E+02      1.19224890E+03
      3.70747042E+02      3.02728931E+03      1.98415529E+03
      8.28296028E+02     -3.18406934E+02      1.47355231E+02
     -1.69786689E+03     -1.87829553E+03     -1.69190108E+03
     -1.00494374E+03     -5.24435325E+02     -3.39400546E+02
      3.46333757E+02     -3.05599310E+01      3.98414166E+02
     -6.05356944E+02     -9.92762619E+02     -8.27063679E+02
      1.73344177E+03     -2.01147670E+03     -7.87605808E+02
      6.11068326E+02     -9.45482262E+02      2.10305246E+02
      1.82242906E+02     -1.68095710E+03     -1.41211610E+03
      1.59035873E+03      4.91471824E+02      2.15898630E+03
     -3.24299009E+02      6.60942856E+02      6.46339362E+02
     -1.30406113E+03      7.18201762E+02      1.08344141E+02
      1.70743884E+02     -3.60879237E+03      2.64378732E+02
      6.04190580E+02      8.12808414E+02      6.97963783E+02
      1.53328228E+02     -2.90009611E+03      5.73504442E+02
      6.20944009E+02      2.71953252E+03      2.77840329E+03
      1.32450887E+03      1.40843043E+03      8.37289265E+02
     -4.20890564E+02     -1.08670152E+02      8.13861341E+01
     -5.79192714E+02      9.85909308E+01      1.74196739E+03
      1.50114652E+03     -2.13513443E+03      3.27681502E+03
      1.95562227E+03      7.00380920E+02     -1.33589186E+03
     -1.52446084E+02     -7.84922385E+01      1.57382286E+02
      7.22495722E+02     -1.47857403E+03      1.14518027E+03
     -8.84089576E+02      2.49106875E+01     -2.00063005E+03
      5.14833248E+02      4.82940377E+02      2.47621177E+02
     -5.52643752E+02     -5.60467066E+02      1.18071951E+03
      1.96935343E+02     -3.70954272E+02     -1.85483657E+03
     -3.96144970E+02     -3.57521978E+01      1.16538978E+01
      7.92111615E+02      3.60242996E+03      3.49330688E+03
     -1.13426998E+03     -4.81531252E+02      2.29838486E+03
     -8.10271578E+02      2.63444254E+02     -5.49986920E+02
     -2.18890353E+03     -1.91602342E+03     -6.45231646E+02
     -1.04174308E+03      3.26324348E+03     -5.21547572E+02
     -4.53742624E+02     -1.12961355E+01      1.21726300E+03
      1.09793117E+03     -1.16188356E+03     -7.03322135E+02
     -2.33134620E+03      1.00973361E+02      5.01851533E+01
      1.78031409E+02     -5.76139573E-01     -6.17137063E+02
      3.91809861E+02      6.97241642E+02     -7.85095660E+02
     -2.69608910E+02      1.95571608E+03     -2.23883328E+02
      1.78387771E+02      3.78071895E+02      1.66746026E+02
     -4.24176681E+02      1.05087597E+03     -9.39696771E+02
     -9.61905255E+02     -5.43690980E+02      1.30480691E+01
      6.12356526E+02     -2.30544312E+02      1.16812932E+02
     -3.78575131E+02     -2.88429478E+02      2.57487261E+03
     -4.30859192E+01     -4.31991767E+02     -2.05851145E+03
     -3.22291603E+02      4.96361377E+02     -9.17758015E+02
      1.64497100E+03     -9.12097927E+02      5.23231033E+02
     -7.81867090E+02     -1.65174376E+03     -1.03123448E+03
      9.91205385E+01     -1.09726247E+03     -1.77786844E+03
     -4.81332087E+01      1.45190726E+02     -1.97956118E+02
      1.82415778E+03      2.02756289E+03     -1.78553270E+03
     -1.53319360E+02      2.18615204E+03      6.01884805E+02
      9.31690150E+02      7.42562855E+02     -6.86404277E+02
     -9.59940496E+01      5.55490307E+02      8.32672271E+02
     -6.64546258E+02     -3.13011173E+02     -1.54238332E+03
      3.32230264E+02      1.74604715E+03     -2.60311049E+02
      9.69284774E+02      8.61654017E+02      5.47825890E+02
     -1.70705192E+03      2.72851263E+02     -6.50788069E+02
     -7.16409128E+02      4.61111350E+02     -1.45916333E+03
      5.67782865E+02     -5.81739155E+02     -3.34549525E+02
     -2.05307036E+02     -1.11581309E+03     -8.74029470E+02
      2.37672134E+03     -1.61356439E+03      5.89877189E+02
      1.38345043E+02     -7.56472768E+01      6.75375395E+02
      1.57856229E+03      5.77123935E+02      1.37012285E+03
     -8.99071639E+02     -2.62189748E+03      2.35553762E+03
     -5.17076536E+02      5.43450220E+02      6.22910981E+02
     -1.75156622E+03     -4.52555798E+02      2.18841788E+03
     -1.51166925E+03      1.13495896E+02      2.45875850E+03
     -2.25498214E+02     -3.61920959E+02     -4.26566172E+02
     -1.28203591E+03     -2.80339829E+03      1.84593094E+03
      2.54729578E+01     -1.03148792E+03     -4.94677948E+02
      5.69268112E+02     -3.73429370E+02      3.08701942E+02
     -1.50977707E+02      2.63793997E+02      4.88969942E+02
     -7.13034231E+02      1.23046900E+03      4.96370848E+02
     -2.97424192E+02      5.10866090E+02      2.74395129E+02
     -1.37252118E+03      1.83652545E+03     -1.16469046E+02
     -1.35722771E+03     -1.60071533E+03      1.45420882E+03
     -3.85040567E+02      1.63317678E+02     -9.83228268E+01
      4.35489797E+02      2.47735927E+02      6.49922260E+02
     -3.26966249E+02     -1.29857237E+03      6.43082201E+02
      1.09219374E+03      3.28483300E+03     -1.24493230E+03
     -2.06464113E+02     -1.36729096E+01      4.28554853E+02
      1.01068656E+02      8.87513502E+02      6.78483814E+02
     -1.29495523E+03     -1.08107380E+03     -1.72773362E+02
     -5.50218007E+02     -2.95417700E+02      2.52706069E+03
     -4.76206930E+02     -2.26483177E+02      5.03718089E+02
     -2.45297706E+03     -1.69788743E+03     -4.89419836E+03
     -3.55192756E+02      2.09637984E+03     -1.68642284E+03
     -5.71863271E+02     -1.06313411E+02      5.49397170E+02
      6.05823099E+02     -8.54571858E+02      7.98325654E+02
      1.14553124E+02      1.94877660E+03      2.10308265E+03
     -2.93377398E+02      4.04728917E+02     -1.32822392E+02
      1.25795791E+03     -9.55273397E+02      8.92656126E+02
      1.74244240E+03     -1.29503855E+02      3.84148529E+02
      2.36313292E+02      3.69926149E+02      8.98798928E+02
      3.65214663E+03      1.58402861E+03      2.73208635E+03
     -2.21669742E+02      4.98153821E+02      4.24812967E+03
      4.36157157E+02      6.01598445E+02     -4.08778105E+02
      5.11309055E+02      2.71239257E+02     -1.07521661E+03
      8.39568211E+02     -5.72895869E+02      2.85658565E+01
     -5.14483645E+02      1.58596138E+02      5.04800334E+01
     -1.70725953E+03      2.98360037E+02     -2.27030383E+03
     -1.04104691E+03      1.40093411E+03     -9.45028367E+00
     -8.11495385E+01      1.47644359E+02      1.86961375E+02
      2.44988849E+02     -1.35169497E+03     -7.35214959E+02
     -8.37343003E+02      3.69513482E+02      3.33482292E+03
      2.07994096E+02     -6.86235907E+02     -3.75459593E+02
      1.93741783E+03     -7.31134992E+02     -2.90533049E+02
      2.13810276E+02      9.48332478E+02     -1.74481005E+03
      2.12562271E+02     -8.90219822E+00      5.33532182E+02
     -2.09583180E+03      4.67743575E+02      8.53738741E+02
     -1.91452244E+02      1.00703340E+03      2.24615196E+02
     -2.18923003E+03      3.60528074E+01     -9.25959139E+01
      8.54409293E+02     -7.67336403E+01      5.07994017E+02
     -1.86215573E+02     -1.01279936E+03     -1.76029988E+03
      1.58002835E+03      3.40424660E+03     -3.85541283E+03
     -6.19048287E+01      4.52527494E+01     -4.58506120E+01
      3.19326065E+02      1.95333140E+01     -2.64240235E+02
      2.04084578E+02      2.22900365E+02     -3.15439125E+02
     -2.89521270E+03      5.34331718E+02     -2.35297963E+03
     -2.61076666E+02     -1.07181240E+02      2.49077539E+02
      1.57172658E+03     -9.21503052E+02     -2.13591359E+03
      3.06129021E+03      3.31796256E+02      1.43855869E+02
      3.09322847E+01      3.02446088E+02      1.55382155E+02
     -1.75907357E+03     -2.42469041E+03     -8.97768112E+02
      2.51948731E+02      8.98374674E+02     -4.45198861E+02
      3.23030304E+02     -1.43097566E+02      4.93513443E+02
     -2.77982914E+02      2.40669086E+03     -8.65573417E+02
      7.71971949E+01      1.52505232E+03      7.58509427E+02
     -6.23747304E+02      2.64444413E+02     -3.27618648E+02
     -5.44673775E+02      5.81360408E+02     -6.04904713E+02
     -2.53814906E+03     -1.53282051E+03      6.91385738E+02
      3.10579772E+02      3.31300597E+02     -3.98791646E+01
      5.28932658E+02      2.35333170E+03      1.20560907E+03
      1.64935353E+02      1.32343620E+02      2.32819027E+03
     -3.08777912E+02      2.03907111E+02      6.33439228E+02
     -9.22728202E+02      1.42555712E+03     -8.18955235E+02
      1.87730312E+03      6.94635884E+02      9.84749095E+01
      5.24770414E+02      2.90274001E+02      1.13034838E+02
      1.01008192E+03      8.63705664E+00     -9.54674650E+02
     -2.78332055E+02     -3.02540836E+02      2.81795334E+03
     -1.10130314E-01      5.81684718E+02      3.88574448E+02
     -7.79075319E+02      2.34624468E+03     -2.79934284E+02
     -1.07252675E+02     -1.02227595E+03     -4.42749469E+02
      1.72002064E+03      1.10479757E+03     -7.50239724E+02
     -4.78501139E+02     -2.63823156E+02      6.25762644E+02
     -2.24229035E+02      8.83186697E+02      5.53521121E+02
     -4.07298181E+02      1.00570169E+03     -1.44950509E+02
     -3.24504072E+02      1.67722476E+02      2.33813401E+03
      1.29009985E+01     -7.03733360E+02      2.69947953E+02
     -2.15412709E+03     -5.52743938E+02      1.12795621E+03
     -1.47995823E+03     -5.67193566E+02      8.89370582E+02
      3.29927190E+02      1.61120729E+02      6.90745227E+02
      2.05084821E+03      1.32968120E+03      3.11572083E+01
     -6.80782463E+02     -1.84703583E+02     -1.89568372E+03
      2.54547223E+02      8.09355700E+02      5.52011246E+02
     -5.90715735E+02      7.09448452E+02     -2.41644993E+03
      1.58315127E+03      5.16990071E+01     -1.06284491E+03
      7.74250980E+02      2.40244799E+02      8.47118046E+02
      1.45555581E+02     -1.92859198E+02     -1.00465574E+03
     -4.37644839E+02      9.87631773E+01     -1.30469798E+03
     -1.20426559E+02      4.02138253E+02      1.28839997E+03
      1.42809154E+03      1.24906197E+03      1.54019049E+03
     -1.04226655E+03      1.86693619E+03      2.07605654E+03
      4.43963299E+02      2.08103315E+02      5.13716607E+02
     -7.15312156E+02     -3.01495084E+03     -1.89229514E+03
     -1.01367118E+01      3.08195917E+03      1.39277987E+03
      3.81923242E+01     -1.55254452E+02     -2.68383962E+02
     -1.46560595E+03     -2.57290372E+03      1.45889874E+03
      1.58347515E+03     -2.63731790E+02      5.82673302E+01
      5.38395756E+02      7.70300851E+01     -3.13598392E+02
      5.11988486E+02      5.14764121E+02      6.37579548E+02
     -5.31136539E+02     -1.50567445E+03     -1.60564614E+03
      2.92009578E+02      2.31053515E+02      1.09403968E+03
     -1.48259750E+03     -1.70411185E+03      1.41134697E+03
     -1.75169291E+03      1.10525015E+02      2.85985740E+03
      2.47671728E+03     -7.89289049E+02     -5.49681530E+02
      4.93764086E+02      2.88854150E+02     -4.35673316E+01
      1.64299655E+02     -3.67035095E+03      8.70554849E+01
     -1.72453480E+02      1.77103244E+03      1.42548976E+03
     -7.44899208E+02     -7.45790161E+02      1.04006087E+03
      7.39543721E+02     -1.40964491E+03      1.36185237E+02
     -2.52959882E+02      5.80012349E+02     -4.72613254E+02
      6.20369946E+02      1.05342032E+03      1.33107948E+03
     -6.89910299E+02      6.66300889E+02     -1.58006743E+02
      1.78610616E+03      2.53822436E+03      2.84369679E+02
      4.34303559E+02     -1.08016631E+03      1.52124373E+03
      5.47706535E+01      5.25431614E+02     -5.47481204E+02
      2.74204831E+03      2.31191381E+03      8.89555554E+02
      1.79095356E+03     -4.32235562E+01     -1.53088630E+03
      7.85453072E+02      1.28612655E+02      5.77030572E+02
      1.95261409E+03     -1.07548186E+03     -2.08312532E+03
     -1.18947801E+02     -5.64708447E+02     -7.71010231E+02
     -3.91051722E+00      1.41585178E+02      3.71236218E+02
      3.82257690E+03      2.63821546E+03     -9.52808246E+02
     -2.90176329E+02     -8.99131642E+02      6.19955740E+02
      3.26810777E+02      5.64149205E+02      8.81841974E+02
     -3.54625162E+01     -1.09973649E+03     -1.10492068E+03
      8.92855998E+02     -4.28887165E+02     -2.99123932E+02
      1.73145715E+02      1.70818918E+02     -5.87897104E+02
      6.75496323E+02     -7.48135601E+02      3.56188908E+03
     -3.97541681E+02      5.65550170E+02      2.89461993E+03
     -1.29213149E+02      6.98013814E+02      3.04898353E+02
      1.13747813E+03      2.24980015E+03     -1.21817128E+03
     -1.59864670E+02      3.87570974E+03      2.76050771E+03
      1.92995666E+02      4.66888981E+02      7.55672181E+02
     -6.38633817E+02     -4.69917732E+02      1.63857692E+03
      2.03581513E+03     -5.20413157E+02     -7.85341184E+02
      1.73660616E+01     -3.63977812E+03      4.91374542E+02
      5.90262889E+02      5.31360267E+02      3.01133127E+02
     -1.79806549E+03     -2.49140126E+03      7.60558706E+02
      8.16797565E+02     -1.79882756E+03      4.77219941E+02
      6.09437053E+02      2.01092264E+03      3.37233491E+02
      6.76928226E+02      9.90046683E+02     -8.09466194E+02
      2.84515498E+03     -3.62506319E+02     -8.42390269E+02
     -1.57333028E+03     -1.12124423E+01     -2.21931764E+02
      5.18102445E+02      5.13038055E+01      1.18089163E+02
     -1.19257596E+02     -1.44275478E+02     -2.02241878E+03
     -1.89939403E+01     -9.36742421E+02     -1.93467272E+03
      6.77808133E+02     -4.09675237E+02     -5.01740943E+02
      1.86926772E+02      1.47888140E+03      2.65971742E+03
     -1.28795619E+03     -3.30517902E+02      3.25920719E+01
      5.13313304E+02      3.05176635E+01      4.33788512E+02
      9.87889924E+02      3.07238411E+02      2.81413466E+03
     -1.27594331E+03      1.34279950E+03     -5.07184543E+02
     -4.71983234E+02     -4.17616831E+02      5.12581030E+02
     -1.78184027E+03     -1.19002311E+03      1.15558056E+03
     -1.16528968E+03      6.43644398E+02     -5.15723177E+02
      6.79982555E+02     -7.22596282E+02      1.62192661E+02
      7.87519996E+02     -2.86838427E+02      5.83273835E+02
      7.46030563E+02      8.44217489E+02     -1.57434961E+03
     -1.29890665E+04     -1.31387054E+04     -2.76916943E+04
      1.47999481E+03     -7.90898132E+02      1.92436137E+03
     -6.78596573E+02      6.58396481E+02      2.73364176E+03
      1.55855409E+02      8.51539891E+02      6.58078555E+02
     -2.94366125E+02      5.12446504E+02      5.24728741E+02
     -7.81597587E+02     -9.29876922E+02     -1.36472872E+03
      8.81073850E+02      1.12388392E+02      5.64978537E+02
      1.68678371E+03     -1.92277667E+03     -1.38703868E+03
      1.17045504E+03     -1.67131986E+03      1.65320249E+03
     -3.93544515E+02      3.03245222E+03     -7.53324205E+01
      4.63764282E+01     -1.24822631E+02      6.99237020E+02
      2.30910742E+02      9.25843971E+02      1.21753547E+03
      9.05811600E+02      1.56937778E+03      5.22864090E+02
      2.58837661E+03      1.85110954E+03     -1.43669596E+03
     -2.59559598E+02      3.34487327E+02     -1.16913423E+02
      1.45749207E+03     -2.52209015E+03      2.78372584E+03
      1.77448581E+03      3.86070859E+03      8.59504884E+02
      7.15965782E+02     -1.66050662E+02      3.36581829E+01
      2.44567791E+02     -2.33258985E+03      1.34274136E+03
     -2.25072033E+03     -8.61641142E+02     -1.82840568E+03
     -1.36241691E+02      1.11903003E+02      7.03608621E+02
      2.54944810E+03     -3.84861277E+03      1.13518511E+03
     -2.37603841E+03     -3.63561117E+02     -1.76384554E+03
     -7.41521341E+02     -4.16960042E+02      4.11938592E+02
     -1.38341231E+03      1.55509159E+02      3.21494475E+03
      1.70855345E+03      6.16883376E+02      6.32046855E+02
      4.15061049E+02      1.23648530E+03      2.37681600E+02
      2.36900428E+03      4.81416057E+02     -3.23461520E+03
     -2.02753691E+03     -7.86732305E+02     -1.35670266E+02
     -1.24911123E+02      9.66873711E+02     -2.93987768E+02
     -1.08333600E+02      1.71013567E+03      9.32531556E+02
      3.08103129E+02     -1.29414442E+03     -2.53336350E+02
      8.17671596E+02      2.62995073E+02     -3.83068810E+02
     -1.09949612E+03      2.28286714E+03      2.22465202E+00
     -5.33412222E+02      6.62246395E+02     -2.38470511E+02
      1.84556298E+02      6.92194767E+02     -2.49203279E+02
     -2.51135781E+03      8.43621313E+02      1.74482899E+03
     -3.22000542E+02      1.92482018E+03     -5.73611221E+02
      5.95190437E+02      1.36171669E+02      1.72337509E+02
      8.14248630E+02     -2.08837983E+03      1.17930469E+03
      3.21659926E+02     -4.28606753E+02     -1.38066569E+03
     -5.50848104E+02      1.72993717E+03     -8.35185495E+02
     -1.27163617E+02     -1.76041091E+02      1.12666315E+03
     -1.15855359E+03      3.33025515E+02      1.57449904E+03
      1.02971725E+03     -7.84180233E+02     -5.02647152E+02
      2.68062887E+03     -1.86916526E+03     -1.21937322E+03
     -1.95129207E+02      1.73313337E+02      3.99188908E+02
      1.84171110E+03     -2.76505981E+03     -6.86104184E+02
     -1.03458197E+03      1.05491437E+03     -1.00561849E+03
      3.56307742E+02      2.22014856E+02      4.83746024E+02
      1.49943032E+03      4.14019336E+02      1.10972748E+03
     -9.78690928E+02     -1.03793978E+03     -1.42005458E+03
      1.37295050E+02      1.30673218E+02      4.55499389E+02
     -4.76365144E+01      2.75182113E+03      3.00676335E+03
     -8.17959450E+02      2.23479556E+03     -5.59803123E+02
      3.10146587E+02     -4.92248949E+02      7.38686002E+02
     -2.44457002E+03     -6.57903956E+02      1.66876779E+03
     -1.66668277E+03      7.11127281E+02      1.16367521E+03
      2.62682493E+02     -6.86223011E+02     -5.62803686E+02
      8.29155243E+02      1.41515386E+03     -7.67237649E+01
      6.33017266E+02      1.57026755E+02      2.05452674E+03
      1.59341637E+02     -2.05905228E+02      8.74648832E+00
      4.56700471E+02      3.26279230E+01     -4.45336319E+02
      4.19158026E+02     -7.60241049E+02      9.53012994E+02
     -2.64423122E+02      4.03759411E+02     -2.31742537E+02
     -3.07784696E+00     -3.11811578E+01     -1.60678033E+03
     -2.58787164E+03      9.74771754E+02      8.22089742E+02
      1.81300739E+02      4.04817322E+02      1.05105490E+03
      1.80234345E+01     -5.42244712E+02     -1.34584423E+03
      2.79415958E+03     -2.03339926E+03      2.28487236E+03
      1.90407248E+02      2.86757215E+02     -6.37881905E+02
     -2.49585016E+03      1.41296715E+03      7.11067637E+02
     -4.29580492E+02      2.15813602E+02      1.20554546E+03
      5.15463728E+02      4.20259295E+02      7.99182342E+02
     -7.84405670E+02      1.20117906E+02     -5.77143181E+02
     -2.63964631E+03     -2.50614727E+02      2.56044310E+03
      3.58404441E+02      8.93121048E+02      3.43272466E+03
     -7.46623851E+02      1.51739776E+03     -1.92381949E+03
  }
}

Hamiltonian = DFTB {
  SCC = Yes
  SCCTolerance = 1e-6
  MaxSCCIterations = 200
  ForceEvaluation = Dynamics
  MaxAngularMomentum = {
    C = "p"
    H = "s"
  }
  Charge = 0.0
  SpinPolarisation = {}
  Eigensolver = Standard {}
  Filling = Fermi {
    Temperature [Kelvin] = 300.0
  }
  SlaterKosterFiles = Type2FileNames {
    Prefix = "../../pbc-0-3/"
    Separator = "-"
    Suffix = ".skf"
    LowerCaseTypeName = No
  }
  KPointsAndWeights = {
    0.0000000000000 0.0000000000000 0.0000000000000 1.00000000000000
  }
  Dispersion = LennardJones { 
    Parameters = UFFParameters {}
  }
}

ParserOptions = {
  ParserVersion = 3
}
