Geometry = GenFormat {
352  S
C  H
1 1    0.4205424412E+02    0.3065419008E+02    0.3678703509E+02
2 2    0.4272427012E+02    0.3151831431E+02    0.3656974162E+02
3 2    0.4239919701E+02    0.2969191194E+02    0.3646500047E+02
4 1    0.4184412167E+02    0.4578531093E+02    0.3836625779E+02
5 2    0.4152368113E+02    0.4479118815E+02    0.3845777616E+02
6 2    0.2565056507E+02    0.4627742560E+02    0.3879513895E+02
7 1    0.4308697862E+02    0.4599762884E+02    0.3915715012E+02
8 2    0.2739557115E+02    0.4611274198E+02    0.4023257655E+02
9 2    0.4349809481E+02    0.4694287194E+02    0.3884985961E+02
10 1    0.2880885257E+02    0.4485760109E+02    0.3895409751E+02
11 2    0.2992745142E+02    0.4509469257E+02    0.3944374788E+02
12 2    0.2910935031E+02    0.4480814794E+02    0.3795551797E+02
13 1    0.4353167175E+02    0.4350901191E+02    0.3936533414E+02
14 2    0.4295351084E+02    0.4316417434E+02    0.3844125389E+02
15 2    0.4289859799E+02    0.4354387641E+02    0.4030279916E+02
16 1    0.2931847845E+02    0.4237994545E+02    0.3961090593E+02
17 2    0.2993119728E+02    0.4248224279E+02    0.3862631965E+02
18 2    0.2879301496E+02    0.4147993297E+02    0.3966326859E+02
19 1    0.4562986257E+02    0.4227706825E+02    0.4078149314E+02
20 2    0.4604561000E+02    0.4123857657E+02    0.4082165045E+02
21 2    0.4522530592E+02    0.4213270298E+02    0.4187232737E+02
22 1    0.4672913131E+02    0.4341520591E+02    0.4061850097E+02
23 2    0.3090399881E+02    0.4440550501E+02    0.4079688562E+02
24 2    0.3178299840E+02    0.4340076691E+02    0.3950806407E+02
25 1    0.4066238393E+02    0.3074861702E+02    0.3624754039E+02
26 2    0.4004875049E+02    0.2979959690E+02    0.3641056815E+02
27 2    0.4003737068E+02    0.3168491286E+02    0.3655110904E+02
28 2    0.4070796937E+02    0.3078863995E+02    0.3516075809E+02
29 1    0.4790669890E+02    0.4306634856E+02    0.4152168474E+02
30 2    0.4813225509E+02    0.4202940997E+02    0.4125277678E+02
31 2    0.4880027291E+02    0.4369664770E+02    0.4148710118E+02
32 2    0.4787437602E+02    0.4301473253E+02    0.4260401253E+02
33 1    0.2671090024E+02    0.3358800436E+02    0.3306460957E+02
34 2    0.2649731463E+02    0.3266610452E+02    0.3358311027E+02
35 2    0.2761349232E+02    0.3403776567E+02    0.3356360549E+02
36 1    0.2709583219E+02    0.3340924187E+02    0.3156433999E+02
37 2    0.2823475009E+02    0.3333672326E+02    0.3171049765E+02
38 2    0.2689760249E+02    0.3434751327E+02    0.3095034169E+02
39 1    0.2663119918E+02    0.3211998947E+02    0.3090535512E+02
40 2    0.2552371315E+02    0.3228996198E+02    0.3092997567E+02
41 2    0.2696396436E+02    0.3122034646E+02    0.3144906258E+02
42 1    0.2705483952E+02    0.3203289902E+02    0.2942642569E+02
43 2    0.4332090269E+02    0.3248086638E+02    0.2921021617E+02
44 2    0.2628161710E+02    0.3256815497E+02    0.2880541595E+02
45 1    0.2723091846E+02    0.3059253302E+02    0.2888942938E+02
46 2    0.2732962990E+02    0.3063553125E+02    0.2774955090E+02
47 2    0.4164083336E+02    0.3009654969E+02    0.2918691927E+02
48 1    0.4382911675E+02    0.2981715604E+02    0.2937094712E+02
49 2    0.4381978949E+02    0.2989810589E+02    0.3046636224E+02
50 2    0.4469551848E+02    0.3041410814E+02    0.2915509911E+02
51 1    0.2876034293E+02    0.2845433956E+02    0.2882943371E+02
52 2    0.2895433701E+02    0.2851725691E+02    0.2775520304E+02
53 2    0.2783789592E+02    0.2792583433E+02    0.2904228745E+02
54 1    0.4514615673E+02    0.2748061162E+02    0.4476432070E+02
55 2    0.4549457857E+02    0.2772455465E+02    0.4582535475E+02
56 2    0.4604280481E+02    0.2734477845E+02    0.4418121905E+02
57 1    0.2546005232E+02    0.3444326813E+02    0.3333136362E+02
58 2    0.2532823697E+02    0.3504461234E+02    0.3245308412E+02
59 2    0.2461290965E+02    0.3378327752E+02    0.3355272111E+02
60 2    0.2569694628E+02    0.3513652062E+02    0.3416565775E+02
61 1    0.2919595260E+02    0.2602159847E+02    0.4494822496E+02
62 2    0.2876222692E+02    0.2593312245E+02    0.4593960815E+02
63 2    0.2832164421E+02    0.2591531431E+02    0.4435657360E+02
64 2    0.2998219731E+02    0.2528656134E+02    0.4459504165E+02
65 1    0.3765237355E+02    0.4087182033E+02    0.3619141736E+02
66 2    0.3736608564E+02    0.4021241892E+02    0.3531170763E+02
67 2    0.3869538086E+02    0.4105381929E+02    0.3595456966E+02
68 1    0.3697365723E+02    0.4223896005E+02    0.3614444052E+02
69 2    0.3747468203E+02    0.4297253480E+02    0.3673730991E+02
70 2    0.3589767537E+02    0.4205740486E+02    0.3655958196E+02
71 1    0.3693799326E+02    0.4265263201E+02    0.3467628817E+02
72 2    0.3636372353E+02    0.4192357548E+02    0.3405644800E+02
73 2    0.3792346001E+02    0.4238722508E+02    0.3422663600E+02
74 1    0.3655526317E+02    0.2872175863E+02    0.3448818070E+02
75 2    0.3566168914E+02    0.2899385276E+02    0.3504124964E+02
76 2    0.3631477793E+02    0.2888739232E+02    0.3339262163E+02
77 1    0.3775923816E+02    0.2990031129E+02    0.3473954498E+02
78 2    0.3870418411E+02    0.4489779857E+02    0.3427997162E+02
79 2    0.3777099500E+02    0.4522259461E+02    0.3580076939E+02
80 1    0.3747530367E+02    0.3131966917E+02    0.3418453856E+02
81 2    0.3821147785E+02    0.3198853109E+02    0.3485596387E+02
82 2    0.3636852804E+02    0.3165672767E+02    0.3434825312E+02
83 1    0.3784031283E+02    0.3169134910E+02    0.3264448042E+02
84 2    0.3888789081E+02    0.3200114034E+02    0.3268840974E+02
85 2    0.3713107347E+02    0.3255021797E+02    0.3246628922E+02
86 1    0.3768415600E+02    0.3074127941E+02    0.3139844710E+02
87 2    0.3684234662E+02    0.3004655483E+02    0.3154363199E+02
88 2    0.3852459809E+02    0.2997133547E+02    0.3134612901E+02
89 1    0.3744346118E+02    0.4008004483E+02    0.3754059066E+02
90 2    0.3751469229E+02    0.3893421651E+02    0.3732830425E+02
91 2    0.3817550684E+02    0.4037589241E+02    0.3833466559E+02
92 2    0.3648470316E+02    0.4020644676E+02    0.3794195802E+02
93 1    0.3750289784E+02    0.3151726730E+02    0.3010110886E+02
94 2    0.3649599374E+02    0.3194702701E+02    0.3016134625E+02
95 2    0.3823470862E+02    0.3223224919E+02    0.2990109636E+02
96 2    0.3760638324E+02    0.3074005162E+02    0.2928099914E+02
97 1    0.3667818223E+02    0.3878309160E+02    0.4187631437E+02
98 2    0.3725199952E+02    0.3975509401E+02    0.4161658695E+02
99 2    0.3718789986E+02    0.3841797794E+02    0.4283489459E+02
100 1    0.3522991556E+02    0.3913834810E+02    0.4223435563E+02
101 2    0.3453292922E+02    0.3930098922E+02    0.4136441963E+02
102 2    0.3539025747E+02    0.4015447822E+02    0.4268028708E+02
103 1    0.3469497375E+02    0.3834076498E+02    0.4341157307E+02
104 2    0.3481076294E+02    0.3893681895E+02    0.4434103054E+02
105 2    0.3519063118E+02    0.3739847450E+02    0.4333569747E+02
106 1    0.3324389208E+02    0.3801984811E+02    0.2796083289E+02
107 2    0.3305913402E+02    0.3743891500E+02    0.2712113869E+02
108 2    0.3261012627E+02    0.3896342386E+02    0.2795896790E+02
109 1    0.3279016274E+02    0.3721400971E+02    0.2921518242E+02
110 2    0.3295734402E+02    0.3767795923E+02    0.3017500670E+02
111 2    0.3334030918E+02    0.3625049277E+02    0.2926274627E+02
112 1    0.3137709727E+02    0.3679013884E+02    0.2894561341E+02
113 2    0.3151079665E+02    0.3574041303E+02    0.2861804275E+02
114 2    0.3093929174E+02    0.3733183495E+02    0.2814991183E+02
115 1    0.3039899528E+02    0.3655878112E+02    0.3015318551E+02
116 2    0.3076362270E+02    0.3576590569E+02    0.3083800597E+02
117 2    0.2940748105E+02    0.3605971246E+02    0.2980805442E+02
118 1    0.2989283956E+02    0.3774482250E+02    0.3093611088E+02
119 2    0.2874788711E+02    0.3793663149E+02    0.3083749002E+02
120 2    0.3036360559E+02    0.3873717258E+02    0.3063112320E+02
121 1    0.3682615178E+02    0.3777995447E+02    0.4072357935E+02
122 2    0.3786948229E+02    0.3746067465E+02    0.4059195030E+02
123 2    0.3619200366E+02    0.3686011477E+02    0.4091307304E+02
124 2    0.3639052450E+02    0.3829539286E+02    0.3981141624E+02
125 1    0.3020754105E+02    0.3761015559E+02    0.3241254887E+02
126 2    0.2953637817E+02    0.3688963566E+02    0.3297307832E+02
127 2    0.3118985372E+02    0.3729071215E+02    0.3254555020E+02
128 2    0.3016154842E+02    0.3856849099E+02    0.3305625454E+02
129 1    0.3538831130E+02    0.3914786303E+02    0.3284681235E+02
130 2    0.3457721222E+02    0.3933221801E+02    0.3368981996E+02
131 2    0.3643855621E+02    0.3890975141E+02    0.3324396859E+02
132 1    0.3497261710E+02    0.3777021670E+02    0.3232701431E+02
133 2    0.3435624598E+02    0.3804900338E+02    0.3141454867E+02
134 2    0.3425515575E+02    0.3730900720E+02    0.3310000920E+02
135 1    0.3610346144E+02    0.3676890473E+02    0.3177771647E+02
136 2    0.3663951016E+02    0.3640031653E+02    0.3271814290E+02
137 2    0.3684086275E+02    0.3753754906E+02    0.3137943296E+02
138 1    0.3582717293E+02    0.3547810930E+02    0.3101351060E+02
139 2    0.3670593225E+02    0.3494001387E+02    0.3063993153E+02
140 2    0.3535980944E+02    0.3585709235E+02    0.3010278429E+02
141 1    0.3912680970E+02    0.4434145431E+02    0.4234755289E+02
142 2    0.3934885406E+02    0.4536583887E+02    0.4198859342E+02
143 2    0.3518093226E+02    0.3476982121E+02    0.3161342672E+02
144 1    0.2431650245E+02    0.3659670770E+02    0.3574526070E+02
145 2    0.2460573313E+02    0.3673195058E+02    0.3486113401E+02
146 2    0.2327184550E+02    0.3617708504E+02    0.3600184919E+02
147 1    0.2510211342E+02    0.3696660304E+02    0.3670197727E+02
148 2    0.2611236418E+02    0.3738459963E+02    0.3636250206E+02
149 2    0.2511376350E+02    0.3643728503E+02    0.3789662273E+02
150 1    0.2542747890E+02    0.3752613699E+02    0.3091355098E+02
151 2    0.2531473336E+02    0.3670502488E+02    0.3026821623E+02
152 2    0.2542111600E+02    0.3708267653E+02    0.3197240392E+02
153 1    0.3527444947E+02    0.4031454254E+02    0.3184943416E+02
154 2    0.3422935073E+02    0.2504386801E+02    0.3141162940E+02
155 2    0.3545259944E+02    0.4129537571E+02    0.3230278006E+02
156 2    0.3579258028E+02    0.3995042383E+02    0.3100751691E+02
157 1    0.2451820468E+02    0.3860112048E+02    0.3048606295E+02
158 2    0.2438873753E+02    0.3870577923E+02    0.2931798197E+02
159 2    0.2347456478E+02    0.3856722244E+02    0.3099353157E+02
160 2    0.2488434198E+02    0.3958582935E+02    0.3080068109E+02
161 1    0.4032403385E+02    0.2743620577E+02    0.3032952212E+02
162 2    0.4014004930E+02    0.2861880645E+02    0.3051434279E+02
163 2    0.4098625471E+02    0.2745179037E+02    0.2944311354E+02
164 1    0.4114373251E+02    0.2685577310E+02    0.3144919910E+02
165 2    0.4189485488E+02    0.2605822577E+02    0.3098343038E+02
166 2    0.4053704738E+02    0.2627182423E+02    0.3220836076E+02
167 1    0.4204483804E+02    0.2783161675E+02    0.3220299895E+02
168 2    0.4153823098E+02    0.2881851243E+02    0.3254556099E+02
169 2    0.4275382403E+02    0.2826888297E+02    0.3144217914E+02
170 1    0.4280257073E+02    0.2727032507E+02    0.3341942096E+02
171 2    0.4368199498E+02    0.2792195604E+02    0.3365623071E+02
172 2    0.4327307404E+02    0.2621223528E+02    0.3321786687E+02
173 1    0.4189337971E+02    0.4257641402E+02    0.3461221395E+02
174 2    0.4103099550E+02    0.4197458832E+02    0.3443413547E+02
175 2    0.4147592299E+02    0.2821177143E+02    0.3476950230E+02
176 1    0.4260515657E+02    0.4205889699E+02    0.3584720007E+02
177 2    0.4180734260E+02    0.4165463575E+02    0.3653418744E+02
178 2    0.4299306415E+02    0.4296824077E+02    0.3642469151E+02
179 1    0.4376669824E+02    0.4096067059E+02    0.3581385035E+02
180 2    0.4423559148E+02    0.4089689038E+02    0.3682490901E+02
181 2    0.4458532551E+02    0.4145116463E+02    0.3521149463E+02
182 1    0.4354408651E+02    0.3948420697E+02    0.3545710642E+02
183 2    0.4319734323E+02    0.3890490823E+02    0.3623385719E+02
184 2    0.4454807189E+02    0.3905379989E+02    0.3526406109E+02
185 1    0.3898910846E+02    0.2678640253E+02    0.3034670579E+02
186 2    0.3824630529E+02    0.2759583447E+02    0.3024104246E+02
187 2    0.3879679984E+02    0.2621887776E+02    0.2942053082E+02
188 2    0.3884367751E+02    0.2601114652E+02    0.4642325354E+02
189 1    0.4271482560E+02    0.3903820023E+02    0.3423811663E+02
190 2    0.4196519928E+02    0.3973437180E+02    0.3415549702E+02
191 2    0.4329059590E+02    0.3894403426E+02    0.3340607734E+02
192 2    0.4242094062E+02    0.3796597362E+02    0.3442563381E+02
193 1    0.3645990381E+02    0.2831397979E+02    0.4315245973E+02
194 2    0.3718761826E+02    0.2888514031E+02    0.4393098526E+02
195 2    0.3589625187E+02    0.4462685966E+02    0.4268606372E+02
196 1    0.3716700439E+02    0.2753435706E+02    0.4213197376E+02
197 2    0.3650240665E+02    0.2722331958E+02    0.4126026999E+02
198 2    0.3773684863E+02    0.4212659637E+02    0.4263011039E+02
199 1    0.3830436781E+02    0.2834220700E+02    0.4138860469E+02
200 2    0.3979710136E+02    0.2855786845E+02    0.4297354625E+02
201 2    0.3770383420E+02    0.2906591602E+02    0.4078591259E+02
202 1    0.3909290436E+02    0.2758193527E+02    0.4026765284E+02
203 2    0.4016588814E+02    0.2804866783E+02    0.4009799852E+02
204 2    0.3860300535E+02    0.2768493053E+02    0.3934249586E+02
205 1    0.3956507634E+02    0.2603044468E+02    0.4054048610E+02
206 2    0.4010298736E+02    0.2581845558E+02    0.3968089303E+02
207 2    0.3866942764E+02    0.2541999714E+02    0.4031058122E+02
208 1    0.4030166822E+02    0.2577253017E+02    0.4174875841E+02
209 2    0.3981528032E+02    0.2608988674E+02    0.4262800734E+02
210 2    0.4127156413E+02    0.2627864988E+02    0.4166073276E+02
211 1    0.4054460128E+02    0.3954480543E+02    0.4195446276E+02
212 2    0.3968484100E+02    0.3876222948E+02    0.4168721637E+02
213 2    0.4057410752E+02    0.3948643145E+02    0.4311588406E+02
214 1    0.4162096046E+02    0.3902663399E+02    0.4111967595E+02
215 2    0.4200270123E+02    0.3810428429E+02    0.4167871219E+02
216 2    0.4259010631E+02    0.3969106298E+02    0.4103135413E+02
217 1    0.3532825656E+02    0.2766639998E+02    0.4381052317E+02
218 2    0.3472662533E+02    0.2839881952E+02    0.2912028915E+02
219 2    0.3453659926E+02    0.2723993427E+02    0.2784153759E+02
220 2    0.3559783367E+02    0.2681399184E+02    0.4447829707E+02
221 1    0.4121568744E+02    0.3860149036E+02    0.3974721793E+02
222 2    0.4109208409E+02    0.3949465098E+02    0.3913389877E+02
223 2    0.4214423980E+02    0.3812823686E+02    0.3930461306E+02
224 2    0.4028064683E+02    0.3809223367E+02    0.3969982186E+02
225 1    0.3102266758E+02    0.4585134977E+02    0.3510764266E+02
226 2    0.3067677393E+02    0.4564832941E+02    0.3621715317E+02
227 2    0.3168768571E+02    0.4679461258E+02    0.3508703943E+02
228 1    0.3206143710E+02    0.2948842331E+02    0.3467459286E+02
229 2    0.3301039955E+02    0.2992934638E+02    0.3457219255E+02
230 2    0.3181680705E+02    0.2916235824E+02    0.3366737341E+02
231 1    0.3198036779E+02    0.4358806037E+02    0.3561370829E+02
232 2    0.3108772401E+02    0.4289315451E+02    0.3551924942E+02
233 2    0.3178225052E+02    0.4406861709E+02    0.3666286329E+02
234 1    0.3316435374E+02    0.4262201642E+02    0.3569626594E+02
235 2    0.3356451435E+02    0.4262911472E+02    0.3666654912E+02
236 2    0.3406453910E+02    0.4312816549E+02    0.3526802000E+02
237 1    0.3328845298E+02    0.4115773087E+02    0.3531361246E+02
238 2    0.3437048396E+02    0.4092801519E+02    0.3539978324E+02
239 2    0.3303391403E+02    0.2576174902E+02    0.3425557888E+02
240 1    0.3252502947E+02    0.4021307714E+02    0.3620238068E+02
241 2    0.3142456320E+02    0.2508366203E+02    0.3610533450E+02
242 2    0.3266422536E+02    0.2521258849E+02    0.3728158435E+02
243 1    0.3269547673E+02    0.3871715648E+02    0.3589646318E+02
244 2    0.3375349037E+02    0.3839263832E+02    0.3601589179E+02
245 2    0.3232074535E+02    0.3856050253E+02    0.3485382087E+02
246 1    0.3181199121E+02    0.3790513324E+02    0.3690404323E+02
247 2    0.3167907367E+02    0.3683652580E+02    0.3649864234E+02
248 2    0.3086156776E+02    0.3844468751E+02    0.3692482265E+02
249 1    0.2981788748E+02    0.3058968701E+02    0.3428316346E+02
250 2    0.2900220487E+02    0.3065125332E+02    0.3498161878E+02
251 2    0.2979282052E+02    0.3158890578E+02    0.3375338334E+02
252 2    0.2967224043E+02    0.2974769025E+02    0.3368995085E+02
253 1    0.3239774727E+02    0.3790859495E+02    0.3826486867E+02
254 2    0.3195972238E+02    0.3715190664E+02    0.3884941371E+02
255 2    0.3346470571E+02    0.3760786076E+02    0.3829384988E+02
256 2    0.3219918283E+02    0.3892555536E+02    0.5406010204E+02
257 1    0.3868627795E+02    0.3507986852E+02    0.4291714206E+02
258 2    0.3835344383E+02    0.3611050255E+02    0.4269358881E+02
259 2    0.3801880514E+02    0.3479531206E+02    0.4367008995E+02
260 1    0.3873802465E+02    0.3393903896E+02    0.4177456572E+02
261 2    0.3911334888E+02    0.3301991463E+02    0.4216401522E+02
262 2    0.3934647959E+02    0.3423188282E+02    0.4099138948E+02
263 1    0.3733492570E+02    0.3356792092E+02    0.4120826961E+02
264 2    0.3691189836E+02    0.3437529230E+02    0.4054376294E+02
265 2    0.3658344736E+02    0.3341145172E+02    0.4195392740E+02
266 1    0.3753219597E+02    0.3223581700E+02    0.4042300425E+02
267 2    0.3751457339E+02    0.3132635824E+02    0.4113305587E+02
268 2    0.3844710005E+02    0.3215530069E+02    0.3985764166E+02
269 1    0.3646948998E+02    0.3198015580E+02    0.3931639461E+02
270 2    0.3690209594E+02    0.3237631586E+02    0.3831331662E+02
271 2    0.3549932601E+02    0.3245608650E+02    0.3944703925E+02
272 1    0.3623974273E+02    0.3050151113E+02    0.3911258225E+02
273 2    0.3591853166E+02    0.2997399633E+02    0.4002129449E+02
274 2    0.3729454254E+02    0.3017233707E+02    0.3892214121E+02
275 1    0.3531796542E+02    0.2986732637E+02    0.3808456147E+02
276 2    0.3568932228E+02    0.2881469231E+02    0.3793595392E+02
277 2    0.3549593322E+02    0.3026155981E+02    0.3707568269E+02
278 1    0.3379912391E+02    0.2958460320E+02    0.3835356800E+02
279 2    0.3361193345E+02    0.2898010287E+02    0.3928117261E+02
280 2    0.3352094248E+02    0.2890212500E+02    0.3752382004E+02
281 1    0.4006504458E+02    0.3520605925E+02    0.4362001624E+02
282 2    0.4028679193E+02    0.3428494203E+02    0.4419632412E+02
283 2    0.4085047552E+02    0.3554173171E+02    0.4301664465E+02
284 2    0.3989273352E+02    0.3608337507E+02    0.4425455932E+02
285 1    0.3283880303E+02    0.3077663848E+02    0.3850417419E+02
286 2    0.3249347874E+02    0.3108833669E+02    0.3754681444E+02
287 2    0.3204038834E+02    0.3034288305E+02    0.3909782900E+02
288 2    0.3321129007E+02    0.3152367672E+02    0.3918524574E+02
289 1    0.2879094176E+02    0.3523045713E+02    0.3583246158E+02
290 2    0.2805283877E+02    0.3501183605E+02    0.3499831630E+02
291 2    0.2912002137E+02    0.3636053748E+02    0.3591295789E+02
292 1    0.2793980216E+02    0.3492328838E+02    0.3716692206E+02
293 2    0.2746664381E+02    0.3392067029E+02    0.3716816886E+02
294 2    0.2709637553E+02    0.3559904702E+02    0.3731008039E+02
295 1    0.2881888658E+02    0.3505304168E+02    0.3845278648E+02
296 2    0.2901945559E+02    0.3609642031E+02    0.3865938097E+02
297 2    0.2983780879E+02    0.3463439042E+02    0.2286319158E+02
298 1    0.2826227162E+02    0.3445074465E+02    0.2438466585E+02
299 2    0.2755927389E+02    0.3351099234E+02    0.3964202422E+02
300 2    0.2751372909E+02    0.3526123048E+02    0.2471957096E+02
301 1    0.2932577785E+02    0.3432668064E+02    0.2548843170E+02
302 2    0.2885912603E+02    0.3444672654E+02    0.2663153329E+02
303 2    0.3007009713E+02    0.3518652753E+02    0.4080163376E+02
304 1    0.3016492915E+02    0.3313205302E+02    0.2541610748E+02
305 2    0.3060323617E+02    0.3301390060E+02    0.2442918932E+02
306 2    0.2956556521E+02    0.3217561371E+02    0.2563785343E+02
307 1    0.3132025761E+02    0.3298929144E+02    0.2639229107E+02
308 2    0.3170449525E+02    0.3201371766E+02    0.2618935781E+02
309 2    0.3104098021E+02    0.3279981168E+02    0.2743351473E+02
310 1    0.3239805431E+02    0.3407199309E+02    0.2630572366E+02
311 2    0.3322423563E+02    0.3378176449E+02    0.2703545562E+02
312 2    0.3204113715E+02    0.3492265068E+02    0.2682273896E+02
313 1    0.2995699402E+02    0.3428916196E+02    0.3568346081E+02
314 2    0.2966021995E+02    0.3332244932E+02    0.3596722652E+02
315 2    0.3016538051E+02    0.3430428805E+02    0.3465347206E+02
316 2    0.3084490244E+02    0.3466358127E+02    0.3620571876E+02
317 1    0.3296477707E+02    0.3430983978E+02    0.2493020001E+02
318 2    0.3227137938E+02    0.3447852127E+02    0.2413742064E+02
319 2    0.3362281785E+02    0.3522170285E+02    0.2481811757E+02
320 2    0.3357507034E+02    0.3343157635E+02    0.2446896749E+02
321 1    0.3363430036E+02    0.3360349856E+02    0.1927486848E+02
322 2    0.4181543764E+02    0.3757825717E+02    0.1539727392E+02
323 2    0.3311443964E+02    0.3451247213E+02    0.1964581446E+02
324 1    0.3328437369E+02    0.3317692168E+02    0.3315964791E+02
325 2    0.3259184466E+02    0.3222468464E+02    0.3326362670E+02
326 2    0.3426114965E+02    0.3280296376E+02    0.3269871129E+02
327 1    0.3257189430E+02    0.3414828803E+02    0.3220157782E+02
328 2    0.3320757712E+02    0.3493567544E+02    0.3173869372E+02
329 2    0.3198234569E+02    0.3485870869E+02    0.3286215396E+02
330 1    0.3170356146E+02    0.3331458758E+02    0.3125885447E+02
331 2    0.3080951241E+02    0.3385195668E+02    0.3092367774E+02
332 2    0.3126602447E+02    0.3254500562E+02    0.3192383107E+02
333 1    0.3241910695E+02    0.3271265690E+02    0.3002529064E+02
334 2    0.3305626949E+02    0.3347154642E+02    0.2958201053E+02
335 2    0.3169787801E+02    0.3235597503E+02    0.2927564466E+02
336 1    0.3334012480E+02    0.3155128102E+02    0.3031437104E+02
337 2    0.3420125945E+02    0.3184420406E+02    0.3101467917E+02
338 2    0.3384779283E+02    0.3141573251E+02    0.2932898655E+02
339 1    0.3268576792E+02    0.3021234996E+02    0.3081438739E+02
340 2    0.3195284954E+02    0.2984889027E+02    0.2998984211E+02
341 2    0.3203891671E+02    0.3056850095E+02    0.3165670626E+02
342 1    0.3362006000E+02    0.2909173926E+02    0.3133732291E+02
343 2    0.3406675734E+02    0.2938105562E+02    0.3235574031E+02
344 2    0.3448320414E+02    0.2900322689E+02    0.3069774428E+02
345 1    0.3457424682E+02    0.3303492247E+02    0.2025491318E+02
346 2    0.3558543958E+02    0.3354798126E+02    0.2005381400E+02
347 2    0.3435069745E+02    0.3334158125E+02    0.2127757163E+02
348 2    0.3457342754E+02    0.3191024784E+02    0.2015309206E+02
349 1    0.3290455905E+02    0.2768311396E+02    0.3138007620E+02
350 2    0.3245017545E+02    0.2744541062E+02    0.3040913043E+02
351 2    0.3359828265E+02    0.2692046581E+02    0.3188304932E+02
352 2    0.3204432663E+02    0.2781491347E+02    0.3201169626E+02
0.0000000000E+00    0.0000000000E+00    0.0000000000E+00
0.1532620600E+02    0.0000000000E+00    0.0000000000E+00
0.0000000000E+00    0.1532620600E+02    0.0000000000E+00
0.0000000000E+00    0.0000000000E+00    0.1532620600E+02
}
Driver = VelocityVerlet {
  Steps = 50000
  TimeStep [fs] = 0.2
  MDRestartFrequency = 5
  Thermostat = None {}
  Xlbomd = {
    IntegrationSteps = 6
    MinSccIterations = 2
    MaxSccIterations = 200
    SccTolerance = 1e-6
    PreSteps = 0
  }
  Velocities [AA/Ps] = {
2.37386294 6.45026925 3.29275886
2.44256832 -30.41389548 -18.08585602
10.80576899 -50.89065184 34.16930859
-7.47458842 -1.08031112 -5.37315416
-18.59748137 -11.15637617 -19.62930505
1.69739966 10.67192004 -15.24701904
-1.67669241 -6.50137791 0.86326657
19.41931021 7.01727685 25.30705537
10.56485887 1.09854979 4.45074997
-0.57577935 -7.25398803 9.83745441
2.19785562 -2.67060520 11.69049423
-18.19275786 46.66934757 -20.16043168
-5.85277549 11.23052282 -0.54347335
-3.84752996 7.84505662 -14.43025802
-34.99899281 -32.98884085 -10.70195265
5.00941571 -1.96457310 -1.27716253
-30.36775926 -5.71110983 1.83627334
0.89346427 -19.65757829 -7.79788310
0.13328372 1.44900424 -10.99434034
-12.66122795 21.22588266 13.70948803
-27.41161813 -30.84261580 -37.57998628
-6.83065273 -0.53406032 3.58057401
-3.45529133 -8.49412037 12.08324378
-0.06131415 9.86356107 12.52354193
-7.09311170 -11.62947162 1.80850416
6.16729500 -30.50975605 5.56056394
-20.68652389 -14.63303246 -50.96108735
22.32094031 -12.56191590 12.36711045
-12.99348062 0.47559934 8.75075517
28.09909646 4.36907140 -0.91841738
11.42163544 -4.30346345 -1.58734668
12.84378845 41.57552142 22.76836373
9.94012321 9.74406059 -2.17867830
5.43891541 -10.37584053 -7.55435186
8.36820570 15.95521063 -28.42293388
-3.73056500 -3.65978731 13.12953411
2.51624682 20.72294157 -29.02126631
-30.59407027 -23.51100108 -5.58449808
-1.07112865 5.42916777 -2.75254088
-14.61452809 2.64896396 10.20787313
9.40182952 -13.10185449 -13.20918473
1.25574109 -8.15388742 -0.21578122
-14.44605384 -2.74055498 30.05435391
28.03429707 43.31180080 2.05532768
2.66833949 -4.88578528 9.81503084
-25.52311089 -3.75370554 9.68008989
8.84831871 7.24065035 -18.78967003
3.84360669 -5.13759909 2.56093299
-12.12078968 -4.15052496 -19.89953010
54.20809196 23.25348665 -22.14856875
3.16055087 -9.99405437 3.32477999
3.02644711 -10.70862838 41.60678382
-21.90611895 2.32231810 -13.67853781
-7.67183453 -3.41980857 -3.45023827
-23.68866576 19.87940704 -3.41940986
-3.12787903 -41.29884743 28.08765530
1.85383648 6.44046165 0.72858607
9.19948136 -9.03187396 -14.73467669
2.00450850 -30.91892085 6.30450042
-25.91914233 -16.38674515 -10.40761365
1.34311553 -0.04379620 6.20294689
16.67028552 -17.22608695 24.68866901
-21.92802894 17.54216279 -0.52275542
-3.77794830 11.94508626 -30.07961789
3.85854005 4.70840402 -5.84985542
-11.67799490 -25.66312189 28.67105538
-23.58622582 8.93171635 20.96611410
-7.53310626 0.81796878 9.27561040
-0.72146792 14.51763855 -20.59464293
-20.41453329 32.22965287 5.17199472
-0.33272329 1.16573587 -5.88698709
15.20188352 -14.23874400 -27.23432306
-23.99504957 -20.43377883 44.74170464
3.54888071 2.23583521 1.14375021
-8.76937032 20.54085315 -8.83565231
5.57813144 29.24464898 10.25717660
-6.29377024 -2.51585937 -2.09496370
3.76866201 8.81643592 29.55912713
-28.18216978 10.25248919 15.63783665
-7.95808931 6.43418715 -4.04707018
-11.49384167 -36.70653458 -10.37035504
-32.03964926 0.63859899 -1.73671867
3.73956462 3.03205809 11.24044077
-24.39350606 23.02957022 2.92631019
-30.55663820 8.15133413 -41.44826909
6.31796417 4.52204154 3.87122876
6.60188239 0.07261116 -17.66145463
-26.14957735 -19.70543769 10.78433133
-2.36784018 4.68635811 -2.54970778
4.83644762 16.55285123 -8.80232448
-9.19710885 -21.08292750 3.02651366
-2.47116049 13.24272443 -4.95270628
1.31502281 3.09143198 -10.22104346
-2.26875547 3.34655096 13.49732792
10.87762645 -14.52682154 6.33985480
47.55954361 6.74762180 42.86303081
2.39340711 8.07879699 -3.78977882
-26.62192399 13.51734319 0.98243889
-17.57758723 2.93963240 14.65511918
0.07355735 2.75233637 5.20754925
0.14478567 -10.71847173 7.03063784
26.15287817 4.52391235 15.05635217
6.25087645 -0.36304878 -7.33712112
-16.86375470 4.02496768 -31.19881894
16.85546245 3.28687814 -9.73701007
-10.23249997 2.51911226 9.42744426
-1.71583821 29.64683703 49.01200928
-25.86592930 -10.11712883 -7.18008561
-2.05939560 -1.31796465 -1.55681537
-16.06111253 21.35452455 -30.07907134
15.37400109 22.06069696 22.30075012
-5.15572892 -2.56528243 -4.21410358
23.31004441 16.19911198 -30.85553733
-17.32583474 27.78323132 43.68335956
-5.51556209 4.08578075 0.68641307
11.33506903 19.34662381 19.07496140
16.82624035 -27.22402242 -24.26976207
-5.67472027 9.73683637 3.17287964
-34.59433297 -6.00335585 -20.35767312
11.51651206 -17.64470296 -0.71752418
5.00866270 -4.26044329 2.43445675
-14.18132151 -6.30513771 6.39014808
13.28794503 31.76725462 33.27639019
4.20407436 3.42961823 -18.65419761
0.57651991 -3.52246257 -10.23371445
9.55634779 -10.15464795 6.40948935
-25.92148837 5.48769046 -2.07658258
-35.89862701 -4.55005848 -36.63377912
-5.76128973 0.84849552 -11.93505273
-17.30761922 -12.15690264 -2.29744811
9.24208516 -45.25483515 50.36622280
9.46848392 -1.68961666 -4.72866555
22.71543965 -45.86074231 51.35440796
16.80358641 27.11353968 6.07193434
-3.68303014 -2.46420907 5.53421358
-16.02040165 -7.70430787 -23.93233443
-21.51499668 30.24512186 4.27661644
14.87359892 5.97367638 -0.05825670
7.20111786 -9.41008328 -33.98127739
31.90480654 68.84759173 -28.12411132
-0.31516612 -1.06467240 7.98709481
-33.41801665 18.26761674 -8.02938215
-6.09639195 -54.40297832 25.88751326
4.87969277 -5.66613197 -11.50948617
19.91337122 20.56965437 53.44292128
-22.64405407 -36.76948951 2.17426092
-14.66386757 1.14894663 -12.17843087
55.32212525 8.53316975 26.00247570
30.16591622 42.54820621 17.96874325
-10.43404250 0.14602173 -9.90064353
26.63287275 12.18228053 9.99254592
12.54710529 -10.54535122 -45.90493716
5.98029814 1.05402636 -5.85951024
19.98124660 10.60031049 30.37534810
-24.57541487 -14.98099886 12.48513777
-39.25819846 2.78509223 0.91711081
-1.70551247 -12.52230967 -1.38923230
45.15892021 2.40564565 -3.26686804
-22.57260533 26.39772576 16.51373696
49.54792110 2.46381940 -7.01684911
1.04832096 -6.55374558 0.62681479
-38.08334453 0.32669520 -6.14670115
-0.09923532 30.78702717 -14.42397775
2.18777472 -2.23026125 1.80730125
-21.93983384 -5.48220951 -0.68108406
25.56027434 14.42347915 30.85642469
-3.13708402 -2.11985048 -9.87500947
-1.42883148 9.71358591 -0.01265180
37.65354752 16.97275341 2.35876526
-4.93189309 2.75417278 8.42631870
-34.24564538 1.11694032 -6.69120332
38.52682658 18.79295078 28.23710169
-0.79410030 -7.42931293 3.71023425
-20.73565714 -6.57010896 -4.19260894
8.15182269 -15.12608836 -31.47978390
-3.68992841 5.17321925 -11.86304293