Geometry = GenFormat {
<<< "system.gen"
}

Driver = VelocityVerlet{
  Steps = 100000
  TimeStep [fs] = 0.2
  MDRestartFrequency = 5
  Thermostat = None {
    #InitialTemperature [Kelvin] = 300.0
  }
  Xlbomd{ 
    IntegrationSteps = 6 
    MinSccIterations = 2
    MaxSccIterations = 200
    SccTolerance = 1e-6 
  }
  Velocities [m/s] {
      3.84333277E+02     -2.37952496E+02      5.85199881E+01
      3.20446294E+03     -4.18022720E+02      3.56132780E+03
     -9.52616031E+02      3.80931914E+01      5.77112269E+02
      4.06125684E+02     -7.40080872E+02      2.67915828E+01
     -1.34264092E+03      2.10523494E+02     -4.00768028E+03
     -1.80692485E+03      3.04889878E+03     -3.57133288E+02
      3.29942504E+01      5.09023111E+02     -1.25004802E+02
      5.28970035E+02      1.70074607E+03     -1.28481782E+02
      4.21590133E+02     -1.46343538E+03     -1.28267950E+03
     -1.87157719E+02     -8.02587382E+02      4.12094232E+01
      8.90649007E+02     -1.97065508E+03     -1.07536077E+03
      2.13454105E+03     -4.82869030E+02     -1.69865996E+03
      3.81867328E+02     -1.00861778E+02      4.90109810E+02
      1.99224388E+02     -1.06305738E+03      1.76583608E+02
      1.06581481E+03      5.32925788E+03     -3.39759353E+02
      4.13828699E+02     -7.28786731E+02      3.43215320E+02
      1.99146668E+03     -1.08205469E+03      1.56121656E+03
      4.93999358E+02     -1.48773354E+03      7.26861069E+02
     -3.07805887E+02     -2.10866393E+02      1.96151007E+02
     -1.56268798E+02      1.18626467E+03      2.00883632E+02
      2.01176424E+03     -5.45610760E+00     -1.80356068E+03
      4.57011913E+02      4.73307586E+02     -1.89508156E+02
     -7.44580553E+02     -2.57982035E+03     -1.34973266E+03
      3.46000858E+03     -3.40584149E+02      2.39127123E+03
      1.34439254E+03     -7.60806852E+01     -7.50038643E+02
      1.65466929E+03     -3.71369618E+02      2.74210638E+02
      1.41819436E+03      2.39878842E+03      5.19300315E+02
      7.24320405E+02     -3.83107928E+02     -2.37106598E+03
     -1.47316493E+02      2.13129288E+02      7.92748370E+02
      1.66900848E+03      1.67056270E+03      6.60481430E+02
     -5.30570544E+02     -8.10891424E+02     -1.14595243E+03
     -7.53164112E+02      9.96023909E+02      8.36837315E+02
      8.20714726E+02     -5.44843808E+02      4.84600328E+02
      1.19095630E+03     -8.84499268E+02      1.53592481E+03
     -1.06654111E+03      7.83292203E+02     -2.94631131E+03
      1.24435080E+02     -4.53043964E+02     -4.75546221E+02
      4.80222584E+01     -4.38454190E+02     -6.34821141E+02
     -3.85667451E+02     -1.84189208E+03      2.46349462E+03
     -8.37496475E+01     -1.11717626E+03      2.87718697E+02
     -3.26884115E+03     -2.92546229E+03     -4.00083714E+03
     -1.20290273E+03      2.84404015E+03     -6.62387422E+02
      1.17463263E+03     -2.17937389E+02      6.29355022E+02
     -1.01527543E+03      7.22516338E+02      3.31623706E+02
      1.17591325E+03      5.21671746E+01      2.26745212E+03
      5.47268031E+02      9.90260257E+01      3.21107946E+02
      2.50427670E+03      2.98802968E+03      1.16230968E+03
     -1.27060176E+02     -8.73187609E+02      1.86808715E+03
      4.66951242E+02      4.22161766E+02     -9.75038737E+02
     -9.54834647E+02      2.02856914E+01     -1.72611386E+03
      3.01613179E+03     -1.50918647E+02     -3.48056176E+02
      7.28375759E+02     -6.39954041E+02     -1.46646156E+02
      4.21631606E+02      1.98358649E+03      1.19242831E+03
      9.73152000E+02     -7.38666591E+02      1.28670827E+03
     -3.33933655E+02      1.94946303E+02     -5.98330037E+02
      5.95773458E+02      2.37402849E+02      3.20028276E+03
     -1.31516270E+03     -2.05232940E+03     -8.39559310E+02
      7.70112339E+01      1.33704412E+02      2.33716053E+02
      7.44207492E+02     -5.04210930E+02     -3.02690281E+02
     -2.94262736E+02     -2.41013158E+01      1.06550000E+03
      3.38788362E+03      3.27240625E+02     -2.31216213E+03
      3.13950217E+02     -9.68294860E+02      6.48804848E+02
      5.21930983E+02     -2.41702614E+03      1.61227754E+03
      3.08272318E+03      2.31035211E+02     -6.68834772E+02
     -2.50355552E+02      2.17747496E+02      8.60787704E+02
      1.22750401E+02      4.73160512E+02      8.82694291E+02
      1.21922706E+03      2.49875364E+03      1.06265682E+03
     -4.79296659E+03      3.97315547E+02      2.33930914E+03
     -6.42745575E+02     -4.80741719E+02     -4.88391342E+02
     -7.59397336E+02      4.22106247E+02      6.19232099E+02
     -1.03491921E+03      1.18772883E+03     -1.65928478E+03
      9.26380512E+02     -7.42581364E+01      1.05456610E+02
      6.75608213E+02      9.85567967E+02      5.85074692E+02
      2.71043284E+03     -4.70444510E+02      1.53964725E+03
      3.59168682E+02      3.51106626E+02     -3.39971102E+02
      3.11786499E+02      2.59247929E+03     -4.78264195E+02
      1.22010320E+03      7.30933658E+02     -2.54050910E+03
      1.33162099E+02     -2.75791309E+02      9.75884168E+02
      1.99223576E+03     -1.73328941E+03     -1.30925778E+03
      3.58697019E+03      1.33752314E+03     -1.55620385E+03
      1.81389886E+02      3.25953607E+02     -1.28104792E+02
      1.41486716E+03      1.22053986E+03     -2.55267395E+03
      4.76822042E+02      9.94654842E+02      3.74522517E+02
      2.99751377E+02     -5.90914426E+02      5.16980960E+01
      1.49132576E+03     -2.66570090E+03     -1.04068130E+03
     -5.70144832E+02     -6.24058680E+02     -1.11918951E+03
     -2.23614437E+02      5.19613620E+01     -7.68916354E+01
      7.20129409E+02      1.42984590E+03     -1.09783772E+03
     -9.28035222E+02     -2.34288853E+03     -1.63591399E+03
     -3.79073459E+02     -4.53157689E+02     -3.42485074E+02
     -2.69818009E+03      3.33851814E+02     -2.15516896E+03
      2.21475346E+03      2.57187768E+03     -1.87921742E+03
      1.24573645E+03      3.81344185E+01     -1.43605852E+03
     -2.70337125E+02     -2.21452087E+02     -5.76867615E+02
     -9.89999119E+02     -3.99454416E+02     -8.88724165E+02
      2.04730982E+03     -4.80696731E+01      8.80543852E+02
     -9.93940326E+02     -1.13977792E+03      1.94870654E+03
      5.89264328E+02      1.14276574E+02     -6.25482526E+02
     -1.33377298E+03      2.00795833E+02     -4.15495842E+03
     -3.94217283E+01     -1.51898458E+03     -1.35050490E+03
      2.73515551E+02     -4.96851277E+02     -6.94541954E+01
     -4.30308399E+02     -4.51498129E+02     -1.33177399E+02
      7.38758015E+02      6.51498982E+02      2.55577676E+03
     -6.62297478E+02     -2.25261778E+02      7.62271346E+02
     -1.59550690E+03     -1.16042400E+03      1.14977635E+03
      1.62020145E+03      2.43362075E+02     -3.24652525E+02
     -1.45883675E+04      9.33832358E+03      3.86795160E+03
     -1.41806835E+03     -7.75168020E+02      1.11171470E+03
      4.09133128E+01     -8.72920612E+02      1.38560514E+02
      2.91948833E+02      4.55726603E+02     -1.16892172E+01
      3.23544633E+01     -1.38125695E+03      2.26501568E+03
     -1.44759470E+03     -2.63733449E+03      1.78784114E+03
      2.08815627E+02     -3.74468431E+02     -3.25324410E+01
     -1.35923374E+03     -8.73043023E+02      1.43354914E+03
      1.25295007E+03      8.12258894E+02      2.25252165E+03
     -4.68314780E+02      7.71865973E+02      1.58642145E+02
     -8.65479984E+02     -2.21261389E+03     -3.12821560E+02
      1.07831570E+03      1.00173104E+03      2.06753567E+03
     -6.25466747E+02      2.29555459E+02      2.79563166E+02
      2.44551936E+03      1.40815665E+03     -5.37131712E+02
     -1.77446518E+02     -4.77454345E+01      3.14944106E+03
      1.11859058E+02     -1.00264028E+03      3.53904044E+02
      2.03722228E+03      2.40191495E+03     -1.30790509E+03
      1.02169782E+03     -2.63082321E+03      1.00295955E+03
      9.10497646E+02     -1.60216848E+03      8.22634196E+02
      3.38777400E+02     -9.64637298E+02     -4.27670919E+02
      9.28007716E+02     -5.84727974E+02     -7.35936171E+02
      1.00385099E+03     -5.32690916E+02     -2.12795124E+03
      2.10170444E+03      2.95735398E+02     -9.50511823E+02
      6.58786208E+00      8.90317547E+02     -1.88818007E+02
      7.21541950E+02      2.37324935E+03      1.83850193E+03
     -1.00964046E+03     -1.03661890E+03     -1.11984192E+03
      6.87902311E+02      3.14023433E+02      2.20487719E+02
     -2.59272654E+03     -3.89213068E+02      4.67725236E+02
     -1.95740366E+03      7.77401365E+02     -3.35317054E+02
     -2.34655190E+02     -4.78595684E+02      1.72958366E+02
      3.48518277E+02      1.42604313E+03     -9.80980026E+02
     -7.78353447E+02     -1.01038977E+03      1.83410941E+02
      5.55411259E+02      7.13868060E+01      4.59809889E+01
      1.49453785E+03     -1.60755703E+03      1.86972709E+03
      1.16790079E+03     -3.82549412E+01     -9.74109138E+02
      6.22317765E+02     -7.85897190E+02      2.67096948E+02
     -1.10698208E+03      1.53556063E+03     -5.84400566E+02
     -2.22292327E+03     -1.28936418E+01     -1.32313505E+02
      1.88262250E+02     -5.11584172E+02     -2.69490088E+02
      9.95382649E+02     -1.08600884E+03     -8.76559935E+02
     -2.11120342E+03     -1.04302759E+03     -9.85924981E+02
      3.95702113E+01      1.41105183E+02     -2.21447968E+02
     -5.86808518E+02      3.61006233E+02     -9.27983131E+02
     -2.04428496E+03     -1.51647290E+03      2.98988295E+02
      5.15126979E+01      2.28393089E+02      3.90689180E+02
      1.45109610E+03      4.65537444E+02     -1.79472257E+03
      1.08084174E+02     -2.36201529E+03     -4.82722107E+02
     -1.63638414E+02      6.45235756E+01     -2.61684506E+02
      2.21156543E+03      7.08830606E+02      2.00762334E+03
     -1.72195170E+03      1.13340266E+03      7.19500144E+02
      2.10490229E+03      5.59808505E+02     -2.17686403E+03
     -2.03646732E+02     -3.57649469E+02     -7.98952382E+02
      8.77585786E+00      2.97652919E+02     -2.77403470E+03
      3.37626049E+03      8.45139095E+02      4.46467695E+03
      3.93641535E+02     -5.89607689E+02     -2.09471540E+02
     -8.03367294E+02     -2.80669649E+00      6.33314178E+01
      2.17553163E+03      3.04254008E+03      1.49771298E+03
     -1.65686870E+03     -8.18470840E+02      4.92893832E+03
     -2.46653676E+02      4.38443674E+00      5.17270665E+02
     -1.64798294E+03     -2.16313723E+03     -2.69141601E+03
     -1.89205938E+02      2.98421035E+03     -3.43569102E+02
      2.98286238E+02     -4.75502401E+02      3.97466005E+02
      1.41343316E+03     -1.50825862E+03      8.43850811E+02
      9.77636315E+02      8.81156993E+02      6.79464320E+02
      6.85878182E+02      3.10614060E+02     -7.50072435E+02
     -1.31076298E+03      1.17177398E+02     -3.27201578E+03
      1.96091454E+02      7.25411535E+02     -3.50501408E+02
     -5.83370477E+02     -8.30660055E+02     -2.02309021E+02
     -1.17530136E+03      3.10271008E+03      4.33733102E+02
      8.48112097E+02      4.09853419E+02      1.74133187E+03
     -2.89687898E+02     -2.47526968E+02     -4.43715676E+02
     -1.36512504E+03     -5.56400231E+03     -5.62486002E+02
      1.18232144E+03      9.11310623E+02      1.10802681E+03
      7.97773407E+02      1.80915734E+02      2.95336575E+02
     -1.57792513E+03      9.71746916E+02      1.84236902E+03
      5.85977152E+01      1.14937536E+03     -1.26664751E+03
      1.10280996E+02      4.51822216E+02     -3.51952689E+02
     -1.60350760E+03     -3.58868805E+02      7.54409249E+02
      4.02563629E+03     -3.23895976E+03      4.53175066E+02
      1.43923084E+02      7.08017021E+02      5.67713641E+02
     -1.23851911E+03      1.92593240E+03     -2.12065975E+02
     -2.48978803E+03     -1.08471892E+03      5.37558387E+02
     -2.15083656E+03     -6.02837294E+02      4.82699323E+01
      5.69565800E+02      9.54543871E+01      3.75193938E+01
     -1.11793362E+03     -1.09101250E+03     -4.86089820E+03
     -9.71482358E+02     -5.96777738E+02     -3.24200331E+03
     -1.68658056E+03      3.30760851E+03      2.71116971E+03
      7.37807726E+02     -8.33797318E+01     -2.33565440E+02
      1.00653087E+03      4.84095441E+02     -2.96119044E+03
      4.22747026E+03      4.14680175E+03      2.06113399E+03
     -5.27023263E+02      2.59547786E+02      2.08209597E+02
     -3.14962986E+03      8.31716390E+02      1.87752950E+03
      1.30881396E+03     -2.16653290E+03      3.39846171E+03
     -2.20831836E+02     -7.83586506E+01     -2.23425121E+02
      1.19490491E+03     -2.04101227E+03     -9.91499370E+02
     -4.44283026E+03     -6.37745801E+02     -6.64666361E+02
      5.98371327E+02     -3.27814594E+02     -4.32546059E+02
     -2.51113433E+03      8.28052484E+01     -2.12779616E+03
     -1.66116052E+03     -1.80302130E+02     -1.85801090E+03
     -1.84902022E+02      2.24135249E+02      4.40311440E+02
     -7.98977360E+02     -1.53678228E+03     -6.23788487E+02
     -1.06344279E+03      2.27049298E+03     -3.11599787E+03
      3.08420074E+02      5.11079497E+02     -7.41013924E+01
      1.40349329E+03      2.32283024E+02     -2.76096096E+03
     -1.32206879E+03      1.66677346E+02     -1.60300950E+03
     -5.05582690E+02     -3.26190987E+02     -7.68137387E+02
      1.44793514E+03     -1.63008845E+03      7.56771654E+02
      2.76400501E+03     -5.27734615E+02     -1.74344547E+02
      4.00520513E+02      2.06059076E+02     -2.22238395E+02
     -1.80138013E+03     -1.06418869E+03      1.67135409E+03
     -5.41537340E+02     -2.70736211E+03      5.42968338E+02
      1.71597735E+02     -1.03626343E+02     -5.86674955E+02
     -7.56407766E+02     -1.01190894E+03      1.32474932E+03
     -4.00590684E+02     -2.51040507E+01     -5.08356283E+02
     -1.09427815E+03      1.60196806E+03     -1.93546353E+03
     -3.95728189E+02      2.89801065E+02      1.10327661E+02
     -1.27929103E+02     -3.94997285E+02     -2.11854383E+03
     -1.12159542E+03      1.56004534E+03      9.83798382E+02
     -3.03829948E+02      1.18494559E+02      3.44565881E+02
      7.35176748E+01      3.54743976E+00      1.49900345E+02
     -2.38795345E+03     -1.84382228E+03     -2.46469162E+03
      1.90370222E+03     -3.84621517E+02     -1.29939400E+02
      7.23204224E+02      4.14907499E+02     -9.63875833E+01
     -2.12118293E+03     -1.11864036E+03      1.01867266E+03
     -7.83574620E+02     -2.21136476E+02     -1.24308695E+03
     -2.78292753E+02     -9.00894819E+01      1.72156074E+02
      4.47055917E+02      1.68200461E+03     -1.68974197E+02
      9.87497442E+02     -9.62117063E+02      2.18371324E+03
      2.18535668E+02      6.06472296E+02      4.97450816E+02
      2.70026673E+02      1.22471938E+02      5.07522455E+02
     -1.08487003E+03      1.53845782E+03      2.93572375E+03
      8.30560873E+02     -1.55721366E+03     -6.22632808E+02
     -1.58253386E+03     -7.84385848E+02      2.93238891E+03
     -9.52576113E+02     -3.11935762E+03     -2.03074118E+03
     -3.16586756E+02     -7.45352952E+02     -7.77292540E+02
     -2.52872241E+03     -8.52000328E+02     -5.68670721E+02
     -7.86319903E+02     -2.58881167E+02      7.39347077E+02
     -2.77246497E+02     -5.89239650E+02     -5.92027854E+01
      1.66893501E+03      4.95364803E+02     -1.40393127E+02
      1.86453409E+03     -3.22489055E+02     -2.06839257E+03
      6.54895208E+01     -9.27971538E+00     -5.49219584E+02
      3.91945252E+02     -9.55500169E+02     -7.74681881E+02
     -1.96632973E+03      8.09041681E+02      8.17245704E+02
     -2.21116967E+02      2.76013849E+02     -4.46124105E+02
     -6.47542831E+02     -2.69058413E+03     -1.58685125E+02
     -1.56530333E+03     -2.19350982E+03      7.26412837E+01
      2.32002891E+03     -1.68535885E+03      3.05359754E+02
     -1.29504105E+02     -7.07834203E+02      1.76730313E+02
     -2.01937742E+02     -8.38380262E+02     -7.94598689E+02
      8.04568694E+02      2.17360346E+02     -1.18405668E+03
      1.64203646E+03     -1.25137961E+03      1.42220957E+03
      5.91914017E+02     -6.20771180E+02     -5.96204144E+02
      1.09193165E+03      2.08980981E+03      7.12639315E+01
     -8.31837387E+02     -2.94578954E+03     -4.89708881E+02
      8.27997524E+01      1.18436876E+02     -4.16691097E+02
      1.05812821E+03     -1.69195492E+03     -6.54697052E+02
      1.61617375E+03      9.59728203E+02      1.11222789E+03
      1.61254535E+01      8.76385308E+00     -2.06285320E+02
     -2.19151258E+03     -8.76181570E+02      4.06167830E+01
     -2.06540334E+03      1.34678618E+01      6.53627669E+02
     -2.84336748E+02      3.10158890E+02      5.52849196E+02
      1.34220216E+03      1.26577152E+03     -5.82336428E+02
      1.00274359E+03      4.25225254E+02      3.05667490E+03
     -3.17283929E+02      7.16660058E+02      2.50019238E+02
      1.34754249E+02      1.48350292E+03     -5.64237029E+02
     -1.96125689E+03     -1.42591067E+02      1.16509751E+02
     -3.77429758E+02      1.64126196E+02      3.31884938E+02
      2.74031600E+03     -1.20356289E+03      1.00906596E+03
     -4.71275685E+01      4.60906457E+02     -3.01384886E+03
     -6.99415049E+02      1.88228742E+02     -6.87675362E+02
     -2.01089159E+02      1.03174707E+03     -7.87382496E+02
      8.80617059E+02     -1.05283017E+03     -9.64332823E+02
     -4.13871027E+02     -8.19258388E+02     -4.80805682E+02
      1.17722061E+03     -1.71159342E+03     -1.49993842E+03
      1.78714782E+03     -4.82072468E+02      1.93699132E+03
      3.98788510E+02      7.27396038E+01      2.55584183E+02
      6.74162674E+02     -2.57807868E+02     -1.04332661E+03
     -1.49023325E+02      2.51636168E+02     -1.26326928E+03
      1.59461671E+03      1.00670217E+03     -7.14765951E+02
     -3.59192395E+02     -5.53032398E+02     -1.65302511E+02
      9.03336902E+02     -1.60448490E+02      8.75035756E+02
      3.63756483E+03     -9.93875442E+02     -1.47621518E+03
      2.30452092E+03      6.55442244E+01     -4.63683628E+02
      4.13276197E+02      4.01901056E+02      3.58920192E+02
      3.10969140E+02      1.40058082E+03     -1.52927766E+03
     -1.74038784E+03      2.27556513E+03     -1.04155603E+03
      4.39374148E+02      2.47817360E+02      3.54713789E+02
      7.24832975E+02      1.09962862E+02      2.07407554E+03
      2.41126677E+03      2.06013103E+02     -2.38117692E+02
      5.60820555E+02     -5.13997611E+02     -9.40310451E+01
      2.87198158E+02     -2.79232498E+03      9.03226578E+02
      1.34381736E+03      1.03353477E+01     -1.43404517E+03
      9.78014556E+00      2.39345644E+02     -2.74820693E+02
     -1.14935623E+03      3.29176752E+03      2.17174880E+03
      1.74848904E+03     -4.32595354E+03      2.21087675E+02
     -9.14475491E+02      7.02329218E+02     -3.09938381E+01
     -3.17171141E+02     -5.19232663E+02     -2.63339161E+03
     -5.76250169E+02      1.93321870E+03      4.14976312E+02
      1.25399742E+02      4.58186887E+02      1.91635960E+02
     -1.38457618E+03      2.11958730E+02      1.77749358E+03
      3.00063902E+02      3.91055900E+02      1.93381592E+02
      2.86544575E+02     -5.88939331E+02     -5.61631620E+02
      1.57066293E+03      3.66904267E+02      1.06929555E+02
      7.08071480E+02     -7.25057592E+02      4.28574436E+03
      1.88052017E+02      6.39433055E+02      2.43932042E+02
     -1.84454618E+03      8.47604489E+02     -2.46873356E+02
      1.55827081E+02      6.22270590E+02     -2.72916654E+03
     -3.69300259E+02     -1.12056553E+03     -1.94377444E+02
      3.96007337E+02      8.68155346E+02      2.86717627E+03
      1.56095503E+03      3.20824600E+02     -7.63346371E+02
      4.37091697E+02     -1.35881217E+02     -3.88761553E+02
      4.35307044E+02      1.02131913E+02     -2.40408648E+02
      5.12068551E+02     -1.19080241E+03      8.29603548E+02
     -2.03793926E+03     -3.66393205E+03      2.64675315E+03
      2.17004445E+03      1.83640965E+03     -1.20292455E+03
     -2.84430762E+02      2.14984905E+02     -6.70167579E+01
     -7.46100637E+02      1.04211835E+03     -1.46586067E+03
      5.53665951E+02      9.31175698E+02      1.69683598E+03
      2.50280540E+02      7.43654153E+01      2.37165684E+02
     -3.26491139E+02     -1.12243477E+03     -6.70295310E+02
      1.05094804E+02      1.57095132E+03      5.62924468E+02
      2.68030663E+02     -5.53132103E+02      2.96593042E+02
      4.43808374E+02     -6.90283039E+02     -1.32167947E+03
     -7.23105261E+02     -1.27282717E+03      2.17864045E+02
     -2.56793413E+02     -1.51919484E+02      2.27396957E+02
      2.78701541E+03     -2.36155547E+03      3.28426362E+03
      1.66948691E+03      8.60110987E+02      8.87124198E+02
      3.88587412E+01      5.33586199E+02      4.02963797E+02
     -3.91184198E+03     -7.04551851E+02      1.24907397E+03
     -1.57014448E+03     -1.33462879E+03      1.21269386E+03
      7.33121860E+02      4.75555879E+02     -2.32235941E+02
      2.23522569E+03      1.54800107E+02     -8.10849449E+02
     -9.04701924E+02     -7.87677670E+02     -1.95199002E+03
      2.15311821E+02      8.34956877E+02      5.53112325E+02
     -1.15243893E+03     -1.18753972E+03      7.07206282E+00
      2.33975272E+03     -2.28828030E+02      7.91738866E+02
      4.68744608E+02     -4.01718560E+01      6.48811618E+01
     -3.26173527E+02     -2.46081972E+02     -2.75520381E+03
      3.99929344E+02      1.28675760E+02     -4.27910156E+02
     -4.93747925E+02     -2.80279219E+02      3.49452423E+02
     -1.45662752E+03      3.02273217E+03     -3.29218551E+03
      6.45575516E+02     -1.04658612E+03      2.36145518E+03
      8.42467851E+02      4.39379911E+02     -3.46655512E+03
      3.77872669E+02      3.69711054E+02     -7.12504647E+02
     -4.32846780E+02     -1.38289187E+03      1.13864075E+03
      7.11086801E+02     -1.74972390E+02     -2.43026010E+03
     -1.16622443E+03      8.77890468E+02     -1.14824862E+03
  }
}

Hamiltonian = DFTB {
  SCC = Yes
  SCCTolerance = 1e-6
  MaxSCCIterations = 200
  ForceEvaluation = Dynamics
  MaxAngularMomentum = {
    C = "p"
    H = "s"
  }
  Charge = 0.0
  SpinPolarisation = {}
  Eigensolver = Standard {}
  Filling = Fermi {
    Temperature [Kelvin] = 300.0
  }
  SlaterKosterFiles = Type2FileNames {
    Prefix = "../../pbc-0-3/"
    Separator = "-"
    Suffix = ".skf"
    LowerCaseTypeName = No
  }
  KPointsAndWeights = {
    0.0000000000000 0.0000000000000 0.0000000000000 1.00000000000000
  }
  Dispersion = LennardJones { 
    Parameters = UFFParameters {}
  }
}

ParserOptions = {
  ParserVersion = 3
}
