Geometry = GenFormat {
<<< "system.gen"
}

Driver = VelocityVerlet{
  Steps = 50000
  TimeStep [fs] = 0.2
  MDRestartFrequency = 25
  Thermostat = None {
    #InitialTemperature [Kelvin] = 300.0
  }
  Xlbomd{ 
    IntegrationSteps = 6 
    MinSccIterations = 2
    MaxSccIterations = 200
    SccTolerance = 1e-6 
  }
  Velocities [m/s] {
     -8.24884493E+02     -6.04013884E+02      3.23166818E+02
      5.69843044E+00     -3.24756141E+03     -9.88175459E+02
      4.05059367E+02     -5.03221470E+03      1.23995955E+03
     -7.26286774E+02      1.31023459E+01      5.82719424E+01
     -1.44129598E+03     -1.35583496E+03     -1.57673880E+03
     -1.58436269E+03      1.66656154E+03      1.45953440E+03
      7.11332019E+01      1.14203312E+02     -2.94130528E+02
     -7.14559183E+02      6.58398749E+02     -7.13602773E+02
     -1.86024081E+02      7.48310579E+02     -4.96461234E+01
      4.07174927E+02      2.81624719E+02      2.24920402E+01
     -7.54752003E+02     -1.96963951E+03      6.00941151E+02
     -2.37300301E+02      7.45912884E+02     -1.72117874E+03
     -4.46103981E+02      5.40881051E+02     -5.80526821E+02
      1.06332631E+03     -2.03281123E+03      2.65656415E+02
      7.88343641E+02      1.64964966E+03     -9.58778628E+02
     -9.74096073E+02      8.41661938E+01     -3.38730919E+01
      4.98789221E+02      2.54143300E+03      1.01553788E+03
      1.58193673E+03      5.97145471E+02      2.32283741E+03
     -3.50622679E+02     -1.56716756E+02      2.34639102E+01
      8.13899383E+02     -1.68705571E+03     -1.65237481E+03
      1.51961272E+03      5.85178100E+02      2.14697615E+02
      3.70815702E+02      7.09937475E+01      4.17658430E+02
      2.85032596E+03     -5.08431995E+03     -3.49379924E+03
     -1.91144279E+02      4.65120169E+02      2.92798693E+03
      8.11179288E+00      4.79634061E+02     -4.78524732E+01
     -6.13182466E+02     -8.64512496E+02     -2.83383960E+03
     -1.39832457E+02     -1.02790405E+03      3.81182204E+02
      1.27886978E+03      9.41503885E+02      1.63621043E+02
     -8.26015008E+02     -3.59064592E+02      4.11956322E+02
      1.62932811E+03     -2.73703901E+02     -5.05909306E+02
     -3.74833620E+02     -2.77365317E+02      2.86390266E+02
     -2.59913287E+03      8.01979345E+01     -3.75014365E+00
      6.06324612E+02     -5.91960387E+02     -1.03428481E+03
     -2.14488572E+02     -1.04736703E+03      1.66269716E+03
      1.95460839E+02      6.57534875E+02     -2.97049237E+02
      6.94952365E+01     -8.16469421E+01      8.16093690E+02
      3.16275473E+02     -1.64565242E+03     -1.94272164E+03
     -7.41011377E+02     -2.53625450E+03      1.17332124E+03
     -1.12849829E+03      2.96416875E+02     -1.32352990E+02
      1.83283953E+03     -2.76784686E+02     -3.10280002E+01
     -1.50374247E+03     -2.12923799E+03     -1.15634821E+03
      5.83284639E+01      1.21182987E+02      7.93737213E+02
      1.80124873E+03     -4.82132556E+02     -1.73750848E+03
     -2.13111376E+03     -1.26764449E+03      2.40460593E+02
     -4.26550646E+02      6.89383713E+02      2.90683131E+02
      1.35799636E+03     -1.49359511E+03     -5.75892457E+02
      3.65084050E+03     -3.65875030E+03     -3.62756720E+03
      5.24617471E+02     -2.39218062E+01     -6.79618755E+02
     -2.89187796E+02      1.32652817E+03     -5.77178972E+02
      5.55361308E+02      1.04008818E+03     -2.81937959E+03
      8.65592319E+01     -9.61929425E+01     -5.05667729E+02
      4.95917395E+02      3.09763974E+02     -1.97324430E+02
     -2.63840626E+03      1.98872126E+03      1.17168683E+03
     -5.45397088E+00     -6.26448606E+01      6.88864728E+02
      3.22876710E+03      2.98316774E+02     -1.93112520E+02
      3.29748828E+03      1.60859538E+03     -4.85605057E+02
     -6.90102016E+00     -5.02007924E+02      5.27944518E+02
     -1.86410169E+03     -2.01939868E+03     -2.31693805E+03
      2.10918870E+02      4.12523150E+03     -8.92510473E+02
      1.17181721E+03      1.08200244E+03     -5.03475815E+02
      2.07105167E+02     -7.27873456E+02     -2.89156179E+01
     -1.95404419E+03      1.96548758E+03      1.07159680E+03
     -2.86969802E+03     -5.07193527E+02      1.43423025E+03
     -2.57833920E+02     -2.88636806E+03      1.48153718E+03
     -1.70914039E+02      1.99110528E+02      2.23990259E+01
      6.78284148E+02      6.52043218E+02     -1.27524931E+03
      1.52527984E+03     -7.64556270E+02     -2.73168243E+03
     -1.41971614E+02     -1.56480919E+02     -7.18294995E+02
      4.19011592E+02      2.18718254E+02     -3.04372756E+02
      2.06061265E+03      3.18524983E+03     -4.17634641E+02
      5.51558477E+02     -7.73270189E+02     -1.02625152E+02
      7.21640985E+02      4.02154320E+02      8.16974188E+02
      2.63563367E+03      8.49259887E+02      5.29139420E+02
     -4.54463027E+02     -5.67376991E+02      1.50156867E+02
      3.44303959E+03     -1.69316573E+02      1.80976293E+03
      3.12292614E+02     -1.52326015E+03     -4.25113633E+01
      8.62517332E+02      2.03792841E+02     -2.76287903E+01
      2.80762703E+02      5.21867898E+02     -2.28242443E+03
      1.49612926E+03      6.16906183E+01      1.78213038E+03
      4.86473584E+01      3.47286054E+01      5.19674756E+02
      1.02068560E+03     -1.29116737E+02     -1.52980112E+02
     -1.76463270E+03     -1.00861632E+02     -1.29899222E+03
     -3.51251538E+02     -5.69562607E+02      5.09527838E+02
     -5.54061090E+02      2.49326166E+03     -2.46279766E+03
     -2.36634919E+02     -3.48276522E+03     -4.90270240E+01
     -5.15378256E+02     -4.95125691E+02      5.67341071E+02
      3.81289709E+03      1.96641540E+03     -3.57421704E+03
      2.90540714E+01      9.92942893E+02      4.56761468E+03
      7.44387167E+02      4.24838889E+02     -1.30023923E+01
      2.21954800E+03      5.39936321E+01      1.76663677E+03
     -1.52943491E+03     -1.41118302E+03      1.14191749E+03
      1.85179238E+03     -1.56300855E+03     -1.43145266E+03
      7.73939820E+02     -1.23960972E+03     -7.70612765E+02
      1.60112408E+02      8.91862591E+02      5.56978916E+02
      3.09715268E+02      1.05167438E+03     -5.82940188E+02
     -1.67444552E+02      2.64748569E+03     -1.41575082E+03
     -3.62691385E+02      4.03757007E+02     -1.75297671E+02
     -1.49476422E+03      1.60413044E+02     -5.74732856E+02
      1.70164278E+03     -8.80947380E+02     -2.79549086E+02
      4.92837418E+01     -4.19575864E+02      9.03492270E+01
     -1.68885953E+01     -9.93392480E+02     -4.53983874E+02
     -2.01447453E+03      1.65476224E+03      7.88175537E+02
      8.65078068E+02     -3.28869677E+02      3.89552931E+02
      4.60320774E+02      9.70604761E+02      1.80695325E+02
      1.36336191E+03      2.57732785E+02      6.46972529E+02
     -9.85448863E+02      9.38298228E+01     -4.58179832E+02
     -8.64368417E+02      2.20994324E+03      1.07742613E+03
     -7.26555562E+02     -1.95771386E+03     -1.26173683E+03
      8.11949356E+02     -1.06938725E+03     -6.95303238E+02
     -1.26772153E+03      1.10530151E+03     -7.70194727E+02
      2.90224562E+02      2.38192719E+03     -5.35781015E+02
      2.21727571E+02     -1.07488448E+03      5.77741440E+01
      3.48266232E+03      4.41157201E+02      1.73139975E+03
      5.29436895E+01     -1.00016524E+03      9.24954818E+02
      1.00309432E+03     -3.61819000E+02     -2.14883617E+02
     -1.62381630E+03      2.71188817E+02      2.08416759E+03
      9.31512383E+02      6.04183466E+02     -2.00715398E+03
     -2.62967777E+02     -3.07479302E+02      3.03629874E+02
     -2.09957722E+01     -1.07256532E+03      4.93328974E+02
     -2.27879455E+03     -1.04523718E+02     -4.28249830E+02
      5.63643203E+02      8.75646733E+02      8.33413308E+02
      1.89321276E+03      8.19646695E+01      5.61834501E+01
     -2.65309665E+02      1.68990510E+03     -3.08382171E+03
      1.19632199E+03      1.89219646E+03     -2.22340808E+03
     -1.03637988E+01     -1.16681287E+03     -1.46658414E+02
     -8.93591967E+01     -9.52971379E+02      5.28675624E+02
     -1.88740307E+03      1.53433992E+03      9.68749178E+02
      2.59980614E+03      3.19385518E+02      5.24876090E+01
      3.65460612E+02      1.05824598E+02      1.22044755E+02
      1.15333730E+03     -1.06313730E+02      8.03697795E+02
     -1.87680417E+02     -5.09820725E+02     -3.26339893E+03
     -3.56688080E+02      3.97602376E+02     -5.28997323E+02
      1.20908193E+03     -2.87345800E+03      3.12619656E+03
      2.67116479E+03     -6.77710530E+01      8.37702690E+02
     -1.15397092E+03     -7.11884395E+02     -1.67718639E+02
     -5.01145273E+02      1.11253972E+03      1.46429052E+03
      5.80750775E+02      2.00001288E+03     -2.18195193E+03
      1.37433817E+02     -1.37776333E+02      6.02734904E+01
      3.86391923E+02     -8.30748661E+02     -1.84785408E+03
     -1.33787642E+03     -1.35394724E+03      9.50937353E+02
      1.15852598E+02     -3.84883650E+02      8.07693395E+02
      1.34906828E+03     -7.32456810E+02      1.40080754E+03
      2.27001775E+03      2.47425546E+03     -7.77124677E+02
     -5.69823309E+01      4.47314643E+02     -8.47082648E+01
     -2.50852910E+02      9.47939764E+01     -1.12008068E+03
      1.68944553E+03      5.00656599E+02     -6.72668258E+02
      1.01923138E+02     -9.23684445E+02      3.84756190E+02
      1.23400236E+03      4.93682128E+02      5.20604874E+02
     -2.14526608E+03     -6.83595338E+02     -1.10333524E+03
     -6.42473725E+01      6.56042497E+02     -7.81170023E+02
      3.46015715E+02     -1.40756498E+03     -1.06017312E+03
      5.82542264E+02      6.85350299E+02      2.88463263E+03
     -4.80910568E+02      1.39255709E+02     -3.33932749E+02
     -4.10176834E+03      2.90974689E+03     -1.73465052E+03
     -9.09051161E+02     -2.53122707E+03      2.60717173E+03
     -6.27330137E+02      3.12963813E+02      2.10066234E+03
      1.36565337E+02     -2.61373623E+02      1.56005497E+02
     -1.07530209E+03     -8.36050104E+02      7.27514576E+02
      1.16892645E+03     -9.70147838E+02     -1.57442467E+02
     -8.01205101E+02     -1.19723208E+03     -1.85663859E+03
      2.30749513E+02      5.28023200E+02      3.32854280E+02
     -1.21559922E+03      5.76576055E+02      7.98570583E+02
     -1.00923510E+03      1.21203287E+03      2.25434986E+03
     -1.52842092E+02     -1.30555528E+03     -1.32927242E+02
     -6.81932896E+02      1.06698691E+03     -1.22407485E+03
      1.78479548E+03     -1.18298118E+02      8.44092791E+02
      7.06839105E+02     -8.06558541E+02      7.21720395E+02
     -7.10918785E+01     -2.86580483E+02     -1.17671580E+03
      1.40774265E+03      3.56680260E+03     -1.53065055E+03
     -3.77696913E+01      9.73452414E+01     -2.93350235E+02
     -6.40809010E+02      1.06603464E+03      3.94133275E+02
     -3.92097452E+03      3.14285967E+02     -3.81710903E+02
      1.97567562E+02     -1.11860352E+03      6.41674914E+02
     -3.62129279E+03     -8.14677131E+01     -1.02690772E+03
     -7.03057113E+02      2.49447483E+02     -1.93752309E+03
     -6.44589495E+00     -7.40940501E+02     -8.52064075E+02
      4.22615463E+02     -2.63384804E+03     -5.28454951E+01
      3.22813174E+03     -3.87876484E+03      1.78757699E+03
     -2.37696075E+02     -3.95127027E+01      2.20918129E+02
      1.11922429E+03      1.88012792E+02     -1.75971602E+03
      1.35071426E+03     -2.91470787E+03     -1.30098078E+03
      2.15820318E+02     -9.93348119E+01     -5.04051471E+02
      1.87180193E+03     -1.55886795E+03     -7.76347183E+02
      2.14323559E+03      1.96220352E+03     -1.26151978E+03
      7.11922924E+02     -3.95198838E+02      2.03736547E+02
     -1.19074267E+03      8.09330028E+01      2.04161904E+03
      2.55834709E+01     -1.92036501E+03     -1.67742352E+03
      4.03965740E+02      2.93165152E+02     -5.09949979E+01
     -4.99328314E+02     -1.63819158E+02      6.50194107E+02
      2.88395681E+02     -5.56633134E+02     -8.01630816E+02
     -2.02265816E+03      1.28214274E+03      1.71892513E+03
      2.19450774E+03      1.14475668E+03      3.50921712E+02
      4.89521689E+01      5.93706470E+02      4.81128010E+02
      1.53366600E+03      4.15598662E+03      8.61706489E+02
     -7.56564379E+02     -6.06218733E+02      3.97673981E+02
      5.28120097E+02     -5.40149375E+02     -7.65024945E+01
     -6.91487664E+01      1.89835196E+03     -1.77818211E+03
      1.70667777E+03      6.89245030E+02      1.79313001E+03
      4.80908407E+02      2.49562225E+02     -3.63135080E+02
     -2.77526250E+03      1.21940426E+03     -2.82968764E+02
     -1.06356928E+03      2.42629361E+03      6.52321864E+02
     -4.87864250E+02     -7.98429143E+02     -6.69843487E+02
      2.05108218E+03     -1.17364153E+03     -1.03481761E+03
      1.19210756E+03     -7.28038945E+02      3.97101272E+02
      6.57500518E+02      2.85001898E+01     -1.15786989E+02
      7.17283250E+02      1.23220546E+03     -1.06349974E+03
      9.41880830E+02     -1.06957707E+03      5.07592691E+02
      7.52969467E+01     -9.26694860E+02      2.30879963E+02
      9.25687107E+02      9.41886715E+02     -3.83872126E+03
      1.96911705E+02      2.47829597E+03      3.85184963E+02
     -8.75361815E+02      6.83154975E+01      5.41270015E+02
     -1.42995350E+03      6.14811683E+02     -6.95642976E+02
      1.50890261E+02     -9.75836028E+02     -1.09787992E+03
      1.01834312E+03     -1.14472626E+03     -3.96056750E+02
     -1.13526399E+03      2.29503281E+03      8.73420120E+02
      8.17070532E+02     -9.02909415E+02     -1.58767804E+03
      1.65997847E+02     -4.12355080E+02     -7.72108313E+02
     -5.78378788E+02     -6.08207136E+02     -1.33625028E+03
     -2.34183378E+03     -2.22659914E+02     -8.91694947E+02
     -1.78781532E+03     -1.68082314E+03      1.37902079E+03
     -5.66689653E+02      3.01916736E+02      2.20212303E+02
      5.45056949E+02      1.39604923E+03     -7.29894139E+02
      2.33550924E+03     -1.96020701E+03      3.12673213E+02
     -2.58214944E+03     -3.25969894E+03     -1.87515055E+03
     -3.14724874E+02     -3.57712724E+02     -6.59948354E+02
     -2.99386756E+03      3.69733159E+01     -2.10441860E+03
     -2.98607434E+03      1.21176533E+03     -9.72311773E+02
      4.06562378E+02     -1.21288814E+03     -3.11413421E+02
      4.65826691E+02     -8.99914178E+02     -2.31626941E+03
     -3.63863895E+03     -3.23814028E+03      2.58737735E+03
     -5.03935845E+02     -3.11939677E+02     -8.52300109E+01
      2.59557328E+03      1.62267294E+02      3.61413248E+02
     -5.47983235E+02     -1.84393805E+03      2.22270196E+03
      5.77539036E+01     -7.72971052E+02     -3.51249043E+01
     -4.61661927E+02     -3.38179075E+02     -2.28299279E+03
     -2.20696776E+03     -2.32782871E+02     -4.13657884E+02
     -9.16633942E+01      3.21479987E+02      1.72684161E+02
     -9.85035600E+02     -1.61221338E+02      4.07878255E+02
      1.21731755E+02     -3.14137003E+03     -1.62408196E+02
     -3.58557094E+02      6.64650715E+01     -3.42140014E+02
     -2.88953827E+01      1.97452808E+03      1.82046318E+03
      2.63083966E+02     -1.22849532E+03     -1.79681383E+03
     -4.65778894E+01      1.05516099E+02      1.65979739E+02
      2.80583292E+03     -1.12057102E+03     -5.90055173E+02
     -2.32352662E+03     -2.78860501E+03     -2.82474307E+02
      2.22499477E+02      2.30549782E+02     -1.45357661E+02
     -1.44101574E+03     -2.03952075E+03     -7.44669525E+02
     -2.69325108E+03      3.99976442E+03      8.79789388E+02
     -5.34102036E+02     -1.53980437E+02     -6.48031996E+01
      2.99164327E+02     -1.67380610E+03     -3.60796534E+02
     -3.00974591E+02     -5.79412978E+02     -2.71305684E+03
     -1.45199770E+03     -7.86633916E+02      7.27114928E+02
     -8.29374664E+02      2.36955489E+02     -3.80494956E+02
     -2.38552944E+02      8.53251908E+02     -1.63658145E+03
     -1.20266505E+03      1.51184272E+03      1.89511441E+03
     -8.68178278E+02     -1.69210290E+03      3.80062971E+01
     -9.48042333E+01     -4.25679081E+02      1.34046835E+01
     -1.17768354E+03      2.71776302E+03      6.99910586E+02
      6.38998690E+02      1.34136512E+03     -2.18957265E+03
      1.18451697E+02     -3.00440270E+02     -1.86954877E+02
     -1.03586594E+03     -9.41583653E+02     -5.23607963E+02
      1.36315240E+03      2.11369102E+02      2.78547574E+02
      3.85934523E+02     -2.23844743E+02      5.59174291E+02
      1.78167086E+03      3.60714619E+02      1.90585861E+03
      8.05281004E+02     -1.67850669E+02      5.79040109E+02
     -3.17045536E+02     -5.26950615E+02      1.27823839E+02
     -5.02861539E+02      2.83748257E+03      1.82779979E+02
     -2.41939079E+03      3.75694664E+02      6.68250700E+02
     -4.43990352E+02      3.27828934E+02     -2.67553240E+02
     -6.82286597E+02      7.49989702E+01      3.16226125E+03
      1.04694047E+03      7.83859637E+02      1.34840966E+03
      8.19899158E+02      1.48666527E+02      3.88487578E+02
     -3.66831199E+03      1.06569522E+02      2.39495211E+02
      1.50269561E+03      2.58055877E+03     -6.19806140E+02
      3.17461249E+02      4.50425422E+01      2.17693651E+02
      5.77153934E+02     -1.55344585E+03      1.07193069E+03
     -1.35145747E+03     -2.64463484E+03     -1.70182167E+03
     -7.25897654E+01     -4.79130963E+02     -8.27216528E+01
      3.20600294E+03     -1.05300857E+03      2.41485776E+03
     -6.57731099E+02     -1.63063369E+02     -1.41882069E+03
      1.55587747E+02      1.73907282E+02      1.07335456E+02
      4.00766658E+02      2.82591425E+03      1.06864164E+03
     -1.32439199E+03     -2.22439265E+03     -4.52688685E+02
     -2.78880884E+03     -3.92356823E+02     -3.89973638E+02
      1.26409579E+02      7.77705694E+02      1.20258791E+02
     -2.36474278E+03     -2.84233117E+03     -2.15782544E+03
      6.63615373E+02      3.83919748E+02     -7.03256502E+02
     -1.36294375E+03      6.73858862E+01     -3.31302232E+02
      1.10057503E+03      8.92001044E+02     -3.64569051E+02
      5.96306635E+02      1.63055580E+03      1.18016529E+03
     -9.08452628E+02     -5.45472509E+01      2.22346846E+03
      7.31606233E+01     -8.89109219E+01     -5.90486344E+02
     -2.62326700E+03     -1.35633860E+03      9.67277696E+02
      7.46859917E+02     -2.52367507E+02     -1.48303711E+03
      3.54337956E+01     -2.81592360E+02      1.29987321E+02
     -1.29653003E+02      7.42341252E+02     -2.77233434E+03
      2.21499920E+03     -9.50687577E+02      2.68158322E+03
     -4.23483460E+02      1.83235745E+02     -4.73880467E+02
      2.07044780E+03      1.11381534E+03      1.21138625E+03
     -8.79679947E+02      6.76148091E+02     -1.05082752E+03
      5.40731243E+02     -1.18151713E+03      5.72071356E+01
      2.19611753E+03      5.14590990E+02     -1.19207339E+03
      1.01907556E+03      2.75292191E+03     -3.11783223E+03
      7.11785433E+02      1.90676777E+02     -3.01923409E+02
     -4.17543822E+02     -2.68230135E+03     -7.21124710E+02
      2.10226645E+02     -2.02632466E+03     -9.86520585E+02
      2.97795672E+01      2.84463407E+01     -1.05717894E+03
     -1.72146141E+03     -1.89934528E+03     -3.28151914E+03
     -2.39252292E+03      4.91074885E+02      2.46774857E+02
     -7.35275465E+02      3.49770376E+02      4.42360525E+02
      1.82188356E+03      9.37070008E+02      3.27961181E+03
      3.48961712E+03     -8.76645296E+01      1.12190513E+03
     -4.48543044E+02     -3.28343174E+02      4.88102419E+02
     -1.61333115E+03     -6.70187843E+02      2.28428868E+03
      1.07320848E+03     -3.17585944E+02     -8.91930320E+02
     -1.01341105E+03      8.13412965E+02      1.01770550E+03
     -2.78834493E+02     -2.58104943E+02      3.74957811E+02
     -7.94203893E+02      1.39437946E+03     -2.04932747E+03
     -4.79451783E+02     -3.42659672E+02     -7.21131513E+01
      1.43857460E+02     -4.58212825E+02     -2.43819829E+02
      4.48618361E+02     -3.05392623E+02      9.35069654E+01
      1.54513534E+03     -1.03204209E+03     -7.62860249E+02
     -4.24231566E+02      6.71966035E+02      4.14861292E+02
     -7.52412458E+02     -1.30174609E+02     -4.05504102E+02
      1.50855380E+03     -5.45507848E+02      2.51753559E+03
     -1.58041707E+03     -1.49761415E+02      7.77715876E+02
     -1.35127263E+03      2.07374052E+04      6.48181750E+03
     -4.73149151E+01     -9.01155415E+02     -6.41629716E+02
     -4.34562814E+02     -1.82059717E+03     -1.78583401E+03
     -4.86710388E+02     -4.83129292E+01     -5.77610823E+02
      9.68370101E+01     -3.57100363E+02      4.04346449E+02
      3.52755407E+02     -1.78087072E+03     -2.42565821E+02
     -1.17007539E+02      6.99131152E+01     -2.58915040E+02
     -2.08946010E+03      1.74679413E+03     -1.13107803E+03
     -2.34692511E+02      4.18410670E+02      9.38848769E+02
      2.82197606E+02     -5.37558885E+02      3.92222201E+02
     -5.00557956E+02      1.78194500E+03      1.79666852E+03
      1.15261168E+03      1.82129878E+03      4.16882988E+02
      5.79810041E+02     -8.06308638E+02     -4.69560770E+02
      1.24875456E+03     -1.76650162E+02     -1.86955043E+01
     -1.73477714E+03      5.13120958E+02     -3.09836473E+02
     -7.08519381E+01     -3.47969229E+02      2.54676885E+01
     -2.16238512E+03      1.58120062E+03      2.92517380E+02
      2.05431650E+03      1.31450673E+03      1.38655901E+03
      1.70484689E+02     -3.12697773E+02     -7.87860383E+02
     -2.43388548E+02     -1.00113974E+03     -2.35265790E+03
      2.47271365E+03     -5.02936992E+02     -7.57274412E+01
      1.01077249E+03     -8.37705639E+02      1.39596941E+02
     -1.45845707E+02     -4.38384114E+02     -3.88784067E+02
      2.02399875E+03      8.53296210E+01     -3.19399760E+03
      1.70351334E+03     -1.12371306E+03      2.03807273E+03
     -1.32093643E+03     -1.07045404E+03     -5.43710802E+02
  }
}

Hamiltonian = DFTB {
  SCC = Yes
  SCCTolerance = 1e-6
  MaxSCCIterations = 200
  ForceEvaluation = Dynamics
  MaxAngularMomentum = {
    C = "p"
    H = "s"
  }
  Charge = 0.0
  SpinPolarisation = {}
  Eigensolver = Standard {}
  Filling = Fermi {
    Temperature [Kelvin] = 300.0
  }
  SlaterKosterFiles = Type2FileNames {
    Prefix = "../../pbc-0-3/"
    Separator = "-"
    Suffix = ".skf"
    LowerCaseTypeName = No
  }
  KPointsAndWeights = {
    0.0000000000000 0.0000000000000 0.0000000000000 1.00000000000000
  }
  Dispersion = LennardJones { 
    Parameters = UFFParameters {}
  }
}

ParserOptions = {
  ParserVersion = 3
}
