Geometry = GenFormat {
<<< "system.gen"
}

Driver = VelocityVerlet{
  Steps = 50000
  TimeStep [fs] = 0.2
  MDRestartFrequency = 5
  Thermostat = None {
    #InitialTemperature [Kelvin] = 300.0
  }
  Xlbomd{
    IntegrationSteps = 6
    MinSccIterations = 2
    MaxSccIterations = 200
    SccTolerance = 1e-6
  }
  Velocities [AA/Ps] {
4.22914120 -4.57480472 9.22420752
-47.70303120 8.17195386 8.15681985
-0.36731944 8.31217507 7.03328427
5.56680467 10.73706442 3.22596149
23.89705003 -10.97970311 16.34041882
5.39337235 -24.28619197 -11.93549399
3.15989543 3.40542750 -1.91249162
-0.67711539 7.49165695 -14.98757527
-18.10190633 18.65792838 -16.76823462
-13.50664301 -5.54015640 -6.58559416
-18.14755917 18.06104029 -11.30818124
-37.00497436 21.35816265 -1.95031737
0.28763667 -0.71354468 11.76319205
-7.45637118 -15.45465832 -32.06138670
29.63978233 -16.73558014 -14.48074250
3.39752126 -8.75984767 2.53515041
41.64190919 9.80289413 -7.25431360
7.87675768 3.64311247 29.76186452
-0.43928724 -3.97857567 6.40533692
16.05839229 -26.44042729 18.64725226
-2.93264039 12.70658569 6.56857003
-4.35178919 -3.22052854 7.07766670
-11.23361056 6.38090464 27.93990187
14.51435667 29.50211004 10.59903792
-5.87727284 1.32325219 -0.57011362
-0.98896083 7.44479701 2.66106591
15.62880428 9.93806119 24.18279508
-10.02698806 7.25471902 34.03398268
2.07492956 -3.73383410 0.74739635
2.31349677 8.42012409 11.78680193
25.44094351 13.94524278 25.77478584
13.09455894 -6.20040107 -6.92897348
-0.71627341 13.09601183 4.79532559
-9.39858063 20.71003298 2.46316239
45.48459221 -14.42325559 -19.06570007
5.98720030 5.74640407 2.79206592
7.31505793 20.88371085 34.56990126
9.20678404 -6.05218921 -9.07123990
-11.06189813 9.52908547 -11.60638912
-24.59445188 6.95933610 -0.20857328
39.66574660 13.77634597 30.48434385
-10.94753615 10.51370122 -5.46921756
15.41453622 4.86646942 -28.84459910
-0.98006892 -7.73847945 -13.01067619
1.73428907 10.99786634 5.42710745
18.01582107 2.75403166 -2.52742344
23.01064864 15.47588473 14.96821033
-7.62141109 11.17947588 3.33332229
2.79897559 -7.84172728 -39.85518159
-14.63590129 -2.29737584 -25.33732583
-2.83638112 3.53659262 -3.46535223
9.45463804 29.82179768 9.89042563
-34.42915193 -15.30594322 -19.32112381
-7.13013792 -6.43326183 8.19377898
13.28227366 -7.81123491 13.00000987
-4.26766247 43.23595349 -42.62924284
6.84603025 -10.49063919 -1.20127554
5.46563515 -15.57168692 16.25620338
-18.37243743 4.58532842 -1.26601114
25.88646428 -20.71384517 14.15527779
-4.62175662 4.63941418 6.70244671
-27.22390275 -8.76621836 42.24339716
19.76815391 6.44751366 -23.72857274
-19.40047072 -7.51583320 -8.31841109
-5.88898690 -4.57077718 3.50934140
-0.67677233 -2.29006109 -11.87093699
38.60722177 -9.88668396 13.25520321
2.84376857 0.30880799 1.81366384
-8.93417242 11.21443701 10.55274611
4.81474613 -24.47101841 10.08178049
-2.14537203 -1.83217972 -9.12836442
6.02432400 33.23907807 14.31201796
2.52991639 -7.95159624 4.49826209
-0.59181901 8.29399920 4.99551382
18.87076731 -1.26697730 -7.96065747
-17.87209965 23.91876923 -21.46079372
-4.59161388 4.18055764 8.30325911
7.05166611 4.29962721 18.38036468
8.26878452 -27.53966618 -14.48603792
5.59443246 -8.15582495 -3.70891303
-23.44373577 -17.08936116 13.58047534
-17.40994198 -3.89746296 14.04246826
7.95292755 -2.07747430 3.26370828
-7.94536099 -17.41421505 11.18726657
25.51024484 -24.62239227 -10.48821167
3.15187187 -5.69037668 0.71812884
-0.40721182 -19.33769904 -18.24059221
32.52424692 -1.04751335 -40.59914468
-3.43827013 -8.65040280 0.68385007
-35.50327702 3.59472641 -6.58716753
-9.16528712 24.90240767 19.55742101
-66.95739370 -35.32386977 1.42216322
7.63453571 -5.34427329 -11.70261656
-3.75575728 22.51826177 35.63605421
13.19506169 33.02429371 -28.06760179
-9.36369239 0.10186121 3.81370401
12.59519404 1.59637075 1.24021852
-8.02182870 21.75579760 25.20083931
-46.17566893 4.55053150 20.08143799
0.04063672 0.91123386 1.97676682
1.47279014 -4.04415003 -17.88369755
55.18941026 14.17725978 15.09145008
12.44580769 -10.28972937 -3.18952381
-16.95959471 27.39141354 -3.22588982
-11.10794344 7.08664478 20.45536151
16.21465593 -5.72406220 6.28520688
34.25852451 29.55511763 -7.11680825
12.71563731 -20.15902512 -52.24613826
3.44011498 -4.85143592 -3.65034978
28.43423176 21.45733443 -15.03237265
3.46776207 24.15700103 -7.14729390
-2.24003543 10.14384497 -5.51739890
37.71684424 -67.52916091 -13.70892790
-12.13185548 9.93187779 0.21542025
7.14274374 14.37528008 -4.81403808
22.57226622 18.84641292 8.14796418
-16.11589876 -27.23532083 -6.02714104
-0.91920515 5.51254447 0.39894537
4.94912829 13.44633718 -19.70419987
15.78392466 4.49056646 -22.54479925
1.15438810 0.26597127 -6.82927265
4.03442559 36.55632524 -5.27368934
44.80357260 -13.07030075 1.64115912
26.07138094 -20.81104970 -5.23921264
4.78699502 -4.65815742 3.36217802
38.42161930 18.61260155 4.06073503
-37.33164223 37.49216062 -31.50668103
62.48512570 -24.11413010 -16.11633807
-5.38419261 6.14618360 4.03127485
37.21074021 34.14042187 -23.30445038
-12.16119217 14.34307075 8.20973727
-3.24385212 5.57321405 -12.60896195
-6.96819863 13.10741979 -30.83826625
52.19976650 41.72322328 -7.94882848
4.22382488 4.40122990 -3.98036228
28.47020032 -7.68322496 -12.76979058
5.05492411 -8.87159579 1.63156276
-0.07014357 0.93198003 11.08809117
-3.26851286 -31.80878957 34.34566513
25.50479839 13.49105667 -17.22964877
4.76099112 4.83277623 -12.55928919
-7.46696382 19.58679890 18.49248459
23.98030346 1.18856612 33.93227693
-9.20788843 -13.16192485 -3.85368432
-37.40081943 3.82690360 -8.42354561
-3.31219794 -1.94739655 -15.43423231
-4.20105070 3.00288518 -2.69451439
-22.46648537 47.78619764 -45.71164237
10.43535348 27.61756267 -17.78024532
2.26741630 1.28749359 1.23474125
-39.23408747 -4.49409581 -0.38354680
8.54944998 35.17306638 -11.99986808
3.75968272 -2.95264996 -4.56506846
-23.05721322 -2.74409194 8.35231348
-22.82132789 -79.21659485 -11.31937406
5.11558921 -15.57505359 -14.73714939
-11.55942722 -3.93022024 1.01697640
-24.11773912 -30.40683976 25.29104990
15.23078215 24.37215459 -15.16225414
-19.53776917 -22.52591423 -7.12818385
-1.38436583 2.28949506 4.01692087
30.33981654 23.19716345 3.32422577
-29.26693680 -8.92948701 6.97870151
4.77339946 12.45090983 -7.36270762
32.75138407 2.91628662 60.90350059
8.82492706 3.15151559 -21.91376966
-9.37821675 -9.95980106 1.84869057
-5.36184189 -34.64241028 -16.44811383
-12.84065694 -52.36914206 16.19090589
4.16687080 -9.70163658 -2.93718974
17.31023765 15.16255076 -48.35839403
20.91312614 -21.62649142 -43.84548999
-14.49370932 15.41446953 12.70542938
-22.76579406 -2.67418617 32.17547865
36.28783961 -34.29575627 -2.41339762
8.23547006 -10.73280470 2.05597959
-15.53078897 -24.06142930 4.21745095
41.87530176 48.99268579 -12.91569994
2.87291692 -8.84114942 2.07523340
1.55364224 72.15691380 -23.00836665
-21.63876839 -18.11275792 12.97540968
-12.35775065 0.90254904 6.46139918
-9.72123408 -7.32222751 42.78075796
12.54719705 -21.37617495 -3.13585423
-0.87917847 -9.31803193 -0.94027296
5.45164765 43.78789846 -23.57754376
25.41072572 44.48508187 -2.74025399
13.85371492 -20.05350453 14.17490938
11.26343684 -7.48418062 4.93489373
-1.67583809 38.84191400 28.09204651
-65.99528412 57.80068488 -20.27624910
-12.73337434 -16.20549162 -42.22138140
-3.60605776 0.91864563 -2.33890342
3.69677676 6.52964373 6.24022183
5.12065403 29.21829475 -2.55110896
8.67625722 12.20491354 0.86328147
6.68580954 -11.38283245 4.24228022
-27.16481859 11.25960515 25.45894085
7.03883694 -8.60890004 7.94775617
-2.79918263 28.16059831 -7.84935312
6.71122462 -5.87058120 8.85226729
2.01512742 0.07222960 -7.10921592
-3.07241723 5.17691262 -5.60371916
8.11399269 -19.94619490 48.52258851
-9.73280179 -1.67595017 -10.78080292
19.37064102 -6.55552372 1.00084915
14.95121977 -17.75496182 16.12252244
-3.49877000 -5.74206332 -2.71330814
6.18349380 -16.80172181 -40.13681838
11.51039286 -29.06360590 -8.50030086
-1.37365445 3.16673648 -6.57423389
-6.00041551 -1.59154117 20.48460955
5.85572778 38.49091779 12.93867566
-8.52552307 -2.30103054 5.31567334
20.01657629 14.10288249 -11.95541613
29.34493935 -12.75921005 2.36633621
3.88563978 -1.10925902 0.17393056
27.27039638 11.35879871 0.50699096
7.29414514 36.55785528 -9.68000564
6.32602916 -14.63085383 -9.03435180
3.71594931 -3.96479920 -3.81262104
-2.12959894 2.54324596 11.72964294
23.32459842 16.97234347 -9.89770430
0.07604410 -22.95006465 -12.22594352
-1.57111826 5.40785609 0.87073298
23.42826094 14.94574279 -1.23866186
-11.05917365 13.85523051 15.66127463
-9.90102337 2.07930783 -2.79082687
-2.77925780 -3.42797101 7.62969883
-13.83667876 -3.16438990 12.07929461
-1.94078741 -1.68271100 8.25232728
-5.37196193 0.36458487 7.89788710
1.04989263 3.58285545 22.03320714
-7.48983616 -9.47205165 6.94841329
19.45537344 -16.68324060 1.47282756
-18.16111709 8.53709677 -29.10737468
9.99561408 -4.28831941 -6.82740261
-3.00779167 5.50709589 -6.77785242
-38.50684434 -7.70491739 6.69220781
-5.24622961 -3.86456212 -0.81623531
-7.49861809 -17.82933792 21.82881145
27.46129215 27.58380228 -20.61300453
-1.36890090 6.43667679 8.72116023
1.56113837 -5.06971787 -11.35894487
5.06702215 8.48231792 -15.69268959
-1.12648177 1.38472505 -7.96819339
7.04274984 18.54163564 -24.14595155
43.84636937 9.14599940 -15.36859008
7.19505169 -8.76207964 -6.70063274
-47.62064112 -10.88398132 -28.28503420
-19.31637333 -11.16765699 7.94144826
-23.58625793 -17.47348553 30.67075629
-3.03674068 -1.50102066 -9.99611367
-3.72892658 2.54173493 -27.48396812
6.51949180 8.10307874 -28.09033239
15.51289211 -21.74020934 15.59178080
-2.53720533 1.55290656 8.50471410
-10.64989029 -32.56767446 25.05388906
26.47538297 9.15701498 19.89212262
3.41264269 9.16015458 -0.44891688
-15.38868538 -6.27242942 -9.02245486
-3.75388032 -6.92793188 -36.22393477
-0.09218542 -11.00818401 -0.73462763
-9.74647494 -5.84745073 -7.21937983
8.23882667 -1.83130569 3.83310345
-0.39150662 -9.60356012 3.43570653
-45.72165312 22.91877892 2.87384739
25.10389024 -6.63173451 -2.27320359
0.58797761 0.79431978 -4.88165632
-9.88205022 36.49701547 10.46663075
25.02768695 12.59375218 -0.94443813
11.08306695 -10.50770050 5.63009452
15.42266748 -8.22601538 -6.52987350
-25.85897374 7.00067166 2.75966759
3.50195082 4.37028146 -3.91820750
18.47230925 30.49218265 26.70125506
9.18903726 25.85224715 27.50223969
-18.08777396 -6.84324771 -9.85264702
-18.78815799 15.66457343 5.01431963
22.64872079 -24.04093750 27.28194568
-4.84303558 -4.22549622 -0.15438419
5.45310016 -25.94866205 -29.77634899
26.06776164 -30.57583788 2.80742156
1.53801934 -14.49310900 -17.52980618
-4.15300915 -8.17854013 3.27779791
-14.21666068 -16.86314073 10.54020331
19.38621822 3.42714186 -10.29318170
5.93995752 30.73503323 -20.24090993
-7.02644354 -4.37718855 10.99753973
-21.22028455 -7.72958494 -9.16470724
-16.68904950 -3.71591047 -37.64544591
9.84213937 0.17613440 5.76616609
18.30920513 13.18312679 41.79995563
-15.07525865 -9.81859453 22.09959793
-10.23918641 10.66869268 -0.87500202
-15.65446417 -11.73709444 27.29165529
8.43857607 14.10033766 -11.91708592
5.33520977 -0.45107371 -9.42706742
8.03495796 6.79272839 3.56156556
-15.86846464 -36.43631853 32.08459366
1.80264458 -2.53721806 -5.93307519
-27.15625895 11.29538190 15.52671976
-15.61134792 -14.57163344 12.93281152
-6.53782859 -2.75556012 -7.34988309
5.77639183 31.57255607 8.99025764
6.46363331 -18.22600963 -28.04656524
7.45499088 -0.33725935 3.23766657
11.18144892 9.48499667 20.35346690
-5.87183698 -30.87087140 37.51710390
4.35868156 5.81582754 5.79722287
-35.45187208 -12.40401745 30.06379386
32.36560675 42.95641990 11.29640033
-3.55477276 -3.65535002 5.49561892
22.68174990 18.73633679 -11.76678258
-7.43628799 21.21947258 -36.39943853
-3.27264291 15.62842138 -23.94989905
-12.17638318 14.48042907 7.25167356
-19.77625478 5.53327672 4.25296810
-2.93801681 23.65021968 27.49565652
9.83252515 -18.22090361 2.91969803
1.29666181 -8.29635886 4.12654041
1.49574819 -2.84245621 -16.74370419
-10.28940338 5.69327598 15.85081240
-2.56012852 0.01356164 -6.42663844
-7.24685477 4.81914947 -31.29089378
9.44657176 9.96574596 21.44091282
4.89462911 -2.32633305 9.72438912
1.31767597 -7.61438740 16.80138313
31.62232133 -4.83868163 16.36499964
3.64115506 -6.23750516 -0.89100970
28.24245492 32.89066890 -23.37796176
15.29754335 -11.61997509 -14.52984898
-7.21266286 -0.02556071 -0.89564693
8.64513831 7.44208498 -18.17136939
-9.72720619 37.59667164 -36.79168172
3.07150903 3.21350562 7.82516556
-23.51809017 24.30855334 7.54366090
-16.11802251 5.30600442 -0.94575812
-0.02721739 -0.43612603 1.27656134
-5.09604669 2.57283313 4.94445741
-22.16143564 -4.09144229 -21.92088874
-0.15711640 2.83632246 2.04037173
-6.45206729 -23.29242248 -23.28610118
-7.17620442 -45.17569166 -38.68721885
-2.19034586 -2.47800484 -10.13141538
3.71318470 12.20802646 23.91261915
-5.60698262 -13.00124972 7.33581030
16.11477881 -0.28504779 -15.04299936
-3.28731089 8.09107438 -6.18105400
-15.73707102 -22.18026915 -7.62806084
11.11140988 7.55270249 -6.20040995
-10.44455034 -7.17609870 14.92453902
  }
}

Hamiltonian = DFTB {
  SCC = Yes
  SCCTolerance = 1e-6
  MaxSCCIterations = 200
  readinitialcharges = yes
  ForceEvaluation = Dynamics
  MaxAngularMomentum = {
    C = "p"
    H = "s"
  }
  Charge = 0.0
  SpinPolarisation = {}
  Eigensolver = Standard {}
  Filling = Fermi {
    Temperature [Kelvin] = 300.0
  }
  SlaterKosterFiles = Type2FileNames {
    Prefix = "/usr/workspace/troup1/second_set/real_data/decane_run_first_50/pbc-0-3/"
    Separator = "-"
    Suffix = ".skf"
    LowerCaseTypeName = No
  }
  KPointsAndWeights = {
    0.0000000000000 0.0000000000000 0.0000000000000 1.00000000000000
  }
  Dispersion = LennardJones {
    Parameters = UFFParameters {}
  }
}

ParserOptions = {
  ParserVersion = 3
}
