Geometry = GenFormat {
352  S
C  H
1 1    0.3757962391E+02    0.3148818491E+02    0.4244616573E+02
2 2    0.3757745748E+02    0.3256139328E+02    0.4214427119E+02
3 2    0.3651331087E+02    0.3131208463E+02    0.4276416021E+02
4 1    0.3791710814E+02    0.4592783053E+02    0.4122158480E+02
5 2    0.3713062711E+02    0.4630297317E+02    0.4053065402E+02
6 2    0.2244492792E+02    0.4484217449E+02    0.4134776578E+02
7 1    0.3936529123E+02    0.4611312234E+02    0.4065680748E+02
8 2    0.2475329876E+02    0.4616798401E+02    0.4150069526E+02
9 2    0.3952426958E+02    0.4708518007E+02    0.4005739137E+02
10 1    0.2439570670E+02    0.4499526208E+02    0.3968499704E+02
11 2    0.2363930945E+02    0.4482903510E+02    0.3904168813E+02
12 2    0.2488893445E+02    0.4404714398E+02    0.4004930789E+02
13 1    0.4084991504E+02    0.4548436079E+02    0.3865898953E+02
14 2    0.4135480437E+02    0.4641609441E+02    0.3893627253E+02
15 2    0.4022737814E+02    0.4559851908E+02    0.3769023269E+02
16 1    0.2673375497E+02    0.4455194220E+02    0.3838501877E+02
17 2    0.2627402028E+02    0.4352859326E+02    0.3813031938E+02
18 2    0.2723287029E+02    0.4433637603E+02    0.3942087444E+02
19 1    0.4307366322E+02    0.4518377843E+02    0.3739645805E+02
20 2    0.4413253244E+02    0.4485078112E+02    0.3762568913E+02
21 2    0.4320669162E+02    0.4622040374E+02    0.3757703487E+02
22 1    0.4291350814E+02    0.4488780729E+02    0.3593777704E+02
23 2    0.2821278229E+02    0.4549478910E+02    0.3522153168E+02
24 2    0.2654030265E+02    0.4517046444E+02    0.3554188509E+02
25 1    0.3860930749E+02    0.3155777156E+02    0.4358685742E+02
26 2    0.3928972248E+02    0.3240967312E+02    0.4367148680E+02
27 2    0.3820435875E+02    0.3138969867E+02    0.4466839384E+02
28 2    0.3939496162E+02    0.3072088357E+02    0.4341346343E+02
29 1    0.4292735691E+02    0.4338360592E+02    0.3560312781E+02
30 2    0.4400678504E+02    0.4316076008E+02    0.3566753169E+02
31 2    0.4210100282E+02    0.4278217833E+02    0.3625228308E+02
32 2    0.4261686507E+02    0.4313862181E+02    0.3453827758E+02
33 1    0.2832123687E+02    0.3136688942E+02    0.2825266282E+02
34 2    0.2884779912E+02    0.3159098231E+02    0.2732920293E+02
35 2    0.2835802009E+02    0.3022984453E+02    0.2836892179E+02
36 1    0.2890653043E+02    0.3225296765E+02    0.2937202044E+02
37 2    0.2842960445E+02    0.3204546239E+02    0.3029064786E+02
38 2    0.2864160610E+02    0.3339908182E+02    0.2924407267E+02
39 1    0.3042509280E+02    0.3210526866E+02    0.2956140256E+02
40 2    0.3061355923E+02    0.3258939811E+02    0.3053695977E+02
41 2    0.3104429134E+02    0.3260200814E+02    0.2879712683E+02
42 1    0.3079509997E+02    0.3061745828E+02    0.2978165064E+02
43 2    0.4531814676E+02    0.2988612556E+02    0.2986760612E+02
44 2    0.3128164426E+02    0.3059879193E+02    0.3081351084E+02
45 1    0.3166829880E+02    0.3010297151E+02    0.2862428022E+02
46 2    0.3255470945E+02    0.3076878243E+02    0.2842315457E+02
47 2    0.4640163094E+02    0.3008171174E+02    0.2775496698E+02
48 1    0.4753063188E+02    0.2868767612E+02    0.2894700222E+02
49 2    0.4664512214E+02    0.2805646499E+02    0.2909035856E+02
50 2    0.4808968535E+02    0.2874629053E+02    0.3002949533E+02
51 1    0.3319347177E+02    0.2811362048E+02    0.2789489787E+02
52 2    0.3262050513E+02    0.2771842516E+02    0.2706653474E+02
53 2    0.3350534517E+02    0.2710230059E+02    0.2838575732E+02
54 1    0.4979876968E+02    0.2887487033E+02    0.4278479545E+02
55 2    0.4966048294E+02    0.2992761839E+02    0.4232716218E+02
56 2    0.5036345887E+02    0.2833044470E+02    0.4201151217E+02
57 1    0.2687283648E+02    0.3155767065E+02    0.2815179517E+02
58 2    0.2657954086E+02    0.3245801060E+02    0.2753868205E+02
59 2    0.2628109478E+02    0.3064054365E+02    0.2786450164E+02
60 2    0.2635347485E+02    0.3169805183E+02    0.2915124360E+02
61 1    0.3531699045E+02    0.2928232653E+02    0.4407392630E+02
62 2    0.3642143928E+02    0.2920212324E+02    0.4391264829E+02
63 2    0.3504734063E+02    0.3035463337E+02    0.4438449924E+02
64 2    0.3500856493E+02    0.2862406887E+02    0.4491177745E+02
65 1    0.3858203609E+02    0.3738856100E+02    0.3308900741E+02
66 2    0.3799429738E+02    0.3748127137E+02    0.3207035774E+02
67 2    0.3894913571E+02    0.3841403556E+02    0.3343390363E+02
68 1    0.3755086859E+02    0.3703833946E+02    0.3426253241E+02
69 2    0.3815758704E+02    0.3659820054E+02    0.3505745388E+02
70 2    0.3685971355E+02    0.3625500493E+02    0.3406910889E+02
71 1    0.3680955819E+02    0.3818322436E+02    0.3490737133E+02
72 2    0.3746143071E+02    0.3891988324E+02    0.3559138234E+02
73 2    0.3607684839E+02    0.3766377352E+02    0.3558604581E+02
74 1    0.3591376882E+02    0.2375413116E+02    0.3400584602E+02
75 2    0.3571706552E+02    0.2320604280E+02    0.3303026486E+02
76 2    0.3656701887E+02    0.2463350017E+02    0.3360241607E+02
77 1    0.3460915718E+02    0.2414039303E+02    0.3461510846E+02
78 2    0.3415489212E+02    0.3862068652E+02    0.3511608486E+02
79 2    0.3401745651E+02    0.3989453751E+02    0.3377300690E+02
80 1    0.3497410738E+02    0.2514439119E+02    0.3582761766E+02
81 2    0.3551618428E+02    0.2606077605E+02    0.3551228201E+02
82 2    0.3562199557E+02    0.2449531374E+02    0.3651447622E+02
83 1    0.3378975966E+02    0.2557761575E+02    0.3663842010E+02
84 2    0.3276738929E+02    0.2497039382E+02    0.3630915166E+02
85 2    0.3350714967E+02    0.2661331146E+02    0.3636768999E+02
86 1    0.3403792859E+02    0.2547833077E+02    0.3817588502E+02
87 2    0.3490289273E+02    0.2610098113E+02    0.3845999277E+02
88 2    0.3435582353E+02    0.2446198790E+02    0.3844180652E+02
89 1    0.3975679502E+02    0.3652558819E+02    0.3281364321E+02
90 2    0.4056925434E+02    0.3659136324E+02    0.3352126502E+02
91 2    0.3958522079E+02    0.3546134155E+02    0.3265856731E+02
92 2    0.4018110159E+02    0.3692545062E+02    0.3188284960E+02
93 1    0.3285576792E+02    0.2575012297E+02    0.3902806290E+02
94 2    0.3260821946E+02    0.2681184302E+02    0.3911688817E+02
95 2    0.3198131309E+02    0.2531775610E+02    0.3851159007E+02
96 2    0.3294686990E+02    0.2532879173E+02    0.3997637836E+02
97 1    0.2858471451E+02    0.3632946172E+02    0.3856007918E+02
98 2    0.2881688425E+02    0.3655589708E+02    0.3961450564E+02
99 2    0.2743958002E+02    0.3656310041E+02    0.3830518155E+02
100 1    0.2965442485E+02    0.3708141129E+02    0.3770402131E+02
101 2    0.3036036184E+02    0.3632875535E+02    0.3754997056E+02
102 2    0.2997993909E+02    0.3787802849E+02    0.3841395520E+02
103 1    0.2903545684E+02    0.3738871060E+02    0.3629466723E+02
104 2    0.2852199125E+02    0.3649932668E+02    0.3610602315E+02
105 2    0.2985725355E+02    0.3735990933E+02    0.3555751503E+02
106 1    0.2818833331E+02    0.3867359998E+02    0.2089379422E+02
107 2    0.2837665690E+02    0.3919144571E+02    0.2179777154E+02
108 2    0.2713297240E+02    0.3837897836E+02    0.2080575373E+02
109 1    0.2840094663E+02    0.3960830305E+02    0.1967264064E+02
110 2    0.2945462631E+02    0.3958290924E+02    0.1957339604E+02
111 2    0.2810158272E+02    0.4061799455E+02    0.2012898920E+02
112 1    0.2381723660E+02    0.4092702574E+02    0.3507455686E+02
113 2    0.3593138079E+02    0.3756442161E+02    0.8157648626E+01
114 2    0.2457417997E+02    0.4021075919E+02    0.3519087844E+02
115 1    0.2854703621E+02    0.3886574986E+02    0.2847949066E+02
116 2    0.2845674973E+02    0.3949672346E+02    0.2929681211E+02
117 2    0.2885859926E+02    0.3936411841E+02    0.2757384017E+02
118 1    0.2783180597E+02    0.3774295291E+02    0.2823067029E+02
119 2    0.2763830339E+02    0.3752631092E+02    0.2715397291E+02
120 2    0.2773966274E+02    0.3930858373E+02    0.1886181128E+02
121 1    0.2875711120E+02    0.3489914283E+02    0.3838178955E+02
122 2    0.2798753840E+02    0.3428800951E+02    0.3901880696E+02
123 2    0.2873916872E+02    0.3455328499E+02    0.3730901151E+02
124 2    0.2967094769E+02    0.3439904147E+02    0.3869071964E+02
125 1    0.2710708007E+02    0.3666992136E+02    0.2912520353E+02
126 2    0.2614698965E+02    0.3625652321E+02    0.2859738731E+02
127 2    0.2762612691E+02    0.3574203672E+02    0.2940745265E+02
128 2    0.2682203122E+02    0.3716098641E+02    0.3003728453E+02
129 1    0.3325091332E+02    0.3932266115E+02    0.2889126332E+02
130 2    0.3247284359E+02    0.3875474551E+02    0.2832015471E+02
131 2    0.3319340234E+02    0.4034520878E+02    0.2852433120E+02
132 1    0.3275344854E+02    0.3937111879E+02    0.3031921565E+02
133 2    0.3194855583E+02    0.4013642492E+02    0.3029618727E+02
134 2    0.3345296111E+02    0.3972121093E+02    0.3099812188E+02
135 1    0.3240446220E+02    0.3801438288E+02    0.3091428481E+02
136 2    0.3348099058E+02    0.3774017251E+02    0.3096530529E+02
137 2    0.3193938145E+02    0.3730192021E+02    0.3024621306E+02
138 1    0.3156987557E+02    0.3799059331E+02    0.3223196888E+02
139 2    0.3071011278E+02    0.3862218507E+02    0.3205383681E+02
140 2    0.3207327582E+02    0.3856079544E+02    0.3300400857E+02
141 1    0.3133261626E+02    0.3653944171E+02    0.3277807583E+02
142 2    0.3161705511E+02    0.3664147592E+02    0.3384770149E+02
143 2    0.3196530695E+02    0.3587961210E+02    0.3235348024E+02
144 1    0.2986110664E+02    0.3609773940E+02    0.3260600341E+02
145 2    0.2961449499E+02    0.3579628735E+02    0.3149765496E+02
146 2    0.2918538800E+02    0.3685613851E+02    0.3297429043E+02
147 1    0.2956445841E+02    0.3487565027E+02    0.3344821968E+02
148 2    0.2928514170E+02    0.3515279250E+02    0.3449183900E+02
149 2    0.3036886321E+02    0.3415382228E+02    0.3358521544E+02
150 1    0.2842106834E+02    0.3402104913E+02    0.3294855277E+02
151 2    0.2832194495E+02    0.3390119211E+02    0.3186093955E+02
152 2    0.2751516821E+02    0.3462309646E+02    0.3330956475E+02
153 1    0.3464552748E+02    0.3843963206E+02    0.2879447808E+02
154 2    0.3421417654E+02    0.2217894698E+02    0.2835541819E+02
155 2    0.3545157392E+02    0.3890834349E+02    0.2832384121E+02
156 2    0.3479848469E+02    0.3829296067E+02    0.2982856212E+02
157 1    0.2848215664E+02    0.3270382665E+02    0.3355401547E+02
158 2    0.2755682325E+02    0.3220931724E+02    0.3402817755E+02
159 2    0.2864089784E+02    0.3210757719E+02    0.3261550019E+02
160 2    0.2947593146E+02    0.3253307996E+02    0.3411903454E+02
161 1    0.3886125022E+02    0.2545558251E+02    0.2920635840E+02
162 2    0.3784904554E+02    0.2496109741E+02    0.2897672128E+02
163 2    0.3899226597E+02    0.2605804398E+02    0.2831429583E+02
164 1    0.3826638301E+02    0.2654497615E+02    0.3008841123E+02
165 2    0.3777482062E+02    0.2719652937E+02    0.2947985170E+02
166 2    0.3901328904E+02    0.2720200567E+02    0.3067001176E+02
167 1    0.3734334219E+02    0.2597251595E+02    0.3117068851E+02
168 2    0.3812905667E+02    0.2552321521E+02    0.3198308315E+02
169 2    0.3678678917E+02    0.2516261770E+02    0.3066228183E+02
170 1    0.3628146364E+02    0.2697541206E+02    0.3163426557E+02
171 2    0.3561913341E+02    0.2667064446E+02    0.3252912097E+02
172 2    0.3558638106E+02    0.2727267796E+02    0.3071682636E+02
173 1    0.3697573390E+02    0.4360421708E+02    0.3189295891E+02
174 2    0.3610902240E+02    0.4432328026E+02    0.3204334506E+02
175 2    0.3754621450E+02    0.2868577388E+02    0.3099647285E+02
176 1    0.3801700805E+02    0.4378622814E+02    0.3317367928E+02
177 2    0.3850757039E+02    0.4473803142E+02    0.3331645855E+02
178 2    0.3878148436E+02    0.4302280677E+02    0.3295849056E+02
179 1    0.3731203323E+02    0.4333614522E+02    0.3447913227E+02
180 2    0.3664415107E+02    0.4231888066E+02    0.3455112205E+02
181 2    0.3661856556E+02    0.4409533254E+02    0.3482727283E+02
182 1    0.3840784992E+02    0.4323223046E+02    0.3554140774E+02
183 2    0.3806433340E+02    0.4372427160E+02    0.3644964305E+02
184 2    0.3932573163E+02    0.4393763345E+02    0.3525890125E+02
185 1    0.4005733738E+02    0.2480428236E+02    0.2996504796E+02
186 2    0.3985744319E+02    0.2406949836E+02    0.3084553119E+02
187 2    0.4071451106E+02    0.2426942609E+02    0.2947803641E+02
188 2    0.4059797030E+02    0.2561106043E+02    0.4581921275E+02
189 1    0.3920330472E+02    0.4199669973E+02    0.3585133718E+02
190 2    0.4011651574E+02    0.4210484382E+02    0.3642236643E+02
191 2    0.5069908432E+02    0.3836002057E+02    0.7997835194E+01
192 2    0.3853372051E+02    0.4087550721E+02    0.3414149422E+02
193 1    0.3748834938E+02    0.2502714924E+02    0.4129282775E+02
194 2    0.3723825441E+02    0.2423277975E+02    0.4059686169E+02
195 2    0.3795029692E+02    0.3993506591E+02    0.4218319171E+02
196 1    0.3841959260E+02    0.2602754210E+02    0.4050449770E+02
197 2    0.3877057324E+02    0.2682027150E+02    0.4124474862E+02
198 2    0.3778868411E+02    0.4198613442E+02    0.3987079889E+02
199 1    0.3942664584E+02    0.2515716295E+02    0.3969317446E+02
200 2    0.3988574917E+02    0.2580260031E+02    0.3887891947E+02
201 2    0.3880725091E+02    0.2436377002E+02    0.3920537274E+02
202 1    0.4061931552E+02    0.2451571768E+02    0.4046190837E+02
203 2    0.4095676564E+02    0.2362898873E+02    0.3987393390E+02
204 2    0.4013593345E+02    0.2398069529E+02    0.4135095756E+02
205 1    0.4168269204E+02    0.2544664773E+02    0.4105914861E+02
206 2    0.4193080463E+02    0.2499858482E+02    0.4199299560E+02
207 2    0.4106995431E+02    0.2632404079E+02    0.4139432776E+02
208 1    0.4281586671E+02    0.2601298214E+02    0.4035769456E+02
209 2    0.4246018197E+02    0.2657299879E+02    0.3943042263E+02
210 2    0.4340416171E+02    0.2510209872E+02    0.3989534033E+02
211 1    0.4376872685E+02    0.4211451689E+02    0.4134508000E+02
212 2    0.4419815031E+02    0.4141639222E+02    0.4205754596E+02
213 2    0.4314827015E+02    0.4285206560E+02    0.4190317667E+02
214 1    0.4490909185E+02    0.4277313677E+02    0.4055062744E+02
215 2    0.4484898061E+02    0.4236023350E+02    0.3952959172E+02
216 2    0.4588746592E+02    0.4238009643E+02    0.4102062828E+02
217 1    0.3616592075E+02    0.2571553049E+02    0.4188753204E+02
218 2    0.3612643257E+02    0.2552352345E+02    0.2769075430E+02
219 2    0.3590336393E+02    0.2675346195E+02    0.2636715337E+02
220 2    0.3530455374E+02    0.2525506527E+02    0.4153616437E+02
221 1    0.4480650175E+02    0.4428030600E+02    0.4050908481E+02
222 2    0.4388009548E+02    0.4448417156E+02    0.4091881627E+02
223 2    0.4561057267E+02    0.4479394108E+02    0.4102199121E+02
224 2    0.4469964323E+02    0.4447131986E+02    0.3940889066E+02
225 1    0.3166566898E+02    0.4542761501E+02    0.3755569600E+02
226 2    0.3061972941E+02    0.4511128098E+02    0.3757077754E+02
227 2    0.3233897191E+02    0.4468038360E+02    0.3808238397E+02
228 1    0.3214960126E+02    0.3033195343E+02    0.3606727530E+02
229 2    0.3295448908E+02    0.3110089581E+02    0.3601015481E+02
230 2    0.3124162470E+02    0.3059513676E+02    0.3547779628E+02
231 1    0.3272417706E+02    0.4451258779E+02    0.3527410297E+02
232 2    0.3345803919E+02    0.4398633916E+02    0.3585181188E+02
233 2    0.3324713140E+02    0.4490651898E+02    0.3438012608E+02
234 1    0.3167770251E+02    0.4355306275E+02    0.3456913570E+02
235 2    0.3070646324E+02    0.4419147949E+02    0.3432909825E+02
236 2    0.3133368841E+02    0.4272311427E+02    0.3521467381E+02
237 1    0.3233495489E+02    0.4306717908E+02    0.3324767173E+02
238 2    0.3343162365E+02    0.4282558591E+02    0.3327590527E+02
239 2    0.3221788448E+02    0.2856504776E+02    0.3255336924E+02
240 1    0.3177661362E+02    0.4167481488E+02    0.3279364337E+02
241 2    0.3212142896E+02    0.2556223535E+02    0.3349872513E+02
242 2    0.3222991866E+02    0.2615645305E+02    0.3176902260E+02
243 1    0.3017695152E+02    0.4170189187E+02    0.3272970073E+02
244 2    0.2970676671E+02    0.4211045559E+02    0.3367853467E+02
245 2    0.2988699985E+02    0.4067067435E+02    0.3261595198E+02
246 1    0.2972455530E+02    0.4252292771E+02    0.3147768534E+02
247 2    0.2972002955E+02    0.4180736884E+02    0.3059420292E+02
248 2    0.3046701981E+02    0.4332116188E+02    0.3127139715E+02
249 1    0.3169253322E+02    0.3136451483E+02    0.3844732494E+02
250 2    0.3134139678E+02    0.3106556380E+02    0.3941447756E+02
251 2    0.3277057580E+02    0.3162640233E+02    0.3861859363E+02
252 2    0.3120546575E+02    0.3228268801E+02    0.3798040451E+02
253 1    0.2829950796E+02    0.4312965507E+02    0.3152586728E+02
254 2    0.2796309840E+02    0.4367239510E+02    0.3240697996E+02
255 2    0.2829735599E+02    0.4383081741E+02    0.3068143402E+02
256 2    0.2758548258E+02    0.4233080610E+02    0.4673250807E+02
257 1    0.3886500603E+02    0.3645806679E+02    0.4312422369E+02
258 2    0.3962536573E+02    0.3569983754E+02    0.4291315022E+02
259 2    0.3919366188E+02    0.3734762854E+02    0.4271062661E+02
260 1    0.3752301145E+02    0.3582948660E+02    0.4264685514E+02
261 2    0.3675419639E+02    0.3672253337E+02    0.4287278918E+02
262 2    0.3709858914E+02    0.3508333523E+02    0.4328735183E+02
263 1    0.3754237284E+02    0.3536246012E+02    0.4115860802E+02
264 2    0.3744556644E+02    0.3628245806E+02    0.4066843230E+02
265 2    0.3656177084E+02    0.3490330318E+02    0.4091883588E+02
266 1    0.3858088977E+02    0.3453254164E+02    0.4049410259E+02
267 2    0.3799260971E+02    0.3389739573E+02    0.3980324360E+02
268 2    0.3907259339E+02    0.3382581014E+02    0.4117796997E+02
269 1    0.3959952015E+02    0.3529341246E+02    0.3968874976E+02
270 2    0.4040320055E+02    0.3465087362E+02    0.3944229907E+02
271 2    0.4013690320E+02    0.3612139814E+02    0.4013713349E+02
272 1    0.3900860727E+02    0.3590475484E+02    0.3837142590E+02
273 2    0.3936102595E+02    0.3695844176E+02    0.3806149312E+02
274 2    0.3784411514E+02    0.3610878375E+02    0.3850857381E+02
275 1    0.3918555118E+02    0.3503976292E+02    0.3706422874E+02
276 2    0.3870515329E+02    0.3561043232E+02    0.3623248397E+02
277 2    0.3873117915E+02    0.3409378015E+02    0.3709069858E+02
278 1    0.4066769124E+02    0.3496709869E+02    0.3660888743E+02
279 2    0.4118463548E+02    0.3434466092E+02    0.3740033507E+02
280 2    0.4111378850E+02    0.3604469827E+02    0.3665520864E+02
281 1    0.3888962267E+02    0.3644184690E+02    0.4462223870E+02
282 2    0.3805821356E+02    0.3709360714E+02    0.4502655798E+02
283 2    0.3889924738E+02    0.3540819445E+02    0.4502324427E+02
284 2    0.3983823590E+02    0.3677314826E+02    0.4500236421E+02
285 1    0.4100314382E+02    0.3428605890E+02    0.3540898837E+02
286 2    0.4046355053E+02    0.3478385133E+02    0.3454693791E+02
287 2    0.4209232916E+02    0.3442433845E+02    0.3522173964E+02
288 2    0.4090933375E+02    0.3322019572E+02    0.3536214345E+02
289 1    0.3233394344E+02    0.3419897978E+02    0.4214347828E+02
290 2    0.3256975405E+02    0.3447026150E+02    0.4106347898E+02
291 2    0.3228092816E+02    0.3317601906E+02    0.4231057627E+02
292 1    0.3348054412E+02    0.3460128924E+02    0.4312258180E+02
293 2    0.3319945942E+02    0.3551711937E+02    0.4374346783E+02
294 2    0.3434603555E+02    0.3487660944E+02    0.4246270970E+02
295 1    0.3395412177E+02    0.3337949088E+02    0.4398563982E+02
296 2    0.3424246650E+02    0.3254750173E+02    0.4329971323E+02
297 2    0.3317487132E+02    0.3303135742E+02    0.2928357592E+02
298 1    0.3520958422E+02    0.3365152523E+02    0.2960921414E+02
299 2    0.3614818870E+02    0.3400960828E+02    0.4425429556E+02
300 2    0.3561179949E+02    0.3268386186E+02    0.3013177904E+02
301 1    0.3484544522E+02    0.3477850442E+02    0.3062659557E+02
302 2    0.3378316648E+02    0.3499904535E+02    0.3062195245E+02
303 2    0.3514821261E+02    0.3576013335E+02    0.4561755173E+02
304 1    0.3532323922E+02    0.3450541757E+02    0.3211239159E+02
305 2    0.3567348421E+02    0.3554293668E+02    0.3253292508E+02
306 2    0.3625604700E+02    0.3385232403E+02    0.3214758688E+02
307 1    0.3437180042E+02    0.3392374288E+02    0.3310235604E+02
308 2    0.3343424002E+02    0.3451408493E+02    0.3336541131E+02
309 2    0.3485533609E+02    0.3404097458E+02    0.3403176993E+02
310 1    0.3379474773E+02    0.3255115881E+02    0.3285500432E+02
311 2    0.3322130259E+02    0.3254235410E+02    0.3191807807E+02
312 2    0.3311396969E+02    0.3227396126E+02    0.3366904562E+02
313 1    0.3083356610E+02    0.3471935793E+02    0.4249825295E+02
314 2    0.3077543685E+02    0.3456598451E+02    0.4359718352E+02
315 2    0.3060540782E+02    0.3581829364E+02    0.4237306419E+02
316 2    0.3015662597E+02    0.3400287372E+02    0.4195962371E+02
317 1    0.3480531653E+02    0.3140091030E+02    0.3270244436E+02
318 2    0.3533194397E+02    0.3105681251E+02    0.3361847021E+02
319 2    0.3428209759E+02    0.3056076687E+02    0.3234294961E+02
320 2    0.3561232116E+02    0.3175287873E+02    0.3202134553E+02
321 1    0.3394676882E+02    0.3490089476E+02    0.2183372284E+02
322 2    0.3373238500E+02    0.3601392030E+02    0.2214913367E+02
323 2    0.3480770287E+02    0.3505784918E+02    0.2120128062E+02
324 1    0.3452757651E+02    0.3410607053E+02    0.3838716972E+02
325 2    0.3369240231E+02    0.3410180481E+02    0.3914146661E+02
326 2    0.3533908846E+02    0.3478004925E+02    0.3880751198E+02
327 1    0.3515460562E+02    0.3276426520E+02    0.3794674102E+02
328 2    0.3437430922E+02    0.3217148099E+02    0.3731940309E+02
329 2    0.3540869360E+02    0.3216254568E+02    0.3881669860E+02
330 1    0.3642036422E+02    0.3292164260E+02    0.3712408586E+02
331 2    0.3714974056E+02    0.3336953877E+02    0.3782184247E+02
332 2    0.3626509732E+02    0.3359398880E+02    0.3628638932E+02
333 1    0.3681815934E+02    0.3160969823E+02    0.3647286077E+02
334 2    0.3600193635E+02    0.3109018378E+02    0.3605736843E+02
335 2    0.3714481009E+02    0.3095252173E+02    0.3726291160E+02
336 1    0.3789533282E+02    0.3158614768E+02    0.3539948944E+02
337 2    0.3779835877E+02    0.3060308271E+02    0.3503246000E+02
338 2    0.3897366557E+02    0.3164120545E+02    0.3573070854E+02
339 1    0.3787699591E+02    0.3242812205E+02    0.3409488889E+02
340 2    0.3795765370E+02    0.3345409809E+02    0.3436473177E+02
341 2    0.3695142471E+02    0.3234948524E+02    0.3364180310E+02
342 1    0.3895879581E+02    0.3202226988E+02    0.3298328547E+02
343 2    0.3884721928E+02    0.3096796709E+02    0.3272404789E+02
344 2    0.3995341823E+02    0.3201607706E+02    0.3349034424E+02
345 1    0.3278784913E+02    0.3438414176E+02    0.2102729816E+02
346 2    0.3180004480E+02    0.3436613288E+02    0.2165968971E+02
347 2    0.3255240891E+02    0.3506304798E+02    0.2022354678E+02
348 2    0.3276151605E+02    0.3346156276E+02    0.2044917582E+02
349 1    0.3884342050E+02    0.3303050093E+02    0.3179671141E+02
350 2    0.3844013369E+02    0.3253822231E+02    0.3095632336E+02
351 2    0.3819693329E+02    0.3383968938E+02    0.3204024186E+02
352 2    0.3989103181E+02    0.3332189200E+02    0.3150869675E+02
0.0000000000E+00    0.0000000000E+00    0.0000000000E+00
0.1532620600E+02    0.0000000000E+00    0.0000000000E+00
0.0000000000E+00    0.1532620600E+02    0.0000000000E+00
0.0000000000E+00    0.0000000000E+00    0.1532620600E+02
}
Driver = VelocityVerlet {
  Steps = 50000
  TimeStep [fs] = 0.2
  MDRestartFrequency = 5
  Thermostat = None {}
  Xlbomd = {
    IntegrationSteps = 6
    MinSccIterations = 2
    MaxSccIterations = 200
    SccTolerance = 1e-6
    PreSteps = 0
  }
  Velocities [AA/Ps] = {
4.22914120 -4.57480472 9.22420752
-47.70303120 8.17195386 8.15681985
-0.36731944 8.31217507 7.03328427
5.56680467 10.73706442 3.22596149
23.89705003 -10.97970311 16.34041882
5.39337235 -24.28619197 -11.93549399
3.15989543 3.40542750 -1.91249162
-0.67711539 7.49165695 -14.98757527
-18.10190633 18.65792838 -16.76823462
-13.50664301 -5.54015640 -6.58559416
-18.14755917 18.06104029 -11.30818124
-37.00497436 21.35816265 -1.95031737
0.28763667 -0.71354468 11.76319205
-7.45637118 -15.45465832 -32.06138670
29.63978233 -16.73558014 -14.48074250
3.39752126 -8.75984767 2.53515041
41.64190919 9.80289413 -7.25431360
7.87675768 3.64311247 29.76186452
-0.43928724 -3.97857567 6.40533692
16.05839229 -26.44042729 18.64725226
-2.93264039 12.70658569 6.56857003
-4.35178919 -3.22052854 7.07766670
-11.23361056 6.38090464 27.93990187
14.51435667 29.50211004 10.59903792
-5.87727284 1.32325219 -0.57011362
-0.98896083 7.44479701 2.66106591
15.62880428 9.93806119 24.18279508
-10.02698806 7.25471902 34.03398268
2.07492956 -3.73383410 0.74739635
2.31349677 8.42012409 11.78680193
25.44094351 13.94524278 25.77478584
13.09455894 -6.20040107 -6.92897348
-0.71627341 13.09601183 4.79532559
-9.39858063 20.71003298 2.46316239
45.48459221 -14.42325559 -19.06570007
5.98720030 5.74640407 2.79206592
7.31505793 20.88371085 34.56990126
9.20678404 -6.05218921 -9.07123990
-11.06189813 9.52908547 -11.60638912
-24.59445188 6.95933610 -0.20857328
39.66574660 13.77634597 30.48434385
-10.94753615 10.51370122 -5.46921756
15.41453622 4.86646942 -28.84459910
-0.98006892 -7.73847945 -13.01067619
1.73428907 10.99786634 5.42710745
18.01582107 2.75403166 -2.52742344
23.01064864 15.47588473 14.96821033
-7.62141109 11.17947588 3.33332229
2.79897559 -7.84172728 -39.85518159
-14.63590129 -2.29737584 -25.33732583
-2.83638112 3.53659262 -3.46535223
9.45463804 29.82179768 9.89042563
-34.42915193 -15.30594322 -19.32112381
-7.13013792 -6.43326183 8.19377898
13.28227366 -7.81123491 13.00000987
-4.26766247 43.23595349 -42.62924284
6.84603025 -10.49063919 -1.20127554
5.46563515 -15.57168692 16.25620338
-18.37243743 4.58532842 -1.26601114
25.88646428 -20.71384517 14.15527779
-4.62175662 4.63941418 6.70244671
-27.22390275 -8.76621836 42.24339716
19.76815391 6.44751366 -23.72857274
-19.40047072 -7.51583320 -8.31841109
-5.88898690 -4.57077718 3.50934140
-0.67677233 -2.29006109 -11.87093699
38.60722177 -9.88668396 13.25520321
2.84376857 0.30880799 1.81366384
-8.93417242 11.21443701 10.55274611
4.81474613 -24.47101841 10.08178049
-2.14537203 -1.83217972 -9.12836442
6.02432400 33.23907807 14.31201796
2.52991639 -7.95159624 4.49826209
-0.59181901 8.29399920 4.99551382
18.87076731 -1.26697730 -7.96065747
-17.87209965 23.91876923 -21.46079372
-4.59161388 4.18055764 8.30325911
7.05166611 4.29962721 18.38036468
8.26878452 -27.53966618 -14.48603792
5.59443246 -8.15582495 -3.70891303
-23.44373577 -17.08936116 13.58047534
-17.40994198 -3.89746296 14.04246826
7.95292755 -2.07747430 3.26370828
-7.94536099 -17.41421505 11.18726657
25.51024484 -24.62239227 -10.48821167
3.15187187 -5.69037668 0.71812884
-0.40721182 -19.33769904 -18.24059221
32.52424692 -1.04751335 -40.59914468
-3.43827013 -8.65040280 0.68385007
-35.50327702 3.59472641 -6.58716753
-9.16528712 24.90240767 19.55742101
-66.95739370 -35.32386977 1.42216322
7.63453571 -5.34427329 -11.70261656
-3.75575728 22.51826177 35.63605421
13.19506169 33.02429371 -28.06760179
-9.36369239 0.10186121 3.81370401
12.59519404 1.59637075 1.24021852
-8.02182870 21.75579760 25.20083931
-46.17566893 4.55053150 20.08143799
0.04063672 0.91123386 1.97676682
1.47279014 -4.04415003 -17.88369755
55.18941026 14.17725978 15.09145008
12.44580769 -10.28972937 -3.18952381
-16.95959471 27.39141354 -3.22588982
-11.10794344 7.08664478 20.45536151
16.21465593 -5.72406220 6.28520688
34.25852451 29.55511763 -7.11680825
12.71563731 -20.15902512 -52.24613826
3.44011498 -4.85143592 -3.65034978
28.43423176 21.45733443 -15.03237265
3.46776207 24.15700103 -7.14729390
-2.24003543 10.14384497 -5.51739890
37.71684424 -67.52916091 -13.70892790
-12.13185548 9.93187779 0.21542025
7.14274374 14.37528008 -4.81403808
22.57226622 18.84641292 8.14796418
-16.11589876 -27.23532083 -6.02714104
-0.91920515 5.51254447 0.39894537
4.94912829 13.44633718 -19.70419987
15.78392466 4.49056646 -22.54479925
1.15438810 0.26597127 -6.82927265
4.03442559 36.55632524 -5.27368934
44.80357260 -13.07030075 1.64115912
26.07138094 -20.81104970 -5.23921264
4.78699502 -4.65815742 3.36217802
38.42161930 18.61260155 4.06073503
-37.33164223 37.49216062 -31.50668103
62.48512570 -24.11413010 -16.11633807
-5.38419261 6.14618360 4.03127485
37.21074021 34.14042187 -23.30445038
-12.16119217 14.34307075 8.20973727
-3.24385212 5.57321405 -12.60896195
-6.96819863 13.10741979 -30.83826625
52.19976650 41.72322328 -7.94882848
4.22382488 4.40122990 -3.98036228
28.47020032 -7.68322496 -12.76979058
5.05492411 -8.87159579 1.63156276
-0.07014357 0.93198003 11.08809117
-3.26851286 -31.80878957 34.34566513
25.50479839 13.49105667 -17.22964877
4.76099112 4.83277623 -12.55928919
-7.46696382 19.58679890 18.49248459
23.98030346 1.18856612 33.93227693
-9.20788843 -13.16192485 -3.85368432
-37.40081943 3.82690360 -8.42354561
-3.31219794 -1.94739655 -15.43423231
-4.20105070 3.00288518 -2.69451439
-22.46648537 47.78619764 -45.71164237
10.43535348 27.61756267 -17.78024532
2.26741630 1.28749359 1.23474125
-39.23408747 -4.49409581 -0.38354680
8.54944998 35.17306638 -11.99986808
3.75968272 -2.95264996 -4.56506846
-23.05721322 -2.74409194 8.35231348
-22.82132789 -79.21659485 -11.31937406
5.11558921 -15.57505359 -14.73714939
-11.55942722 -3.93022024 1.01697640
-24.11773912 -30.40683976 25.29104990
15.23078215 24.37215459 -15.16225414
-19.53776917 -22.52591423 -7.12818385
-1.38436583 2.28949506 4.01692087
30.33981654 23.19716345 3.32422577
-29.26693680 -8.92948701 6.97870151
4.77339946 12.45090983 -7.36270762
32.75138407 2.91628662 60.90350059
8.82492706 3.15151559 -21.91376966
-9.37821675 -9.95980106 1.84869057
-5.36184189 -34.64241028 -16.44811383
-12.84065694 -52.36914206 16.19090589
4.16687080 -9.70163658 -2.93718974
17.31023765 15.16255076 -48.35839403
20.91312614 -21.62649142 -43.84548999
-14.49370932 15.41446953 12.70542938
-22.76579406 -2.67418617 32.17547865
36.28783961 -34.29575627 -2.41339762
8.23547006 -10.73280470 2.05597959