Geometry = GenFormat {
<<< "system.gen"
}

Driver = VelocityVerlet{
  Steps = 100000
  TimeStep [fs] = 0.2
  MDRestartFrequency = 5
  Thermostat = None {
    #InitialTemperature [Kelvin] = 300.0
  }
  Xlbomd{ 
    IntegrationSteps = 6 
    MinSccIterations = 2
    MaxSccIterations = 200
    SccTolerance = 1e-6 
  }
  Velocities [m/s] {
     -9.74321888E+02     -6.30506939E+02     -3.22256667E+02
     -6.25590180E+02     -1.45529131E+03      6.63719741E+02
      2.54910725E+03     -7.83738946E+02     -4.53396542E+02
     -7.05031381E+01      8.39460206E+02      2.44619630E+02
     -2.03648518E+03      3.41341382E+03      2.06218754E+03
     -3.09861156E+03      7.61025763E+02     -1.02458058E+02
      4.93960602E+01      3.37230513E+02      6.83216396E+02
     -2.07274228E+03      1.48630737E+03     -6.18405820E+01
      1.27927464E+03     -6.20289970E+02      2.55086591E+03
     -4.23023283E+02     -6.37242361E+02     -3.11994838E+02
     -1.91465659E+03      7.24494511E+02     -5.18613461E+02
     -9.95951393E+02      7.12130606E+02     -3.63265071E+03
     -6.36255118E+02     -5.33405925E+01      1.27400037E+02
      2.13137336E+03      2.86635408E+00     -9.26795026E+02
     -1.99781618E+03      2.00634193E+03      1.71214075E+02
      5.07101957E+01      9.97634626E+01     -3.06629848E+02
      3.37978913E+01      4.47025184E+02     -5.48358807E+02
      1.48715554E+03      1.60863609E+03      5.04589498E+02
     -5.38680025E+02     -3.95186556E+02     -1.38498187E+02
      2.49668083E+02      5.83453582E+02     -3.48417103E+02
      3.31582517E+03     -7.76868075E+02      1.28756180E+03
      6.18551170E+02      1.57261666E+02     -2.97904011E+02
     -1.67086888E+03      1.33084922E+03      2.16253891E+03
      1.71028119E+03      1.77164369E+03      4.18826688E+02
     -6.90965005E+01      2.95842417E+02      2.43037535E+02
     -8.22020054E+02      1.28717703E+03      7.86185997E+02
      2.91263957E+02      2.16845695E+03     -9.73663485E+02
     -1.55028857E+03      1.04707815E+03      7.20695611E+02
     -7.15671381E+02      7.25263945E+02     -7.15154307E+02
      2.34922569E+02      2.74783300E+02     -2.90302730E+03
     -4.23890649E+03     -1.30157155E+03      9.06367510E+02
      1.11188608E+03      2.90390013E+02      5.62957252E+02
     -1.86488188E+02      4.21797752E+02     -6.16463469E+00
      3.53415198E+03     -1.24811817E+03     -9.24125976E+02
      7.86533044E+02     -3.32309059E+03      1.37181718E+03
     -1.57524485E+02      2.82097731E+02      9.37919689E+01
     -2.14697251E+03     -8.29118958E+02     -1.58574171E+03
     -8.68892597E+02      7.47707971E+02      4.22900232E+02
      3.61761435E+01     -3.90346666E+02     -1.50918997E+02
      4.54593290E+02      3.46326736E+02     -1.77735845E+03
     -3.06544022E+02     -1.86230619E+02     -1.97590962E+03
     -4.02158869E+02      7.04386734E+02      2.37902865E+02
      1.06046060E+02     -2.21039304E+03     -1.74292174E+03
      1.15311868E+03      3.60752875E+02      2.90579469E+03
      2.50065382E+02      3.54642331E+02      2.64620237E+02
      6.78472201E+02      6.08537122E+02      1.44374174E+03
     -5.26728561E+01     -1.53525551E+03      1.79954870E+03
     -3.07895074E+02      2.13242204E+02     -7.27450545E+02
     -7.21262750E+02      4.16534170E+02     -2.03950806E+02
      1.58826655E+03     -9.60870730E+02      9.47279057E+02
     -1.44099555E+03     -7.33928005E+01     -5.90494109E+02
     -2.82780125E+03     -1.39631445E+03      1.01955727E+02
     -1.78002816E+03     -7.46931763E+02     -1.65681933E+03
      5.92117245E+02     -8.71845044E+01      3.87854919E+01
     -7.64909414E+02      6.85540086E+02     -4.48977551E+02
     -3.09632909E+02      5.28490046E+02      3.21352665E+02
      5.12433521E+01      2.04941095E+02      2.90869203E+01
     -6.23534075E+02      1.05957570E+03     -5.48244053E+02
      2.12384155E+03      1.31674006E+03     -9.04275966E+02
     -4.78587821E+02      2.80968260E+03     -3.70988511E+02
      4.14062648E+02     -1.98140281E+02      7.56757849E+01
      1.26627502E+03      2.16518474E+03     -1.98970908E+03
      1.64174910E+03     -6.96497500E+02      1.48510752E+03
      2.60185572E+02      3.77333747E+02      6.66185657E+02
     -4.52755258E+02      2.75002502E+02      4.63241683E+02
     -1.33456367E+03      2.82862283E+03      4.71574592E+02
     -6.01238412E+02     -1.36804927E+03     -8.12935261E+02
     -5.19036093E+02      5.48497506E+02      4.06451390E+02
     -1.04247697E+03      1.06248931E+03     -2.47554691E+03
     -1.39532906E+03     -1.90418757E+02     -1.53880712E+03
     -2.01104573E+02      3.43756056E+02      4.38046081E+02
     -1.53369984E+03      8.11968161E+02     -2.88195935E+02
      3.67561430E+02     -2.11774341E+03     -1.42012161E+03
     -6.49975565E+02      1.94238063E+01     -7.84602806E+01
     -4.26644851E+02     -1.63344483E+03     -1.02485477E+03
     -8.44353719E+02      1.95227894E+03     -1.13202980E+03
     -3.21722350E+02      1.24541624E+02      2.62794858E+02
      1.06165716E+03     -1.67082581E+03     -2.63389346E+03
      3.47355291E+02      1.10332911E+02     -3.11708201E+02
      4.13380415E+02      8.33316687E+02      2.84367371E+02
     -2.77320634E+03      2.53585327E+02      3.31311504E+02
      7.23946394E+02      3.05393458E+02     -1.10365114E+03
     -1.78432122E+02      4.36381323E+01     -5.17413282E+02
      5.29442683E+02      6.99353944E+02     -3.63429669E+02
      1.67010659E+03     -8.33572490E+02      1.86611617E+03
      1.86640278E+02     -2.09266916E+02     -3.20753403E+02
      2.46481191E+03     -5.63531544E+02     -1.80954801E+03
      3.71315424E+03      2.62497413E+03      5.96447239E+02
      4.63987189E+01     -1.14023227E+03      2.93002557E+01
      3.15157667E+02      1.20541215E+03     -1.22776625E+03
      2.11232474E+02      7.31204035E+02      1.33666699E+03
     -1.40117810E+03      1.42546983E+03      1.80555086E+03
     -7.89581008E+02     -3.06598568E+02     -5.88840438E+01
      1.68265944E+03      5.35703900E+02      1.48366077E+02
     -8.93697163E+02     -9.95874806E+02     -1.39514231E+03
     -4.93727261E+02     -5.80248117E+01      9.67938334E+02
     -5.01409040E+02      1.03379790E+03      5.33447497E+02
      1.05544160E+03      5.25968193E+02      2.81655469E+03
      1.55171535E+03      1.04080588E+03      9.90195651E+02
     -6.01402752E+02     -4.66935754E+02      2.31946768E+01
     -1.77335935E+03     -3.44707880E+01      2.60688004E+02
      4.02936231E+03     -1.04032678E+03      3.42473001E+03
      1.83382861E+02      5.58568995E+02      6.12895929E+01
      3.68239944E+02     -6.21718795E+02      2.57759803E+03
      1.12365441E+03      1.17399924E+03      8.39877775E+02
     -1.50798432E+02      8.92253412E+02     -2.95893948E+02
     -7.34927842E+02      7.12382038E+02     -5.38566324E+01
     -1.79911700E+03     -1.08306693E+03     -1.55229467E+03
     -5.15802796E+02     -1.06502814E+02      3.38524675E+02
     -1.22986546E+03      8.71677079E+02      6.36505981E+02
     -7.67589127E+02     -2.42972285E+03      1.14006910E+03
      3.17158333E+02      1.42927623E+02     -6.25026486E+02
     -1.62136107E+03     -6.37724266E+02      1.39749009E+03
      2.55797897E+03      1.09084645E+03     -3.20496027E+03
      1.46934013E+01     -6.10906718E+01      6.18683203E+02
      2.10299037E+03      2.56273295E+03     -9.40030683E+02
      1.28501691E+03      7.28633023E+02     -5.35118171E+02
     -2.81861047E+02     -1.45863498E+03     -4.94734823E+02
      2.83332114E+03     -1.76944138E+03     -8.76989741E+02
     -1.22229903E+03      8.77864968E+02     -5.56646368E+02
      1.26996180E+02      2.27673944E+02      3.26725965E+02
     -8.18503125E+02      1.21815289E+03      5.91437902E+02
     -7.67219843E+02     -1.51465466E+03      6.37207165E+02
      1.40181051E+02     -8.37103568E+02     -7.60609677E+02
     -1.10678837E+03      4.40013683E+02     -1.30626987E+02
      1.13560341E+03     -1.71052160E+03      2.84049493E+02
      3.76165241E+02      6.80539013E+02     -1.24562482E+03
     -1.95593968E+03      3.69166583E+03      9.00804059E+02
     -9.21053096E+01      4.22743537E+02     -2.75613883E+02
      2.76290494E+02     -1.70698936E+02     -3.76901170E+00
      2.05644338E+03      3.01057043E+03     -6.85124195E+02
      1.08753032E+01     -3.82557511E+02     -5.94500913E+02
     -1.93048873E+03     -1.74859526E+03      7.95087803E+02
     -1.63894914E+03      2.47743164E+02     -4.50437131E+02
     -7.53715745E+01      7.58849664E+02     -2.09238321E+02
      2.06208793E+02      1.37922994E+03     -5.91601018E+02
     -1.75602420E+03     -3.98693520E+01      4.35576576E+02
     -5.80243495E+02      1.96892870E+02      3.26357071E+02
     -6.20782484E+01      1.16194457E+03      3.00292581E+03
      4.99189948E+02     -1.03159951E+03     -2.13896390E+03
     -5.33734021E+02      2.21266353E+02     -4.46171385E+02
      5.96590970E+02     -5.43916786E+02     -3.73396702E+03
     -1.85874993E+03     -1.06619493E+02     -1.88541281E+02
     -1.41469041E+02     -1.77347484E+02     -1.81582463E+02
      1.06062087E+03     -1.53953821E+01      2.18198018E+03
     -1.84760633E+03      1.52467171E+03     -1.08786692E+03
      7.84232343E+01     -8.51906128E+02     -4.64635318E+02
      3.39839905E+02     -6.54551305E+02     -1.39925276E+01
      2.39799470E+03     -1.69980449E+03     -8.01435929E+02
      7.40618485E+01     -5.00123123E+02     -1.83133901E+02
     -7.61109744E+02     -1.10954020E+03      1.74285667E+03
     -1.55935914E+03      1.29661991E+03     -5.79585010E+01
      6.87982137E+02      1.99049334E+02      4.12784049E+02
     -7.72510077E+02      1.87429880E+03     -1.59381117E+03
      1.08234756E+03      3.33535935E+03     -3.07826605E+02
     -2.49904593E+03      1.93043918E+03     -2.85992880E+03
     -4.95430105E+02      2.66198354E+02      5.47024102E+02
     -2.64494482E+01     -7.00851976E+02     -6.52484381E+02
      3.15060094E+03     -2.18298069E+03      9.75414287E+02
      6.77345032E+02     -1.61438687E+03     -1.58880543E+03
     -5.86869727E+01     -2.59634453E+02     -4.21149571E+02
     -1.56185758E+03      1.33778580E+03      3.65193772E+02
     -3.94604741E+02      1.67215108E+03     -8.18596531E+02
     -2.69516933E-01     -7.50914697E+02     -9.66525821E+01
     -9.21004321E+02     -2.48244975E+03      1.07774884E+02
     -1.80861087E+03      3.09918182E+03     -1.33806265E+03
      1.59171199E+02      5.35835403E+02      9.51929518E+01
     -1.27990280E+03      3.69897152E+03      1.74915371E+03
      1.55626289E+03     -7.74864267E+02     -1.70168608E+03
     -3.66449653E+02     -4.05002621E+02     -5.97403856E+02
     -2.94881848E+02      1.33930762E+03     -2.58875511E+02
      1.28415483E+03     -3.91365202E+02     -1.28565444E+03
     -2.15545419E+02      5.10004640E+02     -2.51837407E+02
     -1.28988302E+03      2.94225982E+02     -7.18100352E+01
      4.48124550E+02      3.52894753E+02     -5.30658203E+02
      1.31857432E+04     -1.32424559E+04      1.13010573E+04
      5.25629894E+03      1.06308364E+03     -2.57110158E+03
     -6.13780422E+02     -2.61750312E+03     -2.76045887E+03
      1.97626991E+02     -2.86566431E+01     -2.70872557E+02
     -1.16047425E+03     -4.32439729E+02      6.37498483E+02
     -1.29620701E+03     -3.25347398E+02     -3.12080499E+01
     -6.02370138E+02     -6.02377491E+02     -4.51870049E+02
      9.49574482E+02      3.84227943E+03     -1.26475766E+02
     -1.48758978E+03      2.40137469E+02      2.40236060E+03
     -2.72170082E+02     -4.10545020E+01      3.60500053E+02
     -2.51289176E+03      1.96198996E+01      1.62040915E+03
     -2.32968654E+03      1.05031027E+03     -1.06667652E+03
     -1.09284042E+03      2.07628135E+03      5.03030814E+01
      1.51139718E+02      4.22340506E+01      6.56895883E+02
     -6.66644245E+02     -8.75791486E+02     -1.47007250E+03
     -1.82795060E+03     -2.37837687E+03     -8.67530366E+02
     -3.39968207E+02      1.48955380E+03     -1.73282744E+03
     -5.07842059E+02      6.94553419E+02     -3.78402662E+02
      2.12306687E+03      1.88323986E+03     -2.38096445E+03
     -1.83458493E+03     -3.19079312E+02      7.73510375E+02
      7.88560406E+02     -8.05959631E+02      5.48376355E+01
     -1.51370999E+01     -1.35148780E+03      2.21834273E+03
     -7.14261245E+02      1.26260916E+03      5.77592490E+02
     -4.91281431E+02      2.98326755E+02     -2.29467846E+02
      6.88179030E+02     -4.14452579E+02     -6.94189253E+02
      9.18900216E+02     -7.19883006E+02     -4.23917454E+02
      1.02690428E+02      5.38070899E+02     -1.08745112E+02
      1.31228012E+03     -1.65252318E+02     -5.18073999E+02
     -2.14385130E+03      2.33006217E+02      8.71655857E+02
      1.36615551E+02      3.69386140E+02     -1.04057300E+02
      8.21423468E+02      1.35792067E+03     -1.73587313E+03
     -2.05058840E+03     -9.08290549E+02     -2.62730408E+02
      1.92244720E+02      3.15636894E+02      4.40004337E+02
      1.57125105E+03     -8.58625222E+02      3.82801691E+02
      1.48309710E+03      2.97357307E+02      2.87120143E+02
     -1.79544803E+02     -8.39026336E+02     -3.79993762E+01
      7.67872830E+01      4.80546129E+02      1.27831288E+03
     -3.04757442E+03     -7.54752005E+01      6.42076503E+02
      6.84333693E+02      3.18811259E+01      3.13235361E+02
     -1.05352739E+03      8.46447372E+02      3.06348582E+02
      2.38251096E+03     -1.52045885E+03     -8.65306026E+02
      5.30060412E+02     -2.53896530E+02     -3.86174692E+02
     -1.62455262E+02     -3.26362412E+02     -4.09350109E+03
     -1.42296437E+03      2.12865344E+01     -1.98192607E+03
      4.85266882E+02      1.12415420E+03     -1.69872177E+03
     -1.51921394E+02     -2.31558194E+01      6.14976102E+01
      1.67836915E+03     -7.16930891E+02     -6.99951511E+02
      1.09672117E+03      1.28267706E+03      8.58103292E+02
      3.26256072E+02     -1.06174088E+02     -3.09055511E+03
      7.85525859E+01     -1.44777591E+02     -7.41146488E+02
      1.55501127E+03     -1.67833040E+02     -4.05469462E+01
      3.38173348E+03     -2.70987749E+02     -7.02524247E+02
     -7.22245192E+02     -1.89518035E+02     -2.30115290E+02
     -2.87890039E+03     -1.64140386E+03      5.02244521E+02
     -1.36415791E+03     -4.16806247E+02      1.60289950E+03
     -1.04123321E+02      4.22194428E+02     -2.50639838E+02
      1.10756239E+03      1.73199249E+02      9.69769820E+02
      3.70590121E+02     -5.16172405E+02      9.43296118E+01
      4.65895939E+02      8.03784098E+02      1.07650857E+02
      1.99453337E+03     -3.24427699E+02     -1.33763283E+03
     -3.00105967E+02     -1.82544247E+03     -9.64573879E+01
     -1.32196857E+02     -4.89011330E+02     -6.84931194E+02
     -2.03027724E+02      9.98354973E+02     -3.22423192E+02
     -1.00249281E+03      6.88671153E+02     -2.07966241E+03
     -7.36254277E+02      1.03819367E+01     -3.30406383E+02
      2.56353222E+03      1.60894938E+02      2.41317983E+03
      1.49333470E+03     -7.06533686E+02     -7.50123098E+02
     -1.46738661E+01     -5.04018474E+01     -9.66679538E+01
      1.01242754E+02     -1.99618713E+03      7.09918139E+02
      2.07458595E+03      2.27803361E+03     -1.14387885E+03
      1.11747964E+02      3.35776954E+02     -7.42435766E+02
     -1.13954048E+02      7.88128587E+02     -2.40386656E+03
      2.83058088E+03      3.28450959E+02     -1.36495871E+03
     -3.08637883E+02     -8.21093220E+02     -4.47143268E+02
      1.23573063E+03     -1.24482444E+03     -4.31530890E+02
      9.66703338E+02     -6.92238906E+02      5.94248352E+02
     -2.89635022E+03      1.45520620E+03     -2.39033115E+03
      4.92105806E+02      6.33819482E+02     -1.39097115E+02
     -1.50601033E+03      4.21011219E+02      7.74971207E+02
      8.84419265E+02     -2.06545341E+03     -2.41736440E+02
     -2.97775035E+01      1.87143076E+03      1.59913159E+03
     -3.30113092E+02      4.90022923E+01     -4.55772229E+02
     -2.84335392E+01     -7.77522096E+02      9.50831449E+02
      1.67251986E+03     -9.00866000E+02      1.03860979E+01
      2.37216655E+02     -4.30793512E+02      8.85684676E+02
      1.24598155E+03      3.53343423E+03     -9.51431715E+02
     -1.54843126E+03      4.45563556E+03     -1.73717714E+03
     -3.38852288E+02     -8.12457469E+01      1.48790480E+01
      6.25720749E+02      1.00615152E+03      1.44687268E+03
      2.51393689E+03     -1.12805647E+03     -2.18984715E+03
     -3.86594782E+02     -1.41158847E+02     -9.05413371E+01
      4.78526052E+02     -1.19098414E+02      2.37532455E+03
     -1.46136115E+03     -2.41124561E+03     -4.50495219E+02
     -2.48011730E+01      1.68155265E+02      5.05737853E+01
      3.63910885E+03     -4.18036726E+03      2.97373151E+03
     -1.77258451E+03     -4.80989944E+01      2.52761620E+03
     -1.01424098E+03      9.05689097E+02     -2.44241247E+02
      1.59552747E+03     -3.13873335E+02     -2.94429960E+03
     -2.15937406E+02      4.32451180E+02     -5.56572452E+02
     -2.51413076E+01      3.23177263E+02      2.88406122E+02
     -7.01312027E+02     -2.06053217E+03     -3.36864418E+03
     -2.25810586E+03      8.83198823E+02     -5.37349727E+02
     -1.03336996E+03     -6.94300155E+02     -1.78201929E+02
      3.25341024E+03      3.81612011E+02      7.56069828E+02
     -2.86346824E+02     -5.83687598E+01     -1.37291855E+03
      5.28821743E+02     -1.29977649E+01     -6.38191793E+02
     -1.57068800E+03     -5.15273920E+02     -1.02077885E+03
      9.18088181E+01     -4.25018894E+02      2.42542391E+03
      2.42565632E+03      9.14278486E+02      1.33736878E+03
     -8.97811512E+02     -6.46346579E+01     -4.19427568E+02
     -9.38083866E+02      1.94914038E+03     -2.14801921E+03
     -6.33452028E+00      5.17596783E+02      1.86132498E+03
      3.30559122E+03     -1.24267632E+03     -1.19551573E+03
      4.97336622E+02      1.38531322E+02      4.41976727E+02
     -1.09882586E+03     -1.45976628E+03     -5.81321881E+02
      1.61347383E+03     -4.22131491E+02      2.48341937E+02
     -6.33487567E+02      5.36151282E+02     -9.29112675E+02
      7.69527364E+02     -1.86012819E+03      2.62360410E+01
      5.49114862E+01      1.91717239E+03      1.56020087E+03
     -4.15825337E+02      7.07580151E+01     -5.26062392E+02
      1.57279693E+03      6.02989680E+02     -3.09695245E+02
      2.38191515E+03      1.93334959E+03      2.12128437E+03
     -1.25426419E+02      7.34912578E+02     -3.02796124E+02
     -9.14218783E+02     -2.04353874E+03      3.83011895E+02
      4.14063486E+02     -2.33317382E+03     -1.28699189E+03
      2.45995540E+02      1.35742606E+02     -2.22796919E+02
     -5.97486411E+01     -5.87941034E+02     -1.54070957E+03
     -7.17232764E+02      2.19788006E+03     -1.60733478E+03
     -3.73751233E+02      2.87841933E+02     -5.99606640E+01
      5.31749007E+02      1.88160401E+03      7.72170039E+02
     -3.57933280E+02     -1.37041491E+02     -2.77568793E+03
      3.70555725E+02     -1.69886455E+02     -2.11829159E+02
     -2.02379858E+03     -2.19255811E+03     -2.16713319E+03
     -1.35698698E+03      8.10526896E+02      1.74111650E+03
     -4.05583931E+01      7.05203221E+02      4.62966914E+01
      3.09570469E+02     -1.38505071E+03      2.49066836E+02
      2.42863652E+03      4.51321643E+02     -1.93789115E+03
      1.55065009E+02     -1.09723721E+02     -5.63029672E+01
      1.26250652E+03     -9.68079482E+01      2.29945807E+03
     -1.70607009E+03     -1.66628559E+02      1.35566205E+02
      1.29006786E+03      4.00204294E+03     -2.80407812E+03
      2.50024726E+02      2.46215918E+02      2.54418471E+02
     -4.74261442E+03      2.35527410E+03     -5.74610205E+02
      3.22080795E+03      7.57157215E+02      2.12075876E+03
     -1.28001910E+02     -6.27349199E+02      2.15691466E+03
     -2.89334424E+02      2.32040885E+02      9.28838980E+02
     -1.69072294E+02      1.43780649E+03     -2.17517387E+03
      2.80844119E+02      2.35061459E+03      9.37429333E+02
      2.00447033E+02      5.50978567E+02      3.25623776E+01
      2.17369455E+03      1.76516080E+02      1.08160999E+02
      2.70578239E+03      8.44777744E+02      4.82570969E+02
      1.75946816E+02      8.25309142E+01      8.24266790E+01
     -9.20471540E+02      3.63009142E+03     -1.03931718E+03
      2.25539942E+03      2.76994082E+03     -5.59383684E+02
     -8.87946557E+00      8.49897621E+01      8.63776906E+02
     -1.37204140E+03     -2.11326255E+03     -3.97310989E+01
      1.84702888E+03     -2.95797881E+02      2.26501587E+03
      7.88277716E+00      1.88203614E+02     -9.19541086E+01
      1.60862662E+02      1.72535831E+02     -3.06416387E+03
      1.24515661E+02      1.17179076E+03     -9.68649128E+02
      2.92476887E+00     -7.06962169E+02     -3.41814425E+02
     -1.23550211E+02     -1.44382023E+03     -2.11185404E+02
     -2.13198714E+03      1.04734351E+03      2.13323191E+03
      1.98733045E+02      6.05586917E+02     -1.60847730E+01
     -2.25627489E+03      2.27472869E+03      4.65762064E+01
      7.61452530E+02     -1.77008345E+03     -5.02754456E+02
     -3.62498322E+02      5.71476926E+02      2.20226230E+02
      1.58588367E+03      9.67894067E+02      5.67160031E+02
      3.22387039E+03      7.12155262E+02     -8.69588396E+02
     -7.67480760E+02      3.56596471E+02     -5.23512909E+02
     -2.90409006E+03      9.83101385E+02     -1.67025926E+03
      1.08644525E+03     -3.82965635E+02      1.09827944E+03
      8.29732933E+01     -9.41974329E+02      7.14442337E+02
     -3.06403169E+02      5.41438843E+02     -1.58619328E+02
      1.12025915E+03      1.28365363E+03     -2.04237897E+03
     -2.13568487E+02     -3.09310360E+03     -9.63444648E+02
      2.38876497E+03      1.37893907E+03      4.01575452E+02
  }
}

Hamiltonian = DFTB {
  SCC = Yes
  SCCTolerance = 1e-6
  MaxSCCIterations = 200
  ForceEvaluation = Dynamics
  MaxAngularMomentum = {
    C = "p"
    H = "s"
  }
  Charge = 0.0
  SpinPolarisation = {}
  Eigensolver = Standard {}
  Filling = Fermi {
    Temperature [Kelvin] = 300.0
  }
  SlaterKosterFiles = Type2FileNames {
    Prefix = "../../pbc-0-3/"
    Separator = "-"
    Suffix = ".skf"
    LowerCaseTypeName = No
  }
  KPointsAndWeights = {
    0.0000000000000 0.0000000000000 0.0000000000000 1.00000000000000
  }
  Dispersion = LennardJones { 
    Parameters = UFFParameters {}
  }
}

ParserOptions = {
  ParserVersion = 3
}
