Geometry = GenFormat {
<<< "system.gen"
}

Driver = VelocityVerlet{
  Steps = 50000
  TimeStep [fs] = 0.2
  MDRestartFrequency = 25
  Thermostat = None {
    #InitialTemperature [Kelvin] = 300.0
  }
  Xlbomd{ 
    IntegrationSteps = 6 
    MinSccIterations = 2
    MaxSccIterations = 200
    SccTolerance = 1e-6 
  }
  Velocities [m/s] {
     -5.61860669E+02     -1.23960049E+03      1.01561893E+02
      2.24149256E+03      1.27263187E+03     -6.74496765E+02
      1.86881876E+02      8.21412183E+01      4.86228889E+02
     -6.56604487E+02      2.56505561E+02      7.53262113E+02
      2.27058872E+03     -7.07989803E+02     -1.17356734E+03
      4.81776732E+02     -2.44595788E+03      7.77881239E+02
     -2.88584102E+02     -2.84804572E+02      1.27965151E+02
     -1.53837672E+03     -1.22233740E+03     -8.07961952E+02
      1.94433302E+03      2.71517068E+02     -1.26264175E+03
     -9.70289257E+01      5.53525371E+02      3.17473471E+02
      1.52942944E+03     -1.01015718E+03     -2.01929218E+03
     -1.65978162E+02     -1.40087579E+03      1.08156025E+03
     -5.46096271E+02      3.06896140E+02      4.85827317E+02
      9.67005906E+02      1.16082425E+03      1.50796090E+03
     -4.39211070E+02      1.45525833E+02     -1.32309831E+03
     -2.65413897E+02      7.68890519E+02      1.74265123E+02
      1.64601833E+03     -1.69068684E+03     -1.37266367E+03
     -4.57197805E+02      6.70735099E+02     -9.76305499E+02
     -3.32104173E+02      3.55618872E+02      6.49112264E+02
     -1.12483628E+03     -3.02807768E+02     -2.14004277E+03
      3.79188507E+02     -1.62766906E+03      5.70910859E+02
      2.82125013E+02     -3.06599210E+02      5.63721116E+02
     -5.03969274E+02     -1.19096299E+03      8.49189590E+02
     -1.51325055E+03      1.45734845E+03      9.63573284E+02
      6.18345935E+01     -5.14707383E+02     -8.41935050E+00
     -5.66929174E+02     -1.63371903E+03      2.12742591E+03
     -3.80369003E+03     -1.68465503E+03     -2.28641845E+03
     -3.39241241E+02      5.49962201E+02     -2.75173597E+02
      6.20604614E+01     -3.53877427E+02     -1.51744664E+02
     -7.26419241E+02      3.27865554E+03      1.76664023E+03
     -7.40080125E+02      3.03377694E+02      1.43924204E+02
     -3.10394124E+03      3.73102710E+03      2.50794619E+03
     -1.15196424E+03     -5.35651143E+00     -2.08848052E+02
      3.21345459E+03     -8.17195801E+02      1.05424788E+03
     -7.24578257E+02     -2.94405732E+03     -7.86630707E+01
      2.31470776E+02     -7.01250916E+01      2.62376648E+02
      1.00878314E+02     -1.38560111E+03      1.49957514E+03
      3.71506675E+02     -6.99332357E+01     -6.61479506E+01
     -2.02057330E+01     -2.28724588E+02     -2.89610788E+02
     -7.62137056E+02      3.27033750E+03     -7.28502002E+02
     -2.39173369E+02      1.73638932E+03      1.72143293E+03
      7.46722936E+01      1.02140325E+03      1.22182239E+02
      1.36453008E+03     -5.59299657E+02      7.08561458E+02
     -5.48919970E+02      8.63878837E+02      3.15462286E+03
     -1.43358144E+02      8.29560799E+01     -5.70732705E+02
     -2.23980102E+03     -2.45731906E+02     -1.43020036E+03
      1.76894533E+03      1.47803978E+03      2.67208352E+03
     -4.41202864E+02     -4.13167175E+02      1.29759318E+03
      1.73399501E+03     -1.82882728E+03      2.09938502E+02
      1.40481572E+02     -5.97981131E+01     -8.77642293E+02
      2.20851913E+02      1.07592068E+02      4.62069993E+02
     -2.47318276E+03      2.24165135E+03     -2.47708201E+03
      4.22043281E+02      3.63727145E+02      2.26914436E+03
     -5.67586084E+01     -8.23549763E+02      1.67068996E+02
     -4.65249196E+02     -4.46121080E+02     -1.57067194E+03
      6.70090412E+02      4.40745840E+02     -1.19466569E+03
     -4.40230988E+02     -1.05522090E+01     -1.34972634E+03
     -1.87756779E+03     -3.73849101E+03      1.41172247E+03
      8.64514323E+01     -1.14145660E+03      2.29585998E+03
     -2.52389257E+03      2.69784374E+03      6.92791352E+02
     -1.41002992E+02     -4.40515985E+02     -6.27189423E+01
     -2.20816637E+03     -1.79675356E+03      7.00492418E+02
     -9.54271577E+01     -1.35814754E+03      9.14035003E+02
      1.76937428E+03      1.12147739E+03     -6.70356768E+02
      1.01114284E+03      3.18641693E+02     -6.55936836E+01
     -5.21542063E+01      2.64463588E+03     -2.06017729E+02
     -6.98785135E+02     -7.63742979E+02     -3.04119406E+02
      4.31190196E+02     -6.19889791E+02     -4.94761827E+02
      1.19769818E+03      1.13542338E+03     -3.48880640E+03
     -2.97805556E+02     -1.21897498E+03      1.47420878E+03
      2.72436822E+02      4.74798700E+02      8.66274460E+01
      2.96654760E+03     -9.10435731E+02      5.11384392E+01
     -6.03156069E+02     -4.45423118E+02      1.51260384E+03
      1.54426762E+02     -6.50588898E+02      1.44758429E+01
     -3.26203791E+03     -1.74098406E+03     -1.57127750E+00
     -1.40238584E+03     -4.80761347E+02      1.03210607E+03
      4.09916560E+02      3.78667592E+02      5.44008158E+02
      1.01568862E+03      5.05515017E+02     -9.45625831E+02
      8.55877768E+02     -3.59337419E+03     -5.04330891E+02
      4.00487397E+02     -3.40804883E+02     -3.62066898E+02
      1.51158369E+02     -2.66017378E+03     -1.05279761E+03
     -2.76721234E+02      2.65565931E+03      1.01090509E+03
      6.07141536E+01     -5.85600055E+02     -4.08021259E+02
     -1.73350739E+02      3.02108949E+03      1.96857716E+03
      5.87732655E+02     -5.04354556E+02     -2.71698827E+03
     -2.09564986E+02     -9.53634956E+02     -9.33490698E+01
      7.04136611E+02     -1.89839666E+02     -4.14015169E+02
     -3.05925687E+03     -7.99640858E+02      2.20555812E+03
      2.16879479E+02     -3.45215483E+02      2.92753464E+01
     -6.74169771E+02     -2.38439855E+03      2.90130236E+03
     -1.44123801E+03      6.86302145E+02      1.90904250E+03
      4.80660324E+02     -9.63070158E+02      8.73516307E+02
     -5.97218899E+02      2.12132200E+02      1.47373487E+02
     -3.37380686E+03     -2.68876462E+02     -1.94528324E+03
      1.32698430E+03     -2.86756552E+01      3.30330625E+02
     -1.31232533E+03      8.72728374E+02     -7.94137376E+00
     -1.90761641E+01     -2.57043026E+02      1.42676090E+02
     -3.85616828E+02      8.70984073E+02      1.52509895E+03
      8.58193447E+02      2.14884751E+02     -1.82624348E+02
     -2.21434921E+00      3.24205046E+02     -4.55715824E+02
      3.00087079E+03      1.79921015E+03     -1.18704195E+03
      1.95162015E+03     -3.74826501E+03     -2.38418901E+03
     -7.75252086E+01     -4.30143606E+02      8.19076196E+01
     -1.18653568E+03      6.12318081E+02      1.49018761E+03
     -1.17536449E+03      4.14204704E+01      1.07944517E+03
      9.32864514E+01     -5.38693075E+02     -2.80540125E+01
     -2.84837690E+03      1.33997220E+03      7.30475190E+02
      2.56491789E+02      4.39578749E+02     -4.68967634E+02
     -2.00639880E+02     -4.48322374E+02     -5.78650884E+02
     -3.02138195E+03      2.69103530E+03      1.70380929E+02
     -1.10600918E+03      1.10694898E+03      1.08868301E+03
      4.64066546E+02      8.10118292E+02     -2.44111649E+02
      3.07437149E+02      7.03898549E+02     -4.07483452E+02
     -2.06255283E+03     -3.08966829E+03      4.38127113E+02
      2.11258214E+01     -5.06606194E+01     -9.25587368E+01
      1.37800764E+03     -3.75964647E+02      9.49385434E+02
      7.27993972E+02      1.13705947E+03     -2.36026064E+02
     -6.71067718E+01     -2.43217307E+02     -3.24157158E+02
      2.12166082E+03      1.05252640E+03      1.82904711E+02
     -2.48320117E+02     -1.92782541E+03      1.76831431E+03
      2.25165315E+02     -1.81315068E+02      7.81551055E+02
      3.36617643E+03     -2.74465797E+03     -1.89081727E+02
      2.17410482E+03     -2.39550984E+02      1.20444263E+03
      3.81969092E+02     -8.14866676E+02      3.01667574E+02
      1.37465168E+03     -1.81384392E+02     -2.02702272E+02
      9.31854216E+02     -8.69387899E+01     -1.81686013E+03
      1.54341577E+02      1.43086535E+03     -4.71588814E+02
     -3.81128086E+02     -2.50729842E+02     -2.21893712E+03
      3.58439268E+02     -3.40906746E+02      8.44339326E+02
     -1.48758990E+03      1.16572249E+03     -2.29173777E+02
      1.08054721E+03      9.13524571E+02      2.94019773E+03
     -1.38706656E+02      6.34731535E+01     -1.30730931E+02
      1.21953883E+03      8.36357999E+02      1.45351437E+03
      1.19041755E+02     -1.53302940E+03      2.07217763E+02
      2.88123822E+02      5.64138230E+02     -3.02035901E+02
     -1.39977263E+03     -3.94286884E+02      9.72951304E+01
      1.27196024E+03      2.22712612E+03     -6.21501754E+02
     -3.16803405E+02      2.31855278E+02      4.69212867E+02
     -6.59457191E+02      2.26524471E+03     -4.89060412E+02
      4.40136844E+03     -2.84668634E+03     -1.04294066E+03
     -7.31414056E+02     -8.82233269E+02     -4.48759463E+02
      3.73331843E+03     -2.25226676E+02     -1.47371060E+03
     -1.89126072E+03     -2.15999348E+03     -7.35283188E+02
      1.65603203E+02      5.98948263E+01      6.81735165E+02
     -8.60583444E+02     -1.59990513E+03     -5.30524364E+02
      1.62785705E+03     -3.84660880E+02      9.27185939E+02
      7.38205919E+01      1.85552033E+02      9.07539311E+02
      5.67092706E+01     -9.83672498E+01     -3.94815375E+02
     -3.50905504E+02      1.77001402E+03      9.22645506E+02
     -5.74215780E+02     -7.81558452E+02      1.49176473E+02
      4.39459409E+03     -2.47119439E+02     -7.97234949E+02
      1.44327599E+03     -3.66806797E+02      4.81498882E+02
     -3.71649189E+02      6.12853415E+02     -3.73452867E+02
      6.81520069E+01     -9.31790560E+02     -4.90947002E+02
     -1.31977768E+03     -1.18777427E+03      2.92453194E+01
     -5.75564793E+02      4.37989220E+02     -1.41260247E+03
     -3.18051912E+02      7.49279453E+01      1.27429295E+02
     -1.14705990E+03     -1.53031213E+03     -2.27511837E+03
      2.80292656E+03      6.81267925E+02      2.55915852E+03
     -8.14495063E+02     -1.71065547E+03      2.35832299E+03
     -4.47466359E+02     -2.75203397E+02     -7.14117887E-01
     -1.44484206E+02      1.66555986E+03     -2.54061794E+03
      2.01206073E+03      1.09665581E+02     -1.84643549E+03
      5.05974019E+02     -1.16902439E+02     -1.22194960E+02
      2.42744610E+03      9.55995601E+02      2.21607783E+01
      1.58832993E+03     -9.48136944E+02      5.69726130E+02
     -1.20508449E+03     -1.17945244E+03      6.97438088E+02
      1.01351966E+03      2.50755223E+02      1.18364792E+03
     -1.55272613E+03      5.21514093E+02     -6.99277844E+02
      3.74060094E+02      3.18047954E+02      3.37706044E+02
      1.80327533E+03     -2.78331920E+03      1.01875931E+03
      1.35901410E+03      1.29779969E+03      3.62809346E+03
     -4.63065923E+02      1.00330731E+02      1.81084583E+02
      2.55928166E+03     -2.80241262E+03     -2.28878821E+02
      1.07199131E+02     -7.20223214E+00      1.00340290E+03
     -8.95274119E+02     -6.12289983E+02     -4.20729327E+02
      1.03669741E+03     -2.19673196E+03      1.10268130E+03
      3.75220579E+02     -1.86380773E+03      1.13179661E+03
     -4.88234781E+02      3.91617487E+02     -3.25815011E+02
      2.03503054E+02     -5.53526914E+02      1.43739131E+03
     -2.98966360E+03      1.53977677E+02      3.42368650E+02
     -4.33385557E+02      4.24726710E+02      5.96095670E+02
     -3.21228015E+03     -2.47925281E+03      1.67844666E+03
     -5.41946127E+02     -9.98193613E+02     -2.89618945E+03
      6.43765142E+02     -3.80643782E+02     -2.90878271E+02
      2.81065522E+03     -2.47389090E+03     -9.89920749E+01
      1.27518449E+03     -9.83312081E+02      9.92044634E+02
      4.97722257E+02      5.95258939E+02     -1.47265621E+03
     -2.61028970E+00      1.40277668E+01     -2.29958122E+02
     -6.82320956E+02      5.17808586E+02      2.26854683E+03
      2.98502042E+02      1.95380223E+03      2.46647627E+02
      2.07893348E+02     -3.05394006E+03     -8.33688583E+02
      6.65111501E+01     -3.79036656E+02      1.59112012E+01
      3.86193033E+03      3.11861258E+02     -3.09702199E+02
     -1.56840052E+03      6.72545551E+02      5.32787419E+02
     -5.68349235E+02      4.14851336E+02      2.13069043E+02
     -4.92370530E+02     -3.08879169E+03      4.14772894E+03
     -2.16194438E+03     -5.51591702E+02      2.70302225E+02
      1.31523738E+02      2.72127742E+02     -3.89268505E+02
     -2.26576704E+03      2.16248096E+03     -9.36058908E+02
      6.93269926E+02     -6.12578859E+01      5.41978204E+02
      1.65995843E+02     -9.52261897E+02     -1.26244253E+02
     -7.61413524E+02      3.29742390E+02     -3.54151891E+02
     -6.70752324E+02     -1.65132214E+03     -2.89471395E+02
      5.05214111E+02      9.43456442E+01      5.17511703E+02
     -3.34353075E+03      9.05977915E+02      2.02076186E+02
     -7.46631352E+02      3.03637446E+02      1.78776297E+03
     -1.67294383E+02     -6.06617070E+02     -3.21540321E+02
      5.20979542E+02      5.43882516E+02      1.86550426E+03
      1.85056856E+03      2.46805814E+02      2.02445825E+03
      9.34130470E+02     -1.22658902E+02      3.90127541E+02
      2.22460807E+03      5.29988236E+02     -2.17880246E+03
      8.03363961E+02     -9.94071205E+02     -2.30301809E+03
     -5.43974571E+02     -7.32548872E+02      8.73502931E+01
      1.03269214E+03      2.07835227E+03     -6.25749504E+02
      9.90332023E+02     -1.53862644E+02     -4.83112601E+02
      2.48521771E+01     -6.43099389E+02      2.33079516E+01
      5.93324163E+02     -5.81381249E+01     -3.61050675E+03
     -9.94704019E+02     -1.47114554E+02      2.93075672E+03
     -1.76822248E+03     -1.06917783E+03      5.85969296E+02
      3.34313909E+02     -7.47181443E+02     -3.36361756E+00
      1.12491107E+03      2.83044129E+02      1.36085473E+03
      1.10302326E+03      7.35566337E+02     -1.22604413E+03
     -1.31754292E+03      8.95735861E+02      4.64138914E+02
      1.75143386E+02      1.13055050E+03     -5.08761136E+02
     -6.29316290E+02      5.63636791E+02      9.60298027E+02
      9.91257176E+02      3.64537127E+02      1.28673563E+03
     -2.70011014E+02     -8.96467823E+01      1.94638954E+02
     -2.38905672E+03     -4.84484073E+03      1.56091187E+03
     -9.10515289E+02     -3.67812287E+02      1.09712371E+03
      1.72222331E+01     -3.88850849E+02     -5.73714077E+01
     -2.06755654E+03      1.31493664E+03      1.41526097E+03
      2.83443044E+03     -1.79098930E+03      3.52362535E+03
      8.62123850E+01     -4.69242035E+02     -5.03225333E+02
      3.27201874E+02     -1.72828473E+03     -2.93520236E+03
      1.62999686E+03      9.52672490E+02      2.41386676E+03
      5.57157196E+02     -3.55296607E+02     -4.67145524E+01
      5.71507038E+02     -8.11205486E+02      1.31185543E+03
     -1.63798855E+03     -1.72403531E+03      6.44401889E+02
     -1.56989512E+02     -1.43314146E+02      8.26864341E+02
     -7.88840544E+02      1.66165458E+02      2.91195640E+03
     -8.12388835E+02      5.05990165E+02      1.18305067E+03
     -2.00205141E+02     -2.40813159E+02     -2.09207920E+02
     -2.35269968E+03     -1.59237284E+03     -1.97145152E+03
     -1.55876350E+03      8.39738446E+02      1.94464668E+03
      3.27988623E+02      3.86828251E+01      2.11229783E+02
      1.43728299E+03     -4.72360802E+02     -2.18834823E+02
      1.79722312E+03     -2.21955914E+03      1.97536895E+03
      4.34785943E+02     -2.33858835E+02      2.45228152E+02
     -1.23574838E+03      1.26270337E+02     -3.68720761E+03
      2.45699893E+03     -1.08415991E+03      3.22321493E+02
     -1.32896912E+03     -4.60253740E+02      1.84218212E+03
      4.28477261E+02     -2.03776723E+02      2.02015869E+02
     -1.21140901E+03      6.07726610E+02      1.92147488E+03
     -5.87425426E+02     -7.20784136E+01     -9.87789731E+02
      1.57950981E+03     -1.12863126E+03     -2.25782573E+03
      4.68344870E+02     -1.89423281E+02      6.15534356E+02
     -2.10790977E+03     -1.53104792E+03      2.58545339E+03
     -7.54418143E+02     -4.75574827E+01      3.31909324E+02
      2.74676829E+02      1.14436740E+02     -1.58027815E+02
     -1.59231013E+03      2.64743224E+03      2.61130502E+02
      1.15615569E+03     -7.92606517E+02      1.50490335E+03
     -1.29464567E+02     -6.79767306E+02     -6.73032370E+02
     -1.04899910E+02      1.23717736E+03     -9.28051001E+02
     -3.25802349E+03     -8.53069505E+02      1.56803611E+02
      3.54675758E+02      2.02294408E+02      3.75315133E+02
     -8.66633856E+02     -2.60567033E+03     -4.17191440E+02
     -1.24787098E+03     -9.90802679E+02      2.84637076E+03
      3.28266656E+02     -2.01885136E+02     -3.14648382E+02
     -1.37484589E+02     -2.50203662E+03      1.48828978E+03
      4.65454337E+03     -2.55418218E+03     -1.93336716E+03
     -7.88691481E+02     -2.73886720E+02      1.20974945E+03
     -2.43972794E+03     -1.51106687E+03      1.04745595E+03
      1.83237374E+03     -1.19503447E+03      2.67716641E+03
      4.34124282E+02     -2.37783624E+02     -4.83417915E+01
     -1.89175945E+03      8.30266009E+01      3.51214576E+02
      1.10845652E+03     -1.57671765E+03     -1.13708472E+03
     -1.25926372E+02      1.17719999E+02     -2.43071788E+02
     -1.22180844E+03     -2.53872337E+03      3.53101281E+02
      9.98198875E+02      1.78224765E+03     -2.25639411E+03
     -3.98676123E+02      7.39865284E+02     -4.54670181E+02
      1.84627169E+02     -2.41795124E+03     -6.65524549E+02
      2.04900624E+03     -1.20674525E+02     -6.95275718E+02
      7.11382036E+02     -1.19856168E+03      7.05287878E+02
     -2.52317453E+01     -9.31659737E+02      2.04144565E+02
      2.31960343E+03      7.43670420E+02     -1.22060670E+03
      2.34173470E+03     -2.05600194E+03      1.95591349E+03
     -6.53370229E+02     -1.65309027E+03     -1.60370708E+03
     -8.73581724E+01      3.41822089E-01     -5.04874300E+02
      2.97622778E+02     -6.33684796E+01      4.90026457E+02
      1.58068689E+02      1.41677619E+03     -9.45222656E+02
      1.70590034E+02     -2.09073843E+02     -1.00371775E+02
      3.42312767E+02      1.95064055E+03      6.97380261E+02
     -1.96916616E+03      4.66196957E+02     -8.48910450E+02
     -3.45894781E+01      1.12841055E+01     -5.88073839E+02
      9.47402365E+01     -1.09656789E+03      6.52429643E+01
      2.04315500E+02     -1.77406826E+03      2.74806249E+02
     -8.46722299E+01     -8.57019521E+01      3.47808694E+02
      4.07913361E+02     -1.96882205E+03     -7.43409387E+02
      9.80421268E+02     -3.02721815E+03     -6.45541977E+02
     -1.10240528E+02      2.77704713E+02      2.34037709E+02
      2.09191510E+03      1.10011814E+03      2.09165629E+03
     -3.70315598E+03     -8.75487525E+02     -1.10905911E+03
      6.42318255E+02      1.81436635E+04     -1.21196767E+04
      7.47599794E+02     -1.77523171E+03     -6.51471047E+02
      4.09948615E+02     -2.36511407E+03      1.78850046E+03
     -3.93870789E+02     -3.16151446E+02      3.45280490E+02
     -5.81247524E+02      2.35127650E+03      7.29861928E+02
      3.26909815E+03     -2.35604232E+03      1.32248268E+03
      4.07764789E+02     -4.41880372E+02     -3.04588233E+02
      5.96938203E+01      1.50475037E+03      1.58751446E+03
     -3.97107567E+03     -7.53632154E+02      1.49902591E+02
      3.97060656E+02      6.17673118E+02     -2.63463249E+02
     -1.67097830E+03     -1.81513447E+03      1.10766939E+03
     -4.38070049E+02     -2.08507383E+01     -1.75384300E+03
     -1.08970026E+03     -1.92832183E+03      6.06557943E+02
     -4.59576743E+02     -3.08986583E+02      2.47037302E+02
      1.94496125E+03      2.75932118E+03      1.57198210E+02
      2.12669236E+03      8.37286831E+02     -1.48215586E+03
      2.88317997E+02     -9.24862218E+02      2.96046699E+02
     -3.46290017E+02      4.44712150E+02      6.79946929E+02
     -7.86442596E+01     -1.12970680E+03     -1.02902606E+03
      1.79289972E+03     -2.92106730E+02      5.88743677E+02
     -5.84742577E+02      2.40964108E+02      4.08714915E+02
     -3.02667228E+03      2.51644651E+03      2.13626914E+03
     -2.20194684E+03      3.17339176E+02      7.72082609E+02
     -1.96653259E+02      7.01343148E+01      1.97235144E+02
     -3.15280759E+03     -3.19250018E+03     -2.53201999E+03
     -1.21395882E+03     -1.20198586E+03      2.13017204E+03
      5.53814898E+02     -2.04027914E+02      2.05113027E+02
      3.38269251E+01     -1.01472209E+02      1.87392448E+02
      1.54876559E+03     -1.38740200E+03      2.33325866E+03
     -8.27999192E+01      2.49732117E+02     -1.21351908E+02
      4.54291979E+02     -3.01417525E+03      3.76749449E+03
      1.82386267E+03      5.53308787E+02      5.97911117E+01
     -2.65258188E+02     -2.94692198E+02      2.93387945E+02
      1.19331235E+03      2.81099225E+03     -6.96931149E+01
     -1.17183288E+03      5.19389188E+02      2.03765003E+03
      2.12262559E+02      2.18853404E+02      7.13839891E+02
      1.24618225E+03      6.81226728E+02     -1.19022908E+02
     -1.58030745E+03      7.20822839E+02      1.50722539E+02
      1.12058424E+03     -6.04094488E+02     -7.64847741E+02
      6.47583488E+01     -1.57290726E+03     -2.95173892E+02
      1.13896674E+03      9.14680545E+02     -1.65420366E+03
     -6.22836372E+01     -3.72121760E+02      9.12120969E+02
     -2.34615760E+03     -9.51071575E+02      3.04604586E+03
      2.59242839E+03     -1.39953934E+03      4.14214159E+02
     -1.67403841E+03     -2.64165880E+03      2.87089172E+03
      3.44315904E+02      7.99968049E+01     -2.69375755E+02
     -1.63483836E+03      2.64155800E+03      7.24627006E+02
      2.29532093E+02     -3.00502835E+02      1.28830477E+03
      7.98066563E+02      3.14827898E+03      3.86510530E+02
  }
}

Hamiltonian = DFTB {
  SCC = Yes
  SCCTolerance = 1e-6
  MaxSCCIterations = 200
  ForceEvaluation = Dynamics
  MaxAngularMomentum = {
    C = "p"
    H = "s"
  }
  Charge = 0.0
  SpinPolarisation = {}
  Eigensolver = Standard {}
  Filling = Fermi {
    Temperature [Kelvin] = 300.0
  }
  SlaterKosterFiles = Type2FileNames {
    Prefix = "../../pbc-0-3/"
    Separator = "-"
    Suffix = ".skf"
    LowerCaseTypeName = No
  }
  KPointsAndWeights = {
    0.0000000000000 0.0000000000000 0.0000000000000 1.00000000000000
  }
  Dispersion = LennardJones { 
    Parameters = UFFParameters {}
  }
}

ParserOptions = {
  ParserVersion = 3
}
