Geometry = GenFormat {
<<< "system.gen"
}

Driver = VelocityVerlet{
  Steps = 50000
  TimeStep [fs] = 0.2
  MDRestartFrequency = 25
  Thermostat = None {
    #InitialTemperature [Kelvin] = 300.0
  }
  Xlbomd{ 
    IntegrationSteps = 6 
    MinSccIterations = 2
    MaxSccIterations = 200
    SccTolerance = 1e-6 
  }
  Velocities [m/s] {
      1.88002683E+02     -7.18460908E+02     -4.70685234E+02
     -1.31184159E+03     -2.79535314E+03     -8.11956094E+02
     -1.24248122E+03      3.44420320E+02     -2.14930830E+03
     -5.54961305E+02      2.22403289E+02     -8.96618548E+02
     -1.12257701E+03      2.97371299E+03      2.61392752E+03
     -3.32256073E+03     -9.22310172E+02      5.80316091E+02
     -4.41475340E+02      6.29441148E+02     -2.70949288E+02
      6.70123085E+02     -1.35838110E+02     -1.71319770E+03
      8.01569233E+02      1.94772932E+03     -1.41263477E+03
      1.62865454E+02     -5.06298130E+02     -2.11907025E+02
      1.31450393E+03     -9.86354623E+01     -7.07545811E+02
      1.33721527E+03      1.05792906E+02      8.45758370E+02
     -4.75311805E+02     -4.00739148E+01      3.13556409E+02
     -1.88396274E+03     -4.80837497E+02      4.61836446E+02
     -1.05575252E+03      3.36080519E+03     -6.26385071E+01
     -6.34379541E+01      3.12826148E+02     -6.64644287E+02
      5.90398842E+02      2.77557298E+03      2.51540722E+02
      1.08935811E+03      2.19457475E+03     -2.43359990E+03
     -3.70402735E+02     -7.44003615E+01     -4.56252319E+02
      7.35301427E+02      2.21639740E+03     -4.78342227E+02
      2.17324449E+03      1.72172430E+03      4.51782657E+03
     -7.42987632E+02      4.81833406E+02     -3.11686107E+02
      9.66256430E+02     -5.33218689E+03     -4.07688892E+03
     -1.03600109E+03      2.92890515E+03      1.76509199E+01
     -1.94130259E+02      5.61584547E+01      6.48080398E+02
     -1.53713477E+03      6.53697738E+01      2.98975649E+03
      8.55349522E+02     -7.69314457E+02     -1.63722948E+03
     -1.43423846E+02      1.11393614E+03     -3.31325505E+02
     -7.69977111E+02      4.08602012E+02      3.81871854E+02
      1.92498261E+03     -4.28140186E+02     -8.47200608E+02
     -3.93006138E+02      1.22042985E+03     -1.06534556E+03
     -1.42731907E+03      1.84769430E+03     -3.74467174E+03
     -8.27968031E+02      1.19140935E+02     -4.54518710E+02
     -3.69256429E+01      1.07791444E+03      1.86644835E+03
     -2.55962029E+03     -1.91300583E+03     -1.79731655E+03
     -3.34385418E+02      2.67317194E+02      2.21055369E+02
      1.86800311E+03     -2.20244817E+03      7.85549415E+02
     -1.36833777E+03      1.31200140E+03     -3.84437274E+02
      2.38998923E+02     -1.90759180E+02      7.72915975E+02
      8.21110913E+02      3.26455752E+03      3.99796604E+02
     -1.06793722E+03      1.69442096E+03     -1.02902549E+03
      2.54573558E+02      7.45815325E+02     -5.54479023E+02
     -2.67526639E+03     -8.48236722E+01     -3.10738225E+03
     -3.28543063E+02      4.59264526E+02      4.37799090E+02
     -3.52677386E+02      5.94283806E+00     -1.28528901E+02
     -4.45699663E+02      1.88856113E+03     -2.63121432E+03
      1.76948704E+01      2.45684565E+03      4.18082060E+02
     -1.30237266E+02     -7.49900654E+02      2.25960563E+02
      7.16016646E+02     -1.54051384E+03     -1.36723247E+03
      5.98319826E+02      6.85736698E+02      2.40570302E+03
     -9.02382526E+01      1.22757079E+02     -1.50067242E+02
     -1.02626580E+02     -1.96172569E+03      2.39575937E+03
     -1.40351163E+02     -6.69268141E+01      2.34498928E+03
      4.49065834E+02      1.23888221E+01      6.99580774E+02
     -7.69745364E+02     -2.40167136E+03      1.15920943E+03
      1.15335774E+03     -1.47703070E+03      1.14662637E+02
     -3.56316438E+02     -8.67021163E+02     -7.42952511E+02
      1.73020925E+03      9.92186604E+02     -1.32003421E+03
      1.23667838E+03      5.14112407E+02      9.18787853E+02
      4.29950958E+02      2.21760606E+03      3.11190777E+03
      1.98472385E+02     -5.22352886E+02      5.68004567E+02
     -1.61045869E+03     -1.82715602E+03      1.01515149E+03
      1.08888519E+03     -1.94405436E+03     -2.13603941E+03
      5.50106114E+02     -1.34772318E+03      2.81592928E+03
      2.65922037E+02      4.54038468E-01      5.99683266E+02
     -2.93899669E+03      1.00644341E+03      1.97185028E+03
     -2.04223490E+03     -1.34393525E+03     -4.76954881E+02
      3.60986953E+02     -3.40700333E+02      4.88541579E+02
     -5.01674374E+00      1.15567310E+03      1.64727843E+03
      7.85510868E+02     -1.60139378E+02      1.10384968E+02
      1.39515891E+02     -1.68648918E+01      5.44084849E+01
     -3.26375764E+03      1.76896429E+02     -5.17944952E+02
     -5.29704182E+02      1.93833270E+03     -1.42539224E+03
     -1.33441143E+02      3.07586840E+02      8.50612585E+02
      2.53446974E+03     -1.44688215E+03      8.68587101E+02
     -8.95778939E+02     -6.78001637E+02     -6.31192871E+02
      8.46071438E+02     -2.85591654E+02      1.09000084E+03
     -3.08918631E+03      2.60871747E+03     -1.51857149E+03
      4.02972255E+02      1.59292393E+03     -2.31026586E+03
     -3.69463703E+01     -3.46084454E+00      3.21636146E+02
     -2.91961898E+03     -2.88922311E+03      1.03643881E+03
     -2.77021517E+03     -9.38010075E+02     -1.22022446E+03
     -6.87798134E+02     -1.95311268E+02     -9.01708688E+02
     -5.52543889E+03     -4.52415250E+02      1.90903210E+03
      5.08982671E+02     -3.18761467E+02      1.49871768E+03
     -5.38030673E+02      1.93662929E+02     -1.32392417E+03
     -1.48527550E+03      2.87197011E+03      3.99437745E+02
     -1.28062909E+03     -3.94208783E+03     -1.28110167E+03
     -1.30976807E+02      9.18992990E+02      4.34933687E+02
     -1.75845366E+03     -6.55314488E+02      1.63765406E+03
     -1.68922256E+02      2.40422299E+03      9.27066149E+02
     -6.53623523E+02      1.44890199E+03     -1.80142946E+02
     -1.30236386E+03      7.28560232E+02      1.07094101E+03
     -1.82385816E+03     -1.34595924E+03     -3.60964957E+01
     -9.36070241E+02     -1.48062255E+03      1.73402131E+02
      1.18607952E+02     -1.17539936E+03     -7.96413477E+02
      2.19789261E+02      7.10455647E+02      8.36743344E+02
     -1.21196337E+03     -3.88777248E+03     -2.86643692E+03
      5.14380666E+01     -4.21970683E+02     -2.38793891E+03
     -2.21626903E+02      2.60019795E+02     -1.77275289E+01
      1.74061171E+03     -2.28810724E+03     -6.19762572E+02
     -2.39104372E+03     -9.25861059E+02     -4.34820726E+02
      9.96911412E+01      5.82492069E+02      5.35745244E+02
     -2.94433073E+02     -8.08583210E+02     -3.08292235E+02
      7.34119586E+02      1.44573766E+03     -1.13232646E+03
     -3.66576040E+02      6.67652751E+02     -4.51735316E+02
     -1.03595806E+03      4.99047955E+02      1.09300514E+03
     -1.09038673E+03     -1.66530474E+03      1.14014304E+03
      3.85538931E+02      1.68520101E+02     -4.90909325E+02
     -8.15801752E+02     -5.90721869E+02     -3.07580047E+02
     -2.60538475E+02      4.84647666E+02     -3.26859183E+02
     -3.41912882E+02      5.04202137E+02     -7.39480145E+02
     -2.06897041E+03      2.29212779E+03     -4.26782999E+02
      2.18018323E+03     -8.78236665E+02      2.84314124E+03
      2.87739721E+02     -1.45938425E+02     -9.99166897E+02
     -1.86656196E+03      1.37012515E+03      1.86992082E+03
     -3.41140258E+03      8.42541062E+02      1.49238072E+03
     -2.84901805E+02      4.64224704E+01      1.50022068E+01
      2.95739419E+03     -3.39657134E+03      1.12886927E+02
     -2.86109266E+03      1.34922407E+03     -3.13245128E+02
     -1.61733530E+02      5.98232147E+01      2.50620990E+02
      1.86461566E+03      5.71576516E+02      1.73892756E+03
     -2.56811732E+02      1.07095078E+02      3.05085746E+03
      1.33633343E+03     -2.42945180E+03      7.09181474E+02
     -6.70253522E+02      7.04750457E+02     -1.30366452E+02
     -8.27861679E+01      1.14078229E+03     -3.35929433E+03
      8.87360425E+02     -1.04800274E+03     -2.32858121E+03
      3.67925614E+02     -3.68348894E+01      9.36452227E+02
     -2.71519081E+02     -1.05774613E+02      4.74472674E+02
     -4.44673308E+02     -1.52492093E+03      1.26512972E+03
      6.95171867E+02      1.74268737E+02     -1.11419949E+03
     -3.39935601E+02      8.55042365E+02      3.51740468E+02
     -1.62459866E+03      1.55638805E+03      2.32995953E+03
     -2.39448598E+03      5.15249443E+02      1.34925379E+03
      3.85750667E+02      7.87410272E+02      6.70822263E+02
      8.05654777E+02      2.02082183E+03      7.70295161E+01
      2.33695644E+02     -2.41872964E+03      1.70506042E+03
     -9.38030719E+01     -1.35021075E+02     -3.77910012E+02
      3.69327832E+03      5.21096714E+02     -2.87877255E+03
     -7.05801557E+02     -1.97406479E+03     -3.21235163E+03
      3.24804548E+02      3.90144969E+02      4.60444169E+02
      1.06357803E+03     -6.78189394E+02     -3.14417215E+03
     -6.98233332E+01      1.13478880E+03     -4.16155209E+02
      3.13415367E+01      5.77703626E+02      5.45352928E+02
     -1.35491029E+03     -7.34781969E+02     -1.20553598E+03
     -2.54207606E+03     -1.11963440E+02     -1.70934424E+03
      4.67668507E+02      1.58949868E+02      3.88875953E+02
      1.90066977E+03     -2.40333726E+03     -3.28534571E+03
      1.01198624E+03     -1.79111597E+03      6.14923358E+02
      3.44703149E+02      9.65322145E+02     -4.32579774E+02
      3.73100585E+02     -5.61003800E+02      1.84102847E+03
     -3.61925840E+02      6.75816116E+02     -1.02040528E+03
     -1.83584605E+02     -1.04725818E+03     -3.56589089E+02
      1.69333846E+03     -1.26395196E+03      2.35960258E+03
     -1.20092668E+03     -1.98475381E+02      4.14552388E+02
     -1.39282019E+03     -7.53151211E+02     -3.60598499E+03
      1.20417552E+02     -7.60049453E+02     -9.25197276E+01
     -1.48853343E+03     -1.20765321E+03     -1.64122130E+03
      1.68796722E+03      1.01225033E+02     -1.44066768E+03
      2.64619701E+03      9.22224010E+02      3.41642566E+02
     -3.53894930E+02      8.69016737E+02     -1.26556868E+02
      3.37971183E+02     -1.66792848E+02     -4.64184837E+02
     -1.06238253E+03      4.19981343E+02      2.21119571E+03
     -4.58807424E+02     -3.74434167E+02      1.56441758E+02
     -1.68711562E+02      1.75988924E+03      1.26333403E+03
     -3.02280174E+03     -2.12197653E+03     -2.26099425E+03
     -6.87711181E+02     -1.69534614E+02      6.15891144E+01
     -1.42752240E+03      2.50923079E+03      7.24030243E+02
      2.02416581E+03      1.10723744E+03     -1.24639845E+03
     -5.24421217E+01      6.55582054E+02      8.94763257E+02
      6.66607943E+02     -1.10379910E+02      2.79918375E+03
     -1.21491525E+03      1.37242380E+03     -4.44855366E+02
     -1.18603296E+02      5.86361117E+01      3.46671747E+02
     -1.43676985E+03     -3.32179837E+02      1.77697572E+03
      1.73611348E+03     -9.23389662E+02     -3.34404064E+03
     -9.87552230E+01     -6.12990423E+02      5.33166568E+02
     -7.35670390E+02      1.39118960E+03      1.96095460E+03
      1.28045033E+03      1.43737271E+03     -5.70349884E+02
      7.31689639E+01     -1.60035516E+02     -1.51769044E+02
     -4.99343181E+02      2.08086171E+03     -1.64116991E+03
     -4.76735423E+02      1.48528635E+02     -4.15562107E+02
      2.35395749E+02     -4.13349006E+02     -3.15198816E+01
     -1.98982368E+03      8.09611986E+02      1.31088914E+03
      1.13979578E+03      1.23945863E+03      8.78781968E+02
     -3.05463862E+02      1.55391336E+02      4.65402219E+02
     -9.97286867E+02      2.99132618E+03     -1.84619980E+03
     -1.82292238E+03     -2.04636091E+03     -2.17500159E+03
      1.97966575E+03     -7.32789216E+02      2.45670360E+03
     -3.19001740E+02      3.53814129E+02     -6.33760763E+01
     -1.02488078E+03      2.53507416E+03      3.26467473E+02
     -3.14372074E+02     -5.47421306E+02     -2.65358061E+03
     -2.33150226E+03      3.60058016E+02     -1.76614388E+03
     -1.74974681E+01      4.27889620E+02      5.43563071E+02
     -9.89534775E+02      8.65600462E+02      4.34201163E+03
      1.75595135E+02      3.65988103E+02     -3.98317966E+02
     -5.37601468E+02      8.04909729E+02      2.93014202E+02
     -2.22890325E+03     -1.20974495E+03      2.10571349E+03
     -2.42217269E+03     -2.06954345E+02      3.98151149E+03
     -2.09124587E+02      2.97517699E+02      1.24384018E+01
     -5.40245826E+02      7.80039193E+02      8.49747168E+02
     -4.70521465E+02     -1.40693205E+02      5.32195305E+02
      5.11186479E+02     -5.15415906E+01      7.52073348E+01
     -3.68414877E+03      1.03210371E+03     -4.32055555E+02
     -2.72955283E+03      2.13407716E+03     -3.68023117E+02
     -3.69208101E+02     -1.33616541E+02     -3.10716322E+02
      2.41005105E+02     -1.92295721E+02      2.98409848E+02
     -2.22151687E+03     -4.78093613E+02      2.77310262E+02
     -5.95824840E+02      9.79482560E+00      2.33916342E+02
      1.35339373E+02      2.86132952E+02      8.53949144E+02
      1.72732670E+03     -8.27867647E+01      1.05412022E+03
      7.11338848E+01     -4.28925307E+01     -4.04131139E+02
     -7.68093291E+02     -4.45769845E+02      1.52857501E+02
     -1.01579154E+03      1.43264643E+03     -2.58283559E+03
     -5.36303665E+02      7.65490481E+02     -3.66304691E+02
     -2.40741929E+03     -1.04948784E+03      1.76260765E+03
      4.02475523E+02     -2.78703472E+03     -5.25039886E+02
      7.73075656E+02      2.75157450E+02      2.79717252E+02
      8.41275981E+02     -2.60027340E+03     -1.39505791E+03
      1.39426603E+03      7.73128103E+01      2.97252277E+03
     -1.22873435E+03      2.20826506E+02      6.19519770E+02
      4.53717427E+02     -4.66556631E+02      4.03659208E+02
      1.77861412E+03      3.36791890E+02      7.38791445E+02
      2.13984658E+03      2.54012193E+03      1.34085042E+03
     -4.30681280E+02     -8.86775773E+02     -3.20254605E+02
     -5.81426141E+02     -8.70294106E+02      4.35359375E+02
      1.60709746E+02      4.34299824E+02      3.57417490E+02
     -1.48838182E+01     -3.29595213E+02      1.28963243E+03
      7.31882626E+01     -2.25925988E+02     -8.13772287E+02
      2.89830538E+02      1.28628899E+03      1.56944234E+03
     -1.35935197E+03      6.77104879E+02     -4.16435801E+02
     -5.64645932E+02      2.07841065E+01      7.48565351E+01
      2.30193733E+03     -1.99411037E+03      1.87630066E+03
     -1.62533661E+03     -7.80296240E+02      4.74555144E+02
     -2.75848616E+01      2.93053963E+02      1.40686605E+02
      3.19145553E+00     -3.65787566E+02      2.62336549E+03
      2.32788304E+03      4.43771751E+01     -2.17029510E+03
      2.16390343E+02      5.14782436E+02     -8.56168007E+02
     -1.06674198E+03      3.05026217E+03      9.41776016E+02
     -6.56637277E+02     -4.48459679E+02     -4.58347176E+03
      9.96213723E+02      8.35652807E+00      1.21338706E+03
      7.88149380E+02     -2.56054797E+02      9.48865915E+02
      1.59183603E+03     -2.89883359E+03     -3.34964896E+02
     -8.44701475E+02      5.13979752E+02     -9.38094866E+02
      4.13658469E+02      2.00283552E+03      1.58191647E+03
     -1.67250663E+03      6.54017235E+02      4.25592922E+02
      9.31191250E+01     -1.69812314E+02     -8.33062327E+02
     -2.35241385E+03     -1.94489440E+03     -2.39197985E+03
      8.52985505E+02      2.45022297E+03      3.67964094E+03
      7.51470773E+02      7.98219606E+02     -5.61569035E+01
     -1.90329436E+02     -1.57081780E+03      1.32714646E+03
      4.84612952E+02     -1.98781589E+03     -3.28601006E+03
     -1.87031085E+03      5.86338501E+02     -1.34734085E+03
      4.24139439E+02     -4.59782989E+01     -1.23762743E+02
      4.28628964E+02     -4.77886258E+02      4.90286522E+02
     -5.84643152E+01      3.74243091E+01     -1.94051296E+02
      1.11827078E+03      3.20610174E+01      1.99240941E+02
     -4.11244496E+00      1.93150425E+02     -2.94987274E+00
     -1.91659488E+03      9.89695707E+02      9.81872275E+02
      2.34512824E+03     -1.82392926E+03      8.81603002E+02
      1.19892601E+02     -2.33915210E+02     -4.45730840E+01
     -1.30705416E+03      1.76953340E+03      2.63395729E+02
      1.20181468E+03      4.45042650E+03      4.17485330E+03
     -4.64119111E+01     -2.57344264E+01     -3.92625931E+02
      1.77997477E+03     -1.79774256E+03      1.21333424E+03
     -1.99506926E+02     -4.82436855E+02      2.27494412E+03
      4.54308870E+02      5.97332249E+02      1.31314274E+01
     -7.37005268E+02     -1.18961444E+03      1.00247736E+03
      1.00848512E+03     -1.81344003E+03     -5.22846597E+02
     -2.07232097E+02      6.42514887E+02     -6.38769414E+02
      3.90753477E+02     -2.07145908E+03     -1.69819715E+03
     -7.49080648E+02      8.73996343E+02      2.32433843E+03
      3.96778445E+02      5.84401859E+02     -1.01484472E+02
     -1.37404023E+03      1.65997971E+03      3.09938816E+03
      9.28889092E+02      2.34403815E+03      3.82436586E+03
     -7.33889485E+02     -1.65924326E+02     -1.52132348E+02
      2.09675187E+03     -1.27845796E+03     -4.63364636E+02
     -1.90373692E+03      1.88696886E+03     -1.11550797E+02
      5.37169483E+02      8.48626769E+01      3.31900653E+02
      4.81076979E+02     -1.23497883E+02     -4.71416057E+02
      3.80779584E+02     -1.05423705E+03      2.30461661E+02
     -5.60285631E+01     -6.99627955E+02      2.83342341E+02
     -6.29290624E+02     -6.48639473E+01      4.57701088E+02
      1.04293929E+03     -2.74464969E+03      5.60741802E+02
     -3.47873050E+02      2.84295667E+02      4.37107809E+02
     -2.44043007E+02      7.64773426E+01     -1.92374572E+02
     -1.59364961E+03      4.89160751E+02      8.80402185E+02
      9.16312660E+02      1.17459347E+03      3.99003023E+02
      7.68338743E+01     -2.53478258E+03     -9.69368164E+02
     -8.31989542E+01      9.11990461E+02     -2.47263976E+01
     -4.66780920E+02      1.94862211E+03     -3.47484826E+03
      3.73225430E+03     -2.39126794E+03     -6.79795327E+02
     -9.08225483E+02      3.14365779E+02      2.05030629E+02
     -1.87680788E+03     -7.12389928E+02      1.02850008E+03
     -4.02694217E+02     -3.37649883E+02     -1.49823694E+03
     -1.02918867E+03      4.93545091E+01      2.28934345E+02
     -3.60204753E+03     -1.50024779E+02      2.17192599E+02
     -8.01545933E+02      9.53188442E+02      1.11314517E+03
     -7.32824866E+02     -7.26734698E+01      3.46398878E+02
     -1.35113553E+03     -1.87729763E+03     -5.54087172E+02
     -1.41670783E+03      1.29754810E+02     -1.82453385E+03
     -3.79705200E+02      3.33608186E+02     -2.89913300E+02
      2.92611236E+03     -3.39930516E+02     -1.18377869E+03
      6.45824192E+02     -1.43710898E+03      1.75526021E+02
      7.19131150E+02     -3.38697742E+02      3.99976547E+02
      2.69709754E+03     -1.31749840E+02      1.82546090E+03
      8.70865117E+02      4.21987126E+02      1.14493803E+03
      3.52061435E+02     -2.86837708E+02      7.46631685E+01
      1.96107013E+03      2.11599102E+02     -3.48876022E+02
     -1.29876358E+03     -6.24250036E+02      3.02243247E+03
     -1.82888548E+01     -4.48253833E+02      2.00795796E+02
     -6.02745375E+02      1.57970172E+02      1.10781991E+03
      5.66732244E+02     -2.41759368E+02      4.15625297E+02
     -8.75475810E+02     -1.81590216E+02     -4.48690797E+02
     -2.85637702E+02      1.51959160E+03     -2.31777608E+03
      2.40745561E+03     -1.95100868E+03      9.15776351E+02
     -1.75335833E+02     -1.33112402E+03     -2.76016463E+01
      4.10404074E+02     -5.44848513E+01     -3.90359830E+01
      1.76756794E+02     -8.42533890E+02     -1.43810594E+03
      1.48579096E+02      1.98582470E+03      2.31946160E+03
     -1.75970343E+03      5.48407018E+02      1.15574958E+02
     -6.01444650E+02      1.97872317E+02      4.57581038E+02
     -6.80431529E+02     -2.92484174E+02     -4.69544729E+02
      1.15408163E+03      7.17074483E+01      4.15123809E+02
     -7.80482901E+02      3.18548917E+02      3.34818270E+02
     -5.36516740E+02      1.41913831E+03      1.69575562E+03
     -3.15904280E+03      2.15447682E+03      1.21254092E+02
     -5.36584322E+02      3.51869368E+02      1.74015689E+02
      6.11527128E+02     -2.97560421E+03     -3.35875791E+02
      1.41530954E+03      4.52884070E+03     -1.56849142E+03
      4.42922198E+02      5.09816983E+02     -3.83946867E+02
     -9.33756484E-01     -9.10511698E+02      1.17537688E+03
     -7.16564170E+02     -8.47266066E+02     -6.68808277E+02
     -1.04806812E+03     -3.02631924E+02      3.93889267E+02
      5.61146737E+02     -9.58509303E+02      1.91587550E+03
     -1.48175613E+03      1.56868935E+03     -2.02269902E+03
      1.76889397E+04     -1.13690674E+04     -5.60683671E+03
      2.82739433E+03      5.20612437E+02      1.27619998E+03
      4.01166080E+03     -9.76026729E+02     -5.13295346E+02
     -5.84732189E+02     -4.40303613E+01     -7.02503960E+02
      2.55430605E+03     -1.60651417E+03     -5.69950674E+02
     -5.48650201E+02      1.00234949E+03     -1.94317006E+03
     -1.33115489E+03     -7.22057812E+02     -5.95533243E+02
     -1.56705564E+03      7.30000497E+02      2.48322848E+03
      1.65986177E+02     -1.22301854E+03      6.37886845E+02
      9.65189735E+02     -2.90670903E+01      1.01178271E+03
      2.29700791E+03      9.36747090E+01     -1.81154313E+03
      2.60346756E+03      9.96948637E+02      2.76430277E+03
     -1.45722934E+03     -2.11684278E+03     -1.20704987E+03
     -2.49081703E+02      3.87898384E+02      5.75895869E+02
      1.65935944E+03     -6.47279442E+02     -1.02677762E+03
     -3.34957653E+03      1.43017947E+03      1.51640419E+02
     -1.48750835E+03     -2.73721359E+03      1.35495145E+02
  }
}

Hamiltonian = DFTB {
  SCC = Yes
  SCCTolerance = 1e-6
  MaxSCCIterations = 200
  ForceEvaluation = Dynamics
  MaxAngularMomentum = {
    C = "p"
    H = "s"
  }
  Charge = 0.0
  SpinPolarisation = {}
  Eigensolver = Standard {}
  Filling = Fermi {
    Temperature [Kelvin] = 300.0
  }
  SlaterKosterFiles = Type2FileNames {
    Prefix = "../../pbc-0-3/"
    Separator = "-"
    Suffix = ".skf"
    LowerCaseTypeName = No
  }
  KPointsAndWeights = {
    0.0000000000000 0.0000000000000 0.0000000000000 1.00000000000000
  }
  Dispersion = LennardJones { 
    Parameters = UFFParameters {}
  }
}

ParserOptions = {
  ParserVersion = 3
}
