Geometry = GenFormat {
352  S
C  H
1 1    0.3424450077E+02    0.3282679848E+02    0.3765800324E+02
2 2    0.3420816823E+02    0.3278884214E+02    0.3659207114E+02
3 2    0.3447167970E+02    0.3187236704E+02    0.3810333993E+02
4 1    0.3572812544E+02    0.4145404653E+02    0.4410357217E+02
5 2    0.3471488662E+02    0.4161539442E+02    0.4411272534E+02
6 2    0.2101728243E+02    0.4261390028E+02    0.4436785113E+02
7 1    0.3546654805E+02    0.4898248938E+02    0.3820083666E+02
8 2    0.1985603329E+02    0.4940454819E+02    0.3924807174E+02
9 2    0.3560992801E+02    0.4989696126E+02    0.3764201652E+02
10 1    0.2150671352E+02    0.4842343496E+02    0.3836704474E+02
11 2    0.2221441629E+02    0.4927964101E+02    0.3822629382E+02
12 2    0.2183247388E+02    0.4782227661E+02    0.3736697965E+02
13 1    0.3713725087E+02    0.4757025250E+02    0.3971152076E+02
14 2    0.3669049387E+02    0.4667518534E+02    0.3966413680E+02
15 2    0.3656173717E+02    0.4799111465E+02    0.4064925246E+02
16 1    0.2338800927E+02    0.4741222372E+02    0.3997492789E+02
17 2    0.2338129847E+02    0.4700823746E+02    0.4102056541E+02
18 2    0.2392422667E+02    0.4836580360E+02    0.3974898951E+02
19 1    0.3945940106E+02    0.4629012061E+02    0.3904310258E+02
20 2    0.3868149148E+02    0.4586357005E+02    0.3818655688E+02
21 2    0.3964414140E+02    0.4533861706E+02    0.3948520372E+02
22 1    0.4087256322E+02    0.4663907550E+02    0.3849703512E+02
23 2    0.2565693403E+02    0.4578603613E+02    0.3796724706E+02
24 2    0.2617160199E+02    0.4659494480E+02    0.3931512759E+02
25 1    0.3296390171E+02    0.3330718981E+02    0.3821817266E+02
26 2    0.3208516385E+02    0.3304363470E+02    0.3746173291E+02
27 2    0.3271723648E+02    0.3274897763E+02    0.3918295891E+02
28 2    0.3293555193E+02    0.3435243753E+02    0.3861574396E+02
29 1    0.4124135519E+02    0.4795108907E+02    0.3777884611E+02
30 2    0.4116286799E+02    0.4783625251E+02    0.3673112924E+02
31 2    0.4067771698E+02    0.4892800856E+02    0.3784730013E+02
32 2    0.4235717558E+02    0.4819068880E+02    0.3786158771E+02
33 1    0.2922783732E+02    0.3068416062E+02    0.3820035878E+02
34 2    0.2993647650E+02    0.3038326530E+02    0.3902000750E+02
35 2    0.2856576941E+02    0.3143678027E+02    0.3851212249E+02
36 1    0.2982549156E+02    0.3091132649E+02    0.3683637581E+02
37 2    0.2982958025E+02    0.2982048852E+02    0.3652963511E+02
38 2    0.3089774155E+02    0.3109718482E+02    0.3704143344E+02
39 1    0.2927305870E+02    0.3192761485E+02    0.3586488252E+02
40 2    0.3016053834E+02    0.3231477157E+02    0.3539759461E+02
41 2    0.2885878487E+02    0.3265021140E+02    0.3662171432E+02
42 1    0.2824905568E+02    0.3161185016E+02    0.3478800483E+02
43 2    0.4246426425E+02    0.3168622285E+02    0.3514579318E+02
44 2    0.2846759912E+02    0.3066369360E+02    0.3418717491E+02
45 1    0.2827757821E+02    0.3270236795E+02    0.3362229722E+02
46 2    0.2788703801E+02    0.3222551509E+02    0.3266776307E+02
47 2    0.4458459792E+02    0.3313433320E+02    0.3334778397E+02
48 1    0.4281977244E+02    0.3397811481E+02    0.3397170228E+02
49 2    0.4352488202E+02    0.3487274545E+02    0.3409903099E+02
50 2    0.4248465756E+02    0.3397005991E+02    0.3503552081E+02
51 1    0.2642826274E+02    0.3429457675E+02    0.3292847515E+02
52 2    0.2699021923E+02    0.3453344625E+02    0.3200460392E+02
53 2    0.2594845982E+02    0.3516288237E+02    0.3331524788E+02
54 1    0.4068597503E+02    0.3322200075E+02    0.4818882747E+02
55 2    0.3990325286E+02    0.3367097317E+02    0.4881291438E+02
56 2    0.4104393094E+02    0.3229231465E+02    0.4870615573E+02
57 1    0.2831729936E+02    0.2938514331E+02    0.3816187098E+02
58 2    0.2904818912E+02    0.2851796421E+02    0.3783520823E+02
59 2    0.2792540549E+02    0.2934730118E+02    0.3917077405E+02
60 2    0.2743852311E+02    0.2952295389E+02    0.3751502434E+02
61 1    0.2492202675E+02    0.3292395600E+02    0.4672186377E+02
62 2    0.2411647841E+02    0.3235201111E+02    0.4650593192E+02
63 2    0.2455082747E+02    0.3381627849E+02    0.4625529267E+02
64 2    0.2577392278E+02    0.3253640410E+02    0.4613938717E+02
65 1    0.3867913081E+02    0.4229862409E+02    0.3759630888E+02
66 2    0.3877857380E+02    0.4315781095E+02    0.3843612582E+02
67 2    0.3967199883E+02    0.4170778647E+02    0.3758352837E+02
68 1    0.3763266967E+02    0.4126290060E+02    0.3801682649E+02
69 2    0.3665067577E+02    0.4176642430E+02    0.3802423795E+02
70 2    0.3787395524E+02    0.4079533768E+02    0.3888940922E+02
71 1    0.3766020402E+02    0.4015206934E+02    0.3702107105E+02
72 2    0.3733817033E+02    0.3916881516E+02    0.3758143719E+02
73 2    0.3875969206E+02    0.4000358620E+02    0.3696056791E+02
74 1    0.3711566190E+02    0.2490689204E+02    0.3553466146E+02
75 2    0.3718040793E+02    0.2383747899E+02    0.3507108481E+02
76 2    0.3803888955E+02    0.2524299002E+02    0.3501514146E+02
77 1    0.3580070372E+02    0.2560989721E+02    0.3500557381E+02
78 2    0.3544562063E+02    0.4179365479E+02    0.3557705065E+02
79 2    0.3487329229E+02    0.4033803349E+02    0.3498485513E+02
80 1    0.3597343992E+02    0.2604422696E+02    0.3349228606E+02
81 2    0.3500916643E+02    0.2573684324E+02    0.3287555918E+02
82 2    0.3667450658E+02    0.2530653167E+02    0.3299848490E+02
83 1    0.3646531644E+02    0.2740886532E+02    0.3316960008E+02
84 2    0.3726801116E+02    0.2770365742E+02    0.3386131963E+02
85 2    0.3567656483E+02    0.2811732824E+02    0.3346909676E+02
86 1    0.3678158566E+02    0.2755310080E+02    0.3162992674E+02
87 2    0.3615977069E+02    0.2685786828E+02    0.3116041543E+02
88 2    0.3779203484E+02    0.2713998341E+02    0.3159747333E+02
89 1    0.3846366961E+02    0.4314853543E+02    0.3640713691E+02
90 2    0.3745244495E+02    0.4354184552E+02    0.3653634195E+02
91 2    0.3918880745E+02    0.4393640864E+02    0.3633067587E+02
92 2    0.3845653184E+02    0.4275273883E+02    0.3534334584E+02
93 1    0.3665749184E+02    0.2901581591E+02    0.3115402859E+02
94 2    0.3568557486E+02    0.2951924546E+02    0.3130636843E+02
95 2    0.3741827990E+02    0.2955006642E+02    0.3176705972E+02
96 2    0.3699254878E+02    0.2919033104E+02    0.3013145360E+02
97 1    0.2829958730E+02    0.3841082742E+02    0.3608043945E+02
98 2    0.2832506608E+02    0.3871541532E+02    0.3709673249E+02
99 2    0.2924767765E+02    0.3858704619E+02    0.3556112251E+02
100 1    0.2785876882E+02    0.3691640562E+02    0.3595226236E+02
101 2    0.2787584803E+02    0.3661359431E+02    0.3492593322E+02
102 2    0.2676963352E+02    0.3676253170E+02    0.3632078225E+02
103 1    0.2870636641E+02    0.3595467635E+02    0.3689243941E+02
104 2    0.2970521091E+02    0.3627966907E+02    0.3720811849E+02
105 2    0.2891718351E+02    0.3511205505E+02    0.3626366924E+02
106 1    0.2801724611E+02    0.3543409382E+02    0.2282811506E+02
107 2    0.2697918870E+02    0.3505286786E+02    0.2250797708E+02
108 2    0.2765589500E+02    0.3630658880E+02    0.2346595158E+02
109 1    0.2892962290E+02    0.3452520640E+02    0.2365207466E+02
110 2    0.2921180447E+02    0.3362138348E+02    0.2311748723E+02
111 2    0.2826237214E+02    0.3405414657E+02    0.2437785557E+02
112 1    0.3019575355E+02    0.3516572431E+02    0.2431566793E+02
113 2    0.3099654531E+02    0.3548807977E+02    0.2354603528E+02
114 2    0.3061298858E+02    0.3440692879E+02    0.2493576227E+02
115 1    0.2979850147E+02    0.3637274162E+02    0.2520825601E+02
116 2    0.2870127732E+02    0.3626555030E+02    0.2551421457E+02
117 2    0.2968431712E+02    0.3731266244E+02    0.2458858677E+02
118 1    0.3082012565E+02    0.3669587094E+02    0.2643020741E+02
119 2    0.3186433327E+02    0.3628136344E+02    0.2617578470E+02
120 2    0.3062705876E+02    0.3609067962E+02    0.2735630552E+02
121 1    0.2722732191E+02    0.3934055699E+02    0.3551903785E+02
122 2    0.2690819349E+02    0.3890393528E+02    0.3453847048E+02
123 2    0.2641566357E+02    0.3917674813E+02    0.3621769522E+02
124 2    0.2737767111E+02    0.4038266672E+02    0.3553931302E+02
125 1    0.3077322000E+02    0.3813995662E+02    0.2687941493E+02
126 2    0.3110012139E+02    0.3888516424E+02    0.2618131330E+02
127 2    0.2973171532E+02    0.3839524807E+02    0.2720229996E+02
128 2    0.3149896466E+02    0.3829212802E+02    0.2763871020E+02
129 1    0.3736048518E+02    0.3641897792E+02    0.3513869847E+02
130 2    0.3695319196E+02    0.3703964946E+02    0.3606266004E+02
131 2    0.3670840548E+02    0.3552686607E+02    0.3516030773E+02
132 1    0.3719480867E+02    0.3722580094E+02    0.3379918034E+02
133 2    0.3786096702E+02    0.3805322018E+02    0.3389117076E+02
134 2    0.3616303923E+02    0.3768167647E+02    0.3388523777E+02
135 1    0.3734461278E+02    0.3658115383E+02    0.3236259629E+02
136 2    0.3841736621E+02    0.3650279428E+02    0.3203468416E+02
137 2    0.3704390251E+02    0.3734734001E+02    0.3158261783E+02
138 1    0.3675684217E+02    0.3520866321E+02    0.3205103689E+02
139 2    0.3598454079E+02    0.3500195124E+02    0.3283243122E+02
140 2    0.3760677582E+02    0.3452306172E+02    0.3216866574E+02
141 1    0.3614541660E+02    0.3500889373E+02    0.3070404531E+02
142 2    0.3621457831E+02    0.3392736715E+02    0.3029030855E+02
143 2    0.3677166004E+02    0.3557764031E+02    0.2990175132E+02
144 1    0.3464898081E+02    0.3535885863E+02    0.3087828010E+02
145 2    0.3462043566E+02    0.3559024613E+02    0.3189376999E+02
146 2    0.3398502044E+02    0.3444080366E+02    0.3077618022E+02
147 1    0.3413013460E+02    0.3643787277E+02    0.2995871487E+02
148 2    0.3304948837E+02    0.3611646442E+02    0.2958530964E+02
149 2    0.3479388717E+02    0.3662369865E+02    0.2908284962E+02
150 1    0.3396027135E+02    0.3778172059E+02    0.3073057063E+02
151 2    0.3490486412E+02    0.3796924109E+02    0.3125909070E+02
152 2    0.3324296107E+02    0.3758172164E+02    0.3155063491E+02
153 1    0.3885646656E+02    0.3612529131E+02    0.3549475072E+02
154 2    0.3956580920E+02    0.2160933823E+02    0.3523892100E+02
155 2    0.3905495547E+02    0.3567807630E+02    0.3643694264E+02
156 2    0.3913013722E+02    0.3540288688E+02    0.3475625914E+02
157 1    0.3344343318E+02    0.3903128996E+02    0.3006117562E+02
158 2    0.3247125445E+02    0.3873905602E+02    0.2957640753E+02
159 2    0.3329766011E+02    0.3976165349E+02    0.3080866186E+02
160 2    0.3412076344E+02    0.3942817095E+02    0.2931703092E+02
161 1    0.4049025971E+02    0.2830363590E+02    0.3330815667E+02
162 2    0.4039206524E+02    0.2902975348E+02    0.3251402765E+02
163 2    0.3951476587E+02    0.2827689821E+02    0.3381497311E+02
164 1    0.4066108037E+02    0.2711633196E+02    0.3232021291E+02
165 2    0.4164228730E+02    0.2730439954E+02    0.3176470486E+02
166 2    0.3983011584E+02    0.2729991661E+02    0.3160858020E+02
167 1    0.4066055814E+02    0.2565524859E+02    0.3262028868E+02
168 2    0.3995649399E+02    0.2546385324E+02    0.3343576230E+02
169 2    0.4158270960E+02    0.2532527593E+02    0.3303234375E+02
170 1    0.4025717605E+02    0.2474701587E+02    0.3144206741E+02
171 2    0.4102806813E+02    0.2499380426E+02    0.3063218220E+02
172 2    0.3926400201E+02    0.2499750101E+02    0.3109622642E+02
173 1    0.4033064318E+02    0.3856595248E+02    0.3180906751E+02
174 2    0.3937654822E+02    0.3812169053E+02    0.3167271515E+02
175 2    0.4063388415E+02    0.2316656439E+02    0.3296011214E+02
176 1    0.4129956568E+02    0.3780283613E+02    0.3099828802E+02
177 2    0.4159121754E+02    0.3837863152E+02    0.3009982894E+02
178 2    0.4077412424E+02    0.3676665771E+02    0.3072528572E+02
179 1    0.4267938261E+02    0.3750151218E+02    0.3170977504E+02
180 2    0.4306647656E+02    0.3652572176E+02    0.3145080174E+02
181 2    0.4252904845E+02    0.3737375492E+02    0.3282947200E+02
182 1    0.4373929604E+02    0.3855049718E+02    0.3143467552E+02
183 2    0.4436500576E+02    0.3892140627E+02    0.3231878685E+02
184 2    0.4313501221E+02    0.3947755007E+02    0.3114671254E+02
185 1    0.4153617104E+02    0.2882900003E+02    0.3430123418E+02
186 2    0.4162891829E+02    0.2823401032E+02    0.3520848623E+02
187 2    0.4246878966E+02    0.2912836708E+02    0.3378489181E+02
188 2    0.4111111091E+02    0.2979268271E+02    0.4990904653E+02
189 1    0.4473927920E+02    0.3808751225E+02    0.3039001309E+02
190 2    0.4551954900E+02    0.3735764867E+02    0.3066425767E+02
191 2    0.4422080182E+02    0.3749449323E+02    0.2959289417E+02
192 2    0.4510718631E+02    0.3892576577E+02    0.2985513068E+02
193 1    0.3616948202E+02    0.2675360859E+02    0.4154755262E+02
194 2    0.3607827971E+02    0.2617843425E+02    0.4054392022E+02
195 2    0.3511544271E+02    0.4278483398E+02    0.4163172098E+02
196 1    0.3625952824E+02    0.2563030876E+02    0.4270949055E+02
197 2    0.3546560050E+02    0.2501979904E+02    0.4215003834E+02
198 2    0.3610471419E+02    0.4056485949E+02    0.4481586740E+02
199 1    0.3770014881E+02    0.2499815138E+02    0.4258866551E+02
200 2    0.3790066831E+02    0.2484629337E+02    0.4141798207E+02
201 2    0.3754030943E+02    0.2393574683E+02    0.4262938672E+02
202 1    0.3879632672E+02    0.2535873770E+02    0.4358831720E+02
203 2    0.3859059111E+02    0.2466384297E+02    0.4444874832E+02
204 2    0.3847035831E+02    0.2638807387E+02    0.4395319265E+02
205 1    0.4014837009E+02    0.2546622144E+02    0.4310774115E+02
206 2    0.4084561690E+02    0.2588258866E+02    0.4387400827E+02
207 2    0.4020872710E+02    0.2616715988E+02    0.4219237718E+02
208 1    0.4111482650E+02    0.2410140167E+02    0.4281504264E+02
209 2    0.4053165508E+02    0.2330980995E+02    0.4233579252E+02
210 2    0.4162448403E+02    0.2373297513E+02    0.4391378907E+02
211 1    0.4244217776E+02    0.3953931757E+02    0.4202305076E+02
212 2    0.4236658414E+02    0.3854768158E+02    0.4152680622E+02
213 2    0.4328570022E+02    0.3937936328E+02    0.4284617936E+02
214 1    0.4274746603E+02    0.4062138263E+02    0.4092988149E+02
215 2    0.4381950923E+02    0.4041469343E+02    0.4074532084E+02
216 2    0.4272835194E+02    0.4168794157E+02    0.4123537308E+02
217 1    0.3704585591E+02    0.2786506658E+02    0.4162339668E+02
218 2    0.3783475150E+02    0.2788874710E+02    0.2546840218E+02
219 2    0.3658743820E+02    0.2902733205E+02    0.2621818646E+02
220 2    0.3756730511E+02    0.2749373821E+02    0.4246494109E+02
221 1    0.4186773588E+02    0.4034001958E+02    0.3966809295E+02
222 2    0.4087140641E+02    0.3986784356E+02    0.3990117496E+02
223 2    0.4200289240E+02    0.4136521379E+02    0.3904258001E+02
224 2    0.4247917347E+02    0.3963720234E+02    0.3898295348E+02
225 1    0.3178436567E+02    0.4073442210E+02    0.3315836610E+02
226 2    0.3098000126E+02    0.3983276394E+02    0.3327726063E+02
227 2    0.3279797686E+02    0.4029786276E+02    0.3295713201E+02
228 1    0.3103172116E+02    0.2639193263E+02    0.3222105413E+02
229 2    0.3017504107E+02    0.2671185202E+02    0.3287075028E+02
230 2    0.3056298581E+02    0.2586985543E+02    0.3138221197E+02
231 1    0.3188181642E+02    0.4287333389E+02    0.3160818695E+02
232 2    0.3270570388E+02    0.4252077057E+02    0.3098772518E+02
233 2    0.3243263004E+02    0.4354414237E+02    0.3234291410E+02
234 1    0.3088803330E+02    0.4366665405E+02    0.3070269919E+02
235 2    0.3020852213E+02    0.4304030609E+02    0.3008410279E+02
236 2    0.3152370913E+02    0.4404900464E+02    0.2992350596E+02
237 1    0.3001253096E+02    0.4461887238E+02    0.3159182394E+02
238 2    0.3050822886E+02    0.4558247969E+02    0.3164040114E+02
239 2    0.2987376169E+02    0.2903010900E+02    0.3269162970E+02
240 1    0.2851310134E+02    0.4478210262E+02    0.3116841404E+02
241 2    0.2818635810E+02    0.3011516591E+02    0.3197001529E+02
242 2    0.2799856421E+02    0.2848750372E+02    0.3123519411E+02
243 1    0.2801773495E+02    0.4536227021E+02    0.2984424320E+02
244 2    0.2885206823E+02    0.4594607292E+02    0.2948977024E+02
245 2    0.2720868939E+02    0.4608409323E+02    0.3009359311E+02
246 1    0.2761219416E+02    0.4447060165E+02    0.2871277934E+02
247 2    0.2813422469E+02    0.4352275052E+02    0.2883456195E+02
248 2    0.2807024641E+02    0.4483575318E+02    0.2778312841E+02
249 1    0.3190911533E+02    0.2607483560E+02    0.3450706762E+02
250 2    0.3095759957E+02    0.2624640167E+02    0.3506886738E+02
251 2    0.3249132837E+02    0.2543523615E+02    0.3521902022E+02
252 2    0.3247543634E+02    0.2708008143E+02    0.3441901234E+02
253 1    0.2617815586E+02    0.4432337223E+02    0.2843103794E+02
254 2    0.2581926374E+02    0.4484392906E+02    0.2757006262E+02
255 2    0.2594441128E+02    0.4325266971E+02    0.2818180780E+02
256 2    0.2546948831E+02    0.4454695526E+02    0.4459238236E+02
257 1    0.4526521936E+02    0.3350326680E+02    0.4454542306E+02
258 2    0.4530253469E+02    0.3232722934E+02    0.4481858526E+02
259 2    0.4580292220E+02    0.3367375985E+02    0.4351376909E+02
260 1    0.4374248671E+02    0.3358338133E+02    0.4427359271E+02
261 2    0.4325844679E+02    0.3343853359E+02    0.4521797404E+02
262 2    0.4351835644E+02    0.3258395077E+02    0.4379891594E+02
263 1    0.4328064252E+02    0.3482075890E+02    0.4358751708E+02
264 2    0.4344586259E+02    0.3471580019E+02    0.4249767228E+02
265 2    0.4378853121E+02    0.3573734759E+02    0.4392962888E+02
266 1    0.4179831770E+02    0.3519397830E+02    0.4373941750E+02
267 2    0.4188846896E+02    0.3639119649E+02    0.4383825765E+02
268 2    0.4147677308E+02    0.3491611057E+02    0.4481632706E+02
269 1    0.4093185144E+02    0.3465754331E+02    0.4261833090E+02
270 2    0.4007875087E+02    0.3399300905E+02    0.4286553060E+02
271 2    0.4142208834E+02    0.3408658341E+02    0.4176141350E+02
272 1    0.4037692352E+02    0.3587276839E+02    0.4179457414E+02
273 2    0.4115174951E+02    0.3662022929E+02    0.4140350463E+02
274 2    0.3978901046E+02    0.3645036145E+02    0.4252582266E+02
275 1    0.3971362810E+02    0.3565900123E+02    0.4040007701E+02
276 2    0.3894777192E+02    0.3485047894E+02    0.4037952758E+02
277 2    0.4045701319E+02    0.3537454752E+02    0.3965403894E+02
278 1    0.3896260648E+02    0.3685039340E+02    0.3978318004E+02
279 2    0.3886748024E+02    0.3771589669E+02    0.4052359458E+02
280 2    0.3786876438E+02    0.3648928057E+02    0.3952428906E+02
281 1    0.4598314045E+02    0.3431573928E+02    0.4560990530E+02
282 2    0.4558542111E+02    0.3434492576E+02    0.4657403519E+02
283 2    0.4699741602E+02    0.3392358946E+02    0.4567584163E+02
284 2    0.4610053036E+02    0.3537601536E+02    0.4521570101E+02
285 1    0.3982465011E+02    0.3734013737E+02    0.3858106982E+02
286 2    0.3964421303E+02    0.3843143406E+02    0.3855709563E+02
287 2    0.4085320799E+02    0.3727767746E+02    0.3881739214E+02
288 2    0.3949044690E+02    0.3694363070E+02    0.3761566304E+02
289 1    0.3085803574E+02    0.2636974585E+02    0.3887319921E+02
290 2    0.3120188434E+02    0.2647237930E+02    0.3997830988E+02
291 2    0.2977587115E+02    0.2652531726E+02    0.3889005416E+02
292 1    0.3155307935E+02    0.2750123441E+02    0.3811331278E+02
293 2    0.3117054590E+02    0.2839852957E+02    0.3857592222E+02
294 2    0.3127430437E+02    0.2758466525E+02    0.3704956311E+02
295 1    0.3307680425E+02    0.2744781529E+02    0.3831392935E+02
296 2    0.3354024239E+02    0.2677379417E+02    0.3752180181E+02
297 2    0.3339833185E+02    0.2695960777E+02    0.2396583538E+02
298 1    0.3361146275E+02    0.2889951514E+02    0.2268719121E+02
299 2    0.3297938801E+02    0.2952331444E+02    0.3739858536E+02
300 2    0.3443446120E+02    0.2875650482E+02    0.2196039614E+02
301 1    0.3420388493E+02    0.2959153347E+02    0.2393151411E+02
302 2    0.3470308123E+02    0.3047691502E+02    0.2360518482E+02
303 2    0.3502581140E+02    0.2896024806E+02    0.3959559080E+02
304 1    0.3318775095E+02    0.2971984271E+02    0.2513574357E+02
305 2    0.3289744771E+02    0.2868092399E+02    0.2559465340E+02
306 2    0.3237105777E+02    0.3041980522E+02    0.2480446353E+02
307 1    0.3378457590E+02    0.3050321460E+02    0.2631775489E+02
308 2    0.3376002997E+02    0.3168068100E+02    0.2614603652E+02
309 2    0.3487351099E+02    0.3036325408E+02    0.2629346448E+02
310 1    0.3321180845E+02    0.3004481376E+02    0.2762002905E+02
311 2    0.3312353869E+02    0.2897047577E+02    0.2775473409E+02
312 2    0.3219367293E+02    0.3041988616E+02    0.2794059014E+02
313 1    0.3089844402E+02    0.2498993358E+02    0.3825386041E+02
314 2    0.3038828865E+02    0.2429373330E+02    0.3894979080E+02
315 2    0.3014716487E+02    0.2496114810E+02    0.3740941121E+02
316 2    0.3189460738E+02    0.2479080248E+02    0.3777978331E+02
317 1    0.3425411550E+02    0.3043761175E+02    0.2864037638E+02
318 2    0.3376047966E+02    0.3065878372E+02    0.2962620544E+02
319 2    0.3505637098E+02    0.2977793627E+02    0.2892649350E+02
320 2    0.3465977945E+02    0.3138103025E+02    0.2836811227E+02
321 1    0.3428251514E+02    0.3911792002E+02    0.2358591582E+02
322 2    0.3465659626E+02    0.3954318663E+02    0.2257814903E+02
323 2    0.3377278037E+02    0.3988754179E+02    0.2422683604E+02
324 1    0.3339982855E+02    0.3797049227E+02    0.3863013486E+02
325 2    0.3236415257E+02    0.3824391200E+02    0.3842583803E+02
326 2    0.3320377943E+02    0.3733361341E+02    0.3958594773E+02
327 1    0.3390224370E+02    0.3706102123E+02    0.3748895701E+02
328 2    0.3355478763E+02    0.3605832802E+02    0.3772593202E+02
329 2    0.3496609798E+02    0.3690401905E+02    0.3767771262E+02
330 1    0.3360894677E+02    0.3774360344E+02    0.3607557912E+02
331 2    0.3454027060E+02    0.3816692790E+02    0.3561300139E+02
332 2    0.3313559895E+02    0.3878151716E+02    0.3620862239E+02
333 1    0.3278877913E+02    0.3680125899E+02    0.3516711169E+02
334 2    0.3247544883E+02    0.3728678189E+02    0.3421887938E+02
335 2    0.3183893510E+02    0.3655604612E+02    0.3568695483E+02
336 1    0.3365771117E+02    0.3564083144E+02    0.3474577110E+02
337 2    0.3412798122E+02    0.3521566829E+02    0.3564596586E+02
338 2    0.3445185480E+02    0.3603358274E+02    0.3419186439E+02
339 1    0.3289189419E+02    0.3455061740E+02    0.3405566017E+02
340 2    0.3240968899E+02    0.3498946915E+02    0.3300074849E+02
341 2    0.3208793461E+02    0.3420923750E+02    0.3477304642E+02
342 1    0.3377116728E+02    0.3326549973E+02    0.3386904238E+02
343 2    0.3454090602E+02    0.3315182161E+02    0.3470064223E+02
344 2    0.3436891118E+02    0.3309965190E+02    0.3288653561E+02
345 1    0.3565467609E+02    0.3866181980E+02    0.2427877433E+02
346 2    0.3543332902E+02    0.3825217139E+02    0.2523221681E+02
347 2    0.3604528771E+02    0.3783547185E+02    0.2363022088E+02
348 2    0.3631417172E+02    0.3953891371E+02    0.2438748499E+02
349 1    0.3294865807E+02    0.3195179111E+02    0.3393612574E+02
350 2    0.3256840531E+02    0.3165838020E+02    0.3483949972E+02
351 2    0.3198535270E+02    0.3197691480E+02    0.3335696684E+02
352 2    0.3338683220E+02    0.3102263839E+02    0.3359768330E+02
0.0000000000E+00    0.0000000000E+00    0.0000000000E+00
0.1532620600E+02    0.0000000000E+00    0.0000000000E+00
0.0000000000E+00    0.1532620600E+02    0.0000000000E+00
0.0000000000E+00    0.0000000000E+00    0.1532620600E+02
}
Driver = VelocityVerlet {
  Steps = 50000
  TimeStep [fs] = 0.2
  MDRestartFrequency = 25
  Thermostat = None {}
  Xlbomd = {
    IntegrationSteps = 6
    MinSccIterations = 2
    MaxSccIterations = 200
    SccTolerance = 1e-6
    PreSteps = 0
  }
  Velocities [AA/Ps] = {
-10.28305091 5.43496068 -1.38075206
14.94112722 0.52167428 29.49702176
-37.61159890 -0.42614507 -15.29748778
7.83184812 -0.63243130 12.88755020
1.33820497 -28.05632039 44.89201769
31.48407645 -1.54615057 -56.78159637
-11.61973364 -1.12075895 1.64144471
36.00989911 -17.29267768 12.04338608
-24.70017166 -39.44067639 -15.52724614
0.19703320 -11.24487234 3.09638265
1.22130597 -19.74217054 -43.60006362
14.04794855 -42.68569426 -3.29059781
4.90269772 -12.70386807 0.04926081
40.52370284 8.10004467 -18.86590572
-10.10787243 0.46003567 -21.68556447
-2.85998215 7.60385330 1.19152315
-11.40860474 -59.00521601 -24.11762725
12.91018989 16.63396704 6.94745810
7.83254012 9.19377402 1.14765101
24.21095580 -24.75444815 -21.13497736
-1.89814799 -3.23871675 35.92721296
2.38457185 7.10655058 -7.33242481
-23.18032115 -7.21661248 -35.91943957
7.80507269 18.04715334 -18.49503853
7.36050912 15.38285980 -6.67315962
-0.96724269 -14.74466790 -1.34743321
-4.70292658 50.97252527 -20.39831694
-18.30173389 -29.47511860 -9.75022220
-9.25440610 -5.74355760 13.27587837
10.91514549 43.09193714 -37.54202554
5.32112721 -23.32838226 -31.62036921
8.54212894 4.52005406 -13.95229043
-2.38539510 -2.41158143 8.35937378
3.27497273 -8.67628654 0.81508702
-0.26348332 3.92409565 -0.71050921
-8.56923709 5.52824053 5.64108225
-10.30437598 -10.89253467 7.42214027
15.58324974 -14.68366924 2.33077586
-4.63660221 -11.59838087 6.82539043
-33.96843241 -8.21950477 -17.12085619
8.99502410 14.61102144 25.71514036
-14.43854723 13.04971948 5.50224805
18.92684853 -9.03934128 -19.83353990
12.37139601 -15.42764316 -19.36763910
-6.20355165 0.99615287 -0.26268272
40.19990113 -7.62897337 -1.40637648
-1.06054498 14.80872065 8.43156198
1.92083234 -1.24869402 -2.27611449
0.25190543 22.40830377 19.97654147
-24.05870924 -24.67763481 6.86613184
15.14155723 -1.93929622 5.65016681
11.73087757 -8.39087538 25.19503633
20.20188115 -0.03976553 4.71371309
-5.83470745 7.16080346 -5.22052817
8.40511170 -0.63191967 4.71447072
26.04385706 -24.21494632 2.53330276
-4.88687174 -3.10525405 4.79111273
3.35765381 11.81921310 24.66204728
6.63063883 -17.49774790 8.41483309
-1.30328230 2.80452128 5.51929482
6.99023762 -1.47754404 1.44118723
23.19917463 -6.92694196 1.26079058
2.35444773 -3.50055913 -26.21188799
-17.53744514 14.05661572 -1.86200169
-3.65800931 2.59577477 -6.13172505
-1.20136832 -12.84683709 -15.90377860
-5.40781366 7.19667413 6.76455783
-1.02726852 2.84150315 4.93088105
-31.56912549 -19.18251440 -18.31491159
-4.99385860 -15.11170960 -4.96480011
-4.50024663 4.58214862 6.19767104
-2.26830095 6.10738223 -23.90106102
24.71352114 -1.24964959 -6.18948516
8.00759601 12.63355814 10.82396079
3.23153615 -25.86991068 -20.72674922
1.40995474 26.70208369 -16.27582321
6.18342165 13.51257415 -4.71007938
10.12312774 5.61987879 -21.33758164
10.40661352 -9.62358692 15.84951374
0.50328219 2.61249921 -0.92613098
-20.98643196 -7.04328899 14.28654921
2.52934553 11.80192493 -0.22471298
-0.98397604 -11.88043096 -0.55666909
-33.51363057 25.15644232 20.90750549
-8.58084459 -4.46274881 -12.33922418
-1.90065577 2.69866462 -3.31252715
-17.67399333 8.39319092 -14.04365806
35.54868164 6.97666885 6.14481061
9.01381029 3.28694146 8.25560470
18.06696377 -26.39282494 2.60534997
-7.82108102 7.72375421 12.84384924
17.95287790 -1.07566394 27.65992247
4.48164743 -8.39865703 -12.19883077
-41.30085478 -12.15333217 -36.10098855
14.53982839 11.38726346 -5.56906888
-12.01445028 -12.97459213 -37.07774736
-1.31610047 -3.43543261 -7.37835698
-18.38710901 -2.73873378 -19.33906870
24.80980335 -8.49697787 -9.76865977
0.12477437 1.64327142 -5.93428263
16.68391460 21.54425085 16.60081948
-11.74873234 -22.58583052 33.61576025
1.70483418 -3.51656022 -5.11273252
-37.79267195 -15.15299919 21.10009926
12.14690895 -5.62650137 1.38945518
0.31401621 -7.29495493 9.36533541
26.28683807 0.38353919 -2.31192343
-24.90702475 7.52310079 40.79714840
8.82972393 -9.53450100 -0.09605419
12.16942997 25.35378480 -0.27501989
-23.40867337 -5.11701679 20.34491588
-3.17058653 6.76388955 2.42345966
29.98134735 -18.07263415 -25.72838414
19.55327820 16.46855381 27.66293713
-2.43751590 6.00792258 2.02126871
8.45440007 -7.89776890 -32.51124681
41.79408117 25.28806937 -18.08450972
5.30809621 -8.69930445 -1.03052184
0.64973612 -7.43137609 13.15649721
14.78905424 -20.32797099 11.77175927
-1.88443019 3.04087605 13.53658490
-29.62039313 9.39953325 40.12403549
-29.72766635 -2.27247508 -39.79727531
0.01076156 -6.35666565 -20.86445314
5.04880118 -11.53619062 8.41640196
-10.30853297 -14.53379468 0.44531433
-29.12637737 -6.90799119 15.46714755
-9.54028877 0.25225607 -0.57430860
-2.01168032 0.43457169 3.72103659
-30.17274441 32.15827282 -1.33443337
-16.42660942 -63.96298435 -18.93134210
14.00681971 3.54156983 -2.98669413
-4.86152095 27.20592858 3.86269918
25.05441018 -4.77302534 -4.31148122
-8.16144111 4.66564814 -0.73589982
18.74399456 26.32987771 -10.45626620
1.53684506 31.15833374 -20.88103412
0.39560814 2.82992012 -1.77218917
-34.39283214 1.23535919 17.40008741
-31.76441701 20.17894931 7.60145434
2.99202519 0.41571379 -3.91569498
22.91969017 13.20744110 -7.34769055
7.82438516 -9.00973935 18.59030542
2.25702582 3.24494894 3.49026138
-17.35047050 -12.90397127 -11.86752035
18.86604714 -6.59967763 -35.92750855
2.95784081 1.12567394 0.32660448
-20.03144052 -7.87481373 9.61367836
-26.25610475 -4.64600954 -1.19038915
-9.79561895 -7.54831977 -4.27808668
-3.62210892 4.11471382 -24.72205906
7.72693743 -2.61022820 26.53081865
-1.72736114 3.34531772 1.41947565
0.33441807 17.44051447 31.75572152
2.93198649 -16.41441563 -10.76561418
18.05325361 34.43123176 10.81425359
1.07845021 -2.13102231 19.78088607
-11.73045693 15.06362312 -25.25053351
-25.32942278 20.98647637 16.21565079
16.72047132 24.67658631 13.92386494
-6.28243266 13.23036850 -14.44821325
13.31030610 15.26492699 -1.93817253
-24.92262868 3.20927553 -0.22983453
-2.81961828 0.92448929 0.84564893
-10.73109820 -15.51778527 0.97785156
-4.52074690 -0.22508586 9.47683804
2.02450980 2.05994090 -2.54714460
6.82182720 62.09653061 -19.35511139
-11.51355994 5.74288233 20.99006980
7.60410065 -3.28937814 -2.07092088
-12.22675607 -4.62763706 -15.07698821
16.39542952 -12.40122330 -4.22207737
-7.68074106 6.41736912 6.71627296
-36.53382777 -16.26024510 -9.29515921
-5.10742617 -31.86517080 16.63120784
-6.55063673 4.79662613 -3.15312636