Geometry = GenFormat {
<<< "system.gen"
}

Driver = VelocityVerlet{
  Steps = 50000
  TimeStep [fs] = 0.2
  MDRestartFrequency = 25
  Thermostat = None {
    #InitialTemperature [Kelvin] = 300.0
  }
  Xlbomd{
    IntegrationSteps = 6
    MinSccIterations = 2
    MaxSccIterations = 200
    SccTolerance = 1e-6
  }
  Velocities [AA/Ps] {
-10.28305091 5.43496068 -1.38075206
14.94112722 0.52167428 29.49702176
-37.61159890 -0.42614507 -15.29748778
7.83184812 -0.63243130 12.88755020
1.33820497 -28.05632039 44.89201769
31.48407645 -1.54615057 -56.78159637
-11.61973364 -1.12075895 1.64144471
36.00989911 -17.29267768 12.04338608
-24.70017166 -39.44067639 -15.52724614
0.19703320 -11.24487234 3.09638265
1.22130597 -19.74217054 -43.60006362
14.04794855 -42.68569426 -3.29059781
4.90269772 -12.70386807 0.04926081
40.52370284 8.10004467 -18.86590572
-10.10787243 0.46003567 -21.68556447
-2.85998215 7.60385330 1.19152315
-11.40860474 -59.00521601 -24.11762725
12.91018989 16.63396704 6.94745810
7.83254012 9.19377402 1.14765101
24.21095580 -24.75444815 -21.13497736
-1.89814799 -3.23871675 35.92721296
2.38457185 7.10655058 -7.33242481
-23.18032115 -7.21661248 -35.91943957
7.80507269 18.04715334 -18.49503853
7.36050912 15.38285980 -6.67315962
-0.96724269 -14.74466790 -1.34743321
-4.70292658 50.97252527 -20.39831694
-18.30173389 -29.47511860 -9.75022220
-9.25440610 -5.74355760 13.27587837
10.91514549 43.09193714 -37.54202554
5.32112721 -23.32838226 -31.62036921
8.54212894 4.52005406 -13.95229043
-2.38539510 -2.41158143 8.35937378
3.27497273 -8.67628654 0.81508702
-0.26348332 3.92409565 -0.71050921
-8.56923709 5.52824053 5.64108225
-10.30437598 -10.89253467 7.42214027
15.58324974 -14.68366924 2.33077586
-4.63660221 -11.59838087 6.82539043
-33.96843241 -8.21950477 -17.12085619
8.99502410 14.61102144 25.71514036
-14.43854723 13.04971948 5.50224805
18.92684853 -9.03934128 -19.83353990
12.37139601 -15.42764316 -19.36763910
-6.20355165 0.99615287 -0.26268272
40.19990113 -7.62897337 -1.40637648
-1.06054498 14.80872065 8.43156198
1.92083234 -1.24869402 -2.27611449
0.25190543 22.40830377 19.97654147
-24.05870924 -24.67763481 6.86613184
15.14155723 -1.93929622 5.65016681
11.73087757 -8.39087538 25.19503633
20.20188115 -0.03976553 4.71371309
-5.83470745 7.16080346 -5.22052817
8.40511170 -0.63191967 4.71447072
26.04385706 -24.21494632 2.53330276
-4.88687174 -3.10525405 4.79111273
3.35765381 11.81921310 24.66204728
6.63063883 -17.49774790 8.41483309
-1.30328230 2.80452128 5.51929482
6.99023762 -1.47754404 1.44118723
23.19917463 -6.92694196 1.26079058
2.35444773 -3.50055913 -26.21188799
-17.53744514 14.05661572 -1.86200169
-3.65800931 2.59577477 -6.13172505
-1.20136832 -12.84683709 -15.90377860
-5.40781366 7.19667413 6.76455783
-1.02726852 2.84150315 4.93088105
-31.56912549 -19.18251440 -18.31491159
-4.99385860 -15.11170960 -4.96480011
-4.50024663 4.58214862 6.19767104
-2.26830095 6.10738223 -23.90106102
24.71352114 -1.24964959 -6.18948516
8.00759601 12.63355814 10.82396079
3.23153615 -25.86991068 -20.72674922
1.40995474 26.70208369 -16.27582321
6.18342165 13.51257415 -4.71007938
10.12312774 5.61987879 -21.33758164
10.40661352 -9.62358692 15.84951374
0.50328219 2.61249921 -0.92613098
-20.98643196 -7.04328899 14.28654921
2.52934553 11.80192493 -0.22471298
-0.98397604 -11.88043096 -0.55666909
-33.51363057 25.15644232 20.90750549
-8.58084459 -4.46274881 -12.33922418
-1.90065577 2.69866462 -3.31252715
-17.67399333 8.39319092 -14.04365806
35.54868164 6.97666885 6.14481061
9.01381029 3.28694146 8.25560470
18.06696377 -26.39282494 2.60534997
-7.82108102 7.72375421 12.84384924
17.95287790 -1.07566394 27.65992247
4.48164743 -8.39865703 -12.19883077
-41.30085478 -12.15333217 -36.10098855
14.53982839 11.38726346 -5.56906888
-12.01445028 -12.97459213 -37.07774736
-1.31610047 -3.43543261 -7.37835698
-18.38710901 -2.73873378 -19.33906870
24.80980335 -8.49697787 -9.76865977
0.12477437 1.64327142 -5.93428263
16.68391460 21.54425085 16.60081948
-11.74873234 -22.58583052 33.61576025
1.70483418 -3.51656022 -5.11273252
-37.79267195 -15.15299919 21.10009926
12.14690895 -5.62650137 1.38945518
0.31401621 -7.29495493 9.36533541
26.28683807 0.38353919 -2.31192343
-24.90702475 7.52310079 40.79714840
8.82972393 -9.53450100 -0.09605419
12.16942997 25.35378480 -0.27501989
-23.40867337 -5.11701679 20.34491588
-3.17058653 6.76388955 2.42345966
29.98134735 -18.07263415 -25.72838414
19.55327820 16.46855381 27.66293713
-2.43751590 6.00792258 2.02126871
8.45440007 -7.89776890 -32.51124681
41.79408117 25.28806937 -18.08450972
5.30809621 -8.69930445 -1.03052184
0.64973612 -7.43137609 13.15649721
14.78905424 -20.32797099 11.77175927
-1.88443019 3.04087605 13.53658490
-29.62039313 9.39953325 40.12403549
-29.72766635 -2.27247508 -39.79727531
0.01076156 -6.35666565 -20.86445314
5.04880118 -11.53619062 8.41640196
-10.30853297 -14.53379468 0.44531433
-29.12637737 -6.90799119 15.46714755
-9.54028877 0.25225607 -0.57430860
-2.01168032 0.43457169 3.72103659
-30.17274441 32.15827282 -1.33443337
-16.42660942 -63.96298435 -18.93134210
14.00681971 3.54156983 -2.98669413
-4.86152095 27.20592858 3.86269918
25.05441018 -4.77302534 -4.31148122
-8.16144111 4.66564814 -0.73589982
18.74399456 26.32987771 -10.45626620
1.53684506 31.15833374 -20.88103412
0.39560814 2.82992012 -1.77218917
-34.39283214 1.23535919 17.40008741
-31.76441701 20.17894931 7.60145434
2.99202519 0.41571379 -3.91569498
22.91969017 13.20744110 -7.34769055
7.82438516 -9.00973935 18.59030542
2.25702582 3.24494894 3.49026138
-17.35047050 -12.90397127 -11.86752035
18.86604714 -6.59967763 -35.92750855
2.95784081 1.12567394 0.32660448
-20.03144052 -7.87481373 9.61367836
-26.25610475 -4.64600954 -1.19038915
-9.79561895 -7.54831977 -4.27808668
-3.62210892 4.11471382 -24.72205906
7.72693743 -2.61022820 26.53081865
-1.72736114 3.34531772 1.41947565
0.33441807 17.44051447 31.75572152
2.93198649 -16.41441563 -10.76561418
18.05325361 34.43123176 10.81425359
1.07845021 -2.13102231 19.78088607
-11.73045693 15.06362312 -25.25053351
-25.32942278 20.98647637 16.21565079
16.72047132 24.67658631 13.92386494
-6.28243266 13.23036850 -14.44821325
13.31030610 15.26492699 -1.93817253
-24.92262868 3.20927553 -0.22983453
-2.81961828 0.92448929 0.84564893
-10.73109820 -15.51778527 0.97785156
-4.52074690 -0.22508586 9.47683804
2.02450980 2.05994090 -2.54714460
6.82182720 62.09653061 -19.35511139
-11.51355994 5.74288233 20.99006980
7.60410065 -3.28937814 -2.07092088
-12.22675607 -4.62763706 -15.07698821
16.39542952 -12.40122330 -4.22207737
-7.68074106 6.41736912 6.71627296
-36.53382777 -16.26024510 -9.29515921
-5.10742617 -31.86517080 16.63120784
-6.55063673 4.79662613 -3.15312636
-32.45256359 56.17052602 -17.86784612
-1.03953099 5.13505839 -16.89633684
-3.23505446 2.64466356 -2.08344273
-8.60605536 -43.89750414 4.25724924
12.65717702 -26.19729569 8.64811278
9.13061033 4.90266890 -1.14958112
36.54242202 -21.39232966 -1.96306125
38.45093611 -17.49635128 -4.11867354
-5.85474838 -5.28366439 4.56485624
17.70351718 18.46511045 9.78989456
-10.85947289 6.80218718 19.29524778
-2.38152755 -3.60418843 -23.16515336
8.53910401 -12.88808698 -1.14034901
29.95258420 -52.04116809 -8.71259604
36.38869003 -41.80399063 14.93143301
-5.24606586 -1.25151606 4.66027876
4.85692968 -8.38301920 6.85924244
29.07623142 19.26361016 -43.84645783
75.05444645 -61.66814587 36.87490472
-5.85076321 25.42591633 -18.99892988
-41.40104794 51.08147527 17.23175985
-1.86231012 17.56771506 7.62314928
-5.99727673 -10.93452454 -8.70806185
-16.18609562 4.02879196 16.31756211
48.86172147 -30.13965164 -4.30924747
1.82346267 -0.54823257 -0.92271176
11.37256371 -8.75165191 4.10047975
-35.69885912 42.46734370 3.31253801
9.81517475 -0.25078932 -8.94839761
12.09851511 26.73081734 21.26161847
-28.43048727 3.68407565 -5.24446262
9.47800838 0.83722520 6.25721342
26.29002687 22.18698716 -8.16639579
-7.16005592 -21.59390573 -23.38108485
-8.80316758 0.22240359 8.09210109
-0.01869010 36.97877774 15.59408332
-30.52028042 55.52583294 -22.51164515
-2.02778252 -0.46291459 4.77172371
-18.85519739 -19.73877660 -0.71238844
-72.13295367 29.62999660 9.44640336
-12.99598869 -6.63348398 -14.55964892
-0.53192223 21.71847131 -99.54221242
-92.40565939 52.32317651 -22.35237055
-71.13009369 -10.35808706 7.21632599
-1.80157872 15.72874848 -11.32429216
-7.72823222 -17.58163051 19.95148778
16.60426495 -3.69678906 -0.60412284
-10.12564457 19.17020703 -16.08870143
5.74663559 -5.45844771 10.94207684
47.64296145 -52.48307612 -20.80730194
-16.98906748 3.50730001 29.47519251
1.51641516 1.66137515 -10.10182417
13.99883697 16.86886091 -18.21077343
-50.72147368 -43.24959056 -25.25081179
1.67622725 -6.67362423 6.45197873
-12.73757103 11.89755526 -13.06362782
-5.55553856 11.08564498 36.40184210
-6.57911575 2.62858885 4.67074871
-26.57146286 1.29506909 9.76448491
16.52185209 -13.95947630 38.86952940
-0.32055991 3.04674446 -0.41048358
17.78876681 -2.90361758 5.27726236
11.76536598 -45.30696363 -12.40835372
8.46703787 0.82669725 5.68898815
10.33480035 3.80603420 7.54680672
12.78907216 -2.15799866 0.20622932
1.60858989 3.31645298 1.80854419
-10.04297149 0.96167144 -5.62141558
-2.68583648 24.63092239 -21.68656678
-7.97086129 -5.04121455 -4.39817455
-14.08028998 -29.25034951 -8.43965306
10.77496187 3.26305896 -3.50021171
-2.74190008 -4.33695837 0.22664140
-12.66238640 23.96331070 7.37294719
-10.08502824 -21.69038172 0.88870503
20.54640852 14.67461672 7.54454409
6.77362130 -5.44730384 4.78304863
-38.83208629 48.02465543 -1.82301326
10.64085327 -17.53033051 22.78203080
1.48322540 -16.64706723 2.38718453
-0.60400877 3.27748647 -1.26337979
-3.92253935 17.20181019 -8.15374008
34.52836608 56.65805333 -25.38384121
6.70695460 -0.70362675 4.60867084
-15.64799290 -13.31846636 -7.14136223
4.03245505 24.57314267 -5.22894075
1.36526783 -2.05474665 -5.98713846
-38.31022675 1.76680751 35.60337460
13.49493555 2.62626610 -1.70194368
-3.70269982 4.46596862 -6.53345075
13.48407528 -25.07680886 1.37523359
8.34417271 1.33503612 -42.40944920
-7.04918805 -10.64072104 3.64787843
-25.35883974 55.85204367 1.15669767
-13.30638046 -9.71674429 -18.25775315
4.67326975 -6.01838058 -8.62406918
-26.90501842 13.69854471 -53.71396116
37.51098860 12.49858831 18.23909015
11.72805708 0.31650489 2.18406215
-25.71689821 -20.14491650 -23.45864142
-14.40534410 -0.16519402 -12.61224264
3.61830519 -0.33469510 8.47424307
-6.56309514 -1.96816136 -19.91859567
-36.18630670 -11.27455450 -1.48409438
4.70094869 -5.25403073 2.67816679
-21.92212873 -4.98693358 -41.75269769
-25.10439406 36.29985443 -0.91048653
-8.16500053 -22.85098192 -24.30137835
-0.11095451 12.67624213 -2.68140183
5.59507239 20.08270224 -19.17187794
1.60738494 0.48862319 -1.98192541
44.03017086 -25.28678962 -14.73883702
5.28677016 -1.14842434 6.03762109
72.13974027 3.57738345 -25.00955988
-1.99718852 4.93561086 -1.55971723
3.69686284 5.77795546 12.17605426
-5.19472093 15.52814307 -13.93259308
-23.35375221 -3.57249816 -19.81003709
-1.14823994 5.88251525 7.92129946
-6.93143535 -3.40536126 -30.02911388
-2.95337077 20.79834574 26.70847370
4.26818639 -5.91867229 -12.55492816
29.13004414 26.75644757 -15.37037436
-0.70609967 26.16463879 -24.11252819
4.33217301 2.77308133 -1.12950477
-1.09119191 -10.97476238 -28.76720711
-5.94335914 -23.03403349 -6.59569382
-2.01197649 1.38436497 6.97999653
39.93294771 -22.99213335 9.46752593
53.31961892 -3.79763126 -14.85347765
-8.38184902 3.52564911 3.39383600
-10.44964973 5.31290517 26.98689818
-15.09141480 -28.17426643 10.83880916
-9.27297206 -15.58478764 2.91841710
-20.73265640 13.17323125 52.01934339
-5.13557137 14.63618037 0.50504822
1.46891326 -9.18995234 -6.95710233
4.65413397 -10.55944013 30.67143347
15.45483974 -5.18363330 7.52611021
6.23477025 -3.44774748 11.11840501
2.32815140 -3.25966685 -3.00569387
30.77023474 -8.65083387 -16.88459159
-21.61334908 -2.51013179 12.22552806
4.84575151 1.65905286 9.08119645
-0.58152262 -7.68727692 -3.36409349
-2.89778804 12.38025039 -23.31932717
-20.18905565 -45.11188566 26.78830995
-7.31058488 -1.41754880 -2.19390755
3.71033807 -30.17638812 41.93460796
-2.76517405 -24.59303495 17.45172997
10.16633147 -1.80039226 2.82772415
8.32497558 3.90626572 -30.86262431
-29.44395578 7.99306506 16.80416949
-6.23869532 -2.98779467 3.77593868
-15.76936333 -1.63515662 18.12096543
1.32788412 13.70607577 -32.84935715
-1.92852732 -14.11649741 4.59019183
13.76048676 42.63548083 9.69848257
36.32329776 -4.06923441 48.77582203
5.62701241 6.06185628 -5.01009339
-15.03769039 -4.06235673 -28.52720481
-2.43459746 29.61615040 -9.36350394
5.26280074 3.09276262 2.85179850
7.16656319 5.77179989 -29.30970566
-16.70359141 1.70567204 -24.64772373
-1.60313383 -3.88246906 -9.09580588
-2.02283833 -16.07350522 43.62913184
-13.20136763 2.19934616 4.04347932
-12.55632727 7.80130076 -2.70319037
27.68901161 -2.32767239 6.12624248
12.67984376 -5.29719439 24.57263922
-9.66220390 35.71480375 2.02390991
0.37834816 -2.23091740 -5.44316212
-9.93332502 -6.29036933 -33.29515726
31.96671050 -7.71877399 -17.65838766
12.18193573 -4.10965607 -8.34746578
  }
}

Hamiltonian = DFTB {
  SCC = Yes
  SCCTolerance = 1e-6
  MaxSCCIterations = 200
  readinitialcharges = yes
  ForceEvaluation = Dynamics
  MaxAngularMomentum = {
    C = "p"
    H = "s"
  }
  Charge = 0.0
  SpinPolarisation = {}
  Eigensolver = Standard {}
  Filling = Fermi {
    Temperature [Kelvin] = 300.0
  }
  SlaterKosterFiles = Type2FileNames {
    Prefix = "/usr/workspace/troup1/second_set/real_data/decane_run_first_50/pbc-0-3/"
    Separator = "-"
    Suffix = ".skf"
    LowerCaseTypeName = No
  }
  KPointsAndWeights = {
    0.0000000000000 0.0000000000000 0.0000000000000 1.00000000000000
  }
  Dispersion = LennardJones {
    Parameters = UFFParameters {}
  }
}

ParserOptions = {
  ParserVersion = 3
}
