Geometry = GenFormat {
<<< "system.gen"
}

Driver = VelocityVerlet{
  Steps = 100000
  TimeStep [fs] = 0.2
  MDRestartFrequency = 5
  Thermostat = None {
    #InitialTemperature [Kelvin] = 300.0
  }
  Xlbomd{ 
    IntegrationSteps = 6 
    MinSccIterations = 2
    MaxSccIterations = 200
    SccTolerance = 1e-6 
  }
  Velocities [m/s] {
      6.35911783E+02      2.86778583E+02      5.71645713E+02
     -2.47434626E+02     -1.08216704E+03      1.71909952E+03
      3.85093979E+01      1.88660422E+02     -1.52091107E+03
      3.92678813E+02      4.74021641E+01      2.08985959E+02
     -1.53738318E+03     -2.91738832E+03      7.46403750E+02
      1.02780277E+03      4.64230314E+02     -7.94342906E+01
     -2.88566255E+02      1.88289321E+02      2.40919439E+02
     -1.59590931E+02      1.63354627E+03      7.31822517E+02
     -5.86502676E+02     -1.90168628E+03     -2.05877266E+03
     -3.43283550E+02      3.49356697E+02      3.14381538E+02
     -2.72395775E+03     -7.91062367E+01     -1.53836007E+03
     -1.58712097E+03     -2.50085944E+02     -6.85018165E+02
     -9.56393027E+02      3.98109723E+02      3.37264661E+02
     -2.89809276E+02      1.04221812E+02      8.14224889E+02
     -1.82300815E+02     -7.19668221E+02      9.22329101E+02
      1.61736426E+02      1.86381945E+02     -1.91717438E+02
      1.85781543E+03      8.48952187E+02     -1.55856018E+03
      3.01477541E+03      5.84211053E+02      3.67947881E+03
      8.81147993E+01      4.22133653E+02     -4.42123728E+02
      5.87739971E+02      7.49555362E+02     -4.75924886E+02
     -1.47547723E+03     -2.96393605E+02      1.40250164E+03
     -2.99563034E+02      7.77276988E+02      2.91130745E+02
     -8.29694739E+01      2.24565567E+03     -9.66224939E+01
      2.23046104E+01      1.57365680E+03      2.34171712E+03
      3.21335724E+02      2.25392539E+02      8.26358068E+02
      2.64077549E+03     -9.78400981E+02     -1.42973335E+03
     -1.95528113E+03      1.55452025E+03     -1.36462413E+03
     -1.20830580E+02      2.20792665E+03     -5.22778910E+02
     -8.46772728E+02      5.04937047E+02      8.22652657E+02
     -1.66060460E+02     -2.03358001E+03      1.52488097E+03
     -2.27393193E+03     -2.14712475E+03      4.42254152E+03
      1.52776355E+03     -5.56628192E+02      1.39445791E+03
     -3.69664143E+02      7.42622418E+02      4.51373605E+02
      2.61125633E+03      1.16882242E+02      9.81285535E+02
     -1.04151952E+03     -1.04285325E+03     -6.33497812E+02
     -1.09805886E+02     -4.42900744E+01     -5.06706192E+02
      3.97742684E+02     -5.03249246E+02     -1.78167665E+03
     -1.67604384E+03     -1.61460957E+02      3.01970901E+02
     -7.46701173E+02      3.93123091E+02     -3.12378271E+02
     -9.98252262E+02     -1.04513841E+03     -2.59637901E+02
     -2.41877799E+02     -1.39096284E+03     -8.72546190E+02
     -1.20731210E+03      3.30116703E+02      3.87584813E+02
     -1.52594742E+03     -2.07198952E+03      1.65446037E+02
     -1.27857599E+03      1.73634159E+02     -1.68343673E+02
     -3.28290071E+02     -5.19970591E+02      7.55361021E+02
     -1.07543872E+03     -1.17182355E+03     -4.54000081E+02
      1.04059012E+02     -6.02364294E+02     -4.46670401E+02
      3.74906109E+02      1.42395640E+02     -8.31146787E+02
     -3.36934417E+02     -4.89835092E+01      1.11928445E+02
     -1.47627885E+03      8.14692823E+02      1.03227609E+03
      1.97581378E+02      4.11825473E+02      2.35620313E+02
     -2.53407312E+03      9.64556710E+02     -1.03505775E+02
      1.91054771E+03      1.86895894E+02     -9.31943776E+02
     -2.49030705E+02     -8.33646208E+02     -2.28123428E+02
     -6.94159905E+02     -1.32219348E+03     -1.47472199E+02
      2.59475552E+02     -2.34107846E+03      2.12912022E+03
      2.22169997E+04     -1.70205389E+04      2.60475559E+03
      2.58893747E+02      1.44122207E+03      1.69427656E+03
     -5.25245461E+02      2.38145046E+03      3.45359497E+03
      1.51207482E+03      1.83808547E+03      2.11283915E+02
     -2.66894381E+02      1.03620861E+03      1.89258389E+02
      5.84615175E+02      5.13638151E+02     -9.86616366E+02
      1.33252585E+03      2.06413300E+03     -4.94685715E+02
     -1.81979169E+02      9.80949273E+01     -1.35863707E+03
     -1.21107853E+03     -3.30697052E+02      4.00191568E+02
      1.82719051E+03     -1.47857825E+03      9.79994820E+02
      2.66983722E+03      2.19850037E+03     -1.41921762E+03
     -4.42431888E+02     -5.04690706E+02      9.60384979E+02
     -2.90688375E+02     -8.92331777E+02      1.76746000E+03
     -2.95077120E+03      1.69871674E+02      3.60540396E+03
      9.00762847E+02      2.07624109E+02     -6.36400734E+02
      8.51050053E+02     -1.53655989E+03      2.52144719E+03
      3.23517117E+02      6.62347758E+01      1.98105140E+03
      2.76002720E+02      4.79082237E+02     -7.23272946E+02
      1.63233876E+03     -1.02643364E+03     -1.10334492E+03
     -1.08865866E+03     -1.33767907E+03     -1.91066470E+03
     -8.29943686E+01      4.65632387E+02      3.04140299E+02
      2.14346258E+02      1.89387628E+03     -1.74276152E+03
      1.50697342E+03     -5.64376837E+02      1.80749215E+03
      1.41344002E+02      1.98579414E+03     -4.34726789E+02
     -1.47356874E+03      2.60524263E+02     -8.72202763E+01
     -1.55934161E+03     -1.81967739E+03      1.59566597E+03
     -9.00375555E+01     -6.97064540E+02      5.97266629E+02
     -4.46906851E+02     -3.00498966E+03      2.70360473E+02
     -3.14849202E+03     -8.89980657E+02      1.20901998E+03
     -4.52701425E+02      1.21190291E+03     -2.30839477E+02
      9.56549417E+02      1.55899826E+02      8.92320696E+02
     -1.32561376E+03      2.15961171E+03     -2.26051842E+03
     -3.69591473E+02      7.48652999E+02      6.03235914E+01
     -8.65099033E+02     -5.42704195E+01     -1.77590460E+03
     -1.05117510E+03      2.96713192E+03     -1.46494420E+03
     -3.07166944E+02     -1.23014251E+03      9.80378782E+02
      1.75397214E+02      7.14491393E+02     -2.65490432E+02
     -2.14736651E+03      5.36120222E+02      3.59596042E+03
      6.31194025E+02     -1.26343712E+03      1.16164444E+02
     -1.16901285E+03      3.15945288E+03     -2.42531345E+03
      4.08444911E+02      5.16696421E+02      2.93675852E+02
     -9.32394539E+02      1.12577138E+03      1.12471312E+02
      1.15746728E+03     -7.79396281E+02      1.19216668E+03
     -4.93895584E+02     -1.85016022E+02      5.86307533E+01
      5.54086661E+02      5.16634779E+01     -1.60096717E+03
      1.70282378E+03      6.80624212E+02     -2.87315435E+02
      5.78615280E+02      2.07707018E+01     -5.34554964E+02
      1.89653628E+03      1.05214021E+03      1.37177388E+02
      1.79633245E+03      2.28938386E+03     -1.97801201E+03
     -9.13944662E+02     -4.59268795E+02     -2.35199737E+02
      9.38957825E+02     -1.05827708E+03      3.27640503E+03
      5.46193995E+02      2.50997896E+03      1.48035420E+02
     -2.72637660E+02      3.57006805E+02      2.36094124E+02
     -4.21091263E+02      1.84600525E+03      9.97012230E+02
      4.35939011E+02     -5.91983074E+02     -1.47825862E+03
     -7.25771065E+02     -3.18073017E+02     -3.23509353E+01
      6.34356011E+02     -3.16867381E+03      2.79457232E+03
     -3.42308859E+01     -5.39789486E+02      1.33178716E+03
     -8.59416828E+02     -2.81458426E+02     -8.32014050E+01
      1.07685120E+03      1.68567684E+03      6.59171087E+02
      1.95458497E+03     -1.63181906E+02     -1.39961141E+03
     -5.80737596E+01      6.13687556E+02     -2.00888185E+02
      5.57105283E+01     -1.82165730E+03     -1.79812482E+03
     -2.12205476E+03     -7.56693867E+02      1.99967478E+02
     -9.80589388E+02      4.20610421E+02     -6.97813284E+01
      9.18018494E+02      8.08135703E+02      2.51703289E+02
      3.55667911E+03      1.39479168E+03      1.71324245E+03
     -1.21419571E+03      1.05724276E+03     -1.55827299E+03
     -2.72805705E+02      3.67552804E+02     -2.79989874E+02
      1.06535810E+03     -3.05089448E+03      1.87659340E+03
     -1.78606799E+03     -7.25778138E+02      4.08408109E+02
     -2.55907702E+03     -1.59496122E+03     -9.67055269E+02
      3.57153955E+02     -1.11110171E+02     -6.91662823E+02
      4.35177770E+00      1.33816702E+02      1.48364261E+03
      2.48208284E+03      1.23289265E+03     -1.76400892E+03
     -1.20978077E+02      6.46948781E-01      2.42368489E+00
      2.24858539E+03     -1.00607288E+03      5.20494009E+01
     -2.10625784E+03     -1.26255479E+03     -2.03351111E+03
     -4.51582601E+02      2.53457262E+02     -3.78969294E+02
     -1.04488078E+03      3.30723886E+03      1.53574128E+03
     -5.07422580E+02     -3.46071703E+02      1.47264514E+03
     -5.71856797E+02     -9.23080264E+01     -2.28814267E+02
      2.47026635E+03      1.86328924E+02     -2.57676569E+03
      1.13919483E+03      1.28773676E+03      2.29575009E+03
      2.47913333E+02      4.64328692E+02      5.92403997E+02
      3.30051075E+03      8.91936857E+02      2.08217203E+03
     -7.32865989E+02      6.98865146E+01      6.51336158E+02
     -6.52090273E+02      6.19867540E+02     -3.31714653E+02
      2.34825795E+02     -3.94309670E+02     -1.60822421E+03
      3.01564532E+02     -2.58225278E+02     -5.31318569E+01
     -6.54253160E+02      5.31904622E+02     -5.44623576E+02
     -5.91841591E+02      2.38558795E+03     -2.86258133E+02
      1.09930206E+03      1.94377164E+03      9.23679444E+01
     -3.03771936E+02     -1.77631676E+02     -3.67913766E+02
      3.68125821E+02      7.45104771E+02     -3.13271753E+02
     -3.62295713E+03      2.21632147E+03      3.53780012E+03
     -7.24048459E+02      5.12083192E+02     -1.96871822E+02
      3.21213161E+03     -1.37241688E+03      4.02568732E+03
     -1.33993927E+03      1.12525768E+03     -1.15994754E+02
     -2.94405961E+02      1.06430260E+03      9.62685652E+02
     -9.63921226E+01      1.99272700E+02     -8.40881968E+01
      7.95139460E+02      5.81458391E+02     -4.59758867E+02
     -2.21321520E+03     -2.73504330E+03      5.68557023E+01
     -3.77604966E+02      9.25475903E+02      2.34858244E+03
     -5.45111781E+02      2.96234688E+02      4.92811154E+02
     -1.72819215E+02      2.39006884E+03      4.59377778E+02
      3.03015569E+02      1.98264501E+03      1.39814265E+03
      7.79902113E+02      5.29105238E+02     -2.32941443E+02
     -5.98401617E+02      1.57869931E+03      2.91758986E+03
     -1.67530523E+03     -1.38402096E+03     -1.93707268E+03
     -4.76371316E+02      4.11917422E+02      8.52697589E+01
     -1.87046931E+03      5.09856765E+02     -7.35326775E+02
      2.87909888E+03      1.36518848E+03      2.21964387E+03
      4.47246626E+01     -6.44230671E+01     -3.11819976E+02
      1.01341838E+03      1.54551817E+03     -4.25371434E+02
     -2.11634005E+01     -3.39036803E+02     -2.40258634E+03
     -1.99970459E+02      2.94512372E+02     -6.11581578E+02
      1.90104254E+03     -3.06839139E+02     -1.55387344E+03
     -3.09552749E+02     -1.20072468E+03     -1.95251722E+02
     -5.69444114E+02     -2.80293614E+02     -5.43840843E+02
      3.72913777E+03     -1.68186217E+03      1.16508266E+03
     -1.79012616E+03      2.03543008E+03     -4.86028254E+02
     -7.15227302E+02     -1.81256696E+02     -8.98379932E+02
      1.64639446E+03     -2.15286275E+03     -2.35264999E+03
     -6.78218747E+02     -9.19976410E+02      2.26545141E+02
     -4.26625035E+02     -9.40978605E+00     -4.01366596E+02
     -9.93659023E+02     -1.08544255E+03     -7.44735735E+02
      2.37685095E+03     -1.63191310E+03     -1.38587010E+03
     -1.96815341E+02     -7.57960939E+02      1.23279893E+02
      1.34174031E+03      6.19503333E+02     -6.19693848E+01
     -2.25031421E+03     -8.51876109E+02     -6.24600922E+01
     -1.80712539E+03      2.95516629E+03     -4.87140390E+02
     -8.81998257E+01      2.73233435E+02      2.80202796E+02
     -1.87358327E+03     -8.79937696E+02      2.04667825E+02
      8.73509083E+02      3.96500252E+02      3.66027772E+02
      7.51216347E+02     -8.96437012E+02      9.43577837E+02
      9.01063398E+01     -1.90282790E+02      1.93296045E+02
     -5.55331478E+02     -4.30862887E+02     -1.09136659E+03
     -2.27355814E+03     -4.80832236E+02      1.27229993E+03
     -2.79857511E+02     -4.46909158E+01      2.08045727E+02
     -3.54177727E+02     -9.63546858E+02     -1.31358546E+03
     -1.61207831E+03     -3.41565804E+02      5.08209023E+02
      7.08296001E+02     -3.82625672E+02     -3.46166790E+02
     -1.43507988E+03     -1.77642192E+02      1.35365319E+03
     -2.71839809E+03     -1.71908195E+03     -3.37213789E+02
      3.45054481E+02     -2.28673090E+01     -2.30911563E+02
      2.83987724E+03      1.20704604E+03      1.98222332E+03
      1.63675415E+03     -7.55522517E+02     -1.95990982E+03
      1.04719017E+03     -7.71628944E+02     -1.02733701E+03
     -7.90422359E+02     -1.15523983E+03      1.37547247E+03
      2.36526155E+03     -6.02286866E+02      4.37246525E+02
     -1.03010160E+02      1.16367737E+02      3.77388045E+02
     -5.23497332E+02     -8.42014120E+02      1.54100346E+03
      3.41936807E+02      3.01816620E+02      9.37699652E+00
      7.92295372E+02     -2.43102904E+02      1.59734113E+02
      3.05798464E+02      3.93004050E+02      2.73003740E+03
      1.52783811E+03     -1.79303732E+02      6.78563857E+02
     -5.94988437E+02     -2.52849357E+02      3.59403652E+02
     -3.60610675E+02      1.18539451E+03      2.66673135E+03
     -2.36224909E+00     -3.44728046E+02      1.43644753E+03
     -5.66260440E+01      2.84168254E+02      2.08378159E+01
     -1.43240183E+03      2.70533750E+03      2.53222623E+03
      2.66378385E+02      7.58419848E+01     -1.63240711E+02
      8.03269416E+02      3.25428325E+03      7.13136237E+02
     -1.01891866E+03     -3.60048298E+02     -1.56906822E+02
     -1.94932086E+02     -2.45648515E+03     -7.26697494E+02
     -9.59427203E+02      1.64113327E+03      8.27897073E+02
      1.84042069E+03     -8.41831225E+02      2.29397571E+03
     -4.09602695E+02     -8.55495350E+01     -2.51498027E+02
      3.81929691E+02      5.49381323E+02     -1.39950430E+03
     -1.27544253E+03      1.55898152E+03     -1.24070133E+03
      8.54309204E+01      1.53639211E+02      3.37987875E+01
      1.48227765E+03     -1.41059440E+03      9.83949855E+02
      4.30929400E+02     -2.26742372E+03     -4.38659837E+02
     -2.24314269E+02     -3.05521774E+02      1.85996285E+02
      2.47085808E+03      5.33277584E+02     -8.31822033E+02
     -2.46526111E+03      1.06244136E+03      1.79380618E+03
     -2.40981501E+02      4.46252846E+02      2.40468057E+01
     -4.54690846E+02      4.07324020E+02     -1.88049667E+03
      1.81105526E+03     -1.95711484E+03     -7.95638769E+02
      1.13788333E+03      5.77717449E+02     -5.01169741E+02
     -1.42693609E+03      3.78921342E+02     -2.42088411E+03
     -3.95942684E+02      8.55858747E+02     -2.18703007E+02
     -5.28791861E+01      4.45603876E+02      5.06131539E+02
      1.10411441E+03     -1.69777367E+02      4.46791603E+02
     -2.79315676E+02     -1.77319875E+03     -1.97493074E+02
      6.37721506E+01      1.00814459E+03     -3.03062684E+02
     -3.14278324E+03     -8.29317554E+02      1.36918803E+03
      1.38648281E+02     -1.30342417E+03      3.33341804E+02
     -3.82612209E+02     -4.93285909E+02     -1.84936715E+02
     -1.34326085E+03      1.40668150E+03      5.16845127E+02
     -1.51242702E+03     -2.36795455E+03     -4.71768191E+02
     -1.26768013E+03      6.96668089E+02     -5.34450935E+02
     -2.01171584E+03     -2.51890756E+03      7.03485281E+02
      8.58397778E+01     -7.72108781E+02      3.57339427E+02
     -3.24533323E+03     -1.70652708E+03      9.12310785E+02
      6.77746534E+02     -2.03771780E+02      5.86405697E+00
      4.55488265E+02     -1.64391157E+03      5.65021342E+02
     -2.01193192E+03      2.29240615E+03     -1.06879962E+03
     -3.32410997E+03      3.71094486E+02     -1.21348267E+03
     -2.71633254E+02      9.99992126E+02      1.17743986E+02
      1.36623759E+01      8.84153372E+02     -1.73061795E+01
      1.47660585E+03      1.34221535E+02      1.29587957E+03
     -2.87810754E+01      1.00648136E+02     -7.95114960E+02
      9.37875068E+02      1.18677753E+03      3.24082570E+03
     -8.76140338E+02      3.71398809E+01      1.03157676E+02
     -4.15546486E+02     -6.34813264E+02      2.12831391E+02
     -3.20800494E+03     -3.59766492E+03      1.49063811E+02
      8.52106021E+02     -1.38570113E+01      1.42989945E+02
     -3.12646651E+02     -7.70733192E+02      9.72642341E+01
      1.76615253E+03      1.08212533E+03      3.26995117E+02
     -2.15092804E+02      1.57728000E+02      5.22706042E+02
     -4.86398502E+02      2.65640614E+02      5.67556647E+02
     -4.50514012E+02      1.74025021E+03      2.32041685E+02
     -1.49924255E+03     -4.82447848E+02      1.84383740E+03
     -2.45213917E+02      2.72987241E+01     -3.34511855E+02
     -3.28686073E+01      2.56143874E+03     -2.48377188E+02
      1.91328813E+03     -2.81540376E+02     -6.91613577E+02
     -1.75420330E+02     -1.89276539E+02      8.39486569E+02
     -1.75615412E+03      1.80529662E+01     -1.36014551E+03
      3.02957413E+03     -1.14262187E+03     -1.29905027E+03
     -3.62566972E+02      2.53933249E+02     -1.05741266E+03
      1.16248875E+03      4.75452765E+02     -9.53075208E+02
      5.35041530E+02      1.87232086E+03      2.03050252E+03
      2.43169128E+02      6.24582717E+02     -4.22967599E+02
     -1.43485866E+03     -1.40525697E+02     -2.72092921E+03
     -1.96673075E+03      1.83576841E+03      1.36833707E+03
     -2.71140240E+02     -9.94988573E+02      6.19603528E+02
     -3.17968555E+02      1.20912229E+03     -1.54297326E+01
      2.32892657E+02      2.91361521E+03      3.63134488E+02
     -8.71089355E+02      6.00461467E+02     -1.01943012E+03
     -6.26945425E+02      2.14536971E+03     -3.52891329E+02
     -2.01483545E+02     -6.76942059E+02     -4.22759661E+02
      1.34789448E+03     -2.60952676E+02      1.68541883E+03
     -2.84816039E+02     -3.09964642E+02      2.08668115E+03
     -3.79699731E+02     -2.19613104E+02     -2.04479623E+02
     -3.56771288E+03      6.71130771E+01      5.60740398E+02
     -3.18837698E+03      1.38918056E+03      9.84848304E+02
      3.90151029E+02      9.53477680E+02     -1.17895602E+02
      1.26304914E+03      1.30351944E+03      1.22689755E+03
      1.17163646E+03      1.46950212E+03      1.74301958E+03
     -4.33247317E+02      1.68210365E+02      2.35359240E+02
      5.36516164E+01      1.23179904E+03      7.11490875E+02
      1.21190777E+03     -1.40612290E+02      2.93551832E+03
     -3.72360915E+01     -2.69439605E+02      2.01022700E+01
     -4.90936041E+02      1.14208501E+03     -1.09309363E+03
     -3.58226363E+02      1.40926679E+03      1.20574115E+03
     -7.97347462E+02     -1.77820381E+02     -6.11706845E+02
      1.95714358E+03     -1.64448588E+03     -2.88644773E+01
     -1.46513249E+03      9.55199705E+01     -1.47410483E+03
     -3.25736143E+02     -1.27573427E+02      3.90742129E+02
     -6.72819959E+02     -8.04246335E+01     -1.24802520E+03
      1.47740397E+03      1.08083131E+03      2.18522951E+03
     -5.57980080E+02      2.51249908E+01     -5.96247051E+02
     -9.99782366E+02     -2.87668608E+03     -2.34053260E+03
     -1.01461031E+03      3.00252440E+03     -1.34494254E+03
      1.20698506E+02     -1.81760713E+02      1.20562319E+02
     -1.23807263E+03      3.59327200E+02      6.50298344E+02
     -1.48443546E+03      6.24763009E+01     -1.20556097E+03
      1.12316350E+03     -2.56278512E+03     -9.99144130E+02
     -1.74478193E+02      1.75327153E+02     -1.71926909E+02
     -4.36998823E+03      3.29578792E+02     -7.49010664E+01
      3.31947532E+02      2.61146757E+03      6.55925597E+02
      7.57792047E+02     -3.88676787E+02      1.04284285E+03
     -5.61645975E+02      2.64902545E+02     -6.48575078E+02
     -9.09085550E+01      8.94774901E+02      5.81482018E+02
      8.46445710E+02     -1.97914195E+03      4.08389919E+02
     -1.34780720E+02      3.42417769E+01     -3.55332532E+01
     -4.81204409E+01     -3.43553244E+02      1.43307502E+02
     -1.93248089E+03      3.06655845E+02     -3.49078728E+02
      3.55580909E+02     -7.27789052E+01     -4.67573741E+02
     -1.77148297E+03      1.55764444E+03      8.41449825E+02
      1.62449933E+03     -9.65933732E+02     -3.62553005E+02
      4.73730597E+02     -5.15094528E+02      1.61114023E+02
     -1.18225461E+03     -1.99608243E+03     -7.85925791E+02
     -1.81960715E+03      8.12603512E+02     -1.04538573E+03
     -5.56798434E+02      7.28068028E+02      1.52421239E+02
     -1.27561687E+03      1.39868549E+03      5.63595268E+02
      3.39051331E+03      1.80984979E+03     -6.99699087E+02
     -6.62211877E+02     -3.03416608E+02      5.70181196E+02
      9.74797672E+01     -4.39115592E+02     -1.93179561E+03
      5.58435762E+02      5.80745541E+02     -8.03918714E+01
      4.75180745E+02      1.09962014E+02      2.69107353E+02
      3.97634977E+01     -6.80240932E+02     -1.16578434E+03
      1.66943369E+03     -1.90763442E+03      1.49992806E+03
     -7.71324885E+02      6.76707449E+02     -4.59027958E+02
     -1.60795804E+03      2.57408162E+02      1.17694749E+03
      7.07253423E+02     -1.09851419E+03     -2.21120523E+01
      3.55441102E+02      2.40462311E+02     -5.19047246E+02
     -3.43975958E+03     -1.35006737E+03     -1.53439112E+03
     -9.16325131E+02      6.12335366E+02     -1.76683909E+03
     -1.84431207E+03      1.07529112E+03     -1.34325331E+03
     -1.25977724E+02     -2.53128130E+02     -6.03401843E+01
     -6.34427394E+02     -1.13113153E+03     -8.45797090E+02
     -1.30564497E+03      1.57480641E+02     -2.84393643E+02
      4.22556198E+02     -2.56937201E+03      1.07192479E+03
  }
}

Hamiltonian = DFTB {
  SCC = Yes
  SCCTolerance = 1e-6
  MaxSCCIterations = 200
  ForceEvaluation = Dynamics
  MaxAngularMomentum = {
    C = "p"
    H = "s"
  }
  Charge = 0.0
  SpinPolarisation = {}
  Eigensolver = Standard {}
  Filling = Fermi {
    Temperature [Kelvin] = 300.0
  }
  SlaterKosterFiles = Type2FileNames {
    Prefix = "../../pbc-0-3/"
    Separator = "-"
    Suffix = ".skf"
    LowerCaseTypeName = No
  }
  KPointsAndWeights = {
    0.0000000000000 0.0000000000000 0.0000000000000 1.00000000000000
  }
  Dispersion = LennardJones { 
    Parameters = UFFParameters {}
  }
}

ParserOptions = {
  ParserVersion = 3
}
