Geometry = GenFormat {
<<< "system.gen"
}

Driver = VelocityVerlet{
  Steps = 100000
  TimeStep [fs] = 0.2
  MDRestartFrequency = 5
  Thermostat = None {
    #InitialTemperature [Kelvin] = 300.0
  }
  Xlbomd{ 
    IntegrationSteps = 6 
    MinSccIterations = 2
    MaxSccIterations = 200
    SccTolerance = 1e-6 
  }
  Velocities [m/s] {
     -4.69478908E+02     -3.76877595E+02     -1.73528701E+02
      1.37135917E+00      2.28681859E+03     -3.34733003E+02
      8.48877159E+02     -2.35646016E+03      1.54571749E+03
      4.05256301E+01      5.00580669E+02     -4.02750021E+01
      1.95639130E+03     -9.36815229E+02      1.71891022E+01
     -1.97115981E+02      1.03633207E+03      6.37819643E+02
      3.11868394E+02     -4.42868523E+02     -3.00588999E+02
      1.70375939E+03      1.67625127E+03      9.10547597E+02
     -5.15367881E+02      9.87280440E+02      6.18064040E+01
     -3.83792797E+02      2.25643683E+02     -6.31160632E+02
     -1.40466923E+03     -3.34512339E+02     -3.54926314E+03
      1.27718968E+03      6.46506072E+02     -1.15589405E+03
      1.32339110E+02      4.45457540E+01      2.89232861E+02
      3.40170970E+02      1.78224182E+03     -3.78845663E+03
     -9.31885928E+02     -9.63003704E+02     -4.17775411E+03
     -5.03177794E+02      1.92850655E+02     -4.17139756E+02
     -8.19641739E+01     -2.50946209E+02     -5.77564865E+02
     -8.58347471E+02     -9.04622540E+02      3.07430261E+02
      1.04327494E+03     -1.73688062E+02     -3.88419652E+02
      2.22210339E+03      9.69442122E+02     -2.76584339E+03
     -6.86786344E+02      9.06406297E+02      9.23419066E+02
      4.04505357E+02     -5.35776517E+01     -2.64829209E+02
      1.06568614E+03     -2.83010442E+03      1.18745441E+03
     -8.34030186E+02     -1.92549347E+03     -1.00179833E+03
     -1.48865927E+02     -3.00184671E+02     -1.41562002E+02
      5.08885931E+02     -2.02096906E+02      5.65286420E+02
      1.66805964E+03     -1.76456396E+03      2.74413566E+03
     -5.43894976E+02      3.01137245E+03      9.74338921E+02
     -3.93433510E+02     -5.41486828E+02      4.30368282E+02
     -3.17063546E+03     -2.96037305E+03     -1.88322398E+03
      4.33205362E+03      1.23744054E+03      6.96374387E+02
     -7.02541385E+01     -1.81618468E+03      7.40081507E+02
      6.51718357E+02     -2.91599515E+02     -1.18378015E+02
     -1.58083165E+03      1.71187732E+03     -1.27760260E+03
      2.33822039E+03      1.23303901E+03     -1.02992158E+03
      8.40725096E+02     -7.47270091E+02      2.49794858E+01
      9.30288163E+02     -1.48014844E+02      4.10952519E+03
      1.99739208E+03      2.75390879E+02     -2.11354623E+03
     -1.10140432E+02     -2.71703125E+01      2.85372445E+02
      9.92714157E+01      3.92340561E+02      5.14784600E+03
      2.35454521E+02     -2.46277222E+03      2.56715841E+02
      5.06783440E+01      1.04542502E+03      4.39923090E+02
     -4.45928591E+02     -1.44072451E+02      1.05678531E+03
     -2.25096659E+03     -6.04732687E+02     -1.07145685E+03
     -1.71114733E+02     -6.81986760E+02     -1.60868062E+02
      4.01401187E+02      1.68883394E+03     -9.52403427E+01
     -8.41726300E+02      2.33599513E+03      1.39567440E+03
     -1.35866496E+02      6.75881644E+01     -1.99088982E+02
      1.34737702E+03      1.69431091E+02      3.43215428E+02
     -3.81155860E+03      1.85733679E+03      3.52571346E+03
      7.43954794E+02      6.53618106E+02      5.22276969E+02
      2.16016624E+03      1.96629877E+03     -1.25667101E+03
      1.67037080E+03     -1.00792271E+03      7.19539205E+02
     -1.56760279E+02      5.53999138E+02     -3.86282940E+02
      9.48385799E+01      3.82706475E+03     -2.01877787E+03
     -1.98511742E+03      2.25998947E+03     -2.52841796E+03
     -2.16301746E+02      8.05967242E+02      8.12696299E+02
      1.95841788E+03     -4.92452989E+02     -2.12361968E+02
      7.78921857E+02      7.98212834E+02     -7.14859322E+02
      1.87212269E+02     -1.60054591E+03      6.08422485E+02
     -5.36621552E+02      3.05047144E+02      2.67057983E+02
     -2.89281787E+02      5.87612226E+02     -1.10311746E+02
     -7.14929178E+01      2.18374318E+02      3.78308600E+02
     -9.01458485E+01      3.58580849E+03     -1.46746743E+03
      3.05345215E+02     -6.02852619E+02      6.31271874E-01
     -1.30735217E+03     -5.56406527E+02      1.91587903E+03
      1.00097202E+03     -3.34178823E+03     -1.06296161E+03
     -1.43659868E+02      7.58055874E+01      2.24666112E+02
      2.34095358E+02     -2.37641788E+03      1.65211084E+02
      6.58871429E+02      1.73112923E+03      4.35073118E+02
     -7.26498476E+01      3.92320078E+02     -5.60667294E+02
      2.61006480E+02      8.91824582E+02      1.31620656E+03
     -7.07915628E+02     -6.15989161E+01      7.86467471E+02
      1.48784077E+01     -6.76255907E+02      1.18789969E+02
     -1.61399189E+03      9.14890662E+02     -1.51491565E+03
      1.70500293E+03      1.28041263E+03      2.35501393E+03
      1.27117240E+03     -8.95670022E+02     -6.11643285E+02
     -5.12735184E+02      1.06570011E+03     -6.38265387E+02
      2.54191423E+02     -1.54957261E+03     -2.66727813E+02
     -1.00637311E+02      6.34724906E+02     -6.46122995E+02
     -1.87239920E+02     -1.02073460E+03      3.40874539E+03
     -8.92026045E+02      2.23534459E+03      1.20742178E+03
      7.87197726E+02     -7.12476689E+01      9.82963034E+01
     -3.09159647E+02      2.48593770E+03      2.85880629E+03
      7.89062550E+02     -1.01459661E+03      1.91180091E+03
      6.42451769E+01      5.18109361E+02      1.81337056E+02
      1.44727897E+02      5.32226440E+02     -1.11356692E+03
     -3.38392461E+02      1.99189006E+03     -2.34530819E+03
      5.70434238E+02     -6.42657895E+01      1.65064844E+01
     -1.28429946E+03      1.86597337E+03     -1.76014088E+03
      2.56434674E+02      4.79199646E+01      5.81883859E+02
     -1.15199411E+03      7.99913348E+02      2.76784905E+03
      2.04483779E+02     -6.23309803E+01     -4.85945269E+02
      2.93855999E+03      3.43662093E+02      1.06430854E+03
     -2.30392799E+03     -1.03053466E+03      9.35674238E+02
      1.42031929E+02     -1.15420123E+03     -9.45136670E+02
     -6.12217625E+02     -1.11952652E+02      1.57694444E+02
     -1.90432718E+03     -2.92559721E+02     -3.00634982E+03
     -1.56345175E+03     -9.90545466E+02      6.11196974E+02
      1.19413681E+01      6.63225176E+02     -3.10884721E+01
      2.55932350E+02      3.03401657E+03     -1.49278116E+03
     -5.12892081E+02      9.26278171E+02     -8.57632466E+01
     -3.86863598E+02     -6.74553262E+02      2.87941307E+02
     -7.31892634E+01     -2.19440817E+03      1.01955601E+03
      3.19292733E+02      2.77283120E+03     -7.43842885E+02
      3.18613546E+02     -5.37560536E+02     -6.47124085E+02
     -2.00003915E+03      1.03689100E+03      3.14909303E+02
     -1.65191946E+03      8.52299293E+02      1.88074625E+03
      5.27925432E+02     -4.19983348E+02     -8.46914619E+02
     -1.48484224E+03      2.56030697E+02     -3.08491438E+02
     -6.89118648E+02     -2.92441833E+02      8.72576031E+02
     -2.37203785E+02      7.65546223E+02      5.71673855E+01
     -6.04260908E+02     -4.43721597E+02     -2.44562731E+03
     -3.00194853E+02     -7.33571664E+02      2.27138953E+02
      1.24551590E+02     -3.90964581E+02      7.91009972E+02
     -5.27952613E+02     -2.50383508E+03     -2.56358580E+02
     -1.74593677E+03     -1.00874794E+03      2.55887849E+03
      5.32244847E+02      5.57042069E+02      2.52591891E+02
     -1.27867110E+03      3.20357342E+03     -1.11861755E+03
     -2.45771304E+03      9.22105671E+02     -1.24765414E+03
      1.27930203E+02     -1.07318653E+03      1.64946312E+02
      3.39436294E+02      6.59011925E+02     -9.05612505E+01
      1.98139550E+03     -6.85817138E+02     -8.47383055E+02
      5.10050383E+02      1.20979103E+03      1.46574671E+03
     -5.59850968E+02      2.25066067E+02     -9.98649314E+02
     -1.43067798E+03      2.01421600E+03      1.15592234E+03
     -7.67413126E+02     -2.51901930E+03     -1.37800518E+03
      4.38292793E+02     -2.07497275E+03      1.76193646E+03
     -1.20089118E+02     -2.44878038E+02     -3.24953900E+02
      1.23524686E+03      7.16393427E+02     -1.60825885E+03
      1.00199303E+02     -5.99493156E+02      1.52391498E+03
     -5.78751650E+01     -6.48871853E+02     -2.77609627E+02
      7.56980690E+02      1.95423856E+03      1.80151940E+03
      1.15252396E+03     -2.42884061E+03     -1.12404553E+03
     -2.69182264E+02     -3.82697421E+01     -6.81257581E+02
      3.92860801E+03     -2.38352947E+02     -1.00959393E+03
      1.15166629E+03     -3.74215332E+02      4.93067762E+02
      3.74612960E+02      3.56549789E+02      3.31389844E+02
     -5.08156080E+02      3.21111214E+02     -1.62936946E+03
     -6.52512312E+02     -8.65816138E+02     -1.50563886E+03
      5.07544020E+02      6.55710248E+01     -6.11720965E+01
      1.97968405E+03      1.01129811E+02     -1.61852456E+03
     -2.75855457E+03     -1.86072500E+03     -1.99068734E+03
      2.89330468E+02      1.46550989E+02     -6.20335946E+02
     -3.19851484E+02      9.56833684E+02      2.07179963E+03
      1.72014819E+03      4.93087586E+02     -2.50246752E+03
     -7.35397820E+02      7.78791630E+02     -2.19723325E+02
     -7.67184178E+02     -9.07278185E+02      2.15876801E+03
      1.06847658E+03     -2.05270779E+03      1.48010341E+03
     -1.08492832E+02     -1.47036269E+02      7.19723240E+02
      4.34186792E+02     -6.81584677E+02     -1.04541569E+02
     -1.63439844E+03      1.11130293E+03     -8.35521578E+02
      3.06097790E+02      5.81839108E+02      4.91675204E+02
      7.43479312E+02      1.71425755E+03     -1.57907202E+03
     -5.35379367E+02      2.79874911E+03      2.04110250E+02
      8.46998455E+02      1.98666860E+03     -1.97566542E+03
     -1.33134765E+02     -6.49774784E+01      3.80481209E+02
      1.07746868E+03      1.34626116E+03     -6.59368646E+02
      1.72528696E+03      1.48903921E+03     -1.70568849E+02
     -5.73792299E+02      1.85049787E+03      9.75170905E+02
     -1.45743585E+02     -4.28652225E+02     -3.28680930E+02
      1.22591947E+03      1.22881977E+03     -4.23374484E+02
      4.06386014E+03     -1.61394784E+03     -1.48872614E+03
     -9.73130980E+02      1.09052869E+03      1.29043248E+02
     -4.43925647E+03     -3.34212864E+02      5.03366935E+02
      6.01953913E+02     -3.81392458E+02      2.93270239E+02
     -1.15347205E+04      1.55960308E+03      4.97031609E+03
      2.82551324E+03     -1.46292863E+03     -8.67214291E+02
     -7.84965318E+02      1.69286306E+03     -2.60655865E+02
      7.22863326E+02     -6.15764160E+02     -6.84139062E+02
      2.51929113E+03      1.21349969E+03      1.39543305E+02
      1.35043300E+03     -3.31864891E+03      5.92331448E+01
      2.18812686E+01     -4.69016368E+02     -1.96487120E+02
      7.03329432E+02      1.38794003E+03      6.43877342E+02
     -1.07743767E+03     -2.36973710E+03      6.10325969E+02
      3.61130153E+02      7.48811249E+02      3.97755751E+02
     -5.43037684E+02     -2.45963865E+03     -2.76006176E+02
      7.97211286E+02     -9.68623319E+02     -2.81772315E+02
     -2.83894136E+02      1.97980461E+01     -6.30132045E+02
      6.94249140E+02      1.77405824E+03     -9.92546617E+01
     -1.27373821E+03     -1.66185380E+03     -3.51962508E+02
      5.46338099E+01     -7.57554970E+02     -6.38935276E+02
      5.26885723E+02     -1.80778395E+03     -1.36815299E+03
     -2.21333076E+03     -9.91008915E+02     -9.72452962E+02
     -5.25776243E+01     -3.54201488E+02     -6.09686641E+02
      6.46135618E+02     -1.26077196E+03      9.59954736E+02
     -1.97040670E+03      3.62927156E+03     -3.24061435E+01
      1.91610806E+03     -2.73392381E+02      7.94202318E+02
      3.44825640E+02     -2.51957185E+02     -3.01961001E+02
     -1.45784417E+03      7.88366204E+02      1.64795076E+03
      7.74648147E+02     -1.89587805E+02      6.00793869E+02
      7.63672208E+02     -8.29261552E+02     -9.72372070E+02
      6.94653005E+02      1.07176061E+02     -3.26762377E+02
     -8.64388027E+02      6.36509285E+02     -2.16562905E+03
      4.44977378E+02     -8.10587528E+02     -2.14541957E+03
      7.33729253E+02      3.81822084E+01     -5.66569505E+01
     -6.75553902E+02      3.23864938E+03      1.40547732E+03
      2.89961228E+03      6.31129286E+02      2.30802909E+03
      3.87450894E+02      1.60312305E+02     -4.29350075E+02
      2.27930181E+03     -1.68245722E+03     -2.49358213E+02
     -9.82045711E+02      1.96958636E+02      2.17456147E+03
     -5.09393419E+02     -4.98157442E+02      4.27773374E+02
      1.91630324E+03     -2.88922415E+02     -1.70543622E+03
     -6.04027687E+02     -1.14409823E+03     -8.35391051E+02
     -3.93039664E+02      3.94670412E+01      6.04518121E+02
     -9.98491183E+02     -3.26183435E+02      2.53233941E+03
     -1.83822182E+02      9.10572355E+02      3.18935862E+01
      3.83754742E+02     -4.39176799E+02      2.89986132E+02
     -3.07253939E+02     -9.04460882E+00      8.12791562E+02
     -1.68509761E+02     -1.78003805E+03     -1.54738957E+03
      5.58373127E+02      2.36699103E+02     -6.37495035E+02
      2.37746075E+03      4.96245293E+02      2.63626709E+03
      1.59347801E+03      9.82730287E+02      1.95961836E+02
      1.10489078E+03     -2.93955311E+02      4.24684046E+02
      1.25407544E+03      2.56481718E+03      9.82042825E+02
     -2.37325626E+03     -2.43906077E+03     -2.59673740E+03
     -7.66867190E+00      4.26833487E+02      2.95173573E+02
      8.01571237E+02     -7.88426818E+02      3.11456223E+03
     -3.18832312E+03     -4.26392375E+00     -7.79546295E+02
     -9.17244492E+02      1.69179650E+03     -7.05721557E+02
     -7.25412775E+02      8.58590009E+01      3.95545954E+02
      2.88485756E+03      5.61036464E+02     -4.23603824E+01
      1.02172989E+03      1.80813798E+03     -2.64385363E+03
     -2.48141261E+03      7.39835408E+02     -1.24891441E+03
      1.92491779E+02     -7.86163690E+02      2.89264966E+02
     -3.74940685E+03     -2.01264676E+03      3.03289668E+03
     -4.14814846E+02     -2.89565291E+03      1.87937009E+03
      2.79693161E+01     -2.73290020E+01      5.93486591E+02
      8.43263492E+01     -1.39538953E+03     -2.04081049E+03
     -3.88765368E+02      7.05775172E+02      1.21427027E+02
      3.20143422E+02     -3.59018594E+01      2.09444239E+02
     -5.79870351E+02     -2.03437126E+03     -3.19425729E+02
     -4.89098983E+02      1.05429081E+03     -2.58538812E+03
      1.31948141E+02      1.24367806E+02     -4.76223304E+02
     -1.08831658E+03      2.04165133E+02     -1.37308139E+03
      2.46983052E+03     -6.77794720E+02     -1.60483557E+02
     -8.03336234E+01      2.64364821E+02     -1.20186771E+02
      2.15319628E+02      1.22357279E+03      1.48120514E+03
      6.83634102E+02      1.46059581E+03     -2.99428689E+03
      3.13322082E+01      3.78172775E+02      2.00616462E+02
      1.94984853E+03     -9.90554847E+02     -2.90749118E+03
     -1.53450385E+03      2.37310328E+03     -4.94042398E+02
      1.63900656E+02     -1.62430930E+02      3.17122274E+02
     -1.05808499E+03     -5.53636616E+02     -2.27198447E+03
     -1.51211360E+03      3.76990730E+02     -1.53691057E+02
     -2.79923197E+01     -5.15020517E+00      6.22661539E+01
      1.31171938E+03     -2.53428863E+03     -2.70099139E+02
     -3.17151129E+03      2.02369279E+03      8.67438702E+01
     -4.27173814E+02     -1.45153889E+02      5.93514256E+02
      1.08752765E+03     -1.29382080E+03      7.90297268E+02
      2.47459985E+02      6.32259561E+02      3.61710106E+03
      2.51692389E+02      7.26831334E+02      1.80391798E+03
     -1.65710030E+02      5.07449861E+02      3.67804822E+02
     -6.23948170E+02     -1.08884443E+03     -2.15478748E+03
     -1.12439086E+03     -1.90105551E+02     -1.21171437E+03
     -1.22440633E+03      9.33398116E+02     -4.54486252E+02
      6.27380099E+01     -3.04425800E+02     -2.60807261E+01
      3.37185361E+03     -2.78378935E+01     -2.15471164E+02
      6.36285062E+02      3.72722270E+02      5.13844967E+02
      1.48872283E+02      2.37159609E+02     -8.77343711E+02
     -2.30180801E+02      1.42731221E+03     -1.38879632E+03
     -2.02198248E+03     -3.35542600E+02      1.54113259E+03
     -3.86204367E+02     -3.57259400E+02     -6.65366537E+01
     -3.71556423E+02     -1.63438159E+03     -1.71583103E+03
      2.69034997E+03     -2.13161941E+03      1.45385107E+03
      5.98709017E+02     -8.40272219E+02      4.37770177E+02
      4.55959953E+02      1.50042052E+03     -2.85187626E+03
      4.32627251E+02     -2.34116651E+03      1.14467736E+03
      1.09664201E+03     -1.44967188E+02      3.48813425E+02
     -6.84952855E+02      1.50749318E+03      2.23907491E+03
     -3.45328150E+02      9.71014246E+02      1.91315340E+03
     -6.92300955E+01      7.71539275E+01     -8.14047322E+01
      1.70470160E+03     -1.14377548E+03     -1.23920092E+03
      7.48902129E+02      1.99201479E+03     -5.21467320E+01
     -5.58640442E+01      3.50267656E+02      7.19570919E+01
      7.90274252E+01     -1.86064121E+03      2.11980173E+03
      2.02285644E+03      9.54792640E+02     -4.49358562E+03
     -4.82824684E+02     -5.19048147E+02      2.05466357E+02
     -2.07863430E+03     -1.66598224E+03      6.12519693E+02
     -1.21631083E+03     -3.83901974E+03      1.76401163E+03
      2.10117324E+02     -2.39375558E+02      5.27868934E+02
     -1.21927486E+02      8.72577478E+02      1.99866914E+03
     -1.46178533E+03     -6.56683608E+02     -2.67366769E+03
      2.25521674E+02     -6.35947546E+02      1.66971176E+03
      5.47669823E+01      6.66716678E+02      1.38105115E+02
      1.29110947E+03     -1.34472334E+03     -1.57447068E+02
     -1.25832155E+03      2.09898569E+03      1.04743421E+03
     -8.12613358E+02     -1.54148714E+03     -3.79462590E+02
     -6.83507995E+02     -7.33571353E+02     -1.82145335E+02
      2.67596625E+03     -8.19784351E+02      1.56673720E+03
      4.02260708E+02     -3.34400565E+02     -1.11337916E+03
      5.83173378E+02      8.20674311E+02      3.41110186E+02
     -2.16166628E+03     -6.28297659E+02      1.57323613E+02
     -9.10471506E+02      1.92837706E+03      3.65317253E+03
      9.03067106E+02      7.00081970E+02      2.04078998E+02
      7.30909337E+02      2.04645662E+03      9.47353712E+02
      7.67435990E+02     -1.39255385E+02     -7.54333211E+02
     -5.40332909E+01     -2.52260139E+02     -1.07910570E+02
      2.37834053E+03      1.06730496E+03     -2.41395209E+03
      2.47485300E+02     -4.87762164E+02     -6.20187902E+02
     -1.51528887E+02      7.66338315E+02     -3.93805689E+01
     -4.84699715E+02      1.07278806E+03      1.12211234E+02
      1.34159203E+03      6.47774757E+03     -9.18781497E+02
      5.77737925E+02      2.81909232E+02      9.38691648E+02
     -5.22317959E+02     -1.19650176E+03     -2.52697868E+02
      2.36107571E+02      1.37769878E+03     -6.45948524E+02
     -1.69749128E+02     -1.50951217E+01     -8.94782230E+02
      1.87735074E+03      4.24649660E+03     -2.45415472E+03
      3.15071878E+03     -2.13315980E+02     -5.70792220E+02
     -4.38170416E+02      2.08566988E+02     -7.25335899E+02
     -1.88533158E+03     -2.16192699E+03      2.65104538E+03
     -4.26367836E+02     -2.55001984E+02     -1.62244030E+03
      4.00639782E+02      7.71175038E+01     -6.85968631E+02
     -2.15212922E+03     -1.14271557E+03     -2.26905132E+03
     -1.13068551E+03     -2.98731865E+02     -6.78856173E+02
      6.85802394E+02      1.95776766E+02      1.66122659E+02
     -7.01558527E+02     -1.15816991E+02      3.53817280E+02
     -1.35242793E+03      2.28780490E+03      4.15743638E+02
     -6.85228200E+02     -1.96379430E+03      7.27810032E+02
     -1.69074007E+03      3.09007623E+02     -1.82549542E+03
      2.72485462E+02     -2.35984910E+02      4.99649316E+02
      3.81737328E+03     -6.74044764E+01      9.64860493E+02
      5.90608336E+02      1.21426619E+02     -2.13379127E+03
      3.37859577E+02     -4.50425582E+02      1.11456481E+02
      4.74177746E+03      1.68182816E+03     -1.58971335E+03
      5.81676671E+02     -8.81151354E+01      2.62218487E+03
      4.89227068E+02     -3.61650244E+02     -6.32939061E+02
      2.71296428E+03      4.88852420E+02     -1.64483791E+03
      5.10375162E+02      1.27102883E+03      2.19497579E+03
     -2.58639687E+01      2.65700590E+02     -5.93260992E+01
      1.90574231E+03     -1.03008412E+03      2.50258546E+03
      1.91743303E+03      3.00643776E+02      5.07415664E+02
      2.14829691E+02     -6.60750175E+02     -1.12584131E+02
      2.15000213E+03     -2.00459314E+02     -2.35646681E+03
     -1.96354110E+03     -2.25796214E+03      3.53108304E+02
     -8.97512977E+02     -6.35711466E+02     -2.87938032E+02
      5.63870512E+02      9.56706429E+02     -6.99327559E+02
      1.46714325E+02     -1.66104461E+03     -9.32433911E+02
     -1.81961486E+02     -4.63897624E+02      5.12271847E+02
      3.80007938E+03     -8.64127024E+02      1.77655709E+03
     -2.01877649E+03     -3.19072968E+01     -2.15840225E+01
      6.19712767E+02      7.41710292E+01     -7.79451955E+02
     -1.34604558E+03      1.26349062E+03     -2.01793933E+03
     -7.40185314E+02     -2.05263684E+03     -7.60843110E+02
      5.20182275E+02     -2.59075749E+02      1.36872296E+01
      1.53240149E+03     -8.08859469E+00      3.45150099E+03
     -4.81182741E+02     -2.87127835E+03     -4.77330702E+02
     -2.44892598E+03     -1.91284316E+03     -8.26970827E+02
      7.86711730E+01      5.34327906E+02     -2.49582487E+02
      1.39550352E+03     -1.63097913E+03     -2.32116974E+02
      1.48073190E+03      2.27561412E+03     -3.78200593E+03
      2.91007979E+03     -3.90623752E+03      1.58476808E+03
  }
}

Hamiltonian = DFTB {
  SCC = Yes
  SCCTolerance = 1e-6
  MaxSCCIterations = 200
  ForceEvaluation = Dynamics
  MaxAngularMomentum = {
    C = "p"
    H = "s"
  }
  Charge = 0.0
  SpinPolarisation = {}
  Eigensolver = Standard {}
  Filling = Fermi {
    Temperature [Kelvin] = 300.0
  }
  SlaterKosterFiles = Type2FileNames {
    Prefix = "../../pbc-0-3/"
    Separator = "-"
    Suffix = ".skf"
    LowerCaseTypeName = No
  }
  KPointsAndWeights = {
    0.0000000000000 0.0000000000000 0.0000000000000 1.00000000000000
  }
  Dispersion = LennardJones { 
    Parameters = UFFParameters {}
  }
}

ParserOptions = {
  ParserVersion = 3
}
