Geometry = GenFormat {
<<< "system.gen"
}

Driver = VelocityVerlet{
  Steps = 50000
  TimeStep [fs] = 0.2
  MDRestartFrequency = 25
  Thermostat = None {
    #InitialTemperature [Kelvin] = 300.0
  }
  Xlbomd{ 
    IntegrationSteps = 6 
    MinSccIterations = 2
    MaxSccIterations = 200
    SccTolerance = 1e-6 
  }
  Velocities [m/s] {
     -1.13147401E+03     -5.78931563E+02      5.84850274E+02
     -5.22884113E+02     -1.37744122E+03      6.98683359E+02
     -2.99001356E+03     -9.76358229E+02      7.95650960E+02
     -7.07129106E+02      5.60506343E+01     -6.28297639E+02
     -1.01549606E+03      4.88024201E+02      1.11538236E+02
     -1.81476361E+03     -1.59917811E+03     -8.01849638E+02
     -1.04375230E+03     -2.54445609E+02     -3.73326900E+02
     -2.56607941E+03     -3.63163005E+01     -2.52769697E+03
     -1.70807613E+03      9.18059245E+02     -2.37970993E+03
     -4.74835140E+02     -6.80442666E+02     -5.92218705E+02
     -1.38460371E+03     -2.67854510E+03      6.28593865E+02
      3.68392286E+02      6.06435844E+02     -1.04329504E+03
     -4.66147106E+02      4.08411179E+01     -5.07544404E+02
      1.73959668E+03      2.43219120E+03     -1.22412510E+02
     -5.82121953E+02      1.13932409E+02     -9.29895866E+02
      1.53652634E+02      3.89499748E+02     -3.27598211E+02
     -3.61069155E+01     -1.78307438E+03      2.10383929E+03
      4.85718648E+02     -7.92023809E+02     -4.21954920E+02
     -2.82890043E+02     -1.24424796E+03      4.90585249E+02
     -1.84495015E+03      6.63085960E+01     -5.09247933E+02
     -1.52072980E+02     -3.68773211E+01     -1.09545943E+03
     -6.66412936E+02      1.25599527E+02     -3.40707265E+02
     -2.12539690E+03     -2.60261811E+02      3.56997324E+02
     -1.20985823E+01     -4.42601095E+02     -1.29976800E+03
     -1.21145751E+02     -6.48316293E+00     -7.36580866E+02
     -4.16344231E+02     -1.09103782E+03      1.60948780E+03
     -1.51911609E+03      1.57014539E+03     -1.16402563E+03
     -4.78254667E+02     -7.56849077E+02     -7.79448069E+02
      3.56442247E+02     -2.36829428E+02     -5.37680783E+02
     -2.38950463E+03     -4.55500107E+02      9.07224775E+01
     -1.28490105E+03     -1.25683224E+03     -8.97435537E+02
     -1.50716521E+03     -1.86146932E+02      7.25117759E+02
      4.34714046E+02     -3.48748219E+02     -4.85984592E+02
     -2.17979616E+03     -2.97957260E+02      1.94580285E+03
     -1.78156058E+03      5.57582884E+01     -7.18474574E+02
     -2.28105314E+02      9.80358051E+02     -8.12209970E+01
      1.30748802E+02      1.43851795E+03      1.41054960E+03
      1.51340789E+03     -4.95602594E+02      2.12939481E+02
     -1.31000313E+02      6.25388913E+02      8.20588817E+02
     -2.61152280E+02      2.28725639E+03      7.50970146E+02
      5.01485796E+02      7.36628316E+02     -7.20342254E+02
     -1.79177265E+01     -3.42065020E+02      8.43312855E+02
      6.68512143E+02      6.33408667E+02      1.74244159E+03
     -5.03623754E+02     -5.26373787E+02      4.44377368E+03
      5.60254064E+02      5.88699994E+02     -1.20190567E+02
      5.52707417E+02      1.02131067E+03     -1.06856602E+03
     -1.01259603E+03     -3.01242121E+02     -1.17359575E+03
      4.44732815E+02     -1.50038590E+03     -3.51886045E+02
      7.49299208E+02     -1.48825721E+03      6.83309485E+02
      2.03867425E+03     -2.19925036E+03     -6.17423847E+02
      6.01186589E+02      6.25447296E+01     -5.82324844E+02
      2.82539542E+03      4.86020238E+02     -1.82557137E+03
      1.72433346E+03     -3.88126189E+02     -1.32967332E+03
      2.13245554E+04      1.30635584E+03      4.10300026E+03
     -2.01564200E+03     -1.51962395E+03     -1.59333826E+03
      1.99225008E+03     -1.38437849E+03     -8.04308079E+02
     -6.87876439E+02      3.55833003E+02     -4.28587222E+01
     -6.95825130E+02      2.41609180E+03     -1.04758427E+03
      1.42514922E+03     -8.96881834E+02      3.48671095E+03
      9.49275627E+02     -2.19659822E+01      8.86902896E+02
     -3.45894276E+02     -3.02571774E+02     -1.76681590E+02
      5.60991777E+01      1.44702455E+03      4.64071229E+02
      9.08980722E+00     -1.42055675E+03     -1.09605151E+03
      6.13635537E+02     -2.29353554E+03     -1.80923584E+03
      4.05088474E+02      4.67687931E+02     -4.83058906E+02
     -1.31041042E+03     -5.77279821E+02      3.18177445E+03
      1.47654055E+03     -3.69727617E+01      1.55025653E+03
     -1.16294726E+02      2.35376379E+02      1.55456796E+02
     -1.78215972E+03     -8.96082637E+02     -6.05544998E+02
     -1.26142572E+03      1.74638521E+03      8.72956797E+02
     -1.00090420E+01     -5.32206569E+02      6.53697477E+02
     -4.10472688E+02     -2.24657446E+02     -3.35943740E+03
     -1.11744216E+02     -5.64149653E+02      4.41309194E+02
      4.69312352E+02      4.80011307E+02      8.19972839E+02
      2.07652373E+03      2.26553888E+02      1.04871565E+03
      3.09349653E+03      3.19548856E+02     -1.25826516E+03
     -9.81985730E+02     -8.28090220E+02      6.33411917E+02
      1.10633857E+03     -2.58978712E+03      1.68100459E+03
     -4.54695969E+02     -1.80420711E+03     -1.42891660E+03
      5.61023341E+02     -5.13420143E+02     -3.68469072E+01
      1.05035784E+02      4.64011070E+02     -6.46117418E+02
     -1.42713496E+03      1.24208200E+03     -8.25414579E+02
      2.84133915E+02      7.80697069E+02      2.15777695E+02
      2.18214630E+02      3.23830792E+02     -6.15911932E+02
     -1.90564893E+03      2.50999475E+03      1.19152800E+02
     -1.22007433E+02     -5.22287952E+02      1.37495467E+02
     -9.36981972E+02     -5.15879315E+01     -7.49611855E+02
      1.09508519E+03      6.75134418E+02     -1.36788695E+03
      3.81456818E+01      1.11423610E+02     -3.89323403E+02
      1.15544540E+03     -2.43253086E+03     -2.12819276E+03
     -1.33831224E+03     -2.50136620E+03     -1.86557317E+03
     -1.16767353E+03     -2.14745403E+03     -2.09416832E+03
      2.77670300E+02      3.99560364E+02     -6.95523447E+02
     -2.54981894E+03      1.60611519E+03     -2.03053421E+03
      1.64375587E+03     -1.50837544E+03     -9.63375558E+02
     -1.08164218E+03      3.91599026E+01     -3.73213189E+02
     -1.11709899E+03      6.45371314E+02      4.42254271E+02
      2.39581135E+03     -4.00532557E+02     -7.72337119E+02
      7.47050467E+02     -7.39768521E+02     -1.71364830E+03
     -8.97329353E+01      6.63304522E+00      4.55390378E+02
      1.44363904E+03      3.65523143E+03     -3.74130320E+02
     -7.27931341E+02      2.01470710E+03      6.04483341E+02
      7.20001748E+01     -2.55556658E+02     -3.31048529E+02
     -1.04385812E+03      3.16479369E+03      1.98787328E+03
     -1.47905558E+03      3.12243713E+03     -4.21041052E+02
     -5.52036415E+02      6.23489593E+02      6.03688726E+01
     -1.80397023E+03      1.65202826E+02      2.40777788E+03
     -2.18616387E+03     -2.00361937E+03     -3.01526041E+03
      2.87622396E+01     -5.80174425E+00     -7.85346714E+02
      5.07279957E+02      2.11827877E+03      2.55953172E+02
     -1.45144337E+03     -1.75152962E+03     -1.71870727E+03
     -7.11500037E+02      1.48398018E+02      8.91929519E+02
      1.93142006E+03      2.18924538E+03     -2.46122865E+03
     -1.15156388E+03      1.26512780E+03      2.20925972E+03
      5.94718137E+02     -4.12265088E+02     -1.46150573E+02
      1.12190824E+03     -9.74300671E+02      2.56659177E+02
     -5.04133732E+01     -2.01320405E+03     -9.05347551E+01
     -2.91907060E+02     -7.87855961E+02     -6.20874418E+02
     -3.16865090E+03      2.35990681E+03      1.33047469E+03
     -7.91508846E+02      4.25701874E+01      1.03554314E+03
      2.63632220E+01     -7.95096859E+02     -1.12971347E+02
      1.40816837E+03     -7.74854660E+02     -7.88327870E+02
     -1.21641846E+03      1.16385239E+03      3.94162434E+02
     -2.31948662E+03      6.82520384E+01     -1.33390825E+03
     -8.36038210E+02      6.15692979E+02      3.02563043E+02
     -1.14372226E+03      1.35236951E+03      1.59186815E+03
      8.50869398E+02     -3.64102025E+02     -8.02674414E+01
     -7.67942722E+02     -4.37268697E+02      1.63397153E+03
     -5.45895731E+01     -1.84990791E+02      4.36449479E+02
     -2.58609167E+03      8.20548102E+02      1.30983724E+03
     -1.18272295E+03     -1.03226145E+03      1.49724131E+03
     -1.31316294E+02      6.56852991E+02      3.34103251E+02
     -5.96044695E+03      5.99048715E+02      1.16832380E+03
      1.20310661E+03      1.39212557E+03      3.09893440E+03
     -6.17534841E+02     -1.07015027E+03     -4.74703237E+02
      2.35510447E+02      3.19890749E+03      1.82289068E+02
      7.84545153E+02      9.89231706E+01     -8.71857886E+02
     -9.01764689E+01     -5.02928214E+02     -2.42832182E+02
     -9.50873808E+02     -5.87445010E+02      3.45198208E+03
     -1.50089413E+03     -1.46691933E+03     -4.94661821E+01
     -1.34165175E+02      8.23564586E+02     -3.22207252E+02
     -1.63282529E+03     -2.90457151E+03      7.60669145E+02
      8.99847802E+02     -1.62891294E+03      7.11025122E+02
      1.01757868E+02     -1.36286691E+02     -7.48246647E-02
     -1.90509647E+03      3.21223762E+01     -7.66321860E+02
     -3.29240773E+01     -2.10149143E+03     -2.12647632E+03
     -1.61326073E+02     -6.81207008E+02      1.77180352E+02
      3.20101018E+02      1.63371277E+03     -3.38128576E+03
      9.56579734E+02      1.29194534E+03      1.05282245E+03
     -4.19434660E+02      2.46339019E+02     -4.17532394E+02
     -7.64333822E+02      8.10571833E+02     -1.19951921E+03
     -6.55094194E+02     -4.19524708E+01      1.40302648E+03
     -6.87836347E+02     -2.39318941E+00      9.62565981E+01
      7.47964386E+02      7.09523017E+02      2.75689274E+03
     -1.32432252E+03      1.66769075E+03     -7.91962648E+02
      6.66220254E+02      2.49543167E+01      9.67977132E+02
      4.66966673E+02      1.94975587E+02      3.48814600E+02
      2.88575086E+02     -1.83352052E+03     -3.45889143E+03
     -1.52117758E+03     -1.26049254E+02      2.17735977E+03
      1.58653731E+03     -3.96730926E+02      1.08537997E+03
      3.31474366E+02      5.14146012E+02     -3.86266743E+02
     -2.11140044E+03     -8.32875140E+01      5.17052036E+01
      1.01772678E+03     -1.99531366E+02     -2.52299613E+03
      2.71672536E+02      6.57509218E+02     -3.41491404E+02
      1.78150435E+03     -2.20153550E+03      1.15685884E+03
      9.06559407E+02     -3.74695326E+03      1.32974029E+03
      3.63228690E+02     -6.27038321E+01      4.74579264E+00
      1.88318823E+03      5.13630072E+02      7.23553332E+02
     -8.40825683E+02      1.61542460E+03      1.24133595E+03
     -1.30710896E+02     -3.96470175E+02     -2.21006971E+02
      1.77029512E+03     -2.74444655E+02     -1.42348701E+03
     -5.80740453E+02     -4.12643180E+02      2.98436662E+02
      1.40058133E+02      2.98134362E+02     -1.17417603E+02
      9.80545136E+02     -3.54988785E+03      7.36870091E+02
      9.97543539E+02     -1.33398376E+03     -2.33107372E+03
      2.23621383E+02      1.03880067E+03     -4.05871434E+02
      7.11668996E+02     -2.13477885E+03     -1.58473036E+03
      6.82194020E+02     -8.35363736E+02     -1.07166205E+01
     -8.43445605E+02     -4.42419236E+02      2.39970880E+02
      8.45868049E+02      2.34393342E+03     -1.41539605E+03
     -2.87034271E+03     -8.50354190E+02      3.61558619E+03
      3.85637559E+01     -2.68990574E+02      3.69000079E+02
      8.03504088E+02      1.74368728E+03     -2.31995091E+02
     -8.82475275E+02     -1.72814034E+03     -1.86110442E+03
     -6.48776909E+02      4.07360456E+02      2.43135717E+02
     -2.55202049E+02      1.36640451E+03     -1.51946253E+03
      2.45570408E+03      1.34052987E+03     -1.62521127E+03
      1.75833978E+03     -7.50387215E+01     -2.54219567E+03
     -2.81424017E+02     -3.64817372E+02     -2.04152863E+02
      2.14902805E+03     -1.70729497E+03      6.26521493E+01
     -1.57742843E+03     -6.85586744E+02      1.11753981E+03
      2.02002655E+03     -1.93781230E+03      1.60256775E+03
      5.69833186E+02     -9.45529321E+01      4.79853410E+02
      2.20376968E+03      2.13386422E+03     -5.97487395E+02
     -5.41185416E+02      3.28429733E+02      1.16004773E+01
     -4.39580467E+02      5.21273639E+01     -5.88313345E+01
      2.14157055E+03     -2.62554990E+02     -3.39730176E+03
      3.23782557E+02      1.69406119E+03      1.58152380E+03
      1.52329191E+01      7.86314907E+02      3.56938364E+02
      6.30784718E+01     -1.02606383E+03     -4.12244544E+03
      4.58468451E+02     -2.57030735E+02      2.47572387E+03
      8.31601700E+01      3.00638723E+02      3.65736027E+02
      1.39293219E+03     -8.79995708E+02      3.33820303E+01
     -4.47779419E+02     -3.36557175E+03     -1.40171572E+03
     -7.65045488E+02      2.14343038E+02     -2.07407483E+01
     -2.09681173E+03      3.39614917E+03     -2.58633065E+03
     -4.18153937E+02      5.51793614E+02      1.07101384E+03
     -1.71021920E+02      9.03235870E+02     -1.61251566E+02
     -1.76760654E+03      1.57096539E+02     -3.88877799E+02
      7.84057906E+02      1.07399454E+03      1.64519832E+03
     -1.68662421E+02     -7.23442022E+02      5.04241842E+02
     -5.06724143E+01     -1.83237663E+03      1.80121717E+03
     -2.66374861E+03      1.61843589E+03      3.01272812E+03
     -1.10478961E+02      7.53956314E+02     -8.41511729E+02
      2.15491709E+03      2.11122944E+03      2.83358901E+03
      1.23911150E+03      1.37456287E+02      9.27900724E+02
     -6.13726011E+00      8.03461109E+02      7.46370877E+01
      1.07103232E+03      1.54964561E+03      2.53689841E+03
     -5.22164519E+02      6.70603031E+00      4.56652292E+02
     -1.46397925E+03     -1.27120155E+03      1.72876039E+03
     -3.97402942E+02     -5.11605253E+02      2.16935149E+02
     -5.83322413E+02     -2.38262879E+03     -3.44013315E+02
     -3.27820395E+03      7.95457269E+02      3.97496417E+02
     -5.69055293E+01      1.23868856E+03     -2.28164958E+02
      3.22915624E+02     -3.84066343E+01      4.77668482E+02
      5.27959233E+02      2.28220040E+03      9.34144156E+02
     -1.47448997E+03     -2.22231349E+03     -1.03019082E+03
     -1.19525151E+02     -1.52378087E+02      9.32869272E+01
      2.04833932E+03      1.26547288E+03      1.51254669E+03
      2.11649129E+03     -2.96379484E+02      1.34882617E+03
      1.55969447E+02     -1.23252041E+02      5.32891983E+01
      2.04391878E+03     -1.08324750E+02     -2.40794035E+02
     -2.50365752E+03      3.42980312E+01      1.47594442E+03
     -5.04823161E+02     -3.65290161E+02     -5.70688487E+02
      3.11401288E+02     -1.94529713E+02     -9.25039999E+02
      1.97404711E+03      8.72582460E+02     -6.84703171E+02
     -1.04438086E+03      4.26876955E+02     -8.14145297E+02
      1.90182941E+03     -1.64604653E+03      1.74223925E+03
     -2.51332273E+03     -1.50813944E+03      4.63696712E+02
     -5.36429209E+02     -4.19851243E+02     -2.43204562E+02
     -1.77285001E+03      1.05701274E+03     -4.33962596E+02
     -3.93413780E+03      1.81554643E+03      1.42152328E+02
     -9.46880924E+02      1.19813858E+02      9.99219269E+01
     -1.25383096E+03     -2.27065320E+03     -1.51380621E+03
     -9.30216354E+02     -2.41409875E+03      1.35598313E+03
     -1.34364714E+01     -1.55436730E+02     -2.93491158E+02
      1.77636876E+03      4.34052089E+02      7.32254413E+02
      1.60584236E+03     -4.48358146E+02     -1.16726392E+03
     -4.98559822E+02     -1.78043856E+02     -2.47964648E+02
      1.35210475E+01      2.86840004E+03      1.38346175E+03
     -2.97012885E+01      2.34006826E+03      5.82705794E+02
     -3.37998762E+02      1.57351668E+03      7.41508458E+02
      1.71035888E+02     -2.12847616E+02      5.99784858E+02
     -3.64943202E+02     -5.13943255E+02      1.05896979E+03
     -3.99643038E+02      6.05189558E+02     -2.26234280E+03
     -7.49138566E+02     -1.51197404E+03     -1.47983756E+02
     -7.66446633E+01      1.56041005E+02     -7.64440327E+01
      1.44203100E+01     -1.30026194E+02     -4.80184213E+02
      1.63055365E+03     -1.15705717E+03     -1.04544143E+03
     -2.79891707E+02      9.56433483E+01      2.05852712E+02
      1.40369528E+02      3.69991875E+02      1.37763181E+03
      1.51731026E+03      1.95079641E+02     -1.94173116E+03
      4.41422773E+00     -2.73674610E+02     -4.13362535E+02
     -6.72111043E+02     -8.29328486E+02     -2.13594332E+03
     -2.40133525E+02      1.18146190E+03      5.73249794E+02
     -6.78643564E+02     -4.76518546E+02      1.97627766E+02
      7.33048141E+02      1.01414090E+03      2.21265637E+02
     -2.92553478E+02     -1.18096419E+03     -1.57373776E+03
     -1.62571039E+02     -1.75045439E+02      1.05644880E+03
     -5.81992055E+02      8.42604067E+02     -1.94843307E+03
     -2.93668156E+03      5.55541126E+02     -1.95867827E+03
     -1.36858907E+02     -3.29818969E+02      1.94862806E+02
      1.83165599E+03     -3.12851858E+03     -1.38267623E+02
      6.82988681E+02      6.52026951E+02      1.52443620E+03
     -7.38689495E+01     -6.29626056E+02      7.04082613E+01
      1.16505475E+03      8.87184378E+02      9.29145370E+02
      1.34488333E+02      1.24088625E+02     -3.62713952E+02
     -3.19163723E+02      4.62423674E+02      5.62876969E+00
     -4.12025252E+03     -1.48225538E+03      9.71985219E+02
      1.76655870E+03     -7.24942159E+02     -9.75136502E+02
     -2.97119525E+02      2.51772091E+02     -8.25908717E+02
      2.67192947E+02      6.63513580E+02     -1.29225994E+03
     -7.92394626E+01     -4.52484694E+03     -6.38182080E+01
     -7.70215342E+02      2.92131228E+03      1.22447879E+03
     -6.35813285E+02      1.24983615E+02      8.55389601E+01
     -1.31658147E+03      1.72047832E+02     -1.22249835E+03
     -4.22266454E+02      2.23178556E+03      6.25899670E+02
     -8.91915571E+02      2.37703066E+03      1.11359796E+03
      1.38561081E+02      2.68091332E+02     -6.51154012E+02
     -2.17206330E+03     -6.04381784E+02     -1.73800847E+03
      2.73031356E+03     -1.33412242E+03      2.09522446E+03
     -2.91590228E+01      6.22979216E+01      1.17803238E+02
     -4.65139159E+02     -3.35962740E+03      1.93329660E+03
     -1.63785020E+03      2.49763270E+02      6.31324609E+02
      4.93722857E+02     -2.23735718E+02     -8.10051032E+02
      2.19416141E+03     -2.16266926E+03     -9.95845393E+02
      1.54981743E+03     -7.38605826E+02      1.17382073E+03
     -5.93941606E+02     -6.89418969E+02     -2.49037141E+02
      8.63954784E+02     -1.62585591E+03     -3.64326724E+01
      2.73711684E+03      3.84437177E+03      7.49232532E+02
     -1.83943228E+01      7.00663271E+02     -3.77130636E+02
     -7.38826417E+02      2.60199516E+03      3.90100282E+02
     -9.23200678E+02      9.25113366E+02     -1.15633105E+03
      5.08226532E+01      2.51782911E+02      4.18311093E+02
     -1.36065373E+03      2.06615464E+03      2.06878456E+03
     -1.01280135E+03     -2.81397995E+03     -1.45141464E+03
     -6.62337550E+02     -1.13932852E+02     -1.35602222E+02
      9.73662510E+02     -4.59619394E+02      6.87598666E+02
      9.68526191E+02     -9.13522948E+02      1.34515325E+03
     -1.96893392E+02      3.12057961E+02     -5.52532379E+02
     -1.08253665E+03      2.91289690E+03      1.44057364E+03
     -1.27539065E+03     -8.62179424E+02     -2.96081687E+03
     -3.60903660E+02      1.66264093E+02      1.54440370E+02
      2.00730060E+03     -1.62037569E+03     -7.84792369E+02
      1.81526986E+03      2.10118474E+02     -1.09893670E+03
      2.37495313E+02     -2.65776127E+03     -7.42084581E+02
     -7.26831676E+02      2.61524998E+02     -5.13440073E+02
     -8.08641984E+02     -2.20160724E+03      1.11468329E+03
      1.57360297E+03     -7.99430106E+02      8.16062871E+02
      1.04007359E+03     -1.27075125E+03      3.19643075E+03
      1.96180349E+02      5.83592660E+01      4.57936864E+02
     -9.51323834E+02     -1.78296049E+03     -1.81324957E+03
      7.83270753E+02     -6.70597421E+02      2.36521045E+03
     -4.23309815E+02     -2.65906566E+01     -5.35867883E+02
      1.58373284E+03      9.62383059E+02      9.92083940E+02
     -2.05325722E+03      3.99762178E+03     -5.61608937E+02
     -7.32752478E+01      3.36163891E+02     -5.85743352E+00
     -3.01983056E+02      4.96127917E+02     -3.18408512E+02
     -4.57689357E+02     -4.27451491E+02     -7.93936141E+02
     -6.54834377E+02     -3.71281323E+01     -2.36600636E+02
      1.07161407E+03      1.18506755E+03      2.58969662E+01
      6.09038449E+01      2.82394409E+03     -2.24725751E+03
      4.94511586E+02     -8.08111907E+01      1.32120611E+02
      2.19413437E+03     -5.56092271E+02      6.77799749E+02
     -3.72817327E+02     -2.25682819E+03      2.82151673E+02
     -4.33167494E+02      7.94431216E+02      4.28332615E+02
      8.70725609E+02      2.64617887E+03     -2.00677739E+02
      1.94339555E+03      1.03662131E+03     -2.67861751E+02
     -5.58977296E+02     -6.84015298E+02     -5.95879005E+00
     -2.85450056E+03     -2.11561343E+03      2.17121243E+03
     -1.99677913E+03      2.50901025E+02      1.95659902E+03
      1.45070566E+02      8.10119475E+01     -2.97833318E+02
      1.18789112E+03     -3.37094935E+02     -2.85518160E+03
     -2.77961977E+02     -2.19752435E+03      1.11307467E+03
     -3.89162398E+01     -3.34070376E+02      2.91357111E+02
     -1.02420297E+03     -2.56092282E+02      2.29981114E+03
     -1.76784043E+03      1.72911693E+03     -1.17304972E+03
     -5.68270344E+02      1.08235303E+02      2.13382738E+03
     -1.65760585E+02      1.13227951E+02      2.84984408E+02
     -5.44264695E+02     -1.33770388E+03     -1.48478043E+02
     -1.38478158E+02      8.43498094E+02     -3.11826217E+03
     -2.22178942E+03     -3.25191628E+03      1.39135244E+03
  }
}

Hamiltonian = DFTB {
  SCC = Yes
  SCCTolerance = 1e-6
  MaxSCCIterations = 200
  ForceEvaluation = Dynamics
  MaxAngularMomentum = {
    C = "p"
    H = "s"
  }
  Charge = 0.0
  SpinPolarisation = {}
  Eigensolver = Standard {}
  Filling = Fermi {
    Temperature [Kelvin] = 300.0
  }
  SlaterKosterFiles = Type2FileNames {
    Prefix = "../../pbc-0-3/"
    Separator = "-"
    Suffix = ".skf"
    LowerCaseTypeName = No
  }
  KPointsAndWeights = {
    0.0000000000000 0.0000000000000 0.0000000000000 1.00000000000000
  }
  Dispersion = LennardJones { 
    Parameters = UFFParameters {}
  }
}

ParserOptions = {
  ParserVersion = 3
}
