Geometry = GenFormat {
<<< "system.gen"
}

Driver = VelocityVerlet{
  Steps = 100000
  TimeStep [fs] = 0.2
  MDRestartFrequency = 5
  Thermostat = None {
    #InitialTemperature [Kelvin] = 300.0
  }
  Xlbomd{ 
    IntegrationSteps = 6 
    MinSccIterations = 2
    MaxSccIterations = 200
    SccTolerance = 1e-6 
  }
  Velocities [m/s] {
     -2.33712775E+02      7.46162287E+01     -2.86190069E+02
      2.21541840E+03     -2.62139388E+03     -6.03223733E+02
      3.83129793E+02     -1.26867766E+03     -8.75957614E+00
     -6.98385423E+01     -3.80231467E+02      4.30837258E+02
      2.33151111E+02     -4.43528075E+03     -3.59923007E+03
     -7.13688956E+02     -5.47398075E+02      1.01406481E+03
     -3.41860460E+02     -8.01274824E+02     -3.06506702E+02
      1.68620956E+02     -4.92960607E+02     -1.53262569E+03
      6.69605062E+02      3.29695613E+03     -1.62983943E+02
     -3.66828449E+02     -1.29680139E+02      5.70331077E+02
     -3.06676351E+02     -1.52213823E+03     -9.42562209E+02
     -1.43986057E+03      9.16772197E+02     -2.00285359E+02
      6.92706934E+02      2.66508249E+01     -3.03515786E+02
     -1.40949922E+02      2.59726584E+03     -8.49237572E+02
      9.39513575E+02      9.34800364E+02     -1.82734957E+03
     -3.17632781E+02     -1.14115430E+02      2.32158358E+02
      3.84970495E+02      8.31520183E+02      3.36555664E+01
     -8.80313293E+02     -3.18756999E+03     -1.72858607E+03
     -7.47231877E+02      7.16741948E+00     -3.79415884E+02
     -1.88130220E+03     -6.32327787E+02      4.75266868E+02
      2.35294561E+03     -2.70668420E+02      5.23544233E+02
      9.45287880E+01      5.69525816E+02     -4.76330469E+02
      4.73067515E+02     -2.71032999E+03     -1.55713270E+03
      2.98073236E+02     -2.48802595E+03     -1.89361974E+03
      5.02176902E+02     -1.03808224E+02     -4.38771551E+02
      2.45388263E+03     -1.75571832E+03      4.96883014E+02
      2.08579265E+03      2.33057302E+03      3.50170332E+03
     -7.95473370E+02      2.35771220E+03      2.01745692E+02
     -4.11305727E+01      1.82594532E+02     -3.83675832E+01
     -7.60679693E+02     -2.92992143E+03      1.96496885E+03
      1.88124242E+03     -1.64136986E+03     -6.91989549E+02
      2.96328025E+03     -4.78680152E+02      8.59668348E+02
     -1.83845714E+01      2.03333079E+02      3.22400449E+02
     -1.64185571E+03     -4.47474977E+02     -4.42887196E+02
      1.85552248E+03      1.99825518E+02     -2.09844893E+03
     -2.23934314E+02      3.88417585E+02     -2.98451561E+02
     -8.86274693E+02      1.00804306E+03      3.22982061E+02
      1.69664741E+03     -4.36609280E+03      1.24667389E+03
     -8.67428764E+02     -6.48990999E+02     -1.62130949E+02
     -1.43236043E+03     -7.48105690E+02     -1.27255274E+03
      1.19630372E+03      2.50618364E+02      1.25531121E+03
     -9.98103065E+01     -4.99612048E+02      7.40915250E+02
      1.80800501E+01      1.76289314E+03      2.40857569E+02
     -6.83744113E+02     -6.67433696E+02     -3.03542284E+02
      1.89495680E+02      1.00025951E+03      2.68604098E+02
      5.60643101E+02      1.82305622E+03     -3.09960279E+03
      2.51439950E+02     -1.21170173E+03     -2.47519579E+02
      3.95954577E+02     -2.18698393E+02     -4.31716515E+02
     -5.43382799E+02      2.33387980E+02     -1.55581330E+03
      1.48132027E+03     -8.03361259E+02     -1.21855695E+03
     -4.06359097E+02     -6.00108879E+01     -1.59425629E+02
     -1.29132813E+02      1.05542732E+03     -3.64481758E+02
     -8.72742001E+02      7.22422052E+00      1.80630462E+02
     -2.24200618E+02      1.91158671E+02     -2.99903660E+02
     -4.26288536E+02     -3.55435796E+03     -2.45129115E+02
     -3.01214385E+03     -3.52069902E+03      5.12653557E+01
     -4.97263085E+01      3.83991489E+02      5.70195191E+02
      2.04999960E+03      5.57966085E+02      1.33531962E+03
     -4.41521550E+02      1.25855365E+03     -2.92188073E+03
      1.03756734E+03      9.11474233E+02     -2.35861230E+02
     -1.05610935E+03      6.74904439E+01      4.27959574E+02
      5.38517991E+02      1.67626585E+03      7.38715175E+02
     -4.27724908E+02     -3.75530055E+02      5.15387480E+02
      1.99776945E+03     -1.07508495E+03     -8.27917389E+02
     -2.03754588E+02     -4.81349865E+02     -6.26729648E+01
      2.88914542E+03      1.24984729E+03      5.35288441E+02
     -2.25952360E+03     -1.51515786E+03     -3.04669257E+02
     -7.44555578E+02     -8.80662489E+02     -3.98847821E+01
      2.45724809E+03      6.95327610E+02      3.57721720E+02
     -9.20006764E+02     -2.00322422E+03      3.89345397E+02
     -1.12938776E+02     -2.32144916E+02     -2.64577504E+02
     -4.10552590E+01      3.12623706E+03     -5.76441073E+02
     -3.74963982E+02     -3.03804725E+03      1.93709391E+03
     -8.18520973E+02     -4.43326316E+02      2.30430783E+02
     -1.50702207E+02      6.84965180E+02     -4.24542624E+02
      2.53532162E+03      1.23355509E+03     -7.90349464E+02
     -9.15315337E+01     -3.84187866E+02      1.05018152E+03
     -1.52913802E+03      1.26581794E+03     -2.13330909E+03
     -1.38903518E+03      1.84104322E+03      3.71635793E+03
      7.63053452E+02     -9.92660219E+00      2.88163077E+01
     -1.86468464E+03     -3.35145224E+02     -2.65362292E+03
      1.05935232E+03      5.01484176E+02      5.16196266E+02
     -1.79114182E+02     -5.36859830E+02      3.20436256E+02
     -4.58901751E+02      1.53648415E+03      2.19115670E+02
     -2.54121567E+03      1.77617289E+03     -1.20156164E+03
     -6.43151722E+02      1.64426097E+01      3.99742189E+02
     -4.24138480E+02     -1.57834447E+03     -1.86187702E+03
      1.15306528E+03      7.54860043E+02     -8.23450897E+01
     -1.10126500E+03     -3.07760603E+02      3.28435310E+02
     -1.47714579E+02     -2.21680618E+03      1.92393746E+03
     -1.88141426E+03      2.03035822E+03      1.10592094E+03
      7.66196309E+02      2.35494963E+02     -6.89894234E+01
      2.44366011E+02      6.40770947E+01     -2.44648545E+02
      2.53800636E+03     -1.24829032E+03      2.23123619E+02
     -4.00312791E+02     -1.17181375E+02      1.52622404E+03
      4.81452238E+02     -1.81154428E+03     -6.05139897E+02
     -2.83867619E+02     -6.99683679E+02      4.58970064E+02
      1.34856821E+03      1.87501641E+03      1.65735436E+03
      1.03384148E+03     -2.92172312E+02      2.82984602E+02
     -1.14686086E+02     -9.42432333E+02     -2.15434938E+02
     -1.60467292E+03      2.07551569E+03     -6.71807648E+02
      1.81886140E+01     -1.41082352E+03      2.70211415E+03
     -2.31461671E+02     -1.03917524E+02     -1.84503196E+02
      3.76472051E+03     -5.80348218E+02      1.02854463E+03
      8.30046306E+02     -7.02302411E+02     -2.29578732E+03
     -7.56754663E+02      1.83993889E+02      3.12712892E+02
     -3.40762907E+02     -6.74774112E+02      1.92586320E+03
      2.01917495E+03     -1.56943019E+03     -2.65149130E+03
      3.59997428E+03      2.70551864E+04      6.58615254E+03
     -3.99338874E+02      6.47459690E+02      1.44074468E+03
      5.72194436E+02     -2.56257858E+03     -7.98177381E+00
      4.61851641E+02      6.74687597E+01      4.79033389E+02
      6.20855867E+02      1.34283303E+03     -7.49083046E+02
      1.06519167E+02      3.32872461E+02      9.62569444E+02
      7.09218601E+02      2.70020865E+02     -2.15053246E+02
     -1.33775319E+03     -4.15615611E+02     -7.07279953E+02
     -1.03694981E+03      5.99248924E+02     -6.00485975E+02
      6.64455480E+02     -5.06269399E+00     -1.24260174E+02
      3.03790377E+03     -5.11935356E+02     -1.75315434E+03
     -1.35014890E+02     -1.74776635E+03     -4.26182969E+03
     -5.23546435E+02     -1.27283593E+02     -7.31192378E+02
      1.68308191E+03     -3.13256110E+03     -5.44829270E+02
      2.35952739E+02      9.73063990E+02      3.12543181E+02
      7.71729728E+02     -2.83330335E+03     -3.14215019E+02
     -4.46223902E+02      6.06309785E+01      1.01212681E+02
      2.21726479E+03      1.04590490E+02      3.52576589E+03
     -1.27178807E+03     -8.54294310E+02      7.23169662E+02
     -4.01705722E+02      6.53747488E+02     -5.79713506E+02
     -9.01349864E+02      6.88147787E+01     -6.03060898E+02
     -1.10441556E+03     -1.59803290E+03      1.52411491E+01
     -5.89916541E+02      2.20765092E+02     -5.89330415E+02
     -1.31602769E+02     -8.37201101E+02      4.94937453E+02
      6.26383670E+02      9.88691865E+02      1.23790494E+02
      1.83796737E+03     -1.64651946E+03      1.84602540E+02
     -4.33388842E+01      2.24808357E+02      2.04811042E+02
     -1.33584778E+02     -3.72881105E+03      2.38882350E+03
      1.88130584E+03      2.17529814E+03     -2.81529490E+03
     -4.94710041E+02     -6.24313952E+02      2.70480272E+00
      4.26894583E+03      1.05152424E+03     -2.34018268E+03
     -3.03675889E+03     -3.09733655E+02     -7.74885025E+02
     -4.00462171E+01     -9.29671139E+02      2.00890462E+02
      2.26473290E+02      5.64195418E+02     -1.25997624E+03
      3.61337668E+02     -3.08418871E+03     -1.82296507E+03
     -4.92089521E+02     -1.21862991E+03      2.72167791E+02
     -7.63020230E+02      1.15974452E+03      1.01613624E+02
      2.13046160E+03     -1.23216189E+03     -1.91765081E+03
     -2.08840816E+02     -5.75179605E+02     -1.05593808E+03
      2.67655732E+03      1.03425164E+03     -6.55822271E+02
      9.25968620E+02     -1.75094754E+03      1.09165313E+03
      1.98443943E+02      4.20032251E+02     -2.33583056E+02
      1.00670517E+03      4.10842702E+02      2.75165182E+03
     -1.03994729E+03      1.67326927E+02     -1.50395045E+03
     -2.21934329E+02     -2.68213732E+02     -5.85218459E+02
      2.45443415E+03      3.51700486E+02      3.58335005E+03
      1.28159751E+03     -1.20777022E+03     -1.35197103E+03
     -2.63899433E+03     -5.60140257E+02      3.01350425E+02
      4.33685169E+01     -2.60945577E+02     -2.65983503E+02
     -6.88879370E+02     -1.15176340E+03     -1.92963570E+03
     -2.14241601E+03     -2.74080583E+03      1.64415747E+03
      1.41675924E+03     -1.74218866E+03     -1.91957757E+03
     -1.10821347E+02     -7.19429647E+02      3.37926522E+02
      5.50275631E+02     -8.15596535E+02     -1.11472763E+03
      2.47169404E+03     -3.33212293E+02      1.63271898E+02
      1.54335693E+02     -6.28587434E+01      2.95311970E+02
     -2.21228009E+03     -1.55768968E+03      8.68116912E+02
     -2.31346218E+03     -9.79720815E+02     -1.74686355E+03
      8.82973560E+02     -1.60281138E+01      7.72248646E+01
      1.32884475E+03     -8.50612672E+01      6.52490941E+01
     -1.51621473E+03      1.53206817E+03     -5.46488243E+01
     -6.16237550E+02     -6.15861351E+02     -4.31798905E+02
      1.33414024E+03     -2.49435264E+02     -1.22354544E+03
     -6.65089585E+02      9.43657965E+02      2.00022968E+03
     -1.16306832E+02     -1.19050588E+02     -8.43032530E+02
     -1.59793647E+03      7.04848186E+02      2.20499234E+03
      3.65706835E+02     -2.44881877E+03     -1.04100184E+03
     -3.88237408E+01     -1.03975006E+03     -5.58164380E+02
     -1.18591676E+02     -1.05180435E+03     -3.12827096E+03
      1.39630375E+03      2.97931659E+03      1.43536080E+02
      3.19097294E+02     -5.65392377E+02      2.28750097E+02
     -8.86098979E+01      8.63782727E+01     -1.46588605E+03
      6.04677023E+03     -3.78867186E+03      3.14467592E+03
      4.81786617E+02      1.97960467E+01     -9.98316494E+02
      3.17873382E+03      1.52976245E+03      6.48497032E+01
     -1.32500242E+02     -6.80181098E+02      1.38912320E+03
     -5.81985322E+02     -1.24695702E+02      2.20723247E+02
     -1.72472093E+03     -4.16645200E+03      3.79888749E+03
      4.48828815E+02     -1.62841278E+03      5.17180549E+02
     -3.73121689E+03     -1.82300632E+03     -8.03909591E+02
      4.40155932E+02     -6.39653630E+02     -2.63367140E+02
     -2.95305755E+03      3.53330887E+01      3.26646891E+02
     -1.42148194E+03      7.91808525E+01      4.92160773E+02
      7.08085132E+02      1.63203745E+03      1.58690928E+03
     -1.88202233E+02     -8.11256186E+02      2.08873786E+01
      3.18721289E+02     -2.00817291E+03     -1.48406527E+03
      2.88228481E+03     -5.93187705E+01     -2.22470027E+03
     -5.52759937E+02     -3.94487837E+02      4.26916734E+02
      9.31589237E+02      3.75910083E+03      1.55259530E+03
     -2.69897161E+03     -1.19294675E+03      6.85556069E+02
      3.12760473E+02      3.10955232E+02      3.70800815E+02
      2.02838504E+03      4.48106282E+02      6.15866980E+01
     -1.78702083E+03     -5.53309878E+02      3.04643021E+02
     -5.40865802E+02      6.74576883E+01      1.45163205E+02
     -2.19408296E+03     -1.98014264E+02     -1.95222258E+03
     -2.00186353E+03      7.33173118E+02      5.91975879E+02
     -7.70295396E+01     -6.73168051E+02     -2.51598229E+02
      1.80763727E+03     -1.11893547E+03     -2.42830539E+03
      1.49961824E+03      3.45015065E+02      5.62624931E+02
     -7.38335618E+01     -1.42380301E+03     -5.34777089E+02
     -2.63257010E+02     -1.09472425E+03     -1.67689683E+03
     -1.51636570E+02     -7.11629171E+02      1.17761119E+03
     -7.09597027E+02     -1.26917524E+02      1.13586899E+02
      1.70299503E+03      2.02900109E+02     -9.55029819E+02
     -1.48718602E+03     -3.33575936E+03      7.44435025E+02
     -3.66923161E+02      9.14949690E+01     -1.11918045E+02
      4.45273548E+03      3.52929236E+03     -1.30096445E+03
     -4.46121223E+02      2.60077194E+03      7.51961506E+02
      5.15765043E+02     -3.18432097E+01     -6.30534685E+02
      1.49675230E+03     -1.87333173E+02     -1.06740199E+03
     -4.57680231E+02     -2.61651941E+02      3.51687820E+03
     -6.70650416E+02      3.79341438E+02     -1.05980980E+03
      7.24404511E+02      6.44808914E+02      5.08572955E+02
     -6.68114285E+02     -3.75321879E+03     -1.54163863E+03
      1.85614882E+03     -1.44654738E+03     -2.12931449E+03
      1.61000998E+03     -1.11606779E+03     -3.93955588E+03
      5.46579432E+02      5.43804238E+02     -4.25130767E+02
     -7.75382770E+02     -2.21323915E+03     -5.48241318E+02
     -1.10112498E+02      3.14887086E+02      2.19192215E+03
      2.80209726E+02     -9.22320066E+02     -5.51576194E+02
     -4.85929198E+02     -7.39520397E+02     -9.62353692E+02
     -6.44558373E+02      2.36108134E+03     -2.93489747E+02
     -8.15740438E+01     -6.60601884E+02      4.58233067E+02
      6.75424022E+02     -9.92933970E+02     -9.69554517E+02
      7.88838060E+02     -1.80765219E+03     -4.52194213E+03
      2.13145648E+02      1.98230342E+02      3.81458461E+02
     -2.98415470E+03     -6.09600012E+02     -3.27900420E+03
     -1.53620014E+03      8.44255672E+02      1.74240680E+02
      1.98740116E+02     -7.52183912E+02      4.59332748E+02
      2.39243389E+02      1.26572665E+03     -1.44338688E+03
     -6.25601487E+02     -7.55751358E+02     -4.56845141E+03
     -1.73376982E+02     -2.63466035E+02      3.53670603E+02
     -4.93817432E+03      1.17544970E+03      2.67057695E+02
      2.29099924E+02      9.01822599E+02      3.19755189E+02
     -4.46740993E+02     -7.00541027E+02     -4.71969308E+01
      1.30785741E+03     -6.63777766E+02      1.32608959E+03
      1.58856607E+03     -3.58205255E+03     -8.68732578E+02
     -2.29147483E+02     -5.05245413E+02      3.49034278E+02
      3.31316340E+03      8.23589571E+02      6.79799100E+01
      1.44881175E+03      1.00725507E+03      3.04334637E+02
     -1.78793986E+02     -2.45827679E+02     -4.22035972E+02
      1.48222682E+03      1.01696123E+03     -6.84750450E+01
      4.06505352E+03     -1.09907615E+03      2.04958107E+03
      8.88240125E+01     -1.48698243E+03      1.40379340E+03
     -4.28419485E+02     -1.94550527E+02      5.69137443E+02
     -1.31507781E+03     -2.48836662E+03     -5.14274617E+02
      1.65501644E+03     -8.27003316E+02      1.27579972E+03
      9.73317599E+02     -1.48942816E+03     -6.01331392E+02
     -5.83388642E+02      1.39409751E+03     -2.14267898E+02
      7.88089952E+02      5.62687508E+01     -5.14828077E+01
      7.22431138E+02      1.94404500E+03      6.96377893E+02
      2.83550907E+01     -4.59621442E+02      1.34105774E+02
     -1.94552038E+03     -5.33237823E+02      1.96849258E+03
      1.23917859E+03     -3.53084980E+03      1.13901817E+03
     -5.80285032E+02     -7.75860750E+02      1.90148067E+02
     -1.04798498E+03      6.96915191E+02     -1.87981995E+03
     -1.77068285E+02     -5.54528030E+02      1.70075150E+03
     -3.11222931E+02     -7.95374122E+00      7.45677554E+02
      2.64749288E+02      6.67263062E+02     -1.46839947E+03
     -2.08107400E+03     -6.87120215E+02     -1.13046029E+03
      9.08081950E+02      6.22698240E+02      1.03056142E+03
      2.40973723E+03     -1.39785110E+03     -1.36819930E+03
      1.67886263E+03     -8.65292133E+02      1.08018219E+03
      4.53696240E+02      7.86325635E+02     -1.87771627E+02
     -2.96733660E+03      2.13937534E+03      1.34989889E+02
     -3.47799852E+02      3.77757556E+02     -2.36226334E+02
     -7.57705686E+02     -1.27233577E+03     -1.00398489E+02
      1.57648691E+03     -1.05207013E+03     -6.90246688E+02
      6.31736217E+02     -2.11216988E+03      4.88357687E+02
      3.03401514E+02     -3.28625688E+02     -5.39405635E+02
      2.60846922E+02     -5.54473078E+02     -9.14285940E+02
     -1.54017883E+03      1.71549327E+03      1.78254462E+03
     -2.23643266E+02     -7.26524659E+02      4.98306023E+01
      2.40423878E+03      1.22698288E+03     -1.74129067E+03
      2.67753052E+03     -1.77967876E+03      1.54424708E+03
      9.85643594E+01      2.47093807E+03      2.08555998E+03
      6.51223391E+02     -5.90736458E+02     -4.33693566E+02
      1.19809886E+03     -1.56745918E+03     -9.74569126E+01
     -1.74871699E+03      1.31023832E+03      2.52538059E+03
     -2.73409059E+03      2.01092298E+03     -7.40582038E+01
      2.07466980E+02     -1.80336494E+02      2.22117552E+02
      3.04678060E+03      1.15210157E+03     -4.09743756E+02
     -2.21327414E+02      2.62022963E+02      1.44477011E+03
     -3.38161916E+02      2.98716279E+02     -7.33547258E+01
     -2.99268642E+02     -1.33804728E+03     -2.81414919E+03
     -1.40567053E+03      2.81511613E+03      1.36589169E+03
      5.75894122E+01     -2.19342247E+02     -7.80479663E+02
     -5.03449864E+01     -1.98550681E+02     -4.02355524E+02
      1.33085492E+03      1.17321501E+02      2.08247650E+03
      2.16372628E+02     -6.26079184E+02     -1.37265652E+02
     -7.50297503E+00      9.03102373E+02      2.40679830E+03
     -5.27899010E+02     -2.75481825E+03     -1.28526139E+03
      2.27757349E+02     -7.72665745E+02     -5.28845918E+02
     -3.74424051E+02      2.24381486E+03     -2.74042707E+03
      1.71816073E+03     -1.83742305E+03      1.20814262E+03
     -3.59160310E+02     -1.29590981E+02     -1.26235722E+02
      2.06550303E+03     -9.11746527E+02      2.27334642E+03
     -1.88544466E+03      1.64655664E+02      4.05232849E+02
     -2.64334927E+02      2.80275478E+01     -4.91293483E+02
      1.48252941E+02     -6.61822517E+02      4.32433926E+02
     -5.97540775E+02     -6.89389496E+02     -9.54401336E+02
     -1.25310884E+02      1.08153716E+02     -6.81341556E+02
     -7.38080250E+02      1.50847881E+03     -2.84568055E+02
      1.73451153E+03      1.69079172E+03      2.78953455E+03
     -1.28603087E+01      4.16887842E+02     -1.20134171E+02
      6.30007910E+02      9.25775510E+02      1.45191270E+03
      1.57662101E+03      1.29255032E+03      1.39073990E+03
     -4.83861899E+02      1.38160388E+03      1.06411815E+03
      7.09273781E+02     -6.63283301E+02      5.98416921E+01
      3.41670783E+02     -7.28158988E+02     -3.26184030E+02
      2.22808225E+03      1.82600306E+03      2.65308181E+03
     -1.28536213E+03      5.43649023E+02      1.56505913E+03
     -2.64729073E+02     -8.49971617E+02     -2.89506424E+02
     -3.40054119E+02      1.13465775E+03      9.68823990E+02
      4.41251325E+02      2.27609876E+03      6.17940471E+02
     -2.86299564E+01      3.61829033E+02     -6.19403954E+01
      4.81446830E+02     -3.05423188E+02      1.15158397E+03
     -6.74075296E+02     -1.82282555E+02     -1.07064509E+03
     -1.05853043E+03      1.89448138E+02      4.40734869E+02
     -2.47412752E+03     -3.20864309E+02      1.49720222E+03
     -8.38945394E+02     -3.78618289E+02      1.78588374E+03
      1.27433137E+03     -4.67335880E+02      9.88862422E+00
      2.90474421E+03     -1.17045206E+01     -7.83912463E+02
     -5.44620033E+02     -2.70010457E+03      2.87037675E+03
     -3.24863435E+02      2.75442232E+02     -1.54050056E+02
      1.02356724E+03      2.51956807E+03     -2.27365742E+03
     -2.46811268E+03     -2.79827715E+03      6.25462788E+02
      1.21057853E+03     -3.10535273E+02      4.91200202E+02
     -5.31916908E+02      3.23005559E+03      8.37177729E+02
      5.51563959E+02      1.78298129E+03      1.72290888E+02
      5.12825858E+02     -9.92301442E+01     -1.11673415E+03
      2.38849752E+03     -5.15626725E+02     -1.81741340E+03
      2.66968580E+03     -1.85229232E+03     -2.36188778E+03
      4.37944160E+02     -2.00073787E+02     -5.08662408E+02
     -2.28164460E+03     -1.76231092E+02     -1.36910201E+03
      8.92937275E+02     -1.26757302E+03     -8.10478657E+02
      1.73137590E+02     -5.36438665E+02      1.46630489E+02
     -1.17190927E+03     -6.15456088E+02     -1.39347002E+03
     -1.98849270E+03     -7.03927611E+02     -2.63556350E+03
     -1.08503904E+03      1.09554638E+03      8.11375214E+02
     -7.46137546E+01      5.34403462E+02     -9.09989367E+02
      1.33523708E+03     -1.09816438E+03     -1.90803774E+03
     -5.97346085E+03     -2.54495201E+03      1.94924929E+03
     -1.43582794E+03      1.07336840E+03     -2.92521216E+03
  }
}

Hamiltonian = DFTB {
  SCC = Yes
  SCCTolerance = 1e-6
  MaxSCCIterations = 200
  ForceEvaluation = Dynamics
  MaxAngularMomentum = {
    C = "p"
    H = "s"
  }
  Charge = 0.0
  SpinPolarisation = {}
  Eigensolver = Standard {}
  Filling = Fermi {
    Temperature [Kelvin] = 300.0
  }
  SlaterKosterFiles = Type2FileNames {
    Prefix = "../../pbc-0-3/"
    Separator = "-"
    Suffix = ".skf"
    LowerCaseTypeName = No
  }
  KPointsAndWeights = {
    0.0000000000000 0.0000000000000 0.0000000000000 1.00000000000000
  }
  Dispersion = LennardJones { 
    Parameters = UFFParameters {}
  }
}

ParserOptions = {
  ParserVersion = 3
}
