Geometry = GenFormat {
<<< "system.gen"
}

Driver = VelocityVerlet{
  Steps = 100000
  TimeStep [fs] = 0.2
  MDRestartFrequency = 5
  Thermostat = None {
    #InitialTemperature [Kelvin] = 300.0
  }
  Xlbomd{ 
    IntegrationSteps = 6 
    MinSccIterations = 2
    MaxSccIterations = 200
    SccTolerance = 1e-6 
  }
  Velocities [m/s] {
     -1.51936902E+03      2.70512448E+02      1.53243641E+01
      7.54720556E+02     -1.61886314E+03      2.24649260E+03
     -9.73516978E+02     -1.40917824E+03     -6.57397087E+02
     -1.02209093E+03      6.65558300E+02     -5.52769783E+02
     -4.67862191E+03     -2.77058629E+03     -2.24670014E+03
      3.32492013E+02      1.04848462E+03      3.72750944E+02
     -4.00537386E+02      1.40212423E+00      1.00411044E+03
      7.32451457E+01      8.56713759E+02     -3.60160260E+03
     -2.68633339E+03      5.10543391E+02     -7.69229387E+02
     -6.72019195E+02      4.14201204E+02      2.77349024E+02
      1.27698579E+03     -1.22519355E+03      3.28647430E+03
      2.10023003E+02     -1.33244403E+03     -2.52782317E+03
      3.60590614E+02      4.24764113E+02      5.77455702E+02
     -5.28327683E+02      1.79986000E+03      7.28427929E+02
     -2.29554394E+03     -1.56882781E+03     -1.43841029E+03
      2.21584368E+02     -3.59690560E+02      9.29756033E+02
     -2.20093380E+03      7.34071829E+02     -4.39048483E+02
      5.35696350E+02     -4.33564685E+02     -1.62065622E+03
     -9.41495274E+02     -4.25008865E+01      1.59801889E+02
      4.32519783E+03     -1.14530031E+03     -9.48933051E+02
     -2.10788949E+03      2.86236880E+03      6.67235026E+02
     -7.05677084E+01     -1.90328268E+02      3.50325377E+02
      1.44973481E+03     -1.16569368E+02     -1.04175377E+03
     -3.08974614E+03      2.59559680E+03      6.45955534E+02
      2.64971269E+02     -7.07751004E+02      2.94250845E+02
      3.46223562E+02      2.28501942E+03     -3.89924049E+02
     -7.39338866E+02      1.47634912E+03      1.43400790E+03
     -1.55982371E+03      2.84769370E+03      3.30826540E+02
      8.87072059E+02      6.20164797E+01      2.76499665E+02
     -3.86746773E+02      1.49049102E+03     -1.75411454E+03
     -1.93504494E+01     -1.26999489E+03     -8.18336454E+02
     -1.72692914E+03      1.97696998E+03      2.40672796E+03
      5.79475202E-01     -8.72980796E+02      9.18980936E+01
      1.31634624E+03     -7.57133660E+02      3.55489021E+02
     -8.84411544E+02      1.03290478E+03      4.25113452E+02
     -7.30459309E+02      9.37582891E+01     -2.24040708E+02
     -2.33040749E+03      1.07699719E+03      1.72712955E+03
     -9.36690181E+02     -3.74599407E+02     -9.45034825E+02
     -4.70593868E+01     -3.06235489E+02      6.72517862E+02
      8.83815056E+02     -1.16391475E+03     -2.87848501E+02
      1.39059640E+03     -1.42580324E+02     -1.35584822E+02
      2.02770756E+02     -3.75718684E+01     -3.25992796E+02
      3.56968220E+03     -1.64436493E+03     -3.47520799E+02
      6.98484338E+02      2.30095345E+03     -3.38090475E+03
     -1.00538392E+03      1.81811737E+02      7.96241778E+02
      1.08635132E+03     -6.47967011E+02     -7.06863252E+02
      7.19405511E+02      3.63105461E+03     -9.25262131E+02
      1.07541782E+04     -1.88101431E+04     -2.31587087E+03
      1.99315906E+03      8.77293260E+02     -3.42612616E+03
     -1.39972656E+03     -6.07331348E+02      1.09512350E+03
      8.86144762E+01     -5.15891194E+02     -3.79676559E+01
      5.30202539E+02      1.77487695E+03      2.31044542E+03
     -7.01948775E+02      2.29327386E+03      6.15039240E+01
     -4.79414312E+02     -1.88155135E+02      2.57500876E+02
     -1.50171505E+03      8.82725115E+02     -2.44457537E+01
     -6.29839723E+02      2.02591178E+03     -1.09090589E+03
      5.27397229E+01      1.92229442E+02      2.73901545E+02
      6.96880803E+02      3.34260864E+03     -1.15483187E+03
      9.66356229E+02      2.71555211E+03      2.25078241E+02
     -1.64672494E+02      3.44959233E+02     -1.69714409E+03
      4.12726554E+02     -6.46303187E+02      2.91639237E+02
      7.71020002E+02     -5.85135975E+02     -5.88962884E+02
     -1.34934598E+03      2.06186328E+03     -1.75381577E+03
      1.56422858E+03     -1.11897589E+03     -2.46199787E+03
      6.96995588E+01      2.78005045E+02     -1.38477267E+02
     -7.75727096E+02     -5.36282371E+02      8.43732843E+02
      1.19144128E+03      1.10585726E+03     -8.66922297E+02
     -5.96816168E+02     -1.66586268E+02     -3.79831297E+02
      1.00062633E+03      6.66580143E+02      3.72742744E+03
      1.64358287E+03      3.27982593E+02      2.02076934E+03
      4.26025571E+02      1.18314274E+01     -1.78359244E+02
     -4.19564276E+01      1.45027716E+03     -9.71326835E+02
     -3.89759355E+02      2.31630125E+02      4.34007570E+01
      8.06508284E+01     -4.93117481E-01     -4.28590233E+02
      2.99026989E+02     -2.44722360E+03      2.15899000E+03
     -1.15759865E+03      1.43040367E+03      1.87348930E+03
      8.34634331E+01     -4.36937699E+02     -3.29559575E+02
     -2.05494861E+03      4.73097626E+02      1.50205638E+03
     -5.70522461E+02     -8.21720982E+02     -1.45411717E+03
      8.09966663E+02     -4.98664306E+02     -6.53993134E+02
     -7.90848107E+01     -2.95654083E+02      1.54342612E+03
     -2.24135172E+03      1.71064071E+03      6.65377510E+02
      8.95027131E+01      4.54801926E+02      3.99403503E+00
     -7.23205385E+02      1.13418388E+02      8.48159168E+02
      6.70984804E+02     -1.45694261E+03     -2.36129758E+03
     -2.99296925E+02      2.49735212E+02     -1.94659348E+02
      7.49390180E+02      2.34792458E+02     -6.61549822E+02
     -4.36249803E+03      2.93839942E+03      7.88449265E+02
     -2.45129558E+01      1.01441188E+03     -5.92099807E+02
      3.40755333E+02      5.86533799E+02     -3.24503805E+03
      1.35092771E+03      1.38299984E+03     -3.30319687E+03
     -1.03294660E+03      2.47854522E+03     -6.07889819E+02
      6.27055103E+02      2.53510401E+01      9.68514686E+01
      6.43566748E+02     -1.15080803E+03     -8.32318452E+02
     -6.86980285E+02      1.35466213E+03      1.56148280E+03
     -2.69564419E+02     -9.13725714E+02     -1.70274974E+03
     -3.90106775E+02     -6.49435879E+02     -7.92876139E+02
     -3.46337711E+03     -1.14628361E+02      1.25456178E+03
      8.46988174E+02     -2.37178660E+03     -6.94098974E+02
     -7.85846963E+01      6.86773331E+02      4.47786316E+02
     -6.47554598E+02     -1.10423997E+03      4.14148013E+02
     -1.59573467E+03      1.67703654E+03     -1.91187339E+03
      4.31385667E+02     -3.59635572E+02     -2.47796393E+02
      2.38874465E+03      2.22385253E+03     -1.50803057E+03
     -3.15830925E+03     -2.11338122E+03      2.44724269E+02
     -1.86358430E+02      1.08770570E+03     -4.38494952E+02
      1.16227218E+03      8.38268450E+02      2.08450779E+03
     -9.58987575E+02      3.19150892E+02     -2.38212755E+03
     -1.68378729E+02      3.79337654E+02     -4.21207279E+02
     -1.82834614E+03     -1.54059404E+03      3.53135305E+03
      1.76659905E+03     -2.31299584E+03     -3.36627564E+01
     -2.90298359E+02      4.32061378E+01      2.08688094E+01
      2.61513552E+01     -1.83803405E+02      2.57154316E+03
     -3.48023546E+02      1.28305131E+03      6.90205033E+02
      9.27092872E+01      4.82348304E+02      3.19872705E+02
     -1.10712274E+03     -1.82177806E+03      4.59820194E+02
     -3.98923403E+02     -2.00195954E+03      1.66840081E+03
     -2.97893490E+02      7.83830753E+02      4.49647351E+02
     -6.14693319E+02      1.67107931E+03      1.59964592E+03
     -1.36547606E+03      1.06027121E+03      9.32370027E+02
      1.04451654E+03     -3.82195886E+02     -3.32404413E+02
     -7.43191297E+01     -1.54919104E+03      9.37596297E+02
     -1.31892620E+03      2.50815452E+03     -2.39379227E+03
     -3.52304612E+02      2.47690681E+03     -2.61142379E+02
     -2.84470392E+02     -3.97715970E+02      1.10935849E+02
     -1.72906394E+03     -2.14583823E+03      2.42050026E+01
      1.26314404E+03     -1.39842992E+03      1.03305586E+03
      1.14941929E+03     -2.38201018E+01     -2.55205488E+03
      1.45198969E+02      3.07379553E+01      4.61795394E+02
      8.88829511E+02     -1.19536122E+03     -2.46025329E+03
     -5.90888017E+01     -7.93365725E+02      8.50396017E+02
     -1.41671642E+02     -2.89632848E+02     -4.99837963E+02
      8.95733783E+02      8.84818448E+02     -1.45487939E+03
     -4.52657254E+02      2.79017153E+03     -1.59664487E+03
      3.86292139E+02     -3.39329010E+02     -4.76079404E+02
     -1.22983445E+03     -1.59059674E+03     -1.71446050E+03
     -3.60237177E+02      2.10275854E+03     -2.10427881E+03
     -7.00687153E+02      5.29154946E+02      5.54849477E+02
     -8.08692660E+02      1.14575899E+03     -6.00207002E+02
     -7.81547880E+02     -9.16605403E+01     -1.78247688E+03
      6.34659091E+02      8.99228031E+02     -7.30605598E+02
      8.28362876E+02      2.15619384E+02     -2.23152834E+03
     -1.37601467E+03     -9.08441823E+02     -1.78725974E+03
     -8.24220807E+01      1.56784662E+02     -2.91683400E+02
     -1.86069830E+03     -1.38663998E+03     -4.14048665E+02
      1.85264798E+02     -3.71612746E+02     -2.17724017E+03
      6.84333811E+02      3.16688371E+02     -2.13892213E+02
     -1.08330850E+02     -1.15842004E+03     -2.30139234E+03
     -3.77903247E+02     -1.68645186E+02     -3.21395869E+03
      3.93175511E+02      3.47682045E+02      4.42841227E+02
     -3.59521497E+02     -2.05475157E+02      2.80086470E+03
      1.16527450E+03      3.21781193E+01     -1.56735822E+03
     -8.49690854E+01      9.72159124E+00     -3.30611870E+01
     -1.39001851E+02     -2.83377660E+03     -2.72018837E+03
     -3.53046360E+03      1.87384724E+03      1.18030858E+03
     -6.20505930E+02      2.02965001E+03      2.55681956E+02
     -3.44328949E+02     -3.15992936E+01     -1.26396316E+03
      2.22318659E+03      2.18165144E+03      2.30477092E+03
      9.42164147E+01      1.51495883E+03      1.45984362E+03
     -1.21862198E+03     -1.16686929E+03     -1.08868637E+03
     -1.08722430E+03      8.82521246E+01      3.70328892E+02
      1.27455115E+03      9.49538515E+01     -2.86997996E+03
     -1.17846014E+03     -1.66609995E+02      1.82835345E+03
     -8.24974186E+02     -7.94623552E+02     -4.73648129E+02
      9.64160853E+02      2.89710218E+03      1.84644565E+03
     -1.52313892E+01     -6.84753252E+02      4.58748582E+02
      6.75599984E+02      2.30047390E+02      2.30400372E+02
      2.07016683E+03     -2.35148338E+03     -1.15910524E+03
      8.79714856E+02     -5.65689853E+02     -2.23311773E+03
     -3.56332931E+02      1.31769485E+03      9.83581287E+01
      1.28877331E+03     -1.48736510E+03      8.16753096E+02
     -2.93577016E+03      1.29448153E+03     -2.72192382E+01
      6.97869245E+02      5.31611161E+01      5.79833387E+02
      3.06494018E+03      1.35649242E+03     -2.52923504E+03
      2.65852621E+02      1.12978144E+03     -1.94647433E+03
     -8.43544248E+02      8.52766995E+02      3.34804304E+02
     -1.95469993E+03      2.13001537E+03     -1.16665027E+03
      2.62998465E+03      1.77520132E+02     -3.57954431E+02
     -5.55445741E+02     -2.32431500E+02      5.54628755E+02
     -3.71627856E+03      3.68595009E+02      2.51193908E+03
      1.44094716E+02     -2.30125232E+03      1.15097898E+03
     -4.08314748E+02     -6.17583671E+02     -2.02896522E+02
     -1.23233972E+03      6.30488590E+02     -8.66385520E+02
     -2.25059263E+02      1.91534621E+03      2.14903921E+03
      8.01082172E+02      2.26577771E+02      7.77999583E+02
      1.56264449E+03      5.00598157E+03     -2.50712976E+03
     -1.35596274E+03     -5.47499857E+02     -2.68028446E+03
     -1.05484232E+03      2.46396136E+03      2.67117664E+03
      5.15202160E+02      5.05379469E+02     -2.17178968E+02
      7.64502841E+01     -2.14910170E+03      1.77321636E+03
      2.52050767E+03     -1.49778143E+03     -2.25475671E+03
     -2.87748102E+03     -3.78607166E+03      2.92984689E+02
      4.75795631E+02      6.35732913E+02      4.63799655E+02
      7.07340410E+01     -2.14198303E+03     -1.18316255E+03
     -2.02396860E+03     -4.27901378E+02      1.40653997E+03
     -9.31202496E+01     -2.26196375E+01     -3.63780096E+02
      1.74940784E+03     -1.72782198E+02      1.12943753E+02
     -3.13955170E+03      1.73608461E+03      1.57201175E+03
      1.80711582E+02      3.56598723E+02      7.55997113E+02
      3.58517885E+03     -8.82498546E+02     -6.91592814E+02
     -8.21983143E+02     -1.14885957E+03      1.00984756E+03
      1.16487287E+02      3.26446857E+02     -4.60687177E+02
      3.14731335E+03     -8.00987397E+01     -2.52430693E+03
      2.49397583E+03      2.37867969E+02      1.45171427E+03
     -3.53482610E+02     -2.87447989E+02      7.04354644E+01
     -2.01252701E+03     -5.01419168E+02     -1.78460861E+03
     -5.82647870E+02      2.13671927E+03      1.44779734E+02
     -7.20070386E+02      4.40645846E+02      9.52988199E+02
      2.16103586E+03     -6.76953229E+02     -2.73550467E+02
     -1.44307832E+03      2.00565280E+03      2.60057543E+02
     -8.01876851E+02      2.37388407E+02      5.31702909E+02
     -1.88193201E+03      6.04715651E+02     -1.97929252E+03
     -7.97028160E+02     -1.67225736E+03     -7.23393815E+02
     -1.38068114E+02      5.24463276E+02      1.88980439E+01
     -8.11825758E+02      3.65651241E+02      2.49185733E+02
      1.50259698E+03      4.72263480E+02     -7.68718240E+02
     -1.48494224E+02      6.94313233E+02     -9.02939730E+00
     -4.22438214E+02     -2.15261000E+03     -8.52617745E+01
      1.69827636E+02      1.33359524E+02      6.68737099E+02
     -2.54927085E+03      4.70616975E+02     -1.46343305E+03
     -2.54344786E+02     -9.49235950E+02     -3.85761254E+02
     -1.48304777E+03      1.88616638E+03     -1.61399919E+03
      9.38675774E+02      1.67955547E+03      2.21734616E+03
     -8.54604304E+02     -1.76356811E+03     -1.53617902E+03
     -5.93774837E+02      7.58994669E+02     -5.74583429E+01
     -5.84960652E+02      8.32572277E+02      1.58194346E+03
      6.69565604E+02      3.20345043E+03      4.61782793E+02
      5.59995772E+02      1.09494925E+03      3.35486986E+02
      2.84844311E+03     -1.89395828E+03     -2.08686319E+03
      9.38029662E+02     -1.09374492E+02      4.38256276E+02
     -3.22296264E+01      3.62231310E+02      2.08783940E+02
      2.29985217E+03      8.21881652E+01      1.61851263E+03
      2.95752204E+03      3.12504363E+03      3.68266829E+02
     -5.29229866E+02     -8.34388058E+01      2.16124752E+02
      1.39764015E+02      5.44994997E+02     -3.01519056E+03
     -2.39302381E+03     -7.99975767E+02      8.17994705E+02
     -3.14502380E+02      2.72472052E+02      4.40243817E+02
      3.43543696E+02     -9.53481388E+02      1.47590032E+03
     -1.04368196E+03      2.25374203E+02      9.41060989E+02
      5.29743735E+02      4.21816326E+02      6.78871948E+02
      7.23861056E+02      5.92960025E+02      2.39049522E+03
     -1.68570925E+02      4.71054437E+02     -9.33344712E+02
      1.05834796E+02      6.80757259E+02     -5.91212578E+01
      2.02587064E+02      8.27812191E+02      2.65913472E+03
     -1.33753013E+03     -6.97769543E+02      4.47570628E+02
     -1.16840954E+03      3.54324875E+02      6.14357584E+02
      1.09896940E+03      1.06985985E+03     -2.93699050E+03
      1.90475228E+03     -1.84829737E+03      2.08465797E+02
     -1.97908053E+02     -7.86314589E+00     -6.25124543E+02
      3.36804695E+01      3.33396229E+03      3.80178189E+02
      1.83594058E+02     -3.39856066E+03     -2.99421275E+02
     -2.34297034E+02      2.26428883E+03      2.32714075E+03
      7.34278953E+02      7.72008602E+01      5.10537519E+02
      1.89539576E+02      1.00453027E+02      6.49843679E+02
     -1.02233018E+03     -4.10570876E+02      3.68949606E+03
     -3.55539268E+02     -1.83198444E+03      2.57707450E+03
      5.26068379E+02      4.24326731E+02      1.20704215E+02
     -1.32427193E+03      2.22299891E+03     -2.28679866E+02
      1.20790611E+03     -3.98711186E+02      2.79231577E+02
     -5.38186431E+02      5.03271424E+02      1.33971697E+01
      6.33739016E+01      1.91543724E+02      3.92047100E+02
     -3.16081206E+03     -1.41056947E+03      1.35000528E+03
      3.79826614E+02      4.14738444E+02      3.85896944E+02
     -1.24766960E+03      1.38474743E+03     -1.74476935E+01
      1.86126377E+03     -1.98273309E+02      3.39282460E+03
     -7.74480758E+02     -4.54604609E+02      8.67209186E+01
      1.02601154E+03     -2.53778470E+03      3.39259660E+03
      2.75990786E+03      1.25620530E+02     -7.48032227E+02
      7.00052337E+02      1.45901752E+02     -2.92527876E+02
     -7.05342639E+02     -4.68877359E+02      3.13979692E+03
     -1.67090377E+03      1.86586996E+03      3.38073178E+02
     -3.01320191E+02      5.55198873E+01      5.44772580E+02
      4.56718606E+02     -1.75111031E+03      2.29812248E+03
     -1.26005938E+03      3.44757016E+03      1.85835673E+02
      4.61587502E+02      5.46831068E+02     -2.73724923E+02
      5.49459930E+02      2.02434443E+03     -4.98836891E+02
     -3.81524173E+02      2.43768465E+03     -1.56551653E+01
      4.06208536E+02      3.34155728E+02      3.60880803E+02
     -1.64283357E+01      1.82449122E+03      6.89606372E+02
     -7.55191176E+02      2.03394633E+03      9.38610129E+02
     -8.38874125E+02      1.85706823E+02     -1.50631239E+02
      1.74122575E+03     -1.90970921E+03      1.13996412E+03
     -7.58992694E+02      3.64023517E+02     -1.62826532E+03
      3.15222519E+02      7.29663610E+02     -1.64083338E+03
      1.28283630E+02      4.03456385E+02      1.44636445E+01
      5.44205514E+02     -1.42685224E+03      6.50309142E+02
     -2.64449090E+02     -2.86362363E+03     -3.19662772E+03
     -3.83003612E+03      6.15965506E+02     -1.95473687E+03
      1.92200795E+02     -5.67633321E+02      1.04630022E+02
     -8.86233274E+02     -8.20090740E+02      1.16375536E+03
      5.52511110E+02     -8.57611142E+02      1.79348017E+03
      3.14697043E+02      7.66701171E+01     -5.19488972E+02
     -1.68748477E+03      1.57497427E+03      6.31210153E+01
      1.52600388E+03      1.75049035E+03      1.00290277E+03
      2.02146351E+02      5.97866605E+02     -2.80865885E+02
     -7.52442252E+02     -3.06749109E+02      1.94105314E+03
     -1.53475487E+02      4.11381341E+02      6.86335635E+02
     -8.11972846E+02      6.47442975E+00      2.11518281E+02
      8.37220976E+02     -2.80364158E+03     -1.84389946E+03
     -8.39529198E+02     -2.48688697E+03     -3.06652539E+00
      5.53867479E+02      5.90154902E+02      3.42202214E+02
      1.83072860E+02      2.35558657E+03     -1.78234756E+03
      2.38413234E+03      4.53512606E+01      3.10801077E+02
      2.50678755E+01      1.77094352E+02      1.74580877E+02
      1.84983993E+03      7.68343718E+02      3.20405393E+02
      1.36728964E+03      2.59996723E+02     -2.64782806E+03
      1.56319510E+02     -1.02050019E+02     -3.56623859E+02
     -3.20191697E+02      1.50854134E+02     -7.29381055E+01
      1.47983580E+03      8.67677184E+02     -1.22704616E+03
      1.31433535E+02     -7.92646779E+01     -1.63954266E+02
     -2.24120115E+03      1.23147943E+03      1.04166047E+03
     -7.12901160E+02      7.77391989E+02     -2.73461782E+02
      1.61284490E+02      1.01477492E+02     -2.63453541E+02
      1.35662836E+03      5.47480309E+02     -9.58398594E+02
      2.32260583E+03     -4.52554103E+02      1.07413412E+03
     -1.96907079E+03     -5.99693105E+02     -2.45233926E+03
     -5.48622943E+02      2.70827314E+02     -1.53040937E+02
     -3.72731800E+03     -6.54711412E+02      9.86391781E+02
      2.91716347E+03     -9.16152181E+02     -8.48971256E+02
      1.15698928E+03      1.26945564E+03     -1.87074050E+03
     -4.06005191E+02     -4.64360425E+02      2.20636640E+02
     -2.52652147E+03      4.06599858E+02      1.67697814E+02
      1.45808268E+03     -5.70249186E+02      6.77792198E+02
     -5.94783056E+02     -2.30383947E+02      8.81379681E+01
     -1.17613944E+03      7.81680683E+02     -2.52538669E+02
     -4.99763490E+02      1.67496249E+03      2.21101475E+03
      3.96964928E+01     -9.34634721E+01     -9.73028511E+02
     -1.97731103E+03      1.21083168E+03     -1.99885215E+02
      2.32245505E+03     -1.22353475E+03     -1.34020626E+03
     -3.93541441E+01      6.28893406E+01      7.39641042E+02
     -3.16285120E+03      1.81465967E+03     -1.97597957E+03
     -5.96452508E+02     -1.72958512E+02     -1.04716155E+03
      3.72263633E+02      4.76768317E+02      3.26983905E+02
      1.19973313E+03     -2.21079852E+02      4.11846803E+03
     -2.31362682E+03     -5.55027331E+00      2.81457351E+03
     -3.42558923E+02      7.88386207E+02     -1.08584923E+03
      1.81904071E+03      1.63623337E+03      7.31815210E+01
      1.16795558E+03     -1.83392180E+03     -2.65793065E+03
     -5.28337471E+01     -4.87822334E+02      2.45016547E+02
     -7.74111735E+02     -1.47081949E+03      4.99666304E+02
     -1.58683764E+03     -9.89678324E+02      9.76632715E+02
     -7.95781198E+02      5.52286355E+00      7.50479884E+00
     -8.57835072E+01     -1.59146023E+02     -5.68748199E+02
     -6.98887234E+00      2.02646436E+03      3.79644866E+01
     -2.48550925E+02      1.95989861E+02     -3.21099656E+02
      2.07075205E+03     -1.07430701E+03     -3.74606395E+02
     -1.63203960E+03      7.32845838E+02     -9.05590443E+02
     -4.68871383E+01      4.76098460E+02     -3.23871909E+02
      8.36861081E+01      2.93567550E+01     -5.77784433E+02
      2.79446899E+02     -2.75245803E+02      1.17676179E+03
     -2.01995649E+03      2.27311163E+03      3.11526328E+03
      4.33629591E+02      1.80456956E+03     -5.30166526E+02
  }
}

Hamiltonian = DFTB {
  SCC = Yes
  SCCTolerance = 1e-6
  MaxSCCIterations = 200
  ForceEvaluation = Dynamics
  MaxAngularMomentum = {
    C = "p"
    H = "s"
  }
  Charge = 0.0
  SpinPolarisation = {}
  Eigensolver = Standard {}
  Filling = Fermi {
    Temperature [Kelvin] = 300.0
  }
  SlaterKosterFiles = Type2FileNames {
    Prefix = "../../pbc-0-3/"
    Separator = "-"
    Suffix = ".skf"
    LowerCaseTypeName = No
  }
  KPointsAndWeights = {
    0.0000000000000 0.0000000000000 0.0000000000000 1.00000000000000
  }
  Dispersion = LennardJones { 
    Parameters = UFFParameters {}
  }
}

ParserOptions = {
  ParserVersion = 3
}
