Geometry = GenFormat {
<<< "system.gen"
}

Driver = VelocityVerlet{
  Steps = 50000
  TimeStep [fs] = 0.2
  MDRestartFrequency = 5
  Thermostat = None {
    #InitialTemperature [Kelvin] = 300.0
  }
  Xlbomd{ 
    IntegrationSteps = 6 
    MinSccIterations = 2
    MaxSccIterations = 200
    SccTolerance = 1e-6 
  }
  Velocities [m/s] {
      2.38371710E+02     -2.24878723E+02     -5.09921417E+02
     -1.06517829E+03      2.56983244E+02     -3.97129130E+02
      1.62340927E+03     -7.01009116E+02      5.31983638E+02
      3.48175628E+02      5.36577846E+02     -1.52041594E+02
     -9.78800649E+02      3.67996023E+03      1.62387810E+03
      1.05796663E+03      3.29008100E+03      2.96370381E+02
      2.62479747E+02     -2.22228831E+02     -4.23272366E+02
      1.17648905E+03      1.05683046E+03      6.76152906E+02
      1.49645197E+03     -7.17129098E+02     -4.85486986E+01
     -6.45801632E+02      2.33013179E+02     -2.84297621E+02
     -1.99429507E+02     -9.44097255E+02     -5.96024007E+02
     -1.18285957E+03     -1.27994676E+03     -2.55493507E+03
      4.70785885E+02      2.56365205E+02      1.22408818E+03
      1.18392828E+03     -6.54701294E+02      2.98506723E+03
     -1.09905878E+03     -3.76060099E+02      1.62540390E+03
     -5.58047786E+02      4.00706388E+02      4.90564542E+02
      7.30262999E+02     -2.77658918E+03      1.21173934E+03
     -7.03336837E+02      5.51392226E+02     -1.17195995E+03
     -6.42904996E+02     -3.43262525E+02      1.51866530E+03
     -2.24930522E+03      2.64946693E+03      1.98093380E+03
     -5.78109235E+02      5.34853567E+02      1.62031235E+01
      4.47964763E+02      8.56184480E+02     -1.72668556E+02
      2.29680164E+02     -4.02119715E+02      6.33763281E+02
      6.79554392E+02      7.63275420E+02     -1.63353653E+02
     -2.09374318E+01      2.65537976E+02      1.54750277E+02
      1.08812111E+03      2.62233582E+03     -9.93746298E+01
     -1.54360593E+03     -6.60303556E+02     -1.23961162E+03
     -1.88754914E+03     -2.33322413E+02      2.01392485E+02
     -1.24753294E+02     -3.79572198E+01     -3.04420638E+02
     -1.42946694E+03     -1.40179521E+02      9.97984294E+02
     -4.72121529E+02     -1.38821373E+03     -3.89447124E+02
     -7.82018076E+02      7.34991178E+02     -1.15307837E+03
     -9.03044071E+02      4.19226799E+02     -5.67049727E+02
      1.61772555E+03     -1.10812422E+02      2.05182321E+03
     -5.98807372E+02      6.47137132E+02     -9.06444450E+02
      5.34039146E+02     -3.40352844E+02     -4.70112543E+02
     -2.96337782E+02      1.50015848E+03      5.31440439E+02
     -3.48740733E+02     -2.45563341E+03      3.40487183E+02
     -2.15915027E+02     -4.80584622E+02     -1.15588739E+02
     -8.78967994E+01      3.01806294E+03     -5.04531609E+01
     -2.69139439E+02      3.33791086E+01     -1.39780010E+03
      4.24935858E+02      3.22860749E+02     -4.44152348E+02
      1.51460641E+03     -2.53556614E+03     -1.80206602E+03
     -1.36549964E+03      4.53447015E+02     -1.94733362E+03
     -1.71493623E+01      6.49359988E+02      4.99138920E+02
     -9.96178779E+02      2.41689760E+03     -2.06786909E+01
      1.24303453E+03     -5.58365767E+02     -1.57619573E+03
      1.44730747E+02     -1.01539523E+02      2.13346997E+02
     -7.84768766E+02     -9.34279627E+02     -3.05292065E+03
      2.27419619E+03     -1.04299747E+03     -1.74998326E+03
      9.03994198E+01      4.53989843E+02      7.47595019E+02
     -6.86137053E+02      2.08246414E+03     -8.00514687E+02
     -6.43967352E+02      1.44091091E+02     -1.44920216E+03
      3.64281145E+02      9.32840601E+01      4.92714417E+02
     -9.37442869E+02     -6.38815178E+02     -1.47879833E+03
     -4.10257920E+03     -1.54623885E+03      7.71041132E+02
      1.18973826E+02      6.82791318E+02      2.19832360E+02
      8.08798396E+02      7.37665855E+02     -1.16583720E+03
     -1.00882846E+03      3.15803596E+03     -1.55008586E+03
     -3.00864559E+03      8.44433935E+02     -1.35474147E+03
     -5.00749562E+02      1.86989809E+02     -3.48945022E+02
      1.31627859E+03      1.50168967E+03      4.69413209E+02
      1.54168743E+03     -9.67014626E+01      1.07382654E+03
     -3.16551501E+03      2.61695960E+02      1.70469005E+03
     -1.10089953E+02     -7.46940929E+02     -1.15264938E+03
      1.54833329E+03     -9.16657953E+02      2.12616041E+03
      1.51108102E+03     -1.28160469E+03     -8.64980693E+02
     -3.24660813E+02      8.13723891E+02      1.74634704E+02
      2.74669449E+03      2.25974516E+02      2.43660477E+02
      1.60229952E+02      9.93103617E+02      2.78709030E+03
     -4.83628873E+02      1.96192435E+02      4.00939928E+02
     -4.51531275E+03     -3.94431354E+02      1.68702393E+03
      1.40335256E+03      3.20315528E+03     -6.48149541E+02
      6.86879070E+00      6.98878455E+02      4.50297359E+02
      5.29691955E+02     -6.71663710E+02     -1.50291169E+03
      3.67303851E+02      1.39863717E+03      1.12389702E+03
     -5.75485518E+02     -5.06357096E+01      5.10464675E+02
     -1.64023802E+03     -1.45511084E+03      1.01922203E+03
      2.09504813E+02     -1.71120778E+03      1.71400249E+03
      9.12310033E+01      1.55766420E+01     -1.87831881E+02
      2.32857132E+03     -5.02264502E+02      1.20085649E+03
      1.52358807E+03      9.23341794E+02     -1.52236344E+03
      2.66392225E+01     -2.86771193E+02     -5.40748405E+02
     -1.58087568E+03     -3.73873017E+02      1.39293951E+03
      6.87594202E+02      2.03974075E+03      1.85771403E+03
      1.79049841E+02      6.11982582E+02      2.15261213E+02
      3.72261501E+02      5.73213608E+02     -5.08049099E+02
     -1.99813549E+03      1.14997824E+03     -1.05512519E+03
     -2.95158897E+02      3.27407468E+02     -1.70334310E+02
     -3.76092201E+02      1.95236712E+03      2.80446715E+03
      8.23787795E+01     -1.34446347E+02     -1.13909273E+03
     -4.26133236E+01     -8.01777964E+02      5.06969425E+02
     -6.49206129E+01     -2.66687355E+02     -4.84689825E+02
     -2.81701257E+03      3.05380157E+02      3.97311125E+02
      1.74286862E+03     -9.73716750E+02      2.93618369E+02
      2.08415273E+03      4.20033092E+03     -1.18044567E+03
      1.92973573E+02      3.38628242E+02     -8.83135928E+01
      1.15661187E+03      6.64091587E+02     -6.98675495E+02
      1.10613260E+02      3.39685799E+02     -1.84048367E+03
      9.90324350E+01     -1.21643271E+03      2.54556334E+02
     -1.55481226E+03     -2.70915286E+03     -1.02068904E+02
     -8.55400670E+02      1.83874830E+03      6.14284487E+02
      2.37972387E+02     -7.71719230E+02      1.84948316E+02
     -4.16838389E+03      2.37607023E+03      5.52149863E+01
      4.72449823E+02     -1.62885430E+02      1.66926498E+03
     -3.84115779E+02     -3.02748526E+02     -1.38691753E+02
     -2.12651605E+03      2.22462098E+02      1.11018266E+03
      8.33480843E+02      1.80757961E+03      2.07216203E+03
     -1.15596118E+01      2.81097230E+02     -8.53373674E+01
     -8.74635269E+02      2.79298251E+03      6.28098028E+02
     -1.40198495E+03     -1.66769033E+03     -2.53861179E+03
     -3.62398743E+02      3.13531404E+02      2.85490458E+02
     -8.61077269E+02      9.58749543E+02     -4.22705137E+02
     -1.33774307E+03      1.09104560E+03      1.63184757E+03
     -1.18715469E+03      3.80947356E+02      8.96770245E+01
      2.19274853E+03     -9.56553764E+02     -2.00383928E+03
     -9.40952786E+02      9.84319179E+02      2.81670914E+03
      5.54571656E+03     -2.07127664E+04     -3.87384791E+03
     -3.24035568E+02      1.25866995E+03     -1.99119368E+03
     -6.07843705E+01     -1.90783594E+02      2.33729057E+03
      1.81290506E+02      1.56291847E+02     -8.36834218E+02
      2.21330106E+03      1.64070758E+03      6.02868657E+02
      1.99571912E+03      1.49099111E+03     -5.33221628E+02
     -1.16410654E+02     -2.09063690E+02      6.28941067E+02
      1.70375982E+02      3.77137605E+02     -3.24982874E+02
      7.83909234E+02     -2.09330411E+03      7.69946549E+01
      1.10849415E+02      2.43894915E+03      8.86624911E+01
     -1.13698399E+03      5.23928655E+02      3.92032808E+01
      2.10700428E+02     -3.90435451E+02     -7.33180923E+02
     -1.83677172E+03     -1.27149669E+03     -3.61089757E+02
     -7.92481122E+02      1.24003235E+02     -4.78296839E+02
     -8.14290270E+01      1.68994604E+02      4.23501213E+02
      1.05568236E+03     -4.06083898E+02     -1.30348752E+03
      7.37422547E+02      1.20761492E+03      6.82420441E+02
      5.66915780E+01      2.51749992E+02     -2.49820671E+02
      3.77761408E+02      9.48760687E+02      7.61016020E+02
     -5.91495723E+02      1.34771241E+03      7.42165908E+02
      3.06821139E+02     -1.33488622E+02      6.66139656E+00
      1.19529838E+03     -3.52596409E+01     -4.49125847E+02
      2.93073450E+02      1.45341812E+03     -1.24633192E+03
     -1.87809733E+02     -4.74006696E+02     -2.33095659E+02
     -2.28084105E+03     -4.42493255E+03     -2.93619287E+02
      1.25408618E+03      1.31665258E+03      3.59521539E+02
     -1.10303131E+02      5.55692967E+02      7.69185994E+02
     -7.51866929E+02     -7.55452691E+02      4.48663026E+02
     -3.46577745E+03      2.02783774E+03      4.20778985E+02
      3.00450504E+02      9.58056492E+02      7.31657984E+02
      3.51177011E+02      6.98536295E+02      4.12943628E+03
      1.65373454E+03     -3.38845406E+03     -1.68608372E+02
     -5.67297565E+02      5.03763278E+02      6.53363446E+02
      1.26796967E+03     -5.32445295E+02     -1.36064520E+02
      1.23180528E+03     -6.40087467E-01     -8.16758028E+01
      1.12556504E+02      2.99180530E+02     -5.99288420E+02
     -4.90332277E+02     -6.94268062E+02      2.41290354E+02
     -1.62251981E+03      2.82199574E+03      2.27551184E+03
      1.00539379E+03     -1.01928646E+03      6.77530385E+02
     -3.53537028E+02     -1.40464891E+02     -4.87604268E+02
     -1.18047811E+02     -1.98194758E+03     -1.72495785E+03
     -5.45972630E+02     -5.44691422E+02      3.60073582E+02
     -1.98759246E+03      8.43551566E+02      3.18710726E+02
     -9.87664400E+01      4.63580700E+02     -4.95695886E+02
     -2.72198440E+03      7.35481440E+02      3.47877269E+02
     -4.78671185E+02      7.85469811E+02      2.63575599E+03
     -1.03151842E+02     -7.48584611E+02     -4.72307059E+02
     -6.32917133E+02     -3.13903161E+03      7.96049050E+02
      1.29003895E+03      2.54534205E+03     -2.57001245E+03
     -4.05341232E+02      7.77793939E+02      6.01281270E+02
      7.15115435E+02      1.67167132E+03      2.26545492E+03
      2.82116306E+03     -2.38390740E+03     -1.31362857E+03
     -1.36063773E+02      2.64306734E+02      4.22665135E+02
      2.96647118E+03      2.19105594E+03      1.04838040E+03
     -1.93811203E+03      1.44277806E+03      1.35045418E+03
      5.27530165E+01      3.77004620E+02     -1.92537467E+02
     -4.88956182E+02      2.26057251E+03     -2.44352046E+03
      1.90379622E+03     -1.87638277E+03      9.66117935E+02
      3.56886477E+02      2.58278224E+02     -3.55968315E+02
     -1.11000869E+03     -2.52706049E+02     -4.97979472E+02
      5.52520342E+02     -1.29436881E+03      6.55448760E+02
     -2.03055222E+02      2.59526216E+02     -3.34433099E+02
     -1.66645336E+02      1.93103986E+03      1.12836953E+03
      1.29505298E+03     -4.02725160E+03      3.31134238E+02
     -2.69789237E+02     -8.47948632E+01      2.64628229E+02
      2.35028788E+02     -1.40924695E+03     -2.20398684E+03
     -2.95433802E+02      4.70603760E+02     -1.16153077E+03
     -7.35894415E+02     -9.61823449E+00     -4.05644422E+02
     -5.91782237E+02      1.05759188E+03      1.11757045E+03
      4.78304487E+02      5.16579528E+02      2.66201920E+02
     -1.25505825E+03     -1.07642560E+03      2.95290542E+03
     -2.46970356E+02      2.21329349E+02      4.86620083E+02
      6.52636545E+02      7.59037240E+02      2.16038769E+03
      4.40049513E+02      5.35006687E+02     -1.11210322E+03
     -1.41466519E+03      2.91726440E+03      2.80990206E+02
     -4.31716200E+02      3.25916546E+02     -2.38817598E+02
      2.21340201E+02      7.15848689E+02      3.30792868E+02
     -1.58239083E+03     -1.70394590E+03      1.60310391E+03
      2.01426456E+02     -2.97656210E+02     -7.50319718E+02
      4.86763825E+03      1.91468349E+03      1.39379881E+03
     -5.22024243E+02     -6.45661467E+02      7.11696470E+02
      4.14599843E+02      1.92732473E+01     -3.31656504E+02
      1.42828079E+03     -1.18586404E+03      2.97852761E+03
      1.10193910E+03      1.76216929E+02     -1.54516194E+03
      3.31979929E+02      4.04817920E+02     -4.33211329E+02
      3.35537888E+02     -2.74124447E+03      2.22959817E+03
     -1.87310855E+03     -4.99639126E+02      1.79101174E+03
      2.39294623E+02      4.75361699E+02     -5.13665501E+01
     -1.86260831E+03      7.55106196E+02     -1.67514240E+03
     -1.35001156E+03     -2.58508469E+03      6.59667797E+02
      4.13328782E+02     -1.11890660E+02     -1.58046344E+02
     -2.11903572E+03     -9.45275725E+02     -1.21664640E+03
     -1.17340656E+03     -2.25756219E+03     -1.08981841E+02
     -9.97921540E+02     -3.98976070E+01      8.61147237E+02
      2.46006812E+03     -2.34942157E+02      4.94590329E+01
     -3.03662463E+00      1.46672247E+02      7.79072235E+02
     -2.39210171E+01      4.18173664E+02      1.42386113E+01
      1.29907770E+03     -4.15392505E+03      1.11624830E+03
     -1.10055014E+03     -1.31409336E+03      1.68301177E+03
      4.11705348E+02     -1.79115260E+01     -5.21248755E+02
      5.13275935E+02     -2.39176868E+03     -2.95578487E+03
      2.31960681E+03      7.42986883E+01      2.20548097E+03
     -5.48238311E+02     -6.48547772E+02     -1.54354432E+02
      7.86425399E+02      2.63998567E+02      4.02032241E+02
      3.12838524E+03      1.65576865E+03      3.02070265E+03
     -1.42048388E+02      2.84095381E+03      8.01711998E+02
     -2.35354492E+03     -8.96136933E+02      1.78292293E+02
      2.56503022E+02      1.09568324E+03     -9.46113364E+01
      5.39489021E+02     -2.77163711E+03      1.55648294E+02
      3.40798860E+03      9.05205791E+02      2.03080095E+03
     -1.44855562E+02      4.43917278E+02     -2.91630373E+02
      2.33418168E+02      3.20750601E+02      2.58262053E+02
      2.11372209E+01      4.04513430E+03      3.83492214E+02
     -5.80202387E+02      1.18672175E+02     -5.04447308E+02
     -7.62230387E+02     -1.40786072E+03      4.12020206E+02
      2.71325093E+03      1.95857111E+02      9.14421776E+02
      1.14200726E+01      2.65202258E+01     -4.77466610E+01
      7.74024570E+02     -4.95998377E+02      3.95708421E+02
     -3.95730032E+03     -7.85044090E+02      2.39676292E+02
      1.75839395E+01     -5.89499945E+02      4.08513225E+02
     -8.00056166E+02     -9.38405362E+02      8.29404843E+02
     -5.91125558E+02      1.38338225E+02     -6.74986897E+02
     -1.43260750E+02      3.34272342E+02     -4.11135206E+02
     -2.27914443E+03      1.05175439E+03      1.72298308E+03
      1.39693032E+03     -3.58221001E+01      1.91030982E+03
     -2.37432474E+01      9.99722198E+02      4.70603702E+02
     -3.51798288E+03      4.65005721E+02      3.17603113E+03
     -8.37046534E+02      1.41771560E+03      1.10352443E+03
      4.06151228E+02      6.36135582E+01      4.17972538E+01
      2.38573871E+03     -9.38950823E+02     -1.11267804E+03
     -1.98121053E+03     -9.98981507E+02     -1.62742865E+03
      2.13998859E+02     -3.92536510E+02     -5.64228322E+02
      1.69250415E+03     -6.91431412E+02     -2.31128238E+03
      3.53173917E+03     -1.73319081E+03     -1.07492594E+03
      1.61920664E+03     -2.65251280E+03     -8.60821636E+02
      3.96637312E+02      4.62902955E+02      1.09313690E+03
      7.22009263E+02      1.63022572E+03     -2.61671240E+03
      3.58909773E+02      1.84954237E+03      1.31908546E+03
     -1.98575506E+03      1.72854383E+03      2.21318845E+03
      6.66619081E+01     -1.71600483E+02      2.21576323E+02
     -1.62632213E+02      5.73914872E+02     -2.64502386E+03
     -1.58388753E+02     -2.24046623E+01      2.57095185E+03
      4.11551073E+02      2.58450946E+02     -1.24179683E+02
     -2.53109447E+03     -6.46710248E+02     -5.82519944E+02
      5.97960650E+01     -3.29944213E+03     -4.80893668E+03
      3.29420691E+02     -8.00558813E+00      2.94368047E+02
      5.88902499E+02      1.41447914E+03     -7.44458298E+02
     -4.34543769E+02     -1.39936357E+03     -1.20763538E+02
      2.13731163E+01      8.62939318E+02      8.37332390E+01
      1.09095653E+03     -9.65090906E+02      8.31845524E+02
     -2.42055246E+03     -3.34234012E+02      2.84389441E+02
      5.56795127E+02      3.56545510E+02      3.37104051E+02
      2.04815161E+03      4.19351371E+03      7.21257121E+02
     -1.43546133E+03     -8.59312839E+02     -3.66880877E+03
     -2.63964345E+02      1.12317207E+03     -3.59940095E+02
      2.31575679E+03      4.89081623E+02      2.58223022E+03
     -6.34513130E+02      2.16709109E+03      2.53560225E+02
     -1.39020488E+02     -3.87035913E+01      7.46798031E+01
      1.52829543E+03     -1.41554195E+03      1.62101364E+03
     -2.39980863E+01      1.26430710E+03      2.71288118E+03
      5.11652375E+02      8.71509453E+02     -1.77398678E+01
     -1.78703182E+00      2.72609054E+01     -3.48834485E+02
     -6.80124817E+02     -1.67522641E+03      1.59969856E+03
     -7.71549948E+01     -1.20232128E+02     -4.51918183E+01
     -5.88287357E+01     -2.30645876E+01     -1.36810952E+03
      1.34241110E+03     -1.34487778E+03      2.04461631E+03
     -2.15642785E+03     -2.85490714E+03      1.90733298E+03
     -6.66519962E+01      1.28432633E+02     -3.98259394E+02
     -1.56181961E+03     -1.08750448E+03      1.47442347E+03
     -9.63081570E+02     -1.58261380E+02     -1.60192170E+03
      1.02079013E+03     -1.13530731E+03     -2.75212363E+03
      7.78357147E+01      1.32322283E+02     -1.55956081E+02
     -8.17282183E+02     -7.06680967E+02     -1.03795339E+03
     -1.68015213E+03      2.04117709E+03     -8.99093972E+01
      1.44327801E+02      7.31722808E+01      2.36264451E+02
      6.90293767E+02     -6.98987103E+02      2.55490256E+03
      4.92886357E+02      3.24843450E+02     -3.16248749E+03
     -4.88871392E+02      1.74152042E+02     -6.18185713E+01
     -3.76926446E+03      1.69963976E+03     -2.31114752E+03
     -4.31483275E+02      4.48251329E+02      9.24860015E+02
     -2.09375939E+02     -8.21249900E+02     -9.92707750E+01
      1.46295534E+02      1.72517401E+03      2.59109093E+03
     -1.36785574E+03     -1.19973473E+03      4.31177891E+02
     -2.87074047E+02     -2.45325957E+02      1.36441993E+02
     -7.49035738E+02      1.50982709E+03      1.18475761E+03
     -8.13190463E+02     -6.41465096E+02     -2.23451642E+03
      1.81059758E+02      2.74240443E+02      5.95094538E+02
     -1.13292823E+03     -8.43191955E+02      4.33441887E+02
      4.39106664E+03      1.39661704E+03     -1.50428207E+03
     -8.07057584E+02     -5.00304936E+02      1.24823433E+02
     -6.37283049E+02      1.95329619E+02     -2.48654488E+03
      1.47271249E+03      2.51006972E+03     -2.31956314E+02
     -3.48063930E+02     -3.56880211E+02      1.45243521E+02
     -8.23063145E+02     -1.51978508E+03     -2.03108848E+02
      8.83109419E+02     -1.76943217E+03     -1.14856445E+03
     -1.89675138E+02      4.38477672E+02     -1.03632359E+02
     -3.32010400E+02     -4.86019633E+02     -1.73285032E+02
      2.28946091E+03      1.13904678E+03     -1.27663875E+03
      4.69280567E+02      6.94274437E+02     -7.01484857E+02
     -4.26239469E+02     -6.48692732E+01     -7.65827790E+02
     -1.02593184E+02     -1.53494322E+03     -8.47192100E+00
      2.07124626E+02     -1.39018003E+02     -3.11127385E+03
      1.32601589E+02      2.80403450E+03     -4.17978485E+02
     -4.63715832E+02     -1.25790099E+02      3.64368607E+02
      2.00737813E+03     -3.89694287E+02     -5.88763429E+02
      3.10499324E+03     -1.98548075E+02     -2.12079743E+03
     -1.08591078E+03      6.05609494E+02      4.83695581E+02
     -5.24365100E+02      8.23174710E+02      3.36094823E+02
      1.53607722E+03      1.64155861E+03      1.81086171E+03
      2.61404546E+02      6.16948958E+02      7.90679632E+02
     -8.99202245E+02      1.55553532E+03      2.46321216E+03
      1.02741135E+03      2.65530914E+03      1.12580974E+03
     -3.32669654E+02     -1.26677440E+02      4.76271649E+02
      1.00325534E+03     -2.57013203E+02      2.04041713E+02
     -5.96928215E+02      1.30851232E+03     -1.20707147E+03
     -3.16815946E+02      4.55497214E+02      1.82128882E+01
     -5.98008520E+02     -9.73591211E+02      1.60607190E+03
     -1.74810951E+03      1.21638622E+03     -8.74791255E+02
      1.54382111E+03      1.59363206E+02     -5.69510437E+02
     -1.55996276E+03      5.69588720E+02     -1.31528516E+03
     -2.46655824E+03      3.81755733E+03      8.41859619E+02
      5.62152992E+02      3.06712314E+02     -1.98919551E+01
     -2.17308312E+03      1.32912827E+02      1.63580699E+03
     -2.26120018E+03      5.49204539E+02     -1.13556991E+03
      2.36568739E+02      6.99471162E+02      3.20285277E+02
     -1.16883116E+03      1.87934868E+03      1.09602678E+03
      3.33879775E+03      5.68752537E+02      1.69937040E+02
      1.29511439E+02      9.04148642E+02     -1.76793760E+02
      2.42411614E+03      3.31588226E+02      1.59197611E+03
     -1.91280412E+03      1.73121712E+03     -2.41651415E+03
      3.73721372E+01      8.47173860E+02     -3.10526286E+03
     -9.48034043E+02     -1.26883532E+02      4.91171762E+02
      2.34558723E+03      2.14927833E+03      1.10456153E+03
      2.37363432E+03     -1.86630489E+03      8.81934366E+02
      2.13901348E+02     -2.15737799E+03      1.01104875E+03
  }
}

Hamiltonian = DFTB {
  SCC = Yes
  SCCTolerance = 1e-6
  MaxSCCIterations = 200
  ForceEvaluation = Dynamics
  MaxAngularMomentum = {
    C = "p"
    H = "s"
  }
  Charge = 0.0
  SpinPolarisation = {}
  Eigensolver = Standard {}
  Filling = Fermi {
    Temperature [Kelvin] = 300.0
  }
  SlaterKosterFiles = Type2FileNames {
    Prefix = "../../pbc-0-3/"
    Separator = "-"
    Suffix = ".skf"
    LowerCaseTypeName = No
  }
  KPointsAndWeights = {
    0.0000000000000 0.0000000000000 0.0000000000000 1.00000000000000
  }
  Dispersion = LennardJones { 
    Parameters = UFFParameters {}
  }
}

ParserOptions = {
  ParserVersion = 3
}
