Geometry = GenFormat {
<<< "system.gen"
}

Driver = VelocityVerlet{
  Steps = 50000
  TimeStep [fs] = 0.2
  MDRestartFrequency = 25
  Thermostat = None {
    #InitialTemperature [Kelvin] = 300.0
  }
  Xlbomd{ 
    IntegrationSteps = 6 
    MinSccIterations = 2
    MaxSccIterations = 200
    SccTolerance = 1e-6 
  }
  Velocities [m/s] {
      1.79656754E+02     -1.78069283E+02     -6.13156577E+02
     -2.87393475E+03     -2.51275291E+03      9.09030631E+02
     -9.65324492E+02      1.14268834E+03     -1.02895125E+03
     -1.43513977E+02     -3.63176359E+01     -1.61300153E+02
     -2.94692920E+03      1.22850113E+03     -2.39177248E+03
      2.14085490E+03      3.03904659E+02     -2.02270228E+03
     -2.88506064E+02     -3.96988983E+02     -6.67859777E+02
      1.84931428E+03     -1.93541145E+03      2.29456537E+03
     -9.43798218E+02     -1.27946011E+02     -3.07388371E+02
      2.90435135E+02      9.25112505E+02     -4.33858664E+02
     -5.55248991E+02     -1.04765366E+03      1.56563685E+03
     -3.03596050E+03      3.95252022E+02      2.57127001E+02
     -6.75719601E+02      5.22729274E+02     -7.42615715E+02
     -8.64658729E+02     -9.98785478E+02     -5.47407861E+02
     -1.17347521E+03      1.78984406E+02     -3.44362363E+03
      5.07476568E+02     -4.13486782E+02      1.40524298E+02
      2.21495469E+03     -1.10664548E+02      2.28073295E+03
     -1.81118040E+03      5.27024205E+02     -2.31850606E+02
      3.25213284E+01     -6.79558153E+01     -5.56143180E+01
      6.42560492E+02     -1.27209663E+02      8.52343047E+02
      5.15397836E+02     -4.59828846E+02      3.32110839E+02
     -7.43109759E+01      3.17838243E+02     -9.77620113E+02
     -1.62743284E+02      2.18473328E+03     -4.96178774E+02
     -7.98024840E+02     -2.17725035E+01     -4.19481469E+03
      3.52745900E+02      1.04297972E+03      5.15620588E+02
      1.58192394E+03     -7.31343459E+01     -7.15383941E+02
     -2.26741446E+03     -6.65696021E+02     -2.16127776E+03
      1.64584693E+03      1.24730259E+03     -2.10678776E+02
      3.40851500E+02     -2.93567142E+02     -5.82369200E+02
     -1.23394562E+03     -1.50128017E+03     -9.53746813E+02
     -1.41433438E+02     -5.81661582E+02     -3.96752241E+02
     -6.14482972E+02     -1.31865783E+03     -9.38956454E+02
     -4.28080433E+01      2.80268929E+01     -6.73820158E+02
     -1.97875581E+03     -1.40337622E+03      8.26992013E+01
     -2.20738794E+03     -1.05732271E+03     -3.06008085E+02
     -8.46061492E+01      2.66799185E+02      3.24445317E+02
      1.50995430E+03     -3.28889555E+03      7.70419022E+02
     -5.10407622E+02     -5.48138211E+02     -1.21018014E+03
     -1.14874272E+02     -1.06278630E+02     -1.44910595E+02
     -5.40705083E+02      1.36027486E+02      1.36982803E+03
     -3.46823990E+02     -1.06236036E+03      2.49314206E+02
     -3.35682549E+02     -2.89013460E+02     -4.74445826E+02
     -1.09135242E+03     -3.96581077E+02      1.49488080E+03
      1.06572407E+03     -2.16402641E+03      8.23840875E+02
     -1.47705975E+02      6.29785628E+02      1.44847471E+02
     -3.25228020E+03      8.80718566E+02     -1.89918966E+03
     -9.57988563E+02      1.07944350E+03      1.30488905E+03
      4.30800736E+02      3.43735103E+02     -9.22489259E+02
     -2.21881278E+02     -8.99098121E+02     -9.89892480E+02
      2.02098309E+03      1.62825741E+03      1.99787527E+02
      4.45918083E+00      1.07027611E+02     -6.54550866E+02
     -7.81997495E+02     -1.60583095E+03     -5.95021766E+02
     -1.48598974E+03      1.06422641E+03      1.66263349E+03
      1.28311334E+01     -6.92455181E+02     -7.68231904E+01
      1.67281738E+02      1.14910995E+03     -3.14837561E+02
      3.17357808E+03      2.87780459E+03     -5.32959429E+02
     -1.05771702E+02      3.05829573E+02     -2.95307553E+02
     -1.04496124E+02      1.22389653E+03     -1.27118154E+03
      2.32327965E+03     -2.51955132E+03      4.41292047E+02
      5.70101844E+02     -1.56860189E+03     -1.22643754E+02
      6.63506158E+02      5.61030026E+01     -7.25593641E+02
      7.07673511E+02      2.49463461E+03     -1.12436093E+03
     -7.94374871E+02     -6.74960644E+02      5.84163658E+02
      2.64198307E+02      3.38475047E+03     -9.26721799E+02
     -3.21117798E+02      2.28971483E+02      5.19623769E+02
     -1.52668337E+02     -1.68919341E+03     -2.31902996E+02
      1.97618266E+03      3.06856734E+03      1.10659309E+03
     -4.33569279E+02     -3.82713194E+02     -6.66572219E+02
      3.90342435E+02      1.12564880E+03      1.92404458E+02
     -2.17112449E+03     -4.96750290E+03      2.65825713E+03
     -7.18301600E+02     -1.87437427E+01     -1.12523004E+02
      1.27015153E+03     -1.09215244E+03     -8.70647862E+02
      1.41978858E+03      1.25785234E+03      2.46801218E+03
     -4.61601192E+02      2.18972255E+02      2.23046329E+02
      1.25118555E+03      1.25432953E+02      4.00676623E+02
     -5.32463409E+01     -4.25864020E+03     -1.85003855E+03
      5.13028339E+02      1.46995405E+02      1.31087891E+02
     -1.51892545E+03     -8.39791406E+01      1.49873248E+03
     -1.77482473E+03     -2.17815871E+03      1.67428202E+02
      7.55777988E+02     -2.65720908E+02     -2.73028532E+01
     -1.55241604E+03     -1.99443654E+03     -2.52074699E+02
     -7.63860197E+02     -5.52734806E+02      2.82316795E+02
      1.45732001E+02      7.32050702E+02      2.50963212E+01
     -6.87704894E+02     -3.29400534E+02      1.50497770E+03
     -7.90913621E+02      1.56499935E+03     -1.21532471E+03
      1.92915798E+02      4.67500370E+02      1.45125334E+02
     -1.47734795E+03      1.24680863E+03     -1.37479382E+03
      1.03085655E+03     -1.76076286E+03     -3.24137429E+03
      1.74387236E+02     -1.02944747E+03     -5.15878500E+02
     -1.72300440E+03      8.85989142E+02     -4.54477258E+02
      2.19459217E+03      7.58006317E+02     -4.89881802E+02
     -3.01251381E+03     -2.34304486E+03      2.22215112E+03
     -2.55369258E+02      9.67705386E+01      3.88688775E+02
      1.76056766E+03     -1.41868751E+03     -3.59370005E+02
      5.46173499E+02      1.12484175E+03      1.71451337E+03
     -3.78667369E+02     -2.65239097E+02     -1.22412039E+03
     -9.42304314E+02     -1.15256973E+03      8.75219018E+01
      1.60596218E+03     -1.12961740E+03      3.03046391E+03
      7.04006371E+02     -1.63564665E+03      2.90234372E+02
     -5.93822048E+02     -4.65866495E+02     -3.08375618E+02
     -1.79507062E+03      2.50274049E+02      5.06308676E+02
     -1.43843207E+03     -1.73321535E+03     -1.44122426E+03
      1.70380068E+02     -5.79388168E+02      1.09377276E+02
     -4.02431899E+02     -1.19251505E+01     -7.12607127E+02
      6.90494103E+02      8.32268819E+02      5.88148181E+02
      2.24101488E+02      3.09757923E+02      4.16233054E+00
     -2.83474869E+03      3.93869607E+02      6.95274190E+02
      1.33040557E+03     -1.86739888E+03      4.81266427E+02
      2.76138921E+01      1.39258211E+02      1.27784990E+02
      7.01521331E+02      1.64290001E+02     -1.13504330E+03
      1.43025751E+03     -2.48086455E+03     -3.01264031E+03
      8.55084578E+02      4.93256414E+02      3.75838137E+02
      2.16913808E+02      1.19293654E+03     -3.84916123E+03
     -1.09238533E+03     -1.56667096E+03      7.36326625E+02
     -4.50708612E+02      1.40248944E+02     -6.84777229E+01
      2.26524591E+03      4.22385021E+02      1.25169354E+03
      1.15374820E+03     -3.88311460E+02      3.83571550E+03
     -3.63345743E+02      6.34325557E+02      6.97234043E+02
     -8.47469937E+02      2.04326888E+03     -1.77530743E+03
      1.38762639E+03     -2.62782416E+02      2.33854305E+03
     -3.02457108E+01      5.09730580E+02     -9.10772503E+02
     -3.56133666E+02      2.74922744E+03     -2.01676581E+03
     -5.57302115E+01     -2.15904193E+03      7.88867782E+02
     -7.97457628E+02      3.37541113E+03      2.13213684E+03
     -2.52986614E+02     -4.96091935E+02     -5.55429037E+02
      8.64993646E+02     -2.12582814E+03      1.74510291E+03
      1.03405300E+03     -1.64719526E+03      2.07903469E+03
     -2.27552806E+02     -5.72904237E+02     -1.74313503E+03
      8.78642620E+02      9.46248739E+02     -4.89395145E+02
     -4.30521896E+03     -1.82782917E+03     -3.93364478E+03
      1.18885020E+03     -1.97399895E+03      4.57026916E+03
     -1.11943816E+03      8.54157189E+02     -7.30219356E+01
      1.00617279E+03      7.51920857E+02      3.42150555E+02
     -8.10292429E+02     -1.18073735E+02     -1.28181720E+03
      1.02382224E+03      5.41010179E+01     -2.10037884E+02
      5.67049363E+01      1.51478393E+03     -4.36462675E+02
      1.70700319E+03     -2.95500145E+03      1.98353763E+03
     -3.01033909E+03      1.57097169E+03      2.15237759E+04
      6.93215039E+01     -1.55387618E+03     -1.17816055E+03
     -4.17677712E+02      1.18132565E+02      2.50097712E+03
      3.47820315E+02     -3.01348501E+02     -5.77769482E+02
     -8.29315762E+02      7.48078779E+02     -2.41389023E+02
      1.09044381E+03     -1.45876225E+03      1.80265231E+02
      1.04277214E+02      2.64914738E+02     -2.67255867E+00
     -7.98330046E+02     -4.74429576E+03      9.55195276E+01
     -3.32059190E+02      1.07102832E+03     -7.59283635E+02
      5.09983165E+02      4.66628559E+02     -3.36926649E+02
     -2.86555193E+03     -2.06633021E+03      1.71280980E+03
      1.57169137E+03     -4.23121179E+00      1.25684594E+03
     -1.28343556E+02      3.03423204E+02     -5.70630444E+02
      1.65609666E+03      1.51884021E+03     -1.80246969E+02
      2.50504802E+03      1.30968680E+03     -1.46180394E+03
     -1.50592487E+02      5.97180439E+02     -9.69646309E+01
      1.03744707E+03     -1.02159062E+03      2.80545319E+00
      2.52369421E+03     -1.63416817E+03      1.52851172E+03
      4.14746234E+01     -3.13402120E+03     -5.89084423E+02
     -1.02029564E+03     -2.16126807E+02      2.51170972E+02
      1.19552414E+02     -2.36313554E+02      3.24267694E+02
      3.00670679E+03     -1.38083252E+03     -1.83976794E+03
      1.92798194E+03     -7.19995388E+02     -8.68980685E+02
     -3.74166069E+02      1.63280800E+02      5.48636980E+01
     -7.58653004E+02      2.13353338E+03      3.48815643E+02
     -3.73335806E+02     -1.75386806E+03     -7.65475148E+02
     -6.41825860E+01     -6.11704106E+02     -8.13354674E+02
     -4.10062731E+02     -4.48219721E+02     -9.04798078E+02
     -4.15862160E+02      4.46556381E+02     -2.71047924E+03
      8.87541985E+01     -1.99775244E+02     -1.42976481E+02
      3.29517458E+02     -2.95824386E+03     -4.81942037E+02
      3.92656608E+02     -1.18654057E+02     -6.17779398E+02
     -7.59839347E+02      1.54432918E+02     -2.61027430E+02
      1.24708260E+03      1.87760039E+03      3.66893222E+02
      1.23950433E+03     -1.94314382E+03     -9.75113626E+02
     -6.29289221E+02      2.28473609E+02      6.13837598E+02
      4.68558493E+02     -4.97770393E+02      2.29733465E+03
      1.58305734E+02     -1.00499974E+03      1.99742096E+03
      5.08865345E+02     -3.12319938E+02     -2.39634844E+02
     -4.84320085E+01     -1.71872905E+03      1.66032769E+03
     -4.82127826E+02     -2.11029949E+03      2.28192264E+03
      1.96088997E+02      4.05324748E+02     -5.73298355E+00
     -2.44887667E+03     -1.16452381E+02      7.40042782E+02
      2.92230240E+02     -1.78077801E+03      1.46120164E+03
     -4.55278986E+02     -2.92117200E+02     -4.39807563E+02
      2.00159885E+03      9.22996546E+02     -1.22056402E+02
     -1.90637038E+03     -7.89358480E+02     -5.33159400E+02
      1.60605563E+02      2.07250001E+02      4.96485404E+02
      5.05467849E+03     -2.22246146E+03      2.21495322E+03
     -5.54880992E+02     -5.66680210E+02     -3.16604170E+03
      1.53680027E+03      8.64679464E+01      4.46693725E+02
      7.04900768E+02     -2.24163441E+02     -2.91057656E+02
     -1.86975041E+02     -2.01044908E+01     -1.11687479E+03
     -1.41910516E+03      1.70042624E+03      1.47806643E+03
     -2.89012414E+03      2.76635660E+03      2.21783487E+02
      8.18914416E+02     -8.06737863E+02     -1.14342626E+02
      1.99149255E+02     -1.41238328E+03     -1.79669205E+03
      3.33071729E+03      1.54459071E+03     -3.17608588E+03
     -8.07282667E+02      3.30860857E+02     -7.30929229E+02
      9.90750906E+02     -6.39154965E+02     -1.15761715E+03
      1.21866088E+03      1.45213862E+02      4.25861080E+02
      3.17546998E+02     -1.64215053E+01     -4.42209554E+02
     -5.06866127E+02     -5.30118470E+02      4.72130816E+02
      1.35602099E+03      2.10735070E+03     -1.97469849E+03
     -1.10735530E+02     -4.64250046E+02     -3.07916944E+02
      1.16138350E+03      3.58479594E+03     -4.13545311E+02
     -3.59999122E+02      1.32335253E+03     -2.36303086E+03
      2.03987694E+02      4.60055227E+02     -2.57745850E+02
      1.99144114E+03     -1.46985156E+03     -7.61198140E+01
     -5.17269526E+02     -8.66595921E+02      1.03220033E+03
      1.42664837E+02      4.75384214E+02     -6.80745883E+02
      5.69602849E+02     -1.76434107E+03      3.18409380E+03
     -1.00309598E+03      3.33205955E+03     -2.31951819E+02
     -4.17998425E+02      6.32815361E+01      2.90948718E+01
      1.15691609E+03      7.32143445E+02      2.14375478E+03
      1.07376365E+02      1.06130018E+03      6.76730456E+02
     -4.57880448E+02      4.82060072E+02     -2.23572319E+02
      1.58389740E+03     -2.39113631E+03      8.29731875E+02
     -1.43029320E+03      2.84255456E+03      2.71545652E+03
     -7.36136259E+02      6.84212577E+01      3.30652687E+02
      6.16281611E+02      2.87409352E+03     -8.51809278E+02
      9.80271611E+02      6.91951105E+01      1.62418950E+03
     -2.84608512E+03      1.79748644E+03      8.92140749E+02
      4.08453509E+02      1.29545308E+02     -7.55972516E+02
     -7.33406129E+02      3.18394738E+03      1.47304209E+03
      5.14009690E+02     -2.74469322E+03     -2.45424583E+03
      2.39452286E+03     -1.38192731E+03     -7.32100766E+02
     -1.41241732E+02      7.95269731E+02      2.96297379E+02
      2.41199985E+02     -2.95270537E+03     -9.58598755E+02
     -3.64078981E+02      1.51796009E+03     -2.55558653E+01
      1.89823962E+02      7.65815822E+01      2.75576926E+02
     -2.62640557E+03      1.49480818E+03     -1.47455224E+03
     -4.46896208E+02      2.78053177E+03      8.40770570E+02
      4.27336111E+02     -5.82426472E+02      1.02004147E+03
      1.15025673E+03      5.83590928E+02      9.28281367E+02
     -1.71245991E+02     -4.42325032E+02      2.23735208E+02
      6.60692908E+02      1.87760900E+01     -6.19482465E+02
      9.02950252E+02     -1.76609626E+03      1.03899634E+03
     -2.83280101E+02      1.97004791E+03     -3.30363074E+03
     -7.52292805E+02      2.79261688E+02     -4.02279162E+02
     -1.15608242E+03      1.38539564E+03     -2.10836627E+03
     -3.31747169E+03      1.36603554E+03     -1.83297245E+02
      4.30825887E+02     -1.84780969E+02     -9.40365873E+02
      4.82016325E+02      9.21335547E+01     -2.58862805E+03
     -7.71037122E+02      3.41533846E+03      4.98200428E+02
      4.79374723E+02     -2.80287817E+02     -6.69877311E+02
     -2.66742030E+03      6.78431305E+02      2.42833899E+03
     -7.40010117E+02      1.19219469E+03      1.60815204E+03
      7.11747986E+02     -4.10746816E+02     -4.85809341E+02
     -2.33452736E+03     -6.67087625E+02     -2.66824745E+03
      1.27939872E+03     -5.19571339E+02     -5.86786056E+02
      1.23504600E+02     -3.14027635E+02      4.36620305E+02
      8.08504095E+02     -2.74267371E+03      3.65007100E+02
      6.40767127E+02     -7.00223667E+02     -3.25333258E+02
      5.76862164E+02     -1.62741953E+03      4.48539682E+02
     -7.85148928E+02      2.57859805E+02     -4.60970793E+02
     -1.15103623E+02     -7.16625842E+01      2.18122497E+03
      1.61585807E+03     -8.54144888E+02     -1.47357381E+03
      2.45457807E+03      2.50340074E+03     -1.03539781E+03
      3.67480545E+02     -1.12135992E+02      3.55112498E+02
     -7.92327442E+01     -1.99247514E+03     -1.06301753E+02
      1.07027060E+03      2.12523641E+03      1.93722439E+03
     -1.51624334E+02     -3.70861702E+01     -3.10971674E+01
     -4.36573489E+02     -1.17404451E+03      3.29392169E+02
      2.02287127E+03     -2.14666988E+03      2.80280112E+02
      3.77904910E+02     -1.81335273E+02      3.27745870E+01
     -1.35016200E+02      1.45477754E+03      2.73895931E+03
     -1.97052983E+03     -9.01841200E+02     -2.86773229E+02
     -4.40884607E+02      3.70823891E+02     -5.56487006E+02
     -2.99923631E+01      4.17800653E+02      2.00969800E+03
      7.03626108E+02      1.91890382E+03     -6.70484772E+02
     -2.88728642E+02     -8.17661453E+02     -1.98752592E+02
      1.03995219E+03     -1.59378774E+03     -5.65735071E+02
     -5.24751726E+02      2.67447121E+02     -7.01908964E+02
      2.51161269E+02     -3.46752652E+02     -1.29798433E+03
     -2.56629358E+03     -2.41137061E+03     -3.29576317E+03
      2.51387406E+03     -9.98768659E+02      9.10892419E+02
      4.49824572E+02      2.74134305E+02      3.26126268E+02
     -4.25218007E+02     -3.18055612E+03     -1.20706734E+03
     -3.92121969E+02      4.21053174E+01     -3.06419810E+02
     -3.04234527E+02      2.03141554E+01      4.78033173E+01
     -4.82116457E+02      3.58745853E+02      1.33916733E+03
     -2.14093649E+03     -1.22061067E+03      1.93333114E+03
      4.83305232E+02     -4.50623487E+02     -3.35734994E+02
     -2.10551534E+03     -1.08576992E+03     -1.28154947E+03
      3.46233158E+02     -5.99243188E+02      2.09240751E+02
     -2.94822538E+01     -9.44850282E+02     -1.03988488E+03
      4.73869560E+02      2.46009211E+02     -1.52634813E+03
      1.29964604E+03     -5.16076988E+02     -3.12901964E+01
     -2.98261512E+02      4.15250098E+02      5.97543074E+02
      1.10566131E+03     -1.11829388E+03     -6.33939035E+02
     -3.03823412E+01     -4.78906396E+02     -2.50680304E+02
     -1.48400247E+03     -3.63247869E+01      1.50724237E+03
     -1.77143088E+03      2.31333757E+02      1.13396280E+03
      4.23311317E+02      3.51695016E+02     -2.27636868E+02
     -8.29998915E+02     -8.79639722E+02     -1.94355196E+03
     -9.86680011E+02     -4.29024102E+02     -1.10147406E+03
      7.47768308E+02     -4.20922822E+02     -1.74485776E+02
     -1.33765050E+03     -6.79436001E+02      6.42500776E+02
      7.19022234E+02      3.04074067E+03      2.62934932E+03
     -3.21295460E+02      5.24982255E+01     -3.15352108E+02
     -5.70575552E+02     -4.27723372E+02     -1.16051331E+03
      1.09490168E+03      2.34602927E+03      2.56555667E+02
      3.70148944E+02     -5.12603554E+02     -1.36056798E+02
      1.93526333E+03      1.42429257E+03      1.56680922E+03
      1.35620485E+03      5.86166059E+02      1.16271058E+03
      8.05219587E+02      4.65854345E+02     -5.39896730E+02
      5.02181124E+02     -3.14280647E+03     -3.46785370E+02
      4.92578713E+02     -2.94837830E+03     -4.67288823E+02
      7.24763646E+01      5.88430195E+02     -5.91914173E+02
     -2.11907097E+02     -9.59550384E+02     -5.40879752E+02
     -2.56363211E+03      7.62783889E+02     -1.06838901E+03
     -2.21390045E+02      1.61452455E+02     -6.69874092E+02
     -2.57862933E+03      8.06703412E+02      1.22181676E+03
     -1.23902851E+03     -1.29005538E+03     -8.67978286E+02
     -1.03224481E+02     -3.25661965E+02      3.71818133E+02
     -7.91353048E+02     -1.17704066E+02     -7.67032729E+02
      2.81780870E+03      3.93759987E+03      1.58035199E+03
     -5.45432043E+02      2.15945570E+02     -2.15357404E+03
      5.11823174E+02      1.35658950E+02      4.86587017E+00
      3.73092151E+02      1.71684878E+03      3.18942983E+03
     -8.06875070E+02     -4.13850910E+03      2.71647818E+03
     -8.50741680E+01     -4.50287180E+00      1.22603138E+03
      5.47348005E+02     -1.71583227E+03     -1.43164632E+02
     -1.40615881E+02     -1.79883903E+03      7.12486531E+02
     -4.34094627E+01     -4.14224906E+03     -1.42427864E+03
      1.14347330E+02      1.90035383E+02     -6.04953531E+02
     -2.10205390E+03     -1.01687328E+03      1.08282817E+03
     -7.46815094E+02      1.95026775E+03     -1.71866955E+00
     -1.36213841E+02     -4.35637508E+02      6.78569831E+01
      1.46556820E+03     -2.03382893E+03     -3.87860223E+02
     -4.64874585E+02      1.27926803E+03      9.11988013E+02
      4.59244273E+02      4.47223794E+02      7.90312511E+02
      1.45222672E+03     -1.84658562E+03     -8.35520420E+02
     -2.83623629E+03      1.43728662E+03      2.21148316E+03
     -2.16345464E+02      5.10047809E+01     -6.70677604E+02
     -4.96422868E+02     -1.17040959E+03      2.99337766E+03
      9.06346380E+02     -2.60433334E+02     -1.49961614E+03
     -1.93476839E+02      5.95138355E+01     -1.06331733E+03
     -9.59822903E+02      7.37845330E+01     -6.72242626E+02
      1.05635922E+03     -4.11648695E+02      8.78452408E+02
      2.67810723E+01      6.80689225E+01     -1.34333614E+02
     -1.15345124E+03     -2.51249554E+03     -2.20838341E+03
     -1.96803907E+03      3.86023875E+03      1.39963384E+03
     -1.89670225E+02     -2.76434298E+02     -1.16939104E+02
      2.54315407E+02      6.69597131E+02     -4.79268161E+02
      1.40177128E+03      1.49840375E+03      6.91322303E+02
      1.83856726E+02      3.64794283E+02      3.58480304E+02
      2.95216171E+03     -2.73926254E+03      1.58171631E+02
      1.68205033E+03      2.67719654E+02      9.46686063E+02
      5.07739914E+02      7.74202637E+01     -1.17945167E+03
     -3.08502860E+02      9.94904352E+01      3.79497538E+02
      2.14996464E+02      2.88749712E+03     -2.46698771E+03
     -1.61972281E+03      5.98512885E+02      2.56106006E+02
      1.94371621E+03     -9.56153457E+02     -3.53211365E+02
  }
}

Hamiltonian = DFTB {
  SCC = Yes
  SCCTolerance = 1e-6
  MaxSCCIterations = 200
  ForceEvaluation = Dynamics
  MaxAngularMomentum = {
    C = "p"
    H = "s"
  }
  Charge = 0.0
  SpinPolarisation = {}
  Eigensolver = Standard {}
  Filling = Fermi {
    Temperature [Kelvin] = 300.0
  }
  SlaterKosterFiles = Type2FileNames {
    Prefix = "../../pbc-0-3/"
    Separator = "-"
    Suffix = ".skf"
    LowerCaseTypeName = No
  }
  KPointsAndWeights = {
    0.0000000000000 0.0000000000000 0.0000000000000 1.00000000000000
  }
  Dispersion = LennardJones { 
    Parameters = UFFParameters {}
  }
}

ParserOptions = {
  ParserVersion = 3
}
