Geometry = GenFormat {
<<< "system.gen"
}

Driver = VelocityVerlet{
  Steps = 50000
  TimeStep [fs] = 0.2
  MDRestartFrequency = 25
  Thermostat = None {
    #InitialTemperature [Kelvin] = 300.0
  }
  Xlbomd{ 
    IntegrationSteps = 6 
    MinSccIterations = 2
    MaxSccIterations = 200
    SccTolerance = 1e-6 
  }
  Velocities [m/s] {
     -7.92259219E+02     -2.18851891E+02      6.42834951E+02
      1.74421942E+03      1.61333977E+02      6.77086757E+02
      1.71224745E+02     -8.52008946E+01      1.72069387E+03
     -2.32568272E+01      2.02409295E+02     -5.29225862E+02
     -1.87321871E+02      6.82829749E+02     -1.00438508E+03
     -2.72919098E+03      7.72456228E+02     -7.23299598E+02
      1.21711457E+03      8.81351907E+02     -2.11423186E+01
     -1.26405316E+03     -2.40382986E+03      1.21250622E+03
      1.49311924E+03      4.12678355E+02      1.13747374E+03
     -8.89749544E+03     -1.69410275E+04     -1.04409732E+04
     -1.11618557E+03      2.79747905E+02     -2.15114386E+03
      4.58798588E+02     -7.04461735E+02     -1.53421098E+03
     -3.13679456E+02      2.49645330E+02     -3.62865109E+02
     -3.36699462E+03      9.68947052E+02      1.25708187E+03
     -7.19049332E+02      3.05684202E+02     -4.26741192E+02
      1.09705933E+02     -1.36089299E+00      1.80428813E+00
      1.36383477E+00      7.22750870E+02      1.35873697E+03
     -1.61558301E+02     -7.65394840E+02     -1.23748570E+03
      4.02303267E+02     -7.30603326E+02      5.81882441E+02
      1.18168756E+02      2.10006149E+03      4.12441802E+01
      1.55143494E+02      2.85452216E+03      5.24331201E+01
     -6.34101841E+02      8.63702537E+01     -2.46042327E+02
     -6.44688906E+02      1.82459312E+03      9.04001329E+02
      7.62434590E+02      7.30091981E+02      1.37599005E+02
     -1.64942347E+02      8.38639235E+02     -6.22548964E+02
     -1.18464469E+03     -2.27176282E+03     -2.75763453E+03
      2.71467986E+01      7.07711210E+02     -5.15909514E+02
      3.04128275E+03     -3.04832631E+03      1.29343807E+03
     -8.80815929E+02      2.18620329E+02     -3.26249742E+02
      1.55530781E+03     -5.03929316E+02     -1.20655907E+02
      2.01340264E+03     -1.55868426E+03     -1.29401256E+03
     -8.85279273E+02     -8.23891227E+02      2.65100095E+03
      4.29697402E+01      7.37143740E+02     -1.70963439E+02
     -2.88429176E+03     -3.57714221E+01     -7.56747148E+02
     -1.17820648E+03     -9.21012876E+02      1.63315755E+03
     -2.23882649E+01      3.98504401E+02      3.52928338E+02
      1.95150149E+03      7.37795772E+02     -4.61578455E+02
      6.59641141E+02      1.15061288E+03     -9.46478764E+02
     -5.80522174E+01     -1.22431932E+02     -2.43025436E+02
      8.63629894E+02     -1.66617074E+03      6.91810343E+02
      1.25887789E+02      1.02783459E+03      7.14074699E+02
      1.13274042E+02     -2.00230953E+01      6.04945609E+02
      2.98358638E+03      1.86608402E+03     -1.53350036E+03
      1.56643821E+03     -9.73493954E+02     -4.70498781E+02
     -1.17324377E+02      2.89487609E+02      2.43343457E+02
     -2.05070213E+03     -1.82693336E+03     -1.81160245E+03
      1.82601464E+03      7.14042209E+02     -4.40971199E+01
      6.82968924E+02     -3.58119240E+02      2.96849809E+02
     -2.45876031E+02      1.58028413E+03     -6.21923543E+01
     -6.95385075E+01     -6.52133186E+02      1.14825430E+03
      8.79112475E+02      6.04304803E+02     -7.20075745E+02
     -3.72361325E+03      1.22581253E+03     -3.24593690E+03
      2.69591529E+03     -2.91821785E+02      3.19121946E+03
      8.08701479E+01     -1.29144222E+02     -8.07890869E+02
     -1.01861200E+03      1.23403181E+03     -5.89646247E+02
      9.47765660E+02     -2.48391204E+03     -9.25765004E+02
     -9.01052658E+01      1.01245783E+03      1.23121980E+02
      2.00306247E+03      1.50284477E+03     -2.82166187E+02
      1.44022110E+03      2.23736927E+03      3.67532785E+02
      9.23991502E+02     -3.68579515E+02      1.17545906E+03
      3.38601926E+02      7.34382247E+02      2.49683640E+01
      1.78826947E+03      4.73796215E+02     -1.41988552E+03
      9.98018956E+02     -1.40427009E+03      2.10904946E+03
      1.63616780E+03     -6.39494354E+01      1.29783366E+03
     -2.69397157E+01      5.45497775E+02     -3.09128558E+02
      5.83458916E+01      1.47896008E+03     -2.36211622E+03
     -5.43937781E+02      6.69444534E+02     -5.83839434E+02
     -3.09342540E+02     -2.67365230E+02     -4.39901857E+02
     -6.00822391E+02      1.00003046E+03     -2.61491657E+03
      2.62804846E+02      4.81700481E+02      4.29630594E+02
      4.74929777E+02      5.58823610E+02      1.34543991E+01
      1.12634699E+02     -7.51940403E+01     -1.07617793E+02
      3.39905219E+02     -8.93436609E+02     -1.30111999E+03
      1.05035808E+02      2.19955042E+02      5.34639497E+02
      1.24760489E+03     -2.41144626E+03      1.75918319E+03
      3.43357791E+03      1.35940577E+03      1.71356097E+02
     -1.15877112E+02      2.53518672E+01      4.65444646E+02
     -8.88221373E+02      1.00163508E+03      4.74593797E+02
     -2.07982111E+03     -1.93691819E+03      5.20468024E+02
     -4.87910835E+02     -9.85072622E+01      3.17775115E+02
      7.80859606E+02      6.61830715E+02      8.82055491E+02
     -4.93162166E+02      4.68494209E+02      2.65254323E+02
     -1.20578024E+02      4.70148541E+02     -7.77192335E+02
     -6.91296648E+02     -1.06123941E+02      9.62866480E+02
     -1.72969746E+03      2.45153810E+03     -3.17036805E+03
      4.30152258E+02     -1.46996316E+02      7.33215483E+02
      7.88266122E+01      6.14253955E+01     -1.58903438E+03
      2.21448347E+03      4.48515693E+02      2.93823319E+03
     -3.46955724E+02     -9.83623486E+01     -3.33761075E+02
     -6.69979298E+02     -9.62210973E+02     -2.37557228E+03
     -2.52545403E+03     -5.78139075E+01     -2.95107542E+03
      1.95636387E+03     -3.87811738E+02      1.09933055E+02
     -9.28961660E+01      7.44263662E+02      4.82134280E+02
     -1.60298200E+03     -2.92494899E+02      1.00824236E+03
     -1.81364940E+03     -2.34007310E+02      1.40704622E+03
     -1.18653265E+03     -1.96150684E+03     -2.93494133E+02
     -3.72573977E+02     -2.14144653E+02     -1.49919743E+02
     -1.18478099E+03     -1.01018337E+03     -4.02775249E+02
     -2.51209179E+03      3.94014385E+02      2.35706961E+03
     -1.95685095E+02     -3.39672871E+01      4.98481046E+02
     -2.89946309E+02      3.74246904E+02     -1.13868639E+03
     -2.35030194E+03      1.29427014E+02     -1.43991293E+03
     -5.22785049E+02      3.84798569E+02     -1.19047028E+02
      1.45080821E+03     -3.27556262E+03     -2.98658199E+03
     -1.26168723E+02      2.18338731E+02      2.11926282E+03
      7.51425874E+02     -7.12515002E+02     -8.81235522E+00
      9.84150524E+02     -1.16507596E+03     -1.86574786E+03
      1.26023436E+03     -6.86309223E+01      1.35289863E+02
      2.20043663E+01     -5.24014690E+02      3.53069590E+02
      7.80764053E+02     -1.62361930E+03      2.14913503E+03
     -2.44891005E+02     -1.28858428E+03      1.02736693E+02
     -1.87077674E+01      1.02165066E+03     -1.97087901E+02
      6.89128138E+02      5.50519801E+02      9.82572682E+02
      8.88731854E+02     -7.88866841E+02      6.03464121E+02
     -5.76166609E+02      1.46982939E+02      5.33299326E+02
      9.18958082E+02      3.33877077E+02      2.32918244E+03
     -7.95055036E+02     -3.04544775E+03      1.20264269E+03
      4.18757368E+02      9.14762234E+01      1.33234534E+02
     -3.54392421E+02      1.50929026E+03      1.01351037E+03
      3.83610374E+01      7.07068024E+02     -1.14647714E+03
      1.73408949E+02     -8.12536547E+01      2.26603216E+02
     -2.13978335E+03      8.57583243E+02     -4.46099018E+03
      4.23712140E+02     -1.29920328E+03      2.14322736E+03
     -7.22709460E+02      1.68527892E+03     -1.20555297E+03
      1.99038960E+02     -2.00647272E+02      5.09459100E+02
     -1.84550916E+03      3.05832254E+03     -1.90830730E+03
     -8.34728536E+01     -5.30427909E+02     -1.32544389E+03
     -2.12658129E+02      2.93561820E+03     -1.08286217E+03
      3.87964884E+02     -1.99379115E+02      6.62214779E+00
      5.47810258E+02      8.49232553E+02     -4.28696102E+02
      1.31421383E+03      4.03908532E+02      1.80031837E+03
     -5.03037239E+02      3.49498139E+02     -5.69333958E+01
      2.01878145E+02      6.53217930E+02      4.83823196E+03
      1.94610857E+03     -2.22571770E+03      4.00720189E+02
     -3.92018155E-02     -1.50024949E+02      1.03522131E+03
      8.23396251E+02     -5.95949399E+02     -1.62421683E+03
     -2.07276270E+02     -4.14154867E+02     -1.73006053E+03
      2.52970956E+02      1.36682663E+02      5.35390841E+02
     -2.08263561E+02     -9.89590016E+02     -2.02273311E+03
      1.13835216E+03      1.21507954E+03      8.50342623E+02
     -2.81860083E+02      1.71697086E+02     -1.44619851E+02
     -8.41172747E+02      4.60707181E+03      1.84864853E+03
      2.38525216E+03     -1.58993184E+02      1.39149225E+03
     -9.18936705E+01      4.09545701E+02      1.28646906E+02
      1.89195289E+03      2.37333472E+03     -2.34879161E+03
     -2.31610720E+03      1.21713139E+03      8.38674387E+02
     -1.52587539E+02      5.96155926E+02      1.95338765E+02
     -1.47836630E+03     -4.65811107E+02     -3.55269881E+02
      2.24934026E+03     -1.49882575E+03      3.04491670E+02
      1.31521320E+02      4.37564569E+02     -2.23943449E+02
     -2.34976390E+03      1.64486787E+02      1.04680887E+03
     -3.79619013E+01      2.37638345E+03      3.70661398E+03
     -1.40511270E+02      8.50015233E+02      3.22254690E+02
      3.93677776E+03     -1.35012013E+03      1.72493410E+02
      1.83205794E+03     -2.20193377E+03     -1.92022903E+03
      9.97760633E+02      2.89116267E+03      6.23530764E+02
     -2.26599428E+01      4.76576780E+02      3.00153520E+02
     -1.10005043E+02     -1.61040730E+03     -9.82474248E+02
     -1.04566191E+02     -1.89310039E+03      1.02993183E+03
     -4.78061672E+02     -1.05300560E+03      9.19733307E+02
     -1.74067458E+02      2.96342736E+02      4.63789234E+02
      1.77474271E+03      1.46602066E+03      2.82379670E+03
     -1.97099360E+03      3.47359608E+03     -1.15718349E+03
      1.36480297E+02     -3.09938928E+02      4.43001145E+02
     -5.56700987E+00      3.64005003E+02     -2.59954963E+03
      6.59182387E+02      1.98411405E+03      1.28476120E+03
      4.38918371E+02      1.88881412E+02     -5.34642107E+02
      2.13546572E+03      1.14991349E+03     -6.05299799E+02
     -1.16011625E+03      2.10469482E+03     -2.94918218E+03
     -3.02710056E+02      8.67909060E+00      3.54436829E+02
     -6.74956624E+02     -9.37375920E+01     -1.84603508E+02
      1.27546424E+03     -2.19683859E+02      3.34569516E+03
      6.82096346E+02      2.23256093E+02     -2.30276412E+02
      1.14001849E+03     -2.07222092E+03      1.05043790E+03
      7.33050079E+02      6.94280318E+02     -1.99330856E+03
      4.98273382E+01      3.39882257E+02     -5.42466247E+02
      8.21256132E+02      8.32109568E+01      3.47046613E+02
     -4.15329981E+02     -1.44696523E+03      1.34880761E+02
     -1.80809568E+01      1.66512305E+02      5.47774597E+02
     -1.44495071E+03      3.97017778E+03      1.30805903E+03
      1.01557411E+03     -9.85791424E+02      1.45432298E+03
     -1.12009340E+02      2.79431162E+02     -1.84740232E+01
      5.89266797E+02      1.00980916E+03      9.81501583E+02
     -3.45882994E+02     -2.59006121E+02     -3.99022345E+01
      9.88807331E+02      2.42745984E+02      5.89818013E+02
      6.95427340E+02      1.65227886E+02     -1.15111805E+03
      3.41068546E+03      8.62345922E+02      1.47944992E+03
     -6.51476325E+02     -7.56779531E+02      1.31182913E+03
     -1.99288077E+01      5.87636974E+01      7.11771974E+01
     -2.37119618E+03      1.28937870E+03      1.72020645E+03
      1.08984198E+02      6.48061297E+02      2.75802219E+03
      1.28463494E+03      1.23802521E+03     -1.02878731E+03
     -1.35495921E+02      4.33082015E+02      5.86554771E+02
      1.32037720E+03      2.23679234E+03     -1.09520751E+03
     -2.13944869E+01      8.34427049E+02      4.43571580E+02
      5.23063577E+02      3.65531620E+02      6.38864960E+02
     -1.65218133E+03      2.64151922E+02     -2.42137195E+03
     -7.33914444E+02      1.69894273E+03     -3.06332527E+03
     -3.60331103E+02     -3.65694702E+02      2.15277914E+02
      4.34401560E+02      5.05619942E+02      7.38360592E+02
     -2.37820891E+02      1.75422475E+03     -1.26633929E+03
     -8.83081215E+02      1.21180978E+02      2.97313514E+02
     -1.83230479E+03      6.02100097E+02      1.58318512E+03
      1.63120677E+03      1.00632242E+03      1.15518823E+03
      9.50746637E+02     -2.13822583E+02      4.25292053E+02
     -2.70924530E+01      1.81508443E+02      4.02968498E+02
      2.62749077E+03      1.03301543E+03      2.64184762E+03
      4.42172760E+02      6.82280541E+02      9.51058286E+02
      8.34651634E+02     -3.45865038E+03     -5.84032174E+02
      1.92781416E+03      9.57962425E+01     -3.50373555E+02
     -1.36369415E+02     -8.82468561E+02      4.02143621E+01
     -1.42402302E+03      2.32548748E+03     -4.62389208E+02
      2.25877696E+03     -2.36045211E+03     -1.55393077E+03
      6.18900896E+02     -4.58027555E+02      1.83105797E+02
      6.02188516E+02      1.87611989E+03     -6.24983672E+02
      1.32292491E+03     -1.09921054E+02      5.88493705E+02
     -1.60230494E+02      1.56237242E+02     -9.72474701E+01
     -1.75073872E+03      3.20229968E+02     -1.95197855E+03
     -2.78059658E+01      6.58989404E+01     -4.24976857E+02
     -3.09348561E+02      1.11718949E+03      2.72818301E+02
     -5.75172110E+01      6.91990050E+01      1.68129687E+02
     -6.92357761E+02      1.60761679E+02      1.46948267E+03
     -9.73407406E+02      3.31934890E+03     -3.84019123E+02
     -1.30031070E+03     -6.65826118E+02      4.12071551E+02
     -8.08780461E+01     -1.02924699E+03      8.49948921E+01
      1.28325726E+02     -1.26576979E+03      8.62136133E+02
      2.07880879E+03      2.26604451E+03      1.52726492E+03
      9.80688053E+02      5.66147405E+02      4.89662178E+02
      2.17129226E+02     -2.65716724E+03      4.01993725E+02
      5.27926895E+02     -2.03908744E+02      6.27300595E+01
      1.91996217E+02      1.09266469E+02     -1.31492237E+02
      4.74409985E+02      1.56476792E+03     -2.06848899E+03
      3.56481906E+01     -1.88929467E+03     -2.19880154E+03
      2.05853305E+01     -1.01007338E+03     -2.95966852E+02
      3.38060198E+02      1.05880937E+03     -6.14304006E+02
     -3.83280997E+02     -7.23112362E+02     -1.73284120E+03
     -3.76586428E+02      2.74406139E+02     -4.52331766E+01
      4.40590300E+02      1.47476674E+03     -1.46717065E+03
      6.04861302E+02      1.08030964E+03     -1.07797484E+02
      6.77881129E+01      9.42017748E+02     -1.73823421E+02
      1.42788425E+03     -7.19641675E+02     -2.14785838E+02
      1.91829641E+03      1.01118775E+03      1.65551661E+03
      5.62452192E+02      2.06052544E+02     -1.99915245E+01
      1.88873567E+03      1.98780322E+03      2.79283538E+03
     -1.80250956E+03      1.39425381E+03     -1.52075651E+03
      2.62886792E+02     -1.01804292E+02     -5.80974708E+01
     -1.52000980E+03      1.66601944E+03     -2.13974054E+00
      2.11603623E+02      2.26633927E+03      2.66690105E+02
     -5.02449340E+02      7.82479334E+02      1.68876850E+02
      2.02402139E+03      5.38897511E+02      3.19855169E+02
     -2.07641452E+02     -6.76681202E+02      9.83673216E+02
     -4.00830384E+02     -2.26151073E+02      6.37465411E+02
     -2.40127543E+02     -2.07316096E+02     -3.06002980E+01
      2.23733673E+03     -2.89295322E+02     -1.41717902E+03
     -1.44707902E+03     -1.14709974E+03     -1.18373517E+03
     -1.92734483E+03     -1.16748387E+03      7.02185529E+02
     -3.41025874E+01      1.28301004E+02     -4.56825734E+01
      1.82131099E+03     -1.83359248E+02      7.18018507E+02
     -2.46707313E+03     -2.55971291E+03      1.58304805E+03
      3.76769832E+01     -2.82981280E+02     -1.02136063E+03
     -1.35034661E+02     -3.58036095E+02     -3.09109488E+02
      1.85857226E+01      3.28188181E+03      2.46643218E+03
      1.21752540E+02     -2.62289900E+02      2.64289480E+02
     -1.29516646E+03     -3.18603268E+03     -1.69941999E+02
     -1.10258249E+03      7.61307126E+02     -9.53123341E+02
     -2.13374085E+02     -3.15902945E+02     -3.98097423E+02
      1.81670145E+03      1.55970155E+03      2.28769308E+02
     -3.06811426E+01      8.82170576E+02      9.87011701E+02
      2.14540224E+02     -1.53933753E+02      7.37502584E+02
     -3.86671187E+02     -2.01140768E+03     -5.50884797E+02
     -1.41372490E+02      3.99481955E+02      2.32741376E+03
     -8.13129497E+02     -1.45525573E+02      6.53477362E+02
      8.90781228E+02      2.45560541E+02      5.37523538E+02
      3.60003957E+02     -1.21205916E+03     -2.92225206E+03
      6.61866235E+02     -4.60671573E+02      2.61891146E+02
     -5.63216034E+02      1.19806260E+03      1.61874046E+03
     -1.50125338E+03     -1.82227646E+03     -1.08294880E+03
      3.16813541E+02      5.39971289E+02     -1.18038900E+02
     -1.17116921E+03      2.96811661E+03     -1.15067305E+03
      4.93673245E+02     -2.59965025E+02     -2.54624345E+03
      3.66876075E+02     -1.59327651E+02     -1.41008925E+02
      2.99714169E+03      7.90958505E+02     -3.21515461E+03
      1.86718372E+03     -2.01698785E+02      1.31280472E+02
      1.36720181E+03     -5.23991491E+02      5.79472749E+02
      5.93051631E+02      2.17545916E+02      4.77238592E+02
     -1.31839035E+03      1.74517807E+03      2.24765276E+03
     -1.73657303E+02     -1.44290796E+03      5.68297822E+02
      1.01309040E+03      8.10418356E+02     -1.86271750E+03
      1.06132208E+03      2.94737872E+02      1.56305340E+02
      2.46547463E+03     -1.71757354E+03     -6.51551247E+02
      6.30170936E+02      2.94703764E+02      1.08789535E+02
     -6.76737219E+01      1.23882038E+01      8.23013010E+02
     -8.15967658E+02      3.45221609E+03      1.65915142E+03
      8.27492203E+02     -1.92233669E+03      5.60623668E+02
      3.41915907E+02     -1.06130239E+02     -2.71939140E+02
      4.35246630E+02     -1.16941207E+03      2.04915039E+03
      6.98724641E+02      1.37684407E+03     -2.74171341E+02
      7.07247576E+02     -3.37887413E+02      2.52034782E+02
      6.38360367E+02      7.32733833E+02      2.83074299E+02
     -3.52339806E+03      5.80083086E+02      6.22997625E+02
      2.96991556E+02      3.43963954E+02     -1.04257864E+02
      3.20607756E+03      1.16144322E+03      2.46872973E+03
      8.56924447E+02     -6.67178891E+02     -1.19690720E+02
     -3.92775151E+02      1.25476484E+02      1.25886763E+02
     -2.77698148E+03      3.81010043E+02      6.85440966E+02
      6.51974091E+02     -5.53104945E+02      1.81844044E+02
     -2.64461365E+02      6.51518658E+02     -5.00642658E+02
     -3.10715191E+03     -7.43271674E+02      1.97746255E+02
     -1.22845251E+02     -3.34600481E+03      1.47772574E+03
     -1.82927766E+02      1.32177988E+02     -7.19326241E+02
      1.19002555E+03      7.62775940E+02     -8.37527971E+02
      1.93903734E+03     -1.30165718E+02     -2.60114145E+02
      1.31677284E+01      5.93242910E+02     -7.15953062E+01
      2.22410236E+02      1.87262168E+03     -5.23727749E+02
     -2.18798167E+03      7.38003902E+02     -2.06529394E+03
     -6.63563144E+02     -1.11808578E+03     -1.22866957E+03
      7.26099713E+00      4.36478432E+02      3.43974379E+01
      1.86419399E+03     -8.09427962E+02     -1.06077324E+03
      3.22796375E+03      1.04130933E+02      7.29089017E+02
     -9.75973856E+02     -1.78353443E+03     -2.10992928E+03
      8.03719965E+02      4.29138423E+01      1.11089706E+01
      1.57104593E+02      1.38550263E+03      1.02482259E+03
     -4.01264497E+02     -1.25631074E+02      2.41321433E+03
     -7.22810318E+02      7.24733351E+01     -7.55019274E+01
      1.21718104E+03     -8.70584209E+01      1.72443998E+03
      4.88263751E+02      1.22958921E+02      1.75006175E+03
     -2.93865412E+02     -7.77119425E+01     -6.49175130E+02
      1.59480280E+03      1.63789799E+03      2.02235147E+03
     -3.21560550E+03      8.02972463E+02      5.53823622E+02
     -2.12875590E+02      1.10608135E+02     -1.25943531E+02
     -2.66986052E+02      2.58705467E+03     -3.27700505E+03
      1.23332069E+03      4.07840990E+02     -1.18825396E+03
      4.35826052E+01      2.58859411E+01     -2.02329614E+01
      3.06116172E+03      2.50838643E+03     -3.86916751E+03
      2.92152894E+02     -3.73177046E+03      1.62447840E+03
      3.98863830E+02      1.04581806E+02      8.82702037E+02
     -3.90665768E+01     -3.78293190E+02     -6.67937118E+02
      6.09663648E+02      5.07680103E+02     -3.10003087E+03
     -4.47658144E+02     -2.49606745E+02      7.18696085E+02
      2.07573884E+03      2.95353664E+02      1.84657114E+03
     -2.90156643E+02     -3.22127514E+03      1.05244558E+03
      4.44811801E+02      1.78023612E+02      7.43761745E+01
     -9.80624828E+01      3.46621060E+02     -9.31135081E+02
     -5.11554209E+02      1.24003994E+03     -1.27266124E+03
      1.13748820E+02      2.12781083E+02      5.96033227E+02
      8.36903998E+02      8.01573162E+02      1.60555033E+03
     -2.69627650E+03      1.52720825E+03      2.74508762E+03
     -1.44390985E+03      2.00098603E+02      2.29921930E+03
     -3.26326804E+02     -7.29031403E+01     -2.34769951E+02
      1.42803137E+03      5.63545091E+02      1.64412448E+03
      1.11436301E+02      1.48817731E+03     -1.12613927E+03
     -4.22500992E+01      3.92643404E+02      3.15555339E+03
  }
}

Hamiltonian = DFTB {
  SCC = Yes
  SCCTolerance = 1e-6
  MaxSCCIterations = 200
  ForceEvaluation = Dynamics
  MaxAngularMomentum = {
    C = "p"
    H = "s"
  }
  Charge = 0.0
  SpinPolarisation = {}
  Eigensolver = Standard {}
  Filling = Fermi {
    Temperature [Kelvin] = 300.0
  }
  SlaterKosterFiles = Type2FileNames {
    Prefix = "../../pbc-0-3/"
    Separator = "-"
    Suffix = ".skf"
    LowerCaseTypeName = No
  }
  KPointsAndWeights = {
    0.0000000000000 0.0000000000000 0.0000000000000 1.00000000000000
  }
  Dispersion = LennardJones { 
    Parameters = UFFParameters {}
  }
}

ParserOptions = {
  ParserVersion = 3
}
