Geometry = GenFormat {
<<< "system.gen"
}

Driver = VelocityVerlet{
  Steps = 50000
  TimeStep [fs] = 0.2
  MDRestartFrequency = 25
  Thermostat = None {
    #InitialTemperature [Kelvin] = 300.0
  }
  Xlbomd{ 
    IntegrationSteps = 6 
    MinSccIterations = 2
    MaxSccIterations = 200
    SccTolerance = 1e-6 
  }
  Velocities [m/s] {
      5.57200169E+02     -9.23673868E+02     -1.40865779E+02
      1.38884695E+03     -5.95049817E+02     -3.09459085E+03
      1.80316409E+02     -2.68105505E+03      5.49451811E+02
     -4.30460286E+02     -4.60904979E+02      3.42604972E+02
     -5.31410034E+02     -2.70597460E+03     -8.93282666E+02
      9.05814056E+02      5.08270784E+02      7.30818301E+02
     -9.23135327E+01      6.64042794E+01     -3.59766879E+02
     -1.36005710E+03     -3.11282024E+02      1.96365483E+03
      4.08729237E+02      3.74108358E+02      1.87282446E+00
     -5.46765540E+02     -5.38778345E+02     -4.33441976E+02
     -6.84698947E+02      1.23906026E+03      6.14277600E+01
      1.36608426E+03     -1.11657843E+03     -4.66246869E+02
     -1.75882321E+02     -3.77809156E+02      4.78899837E+01
      1.37949011E+03     -1.56764092E+03     -1.79296488E+03
      6.35544401E+02     -6.90427953E+02      1.08262669E+03
     -8.97599699E+02     -6.27663198E+02     -4.72823505E+01
     -2.00991729E+03      1.59244666E+03      1.35368395E+02
     -5.23218340E+02      2.43254061E+01     -2.76250574E+02
      4.74316577E+02     -6.86494204E+02     -4.39819949E+00
      2.42423242E+03      7.09308954E+02     -1.18596630E+03
     -6.67510155E+02     -5.87892956E+02      3.74204894E+02
      8.07555405E+01     -7.40234776E+02     -2.13851068E+02
     -6.32014272E+02     -1.88233807E+03      2.39366968E+03
      4.89385953E+02     -5.09903653E+02      1.18604941E+03
     -2.27843182E+02     -1.14123272E+02      3.05020307E+02
     -1.22244150E+03     -3.08994180E+01      1.53808767E+03
     -2.46076614E+02      3.64858365E+02     -1.95239824E+03
      1.68518497E+02     -1.05591942E+03      2.02156534E+03
      1.01830024E+01      2.55840383E+02     -5.18305973E+02
      2.66345588E+02      1.55338908E+03      1.39588883E+03
     -2.39789538E+02      1.63157161E+03      7.21120576E+02
     -1.95457257E+02     -1.62058067E+03      3.39381038E+02
     -1.22327763E+02      3.34388968E+02     -3.94845450E+02
      9.09071207E+02      1.88468241E+03      2.42750425E+03
     -2.35075573E+03      9.46373545E+02      1.17227284E+03
      3.19907884E+02     -6.52564898E+02     -1.78049102E+02
     -5.43100150E+02     -1.29754825E+03      2.15709032E+02
     -1.65138073E+03      2.53991163E+03      1.77846228E+03
      1.78949858E+02     -6.81853800E+02     -1.14692909E+02
     -4.68284023E+02     -3.94116307E+02     -1.33865479E+03
     -2.28303835E+03     -1.94973603E+03      7.91588650E+02
     -6.91542897E+02      1.34733541E+03      3.13069156E+00
      9.67983708E+02      2.93534906E+03      5.21020439E+02
     -3.33573965E+03      8.35492204E+01     -6.62287548E+02
      3.34912338E+02      1.03085041E+03      3.72141827E+02
     -8.21323588E+02     -1.05019750E+03      3.46030904E+02
      1.48223284E+03      5.76894701E+02     -3.75426040E+02
      1.28465770E+02     -2.24406834E+02     -2.04076402E+02
      7.88731269E+01     -8.04840072E+02      7.19086525E+02
      1.27899765E+03     -2.64138852E+03      7.72128824E+02
     -4.09410036E+02      2.78467784E+02      1.25442974E+02
     -1.26532726E+03      1.15057139E+03      1.12017665E+03
      1.54656088E+03     -4.02045612E+02      1.46781765E+02
     -6.30453624E+02     -5.28026307E+01     -2.40570036E+02
      1.64296865E+03      2.93046614E+03     -9.84982215E+02
     -1.93028320E+03      2.32853077E+03     -8.25625330E+01
      2.19294111E+02      3.96844938E+02      1.64589370E+03
      5.99889327E+02      2.45496882E+03      8.93872210E+01
     -1.90551630E+02      1.12609355E+03      1.17749825E+03
     -1.81338252E+03     -3.15604431E+03     -1.16547095E+03
     -3.37865718E+02     -6.50916859E+02      3.64194812E+02
      7.63804943E+02     -1.64567754E+03      1.21410019E+02
      9.41841655E+02      2.80883332E+03     -5.07629544E+01
     -5.04720388E+02     -6.29931949E+02     -6.03692354E+02
     -2.90479258E+02     -2.65108153E+02      5.92640227E+02
      1.39679583E+03     -4.09941454E+02     -1.60626453E+03
      1.50109531E+02      8.87495447E+02     -4.66259725E+02
     -1.06137097E+03     -2.75876808E+01     -2.45778406E+01
     -2.40463685E+03      3.86867958E+02      1.55865697E+03
      1.46880911E+03      3.11606864E+03      5.51729909E+02
     -4.05005187E+02     -7.45085310E+01      4.43998164E+02
     -1.21674189E+03     -1.57948810E+03     -4.55707605E+02
     -2.03842662E+03      7.68378067E+02      5.11317156E+02
     -5.66552637E+02     -8.48197046E+02      8.31668750E+01
      9.72695412E+02     -1.93354225E+03     -1.56980216E+03
     -1.63537359E+02     -2.33421849E+03     -3.74602769E+03
      1.21608509E+02      2.95478132E+02      8.60068978E+02
     -1.44199337E+03     -1.66860872E+03      2.34661933E+03
      1.92810366E+03      1.78161196E+03     -4.16872845E+02
     -7.69373729E+02      1.25229278E+02      3.52480448E+02
     -1.60317793E+03     -3.55578019E+03      1.40835815E+03
     -2.54471765E+03      9.02247335E+02     -8.83724982E+02
     -2.43318598E+02      2.55671970E+02      1.81119076E+02
      4.43556634E+02     -3.34374817E+02     -1.94543365E+02
      7.44512505E+02     -1.91338314E+03      4.00388109E+02
      5.84393398E+01     -2.57559500E+02      1.40847963E+02
     -3.30704710E+02      4.03699073E+00      9.20733085E+02
     -2.63749207E+02     -1.50130631E+03     -7.87607342E+02
     -1.44077022E+02     -4.22086799E+02     -2.82607503E+02
      1.03972082E+03     -9.69987589E+01      3.71587608E+02
      1.03292949E+03      1.54089417E+03     -2.49503644E+03
      2.89840178E+03      3.42354514E+02     -1.44111308E+03
      3.24231009E+02     -2.77127589E+02     -3.28844194E+02
      1.77237634E+02      1.30334396E+03     -3.36793090E+03
     -1.12715069E+03     -2.82455017E+02      1.97313593E+02
      7.14614907E+02     -6.94298165E+02      1.14945031E+03
      1.70253043E+02      3.30524568E+02      1.49209934E+02
      1.30601075E+03      2.29099464E+03     -2.70230822E+03
     -7.23037325E+02     -1.54942632E+03      2.72755996E+03
      3.71629835E+02      9.07921874E+02     -7.27373566E+01
      8.54510230E+02     -8.22880246E+02     -1.42092662E+02
     -1.78135276E+03     -6.86889644E+02      8.71821626E+02
      1.69078432E+02     -4.88788387E+02      4.55235731E+01
     -5.03313978E+02     -2.51805595E+02      1.52331719E+03
      7.22221880E+02     -2.43281694E+03      1.75468794E+03
      2.98608231E+02      8.92381647E+02     -5.21256431E+02
      2.23187035E+03     -9.10295216E+02      1.41946037E+03
     -4.02815058E+03     -1.36818079E+03     -8.62681616E+01
     -6.05523022E+02     -6.87745159E+02     -1.05544561E+02
      8.13475495E+02      2.22511679E+03     -6.27289657E+02
      1.87851974E+03     -5.41162257E+01     -1.53448922E+03
      2.51236100E+02     -3.62188940E+02      6.37240148E+02
     -1.30198406E+03     -8.32539097E+02      1.27412426E+02
     -1.73823710E+03     -7.60608251E+02      3.45790935E+03
      4.95465322E+01      7.22625096E+01      1.05276902E+03
     -2.91458772E+03     -1.65674857E+03     -5.53978895E+01
      1.11749269E+03     -1.47959412E+03      1.64199704E+03
     -2.07183650E+02     -4.04225383E+02      5.43690285E+02
      7.95421370E+02     -5.95208203E+02     -9.84704771E+02
      3.80274230E+02     -1.18457031E+03      1.10432327E+02
      7.61166450E+02     -9.02662039E+01      5.97165236E+01
     -7.16362517E+02      1.56307528E+03      1.04106716E+03
     -1.60309233E+03     -1.04083824E+03     -8.93331057E+02
      1.76924877E+03     -2.00613961E+03      1.62837136E+03
      4.57847871E+02     -2.45734467E+02      3.65521416E+02
     -8.81977882E+02      1.34657492E+03      4.02047145E+02
      1.60153451E+03      3.99083335E+02      9.41236880E+02
     -8.66647881E+02     -2.02953499E+03      2.24306785E+03
     -1.05391949E+03     -2.94661396E+02      9.02959342E+02
      1.09021632E+03      2.05151530E+03      9.11210964E+02
     -1.62271188E+03      7.03871544E+02     -5.22165212E+02
      1.75617015E+02     -7.31830983E+02      1.04116986E+02
     -1.74435822E+03     -1.74342006E+03     -3.17026422E+03
     -7.31261228E+02     -6.26921246E+02     -7.32315961E+02
      7.30959598E+01     -5.27207382E+02     -3.13935024E+02
      4.89877004E+02     -6.49065930E+02     -4.36894075E+02
      1.20336408E+03     -5.34924421E+02      4.98134197E+02
     -3.21744229E+01      4.04105465E+01      9.03555889E+02
      3.21257693E+02     -1.44522580E+03      1.24769352E+03
      1.84004170E+02      1.48099459E+03      1.64768834E+03
     -1.20213160E+03     -4.49265679E+02     -3.01180646E+02
      8.72401424E+02     -6.35020847E+02     -1.22966914E+03
      5.75199735E+02      6.99493944E+02      3.38901528E+03
      9.12203625E+01     -7.93869197E+02      1.62240350E+01
      2.66815150E+02      7.64195055E+02      5.07711703E+03
     -7.16215409E+02     -1.56344546E+02      4.32355676E+03
      1.52797616E+02     -4.44615408E+02     -1.50159690E+01
      4.68935142E+02      1.27306583E+03     -2.61248401E+03
     -2.31113152E+03      2.08833052E+03     -2.44620762E+02
     -5.68503534E+01      9.51735466E+01      6.62680443E+02
     -1.30387116E+03      2.50393476E+03      1.50081996E+02
      2.18600080E+03      3.91291650E+02     -4.06394785E+02
     -4.51932911E+02     -4.06144919E+02     -3.20334241E+02
      2.10244035E+03     -7.87291921E+02     -9.71650779E+02
      8.50664462E+02      1.88160543E+03     -2.58519616E+02
     -4.62584355E+02     -3.62879787E+03     -3.24472484E+03
      9.89368535E+02     -3.03668911E+01      2.96743442E+02
     -1.74854424E+03      6.30519553E+02      2.16685295E+03
     -1.08017093E+03     -5.10226086E+02      7.64063350E+02
      1.26638884E+03      6.94283336E+02      4.61942781E+02
      4.72898013E+01     -3.21273831E+02      5.17343147E+02
      6.64399262E+01      1.12778596E+03     -2.88032373E+02
     -1.78078640E+02     -9.45378482E+01     -2.86959271E+03
     -4.27939385E+02     -2.10083031E+00      3.40786967E+02
     -6.33865556E+02      2.33250617E+02     -4.51120253E+02
      4.62655244E+02     -2.74300871E+02      3.66796623E+02
     -3.17046220E+02     -8.95227470E+02      5.67213239E+02
      4.47761838E+01      2.49318179E+03     -6.90056948E+02
      1.16091178E+03      2.15535726E+03     -1.51474351E+03
      8.76732201E+02      4.57771655E+02      3.77489324E+02
      7.03558354E+02      2.65385420E+02     -1.44543458E+03
     -7.67564760E+02     -1.53913440E+03      8.43879614E+02
     -5.72112050E+01     -3.82059602E+02      2.79718807E+01
     -5.88859561E+02     -8.28652165E+02     -1.25127565E+03
     -2.39019870E+02     -1.32263336E+03      1.16314159E+03
      5.11662968E+01      2.44191100E+01      4.48876596E+02
      7.29394046E+02      3.55802328E+02     -3.60059475E+03
      1.35066381E+03      1.78531265E+03      1.88902519E+02
     -9.73993586E-01      7.07828227E+02      1.12791364E+02
      4.85473494E+02     -2.76879050E+03     -9.87741448E+02
     -4.14205410E+02     -1.13303418E+03      1.10766273E+03
     -3.77125536E+02     -2.61738170E+02     -3.13413974E+02
      1.19541856E+03     -3.15486135E+02      1.59387134E+02
     -2.76906440E+03      1.66424374E+03     -6.60360516E+02
      9.95611626E+02     -2.30051574E+02     -2.14630331E+02
      9.01257050E+02     -2.06667736E+03     -2.21551540E+03
     -1.59553374E+03     -1.07864559E+03      1.79887984E+03
     -1.73715381E+03     -4.18781224E+02     -1.12340045E+03
     -2.71146254E+02      4.01911376E+02      3.01129809E+02
     -2.48779224E+03      6.17109992E+02      2.48693367E+03
     -3.42123091E+01      2.96668598E+03      9.77094290E+02
      2.84338353E+02      1.47995483E+03     -5.11585732E+02
     -3.98359152E+01     -7.80661750E+02     -2.64176242E+02
     -6.86268226E+02      1.30940280E+03      2.39124277E+03
      1.08561300E+03     -4.02823109E+02      2.36489090E+02
      9.40883541E+01     -8.01227356E+02      7.65300487E+02
     -4.92411157E+02     -2.05780810E+02     -5.56025727E+02
      1.08001100E+03      2.55072199E+03     -1.91003057E+03
     -2.31453557E+02     -4.47221708E+01     -2.98322112E+02
      4.99012083E+02     -1.59427781E+03     -1.67685726E+03
     -6.60704316E+02      5.42689053E+02      1.14968161E+03
      1.29092348E+03     -6.42693651E+02     -8.23938404E+02
     -4.41763400E+02     -1.89446686E+03     -2.77659102E+01
     -1.98281286E+03     -1.05796959E+03      2.47009894E+03
     -6.76402544E+02      5.15968584E+02      3.44855417E+02
      2.19913953E+03      1.54338230E+02     -2.16793259E+03
     -4.86551551E+02     -4.06305484E+02      3.23493864E+03
      2.63781437E+02      3.69763201E+02     -1.68369070E+02
     -1.10688564E+03      1.54677105E+03      1.34132571E+03
     -4.59289287E+02     -3.32680954E+03     -6.65618273E+02
      5.55261346E+02     -7.00407698E+01      2.57052323E+02
     -3.49882350E+02     -2.16579862E+03     -2.09343339E+03
      7.15732385E+02     -8.54673002E+02      1.75814219E+03
      4.95142423E+02     -2.72872348E+02      2.74450033E+02
     -3.28507659E+03      3.81824333E+02      4.52326711E+02
      3.96666080E+02      9.17002893E+02     -1.08253129E+03
      6.47767382E+00      3.94590014E+01      5.28398965E+02
     -2.75414258E+03     -8.32021698E+02     -1.48148792E+03
      2.26689569E+03     -7.83704765E+01     -7.15663899E+02
     -1.40439031E+02      2.68551352E+03     -8.44663892E+02
     -3.36887521E+02     -4.41436041E+02      4.71675690E+02
     -8.80541978E+02      3.22943267E+03     -1.83722547E+03
      2.83943895E+03      7.67434215E+02      3.22342761E+02
      2.53384184E+03     -2.97537896E+02      1.99739341E+02
      2.40206272E+02      3.87830728E+02     -6.41415827E+02
     -2.35145395E+03     -2.10529834E+03      2.39609648E+03
     -6.47029461E+02      1.12697388E+03      2.18329589E+03
      5.28988337E+02     -9.60883824E+01      2.49019744E+02
     -2.19041930E+03     -2.76362214E+03     -1.71272292E+03
     -3.71197007E+03      8.78037536E+02     -3.29200541E+03
     -1.97086309E+02     -1.71650262E+02      2.92723169E+02
      1.55689587E+03     -2.32456664E+03     -2.91475982E+02
      6.44469356E+02     -1.11561330E+03      7.03234445E+02
     -4.83745410E+02     -4.33630649E+02     -1.89417526E+02
     -2.80664238E+03      2.92526138E+03     -1.81347740E+03
      1.36764576E+02     -2.07220676E+03     -2.37812005E+03
      1.79197656E+02      1.04708844E+02     -5.26458166E+02
      2.15817972E+03      1.46946014E+03      6.94218370E+02
      8.76957571E+02     -4.24087942E+03     -1.38538871E+03
     -7.48331184E+02     -2.99605913E+02     -6.93531149E+01
     -1.69511268E+03      7.26323160E+01      1.20624095E+03
     -8.67942474E+02     -7.21289149E+02      2.04977717E+02
     -6.17301931E+02      7.30068105E+02     -8.77393772E+02
     -1.65572015E+01     -1.20558516E+03      1.67049363E+03
     -3.25963873E+02     -1.48198750E+02     -3.30680281E+03
      1.16977088E+02      1.51542312E+02      8.80551125E+02
     -3.77846758E+02     -1.05730715E+02      4.85070450E+02
     -7.60452401E+02     -5.18052504E+02      7.96561308E+02
     -4.74862594E+02     -4.68757986E+00      8.92975197E+02
     -1.59216852E+03     -1.11003043E+03      8.73513282E+02
      1.01088941E+03      1.27547248E+03     -5.93105853E+02
      1.38027084E+03     -2.04966889E+03     -8.16449977E+02
      1.25541384E+02      1.00727439E+02      1.24323316E+02
      5.17866640E+02      2.73561712E+03      1.35088289E+02
     -3.03647109E+03     -2.02927580E+03     -4.28471296E+02
     -1.71777923E+03     -5.08528899E-01      5.60013971E+02
     -1.55917181E+02     -5.42201178E+02     -5.07117178E+01
     -1.43567236E+03     -4.31825666E+02      3.61723007E+02
      1.47158253E+02     -3.29168537E+02      1.35693829E+02
      2.13823023E+01     -9.24326526E+02      3.39113919E+02
     -5.92971171E+02     -6.87677995E+02      1.09349594E+02
      5.50408917E+02      1.23632219E+03     -3.26938129E+03
      8.88722210E+03      1.81175264E+04     -8.34141906E+03
     -6.89070167E+02     -4.27264457E+02     -3.81588006E+02
     -8.17052946E+02     -2.44725646E+03      2.92066727E+02
     -7.82703510E+02     -3.94937202E+02      5.27288966E+01
     -1.75912738E+03     -2.01725370E+03     -1.04917330E+02
      1.45254905E+03      1.46890840E+03      2.18118352E+03
      3.07585445E+02     -6.86470748E+01      6.24592869E+02
      2.60962301E+03     -3.14778910E+03     -3.07583203E+02
     -8.62183836E+01     -5.23302997E+02      1.02964989E+03
     -6.39802808E+02     -2.46093898E+02      2.80797385E+02
     -1.63452406E+03     -4.34451168E+02     -4.76681849E+01
     -2.80349069E+03      1.00982147E+03     -3.00767940E+03
     -5.22275636E+02     -7.00940755E+02      5.73110958E+02
      3.53110862E+02     -1.79145066E+03     -3.94718913E+03
      3.32807320E+03     -2.98920058E+03     -6.16383362E+02
     -1.86430716E+02      6.89191693E+02     -2.64439653E+02
      7.71028513E+02     -3.73933233E+02     -1.59914574E+02
      1.10081679E+03     -2.49205381E+03     -2.66083429E+03
      1.05085666E+02     -7.43376600E+02     -7.52332540E+01
     -1.43365764E+03     -1.39990651E+03      6.01602694E+02
      5.90315696E+02      2.18060411E+03      1.38367760E+03
      7.34717515E+02     -6.07170466E+02     -4.78755590E+02
      2.11506705E+01     -2.90186672E+02     -4.90511453E+02
     -7.24326369E+02     -1.94954474E+03     -5.39577118E+02
      3.67049386E+02      1.99301219E+03      2.04953514E+02
      2.25529445E+03      2.69554959E+03     -3.60121203E+03
      3.49103392E+00     -2.32603954E+02     -4.29130514E+02
      1.55007522E+02     -2.11433085E+01     -4.08902616E+02
      2.98398463E+02     -1.00485068E+03     -3.04365220E+02
     -1.81652076E+02      3.15281393E+02      4.81333360E+02
     -8.96541152E+02      2.87640219E+02      7.03329138E+02
      1.72383809E+03      1.45847975E+03      2.59892429E+03
      7.29056890E+02     -7.95140544E+02     -6.35240377E+01
     -1.30101195E+03      2.73054613E+02      9.49640335E+02
      4.79249972E+02      1.01056273E+03      1.28056683E+03
     -1.00673188E+02     -1.92802403E+02      3.53165257E+02
     -8.37073144E+02     -1.86011283E+03      1.73812870E+03
      1.98532806E+03      6.83382011E+02      1.23727819E+03
     -1.93535968E+01     -5.28490561E+02      1.28551140E+01
     -7.16918112E+02     -7.92651067E+02     -1.74606444E+03
      7.06461664E+02      1.91398311E+02      2.98408229E+03
      5.03626519E+02     -3.20427435E+02     -7.01688317E+02
      9.69033975E+02     -8.69891305E+02     -3.02119714E+02
      8.96971435E+02     -4.70787986E+03      2.71217059E+03
     -7.06344981E+02     -3.69702682E+02      3.19769402E+02
      1.00231043E+03     -7.38162121E+01      4.71034477E+03
     -7.64986681E+02      2.25832725E+03      9.91701096E+02
      1.65945232E+02      1.06177156E+03     -3.70521327E+02
     -2.00745052E+03      1.45412781E+00      5.12981197E+01
     -2.89564846E+02     -1.21383771E+02     -1.93235129E+03
     -8.01085979E+02      3.86548198E+01     -5.33382429E+02
     -5.91014793E+02     -9.84177842E+02      9.86109080E+02
     -1.94088503E+02      1.88775557E+03     -1.29352807E+03
      2.55003412E+03     -2.52382964E+03     -1.15598654E+02
     -2.17656456E+02      1.20845602E+03     -1.85178582E+02
      2.30215252E+02      3.56039866E+03      5.99618000E+02
      6.25640584E+02     -1.90443360E+03     -1.08387926E+03
     -6.24754046E+02      2.98414920E+03     -1.67395927E+03
     -4.96367896E+02      8.75641897E+01     -7.90457124E+01
      8.81256646E+02      6.09188612E+02      1.15215409E+03
     -1.86162265E+03     -3.54821964E+03      2.08666511E+02
      5.58994027E+01      9.57000652E+00     -4.76763044E+02
     -2.66834845E+02     -4.88393599E+02     -1.24794019E+03
     -1.38222446E+03     -1.01974323E+03     -5.31466043E+02
     -9.38568033E+02     -5.38510235E+02     -7.32654872E+02
      1.50300027E+03     -9.27363556E+02     -2.14378033E+03
     -2.48533040E+03      3.32010238E+02      6.42718309E+02
      3.17747174E+02      3.60171190E+02     -1.27264311E+03
     -1.12193253E+03     -1.00893171E+03     -1.85559430E+03
     -2.95096091E+02     -6.89447759E+02      6.82409986E+02
      3.53625318E+02     -3.38288774E+01      9.17029448E+02
      9.25845167E+02      7.54686640E+02     -8.74989734E+02
      1.30636551E+03     -5.43844001E+02     -1.12303905E+03
      3.56697419E+02     -7.26039497E+02      5.60596063E+02
      2.35173963E+03      2.73510567E+03      8.24085906E+02
      2.35408164E+03     -2.68735287E+03      3.30908025E+02
      3.39904428E+02     -9.38273345E+02     -2.12878907E+02
      2.76338810E+03     -8.79287120E+02     -8.75634800E+02
     -3.47567979E+02      1.78575709E+02      4.39660991E+02
     -6.15977085E+01      4.60892339E+02     -2.37864824E+02
      2.58979384E+03      1.04933016E+03      5.52472241E+02
     -2.25593206E+03     -3.60859236E+01     -1.59864084E+03
      1.64230373E+02     -4.06477625E+02      4.07873370E+02
      1.02196449E+02      2.42162426E+02     -2.53033512E+03
      5.15821873E+02      2.35120008E+03     -2.57091249E+03
      4.66549408E+02     -1.59732335E+02     -8.11631623E+02
     -4.25194575E+02      6.06526870E+01      2.33814649E+02
     -1.79246886E+03     -2.64440893E+03     -1.64108836E+03
     -1.73087347E+03     -5.73866097E+02      3.16108416E+02
     -3.01049760E+03      1.47800691E+03     -1.55982000E+03
  }
}

Hamiltonian = DFTB {
  SCC = Yes
  SCCTolerance = 1e-6
  MaxSCCIterations = 200
  ForceEvaluation = Dynamics
  MaxAngularMomentum = {
    C = "p"
    H = "s"
  }
  Charge = 0.0
  SpinPolarisation = {}
  Eigensolver = Standard {}
  Filling = Fermi {
    Temperature [Kelvin] = 300.0
  }
  SlaterKosterFiles = Type2FileNames {
    Prefix = "../../pbc-0-3/"
    Separator = "-"
    Suffix = ".skf"
    LowerCaseTypeName = No
  }
  KPointsAndWeights = {
    0.0000000000000 0.0000000000000 0.0000000000000 1.00000000000000
  }
  Dispersion = LennardJones { 
    Parameters = UFFParameters {}
  }
}

ParserOptions = {
  ParserVersion = 3
}
