Geometry = GenFormat {
<<< "system.gen"
}

Driver = VelocityVerlet{
  Steps = 100000
  TimeStep [fs] = 0.2
  MDRestartFrequency = 5
  Thermostat = None {
    #InitialTemperature [Kelvin] = 300.0
  }
  Xlbomd{ 
    IntegrationSteps = 6 
    MinSccIterations = 2
    MaxSccIterations = 200
    SccTolerance = 1e-6 
  }
  Velocities [m/s] {
      5.03714946E+02      2.58576872E+02      2.25481707E+02
      6.22462197E+01     -5.08788767E+02     -9.41551545E+02
      4.19032081E+02     -1.90774948E+03     -1.26894848E+03
     -2.24186074E+02      2.71591034E+02      5.90644933E+02
      1.03545807E+03      1.35940776E+03      2.18035259E+03
      1.77220039E+03      1.91452001E+03     -2.19698309E+03
     -1.06678967E+03     -3.44607824E+02     -2.99927594E+02
      5.88287800E+02     -8.75217666E+02      1.69911899E+03
     -2.18127545E+03     -1.81621514E+03     -5.08982094E+03
     -6.45106622E+02      2.40060464E+00      3.62586349E+02
     -5.95214663E+02      7.38019612E+02      4.92768193E+02
     -3.68505667E+03     -1.15731649E+03      1.13822517E+03
     -1.77077252E+02      5.26606616E+01     -3.14404400E+02
     -2.60436101E+03      1.22206041E+03     -4.64378199E+02
     -3.42740606E+03     -1.06997774E+03     -1.24872190E+03
     -3.05206259E+02     -5.86583070E+02      2.04007831E+02
      6.07219590E+02      2.30795910E+03     -1.07777023E+02
     -2.24739700E+03      3.22560018E+02     -1.03578197E+03
     -3.55206349E+02     -1.39275713E+03     -7.69448099E+02
      1.03260796E+03      2.22138686E+02     -1.79483174E+03
     -1.25194145E+03      1.29245154E+03      7.88089496E+01
     -1.07607065E+02     -4.90978725E+02     -7.44145315E+02
      1.06693784E+03     -1.75788085E+03     -3.90861537E+02
      1.49620342E+03     -1.89779740E+03      3.63095917E+03
     -5.33675532E+02     -1.41115264E+02     -2.00335493E+02
      1.31168968E+03     -7.99443264E+01     -1.43152278E+03
      3.04126856E+03      3.13792082E+03      1.40205527E+03
     -1.47876813E+03     -2.23918600E+03     -2.50456963E+03
      6.87599569E+01      6.27370660E+01      4.54891059E+02
     -4.51932569E+02      1.75247373E+03     -5.17691430E+02
     -9.11953800E+02     -2.01375050E+03     -1.61272860E+03
     -3.11966549E+02     -4.52027446E+03      2.55675817E+03
     -9.17710498E+01     -4.73824469E+02     -2.85115712E+02
      6.42275644E+02     -1.47722239E+03      2.87101990E+02
      5.03129351E+02     -7.89342658E+02     -1.73005215E+03
     -9.15077897E+02      7.24894764E+02      5.33144098E+02
     -5.36201922E+02      1.15778146E+03      1.76193959E+03
     -2.71419862E+02     -6.92213338E+02     -2.85070979E+02
     -4.32315851E+02     -3.60201673E+02     -5.41541885E+01
     -2.01943735E+03      1.14603121E+03     -5.48021813E+02
     -2.01146450E+02      1.71393679E+03     -1.66316025E+03
      7.44680134E+01     -4.40452627E+02      9.21964574E+01
      3.90233774E+02     -8.87047992E+02      1.51398095E+03
      3.22929630E+01      3.35477526E+02     -3.00050289E+03
     -3.95856702E+02      1.24619025E+02     -2.53941684E+02
     -4.95804674E+02      2.21485292E+03     -5.70111057E+02
     -1.57116401E+03      2.59935837E+02      1.69049609E+03
     -6.19980182E+01     -6.88412640E+01      4.87607541E+01
     -2.92326915E+03     -1.29968517E+03     -1.21038073E+03
     -9.82884478E+01     -2.82992128E+03      8.37426079E+02
      6.21125466E+01     -3.40584280E+02      4.45475675E+02
      1.51289343E+03      7.83280034E+01     -2.48499516E+03
      4.34201860E+02     -1.47812358E+03      1.63346633E+03
     -1.36059244E+02      7.70461354E+02     -3.11203776E+01
     -1.46396934E+03      1.65234911E+03      8.17334275E+02
      4.85181622E+02      2.53208768E+03      1.39774415E+03
     -6.84582139E+02      2.22926656E+02      1.93745799E+02
     -1.51564050E+03     -1.41820167E+03      7.67089426E+02
      4.64543695E+02      1.86708656E+01      1.61785632E+03
     -2.07182382E+03      5.71908200E+02     -1.55590685E+03
      1.20897505E+02      6.90558222E+02     -1.78230522E+02
     -1.70556986E+02      4.11301412E+02     -2.23073275E+03
     -1.94478878E+03     -2.34880514E+02      1.56776592E+02
     -2.75082119E+03      3.44338681E+02      3.73091662E+02
     -3.49958652E+02     -3.07571989E+02     -2.48330687E+02
      1.62827057E+03     -1.15938883E+02     -1.25229048E+03
     -1.03683572E+03      1.13964883E+03      2.82579848E+03
     -3.09226581E+02      1.31973383E+02      6.83924202E+02
     -1.34560380E+03      1.91417663E+03     -1.31447276E+03
     -8.97118075E+02     -2.12279731E+02      3.70472688E+03
      5.52184023E+02     -3.95377405E+02      1.20671486E+03
     -1.84561789E+03      8.79973690E+02     -3.05404318E+03
     -1.99456794E+03      1.57911723E+03     -1.60411608E+03
     -1.61477532E+01      2.32897086E+01      3.34485025E+02
      2.37146610E+03      3.90160233E+03     -2.88795402E+03
     -2.54505434E+02     -2.44545763E+03     -6.42921022E+02
     -6.10192692E+02     -1.58354387E+02     -7.52108008E+02
     -1.08407913E+03      5.90156852E+02     -1.74863513E+03
      1.29490864E+03     -2.62071547E+03     -5.12047377E+02
      1.34384962E+02     -1.47323230E+02      6.30859750E+02
     -3.68416462E+02     -2.02441525E+02      2.01316269E+03
      1.38130334E+03     -2.70290492E+02      1.16652179E+03
      2.80571863E+01      6.41558007E+01      3.01375683E+02
     -3.47260065E+03      2.15922365E+01      1.74617159E+02
      2.87279204E+03     -9.63031326E+01     -1.16339442E+03
      5.66628558E+01     -4.19811369E+02     -5.52999501E+02
     -1.13515401E+03      2.29946243E+02     -1.53411218E+03
      2.72893864E+03      4.45788819E+03      3.97668741E+02
     -1.01548040E+03      6.11155295E+02      4.60795640E+01
      5.21670394E+02      2.01908571E+02     -1.66970085E+03
     -8.96463437E+02      1.68591316E+03     -3.09715538E+03
      1.64229921E+03      3.20611274E+03     -9.87266123E+02
      1.26937572E+02     -3.76842137E+02      3.05795219E+02
      8.64220678E+01     -1.30098166E+03     -6.01755062E+02
     -5.69482429E+02     -7.68284604E+02      6.43082254E+02
      1.03450216E+03      8.88589682E+02     -3.24532107E+03
     -2.15922875E+02      2.48890808E+02     -7.22402545E+02
     -6.14246093E+02      4.64176885E+02      4.72364257E+02
     -1.04073561E+03      2.29721645E+03      1.03083684E+03
     -8.77145676E+02      4.71980763E+02      1.31012967E+01
     -1.05363860E+03     -8.50756799E+02      3.88651972E+02
     -9.64796750E+02      1.11677202E+03      2.34155665E+03
      2.78868150E+04      9.89066036E+02      3.59576519E+03
      1.72301745E+03      6.37088834E+02     -1.82819777E+03
     -6.18379726E+02     -1.38236797E+03     -2.48330341E+03
     -2.17886158E+02      1.43148393E+01     -3.54169728E+02
     -3.86815213E+02     -1.60313761E+03      5.82781901E+02
      1.22193846E+03     -1.46847747E+03     -4.61026823E+02
     -2.59268789E+02     -1.63002530E+02     -6.79296093E+01
     -1.59828753E+03     -1.69553886E+02     -1.34582932E+03
     -1.38854856E+03      5.81432336E+02     -4.73427242E+02
     -3.71627822E+02     -2.28840331E+02      2.37602992E+02
      9.78369403E+02      2.04398713E+02      8.05237508E+01
     -6.92615301E+02     -6.39267296E+02      3.25193987E+02
      3.31980084E+02      9.19701346E+00      3.41485399E+02
     -8.89231515E+02      2.88629129E+03     -1.26887301E+03
      3.32475020E+03     -1.31374626E+03      1.45474234E+03
     -7.45383966E+02      3.83653228E+02     -2.57541161E+02
      8.12208035E+02      7.32909619E+02     -1.50214294E+03
      3.50895463E+03     -8.62002516E+02     -1.24191624E+03
     -1.56578987E+02      3.88677545E+02      5.39249643E+02
     -2.18682002E+03     -2.25700655E+03      5.59848241E+02
     -7.21594126E+02     -1.41538298E+03     -1.37967602E+03
     -2.15172136E+03      1.05252358E+03     -1.56321042E+03
     -6.49408855E+02     -1.01459287E+02     -2.44234547E+02
     -1.16743423E+03     -7.92974970E+02     -9.36644084E+02
      1.18620925E+03      8.56591015E+02      2.46132148E+03
     -2.89799646E+02      2.22646448E+03      1.72989680E+03
     -4.32373948E+00     -2.81083018E+02      2.08797989E+02
     -6.09781155E+02     -7.61610278E+02     -2.00664284E+02
     -2.21807316E+03      1.62653525E+03     -1.66862656E+03
      3.27862190E+02     -1.27592965E+02     -4.00919431E+02
     -2.34527400E+02      6.26945604E+02     -1.53082251E+03
     -7.05767533E+01     -1.60624001E+03     -8.85647790E+02
     -1.09423565E+01     -4.76418523E+02      1.93676401E+02
     -2.29248607E+03      1.23647879E+03     -5.70617307E+02
     -1.46221420E+03     -2.56350010E+03      1.53394484E+03
     -5.27457932E+02      7.64000313E+01     -3.05679883E+02
      6.18636587E+02     -2.04890042E+03      2.89026681E+03
     -2.11369770E+03      4.78110588E+00     -1.50827940E+02
     -6.18979911E+02     -5.46950088E+01      6.32764921E+01
     -9.81724142E+02      5.10593459E+01     -2.47340866E+03
     -9.24878493E+02      3.73576572E+03     -2.29507085E+03
      3.20369075E+02     -2.34854038E+02     -1.35903156E+02
     -4.42773102E+02      1.10990435E+02      9.23038416E+02
     -2.10155105E+02      5.02800870E+02      3.67741380E+02
      2.83309239E+02     -1.77193400E+02      3.07138552E+01
     -1.42712879E+03     -4.82605657E+02     -1.93535100E+03
      9.01191694E+01     -7.24480416E+02      1.74005202E+03
     -1.61056727E+02      1.78527931E+02     -1.70842253E+01
     -2.97648825E+03      2.37290857E+02     -2.88095266E+02
      1.86108472E+03      9.49520604E+01     -2.48904982E+03
     -6.04528646E+02      5.56732883E+02     -1.45901402E+02
     -2.55856822E+03     -1.05120182E+03     -1.11832411E+03
     -1.23215102E+03     -3.38348421E+02      2.62615955E+03
     -2.42511253E+03      1.91810679E+03     -2.72977394E+03
     -1.82078602E+01      2.75650333E+02      1.44873127E+02
     -1.59254080E+03      1.34821560E+03      2.80921711E+03
     -3.44285189E+03     -1.94967335E+03      1.08531068E+03
     -1.28383492E+03      1.11408184E+03      2.90313663E+03
      1.68191037E+02     -3.47990201E+00      3.93611609E+01
     -1.04232567E+03     -2.62556741E+01      2.22445797E+03
     -1.77067938E+03      1.27021358E+03     -1.22337717E+03
     -8.82596364E+02     -1.09630280E+02     -5.12757435E+02
     -2.78663692E+03     -1.03554344E+03      4.62875538E+02
     -1.28461578E+03     -6.95843992E+02      2.84295516E+03
     -6.52283820E+02      7.01467601E+02     -4.55586976E+02
     -2.07778847E+03      1.51928011E+03     -7.63527804E+02
     -1.38379674E+03     -8.12582613E+02      1.49106511E+03
      1.55431836E+02     -7.35211685E+02      7.47316758E+02
     -1.38210239E+03      1.39271193E+03     -1.27651305E+03
     -8.61786841E+02      8.61758671E+02      4.18816779E+02
      2.41307830E+02     -3.87996012E+02     -5.12663897E+01
      3.30917724E+03     -1.03781735E+03      9.58036112E+00
      5.15244561E+02      1.42212176E+03      2.16483931E+02
      1.70330938E+02     -5.33011075E+02      4.67944670E+02
     -2.23075585E+02     -9.49766974E+02     -2.45700039E+03
      8.57021394E+02     -7.49459256E+02      5.28204029E+02
      2.97962085E+02      4.33577401E+01      4.34889587E+02
      6.37951377E+02     -2.78297860E+02     -7.38009661E+02
     -1.81818285E+03      1.13007747E+03     -2.48141691E+03
      9.61576920E+02      9.21900106E+01     -3.15786253E+02
      2.56292431E+02     -2.16984774E+03      1.37174139E+03
     -6.02030604E+02      7.79072083E+01      8.78753362E+02
     -2.00352968E+02     -3.93057674E+02     -3.83197892E+02
     -3.45014929E+02      3.50085008E+02     -3.83172034E+02
     -2.04369451E+03     -1.08828178E+03     -8.30562438E+02
      3.33836521E+03      1.51669491E+03      3.10101265E+03
     -4.95413751E+02      3.41820410E+02      6.63521793E+02
     -4.10970856E+03      4.79068994E+02     -2.76071662E+03
     -1.46921847E+03      6.64322525E+02      1.09509674E+03
     -1.48704370E+03      1.59767734E+03     -1.90150187E+03
     -5.72883983E+02      7.34027048E+02     -1.78233718E+01
     -5.60951911E+02      4.80945644E+02     -2.63463322E+03
     -2.88663742E+03      7.28230784E+02      1.89405342E+03
      3.78502228E+02     -9.97283100E+01     -3.93394969E+02
      7.13155225E+02      1.88469313E+03      9.59039110E+02
     -1.79536691E+03     -5.57663675E+01     -1.38834863E+03
      8.85324423E+01      1.90691169E+02      4.36491454E+02
     -1.00008609E+03     -1.40061961E+02     -2.30582485E+03
     -2.47737936E+03      1.91906207E+03     -1.29894492E+02
      5.51447672E+02     -4.77101835E+01     -5.02371179E+02
     -1.39342283E+03     -3.14203257E+03      1.53476157E+03
     -1.11237888E+03     -3.20909850E+03     -2.82377875E+02
      1.51356320E+02     -4.00842536E+02     -4.62055168E+02
      1.54026370E+03      1.26980878E+02      1.68754380E+03
     -7.48824895E+02      4.32632180E+02     -1.82614852E+03
      6.17999669E+02      3.54811004E+02      1.19341027E+03
     -9.87867341E+02     -1.84785327E+02      5.27637674E+02
      1.41525264E+02     -8.15070115E+02      1.06038130E+03
      3.02144106E+01     -2.79677509E+00      2.68751277E+02
     -7.54992542E+02      1.01198922E+03     -6.25559477E+02
     -1.64327625E+03      1.35211978E+03     -1.27618536E+03
      2.56011132E+02      2.63677531E+02     -5.16803519E+02
     -6.60577221E+02      6.47148485E+02      6.01922000E+02
     -3.82253469E+02      5.69409490E+02      7.83645923E+02
     -8.91969188E+02     -5.78588477E+01     -1.73770543E+01
     -1.66970876E+03     -7.66900218E+02     -1.95419397E+03
     -3.93389432E+02      7.34707525E+01      1.53839408E+03
      2.66626229E+03      1.62790440E+03     -4.91810967E+03
      3.10432704E+02      1.92605092E+02     -5.87196543E+02
      6.81113262E+02     -2.43120262E+02      2.34375637E+02
      1.05374163E+03      1.01892869E+03      8.83682236E+02
      2.30878417E+03      6.97249225E+02      2.07053472E+03
     -7.85720509E+02      2.75648647E+01     -1.55209529E+01
     -6.00415906E+02     -6.27110702E+02     -1.82855378E+03
      2.10526752E+03      1.16445615E+03     -4.28870363E+02
     -8.43988635E+02      2.33325823E+02      3.10854908E+02
     -9.59049236E+02     -3.94142004E+02      3.91318695E+02
     -2.02021352E+03      9.09552559E+02      7.78319809E+01
     -3.89351897E+02     -6.36386010E+02      1.96104262E+00
      4.43066723E+01     -1.94218554E+03      2.21766886E+03
      2.19984642E+01     -2.07761631E+03      6.25767385E+02
      3.25956794E+02     -3.14822647E+02      1.81244672E+02
     -2.69681254E+02     -4.00359390E+02     -2.76573845E+03
     -9.92703203E+02     -9.15058720E+02     -2.44557524E+03
      8.26784829E+01      6.30815934E+01      8.36735135E+02
      5.22550537E+02     -1.78925272E+03     -8.48571735E+01
      1.40220211E+01     -2.98240858E+02     -7.34789888E+02
      5.85951949E+02      2.22283216E+02      2.04816315E+02
     -1.78119235E+02      2.43408918E+03     -2.38836102E+02
     -8.34348846E+02     -6.11241014E+02      7.87381631E+02
      1.91557238E+02      3.88010380E+01      2.76570543E+02
     -8.06898525E+02     -1.07184027E+03     -1.36776398E+03
     -2.17002104E+03     -9.93230850E+02     -1.37080320E+03
     -4.57359801E+02      1.77971262E+02     -5.53964187E+02
      1.93383895E+03      1.91344613E+03      1.43477509E+03
     -5.65349579E+02     -1.43854302E+03     -1.91958038E+03
      5.00787878E+02      9.34319661E+01     -5.37272514E+02
      3.35993923E+03     -6.70408149E+02     -1.25435080E+01
      1.65786547E+03      7.79124129E+02     -1.55876231E+03
      8.38457891E+02      1.10657326E+03      1.07078735E+03
     -7.14417074E+01     -2.06782988E+02      1.64764454E+02
      1.58808204E+02     -1.66235128E+02      2.60837073E+03
     -1.54776968E+03     -3.35968619E+03     -3.15997840E+03
     -2.06497017E+03     -1.50219590E+03      1.55402706E+03
     -4.82248555E+02     -4.58184207E+02      3.05743648E+01
     -5.28908222E+02     -5.71068330E+02     -4.79339123E+03
     -8.23268626E+01      1.66926893E+03     -1.40498134E+03
      1.11583652E+02     -9.51852771E+01      3.00095423E+01
      2.42048486E+03      6.95944997E+02     -2.09010960E+01
     -1.86498110E+03      1.86443175E+03      3.90882083E+02
     -9.79831289E+02     -8.43017285E+02     -5.12933624E+02
     -1.66944882E+03     -1.24410658E+03      6.79845229E+02
      7.49832261E+02     -2.88513607E+02     -1.01400875E+03
     -1.54947870E+02      5.13280656E+02     -3.76017270E+02
      8.04129360E+02      1.11229909E+03      2.27231909E+02
      1.33022995E+03     -3.21149854E+03      2.25088254E+03
     -6.36128935E+02      2.42013625E+02      2.95858689E+02
      1.48979885E+02     -2.12636006E+03     -1.51150111E+03
     -9.08428212E+02     -1.99064082E+03     -9.67490269E+02
     -2.48162802E+02     -7.22639748E+01     -2.48152887E+02
      5.75264684E+02     -9.87611412E+02      1.94051845E+02
     -6.08791362E+03     -7.60333353E+01     -7.26011887E+02
     -7.69263350E+02      6.36641862E+02     -1.21068483E+02
     -8.64001392E+00      4.09330871E+02      9.02271783E+01
     -1.52386756E+03      2.06502510E+03     -2.11320878E+03
     -1.14276535E+03     -2.84044035E+02      4.23284232E+02
     -8.73156106E+02      1.95592774E+03     -2.15802678E+02
      2.18616321E+02      2.21109810E+03     -1.23648129E+03
      2.35019217E+01      1.98051589E+01     -6.48967925E+01
     -2.20383503E+03      2.82655306E+03      1.96782612E+02
     -2.27900072E+02     -2.47764994E+03     -4.90617309E+01
      8.85852728E+02     -1.72443217E+03     -1.69366333E+03
     -9.64996872E+02      3.94917198E+02      5.04268780E+02
     -2.67219218E+00      2.69087391E+03      9.61049191E+01
     -8.40102480E+02     -2.15131980E+03     -7.74461998E+02
     -1.34679642E+03     -8.94440071E+02     -3.56404385E+02
     -4.37355059E+02      3.22863511E+02      1.57391662E+02
      1.34106522E+03      7.64254014E+02     -1.00364644E+03
      1.10368560E+03     -2.85800031E+03     -2.21885474E+03
     -1.06666617E+02     -1.01874349E+02     -2.34056045E+02
      1.96844724E+03     -2.36902883E+02      3.84078990E+02
      1.71554315E+03     -6.22689911E+02      2.53655990E+03
     -1.57186297E+02     -2.34748459E+02     -3.08324665E+01
      9.08593967E+02      1.80207817E+03     -3.70135528E+02
     -1.07056868E+03     -4.59331425E+03     -1.38872140E+03
      3.47462643E+02      8.17276843E+01      1.52501009E+02
     -1.44031620E+03     -1.96378833E+02     -1.18567599E+03
      5.82407253E+02     -4.23192395E+02      9.50965713E+02
     -3.85211674E+02     -5.43900880E+02     -9.12519078E+01
      5.47906983E+02     -1.91566724E+03      1.31022403E+02
     -1.90401142E+03      2.19523330E+02     -2.54394036E+02
      1.28564886E+02      4.27452493E+02     -1.57661250E+02
      9.67895461E+02     -2.04646174E+03      2.75696440E+03
     -8.03439459E+02      1.48781057E+03     -8.94420837E+02
      2.27235258E+02      2.08502011E+02      1.07543894E+03
      2.26976243E+02     -2.99874019E+03     -1.88651867E+03
     -3.01064686E+02      5.15267594E+02      4.28267121E+03
     -3.80326967E+02     -6.09218066E+02     -3.65876468E+02
     -1.79931579E+03     -5.09856244E+03     -1.35153187E+02
      7.59051931E+02     -2.89505589E+02     -2.57767510E+03
     -1.88340416E+02      3.30288582E+02      1.51689058E+02
      8.10322975E+02     -1.10335612E+03     -1.78278878E+02
      8.65263678E+02      8.78757273E+02      2.71703568E+03
     -1.56482468E+03      1.17610099E+03      1.27109438E+03
     -2.92705614E+02      1.71293382E+02      2.80696358E+02
     -1.03934267E+03     -1.28800766E+03      2.93042040E+02
      1.92698260E+03      6.51862037E+02      1.01007534E+02
      2.56565202E+02      1.59647908E+03     -1.63203077E+03
     -6.95008119E+02      1.83038208E+01     -1.59837051E+02
      1.02868069E+03     -1.05111223E+03      1.13348420E+03
      1.31838350E+03      8.78224500E+02      1.56526986E+02
      1.03665534E+03      1.06311042E+02     -1.84717824E+02
     -1.90587516E+03     -1.24956558E+03      1.17944991E+03
      1.26515533E+03     -7.18646722E+01      1.19015990E+03
     -1.03712048E+02     -1.51003228E+02      6.83219946E+01
      1.52127496E+03      2.90519649E+03     -8.17238043E+02
     -1.53630785E+03      9.45384581E+00      1.37794223E+03
     -7.97692660E+02      4.74797924E+02     -7.48298692E+02
      1.27983930E+02      1.90332547E+03     -1.04354020E+03
     -1.01116924E+03      5.68361254E+02     -3.32959409E+03
     -5.53606839E+02      4.13479493E+02     -4.44729966E+02
     -3.43603231E+03     -7.33041464E+00      1.53288052E+03
     -2.56112053E+03     -1.43124090E+03     -7.45787005E+02
     -6.06757367E+02      1.20331119E+02     -1.25899636E+02
      1.42920095E+03     -8.33543260E+02     -3.28858013E+03
     -2.09059315E+02     -4.24368016E+02     -9.74909802E+02
     -5.65075611E+02     -2.98862728E+02     -4.38100036E+02
     -1.25260057E+03     -3.12884529E+02     -3.70863336E+03
     -9.85388428E+02     -1.63356996E+03     -1.66916292E+03
      3.31647145E+00      2.96289620E+02      8.12939014E+01
     -7.15598460E+02      1.95605043E+03      4.95337388E+02
     -3.26494686E+03     -6.96121646E+02     -1.35464519E+03
     -2.72427492E+02     -4.88064918E+02     -1.75653393E+02
      4.35247633E+02      2.80795814E+02      1.11171367E+03
     -7.80672854E+02      1.00974514E+03      7.12384736E+02
     -7.76799357E+02      1.48562336E+01      3.05811669E+03
      4.52349919E+01      7.24135296E+02      1.90174871E+02
     -3.22731460E+03     -1.11555755E+03     -9.69029510E+02
      1.64813359E+03     -2.27886777E+02      2.09054191E+03
      2.57937550E+03      1.34298123E+03      2.12704284E+02
  }
}

Hamiltonian = DFTB {
  SCC = Yes
  SCCTolerance = 1e-6
  MaxSCCIterations = 200
  ForceEvaluation = Dynamics
  MaxAngularMomentum = {
    C = "p"
    H = "s"
  }
  Charge = 0.0
  SpinPolarisation = {}
  Eigensolver = Standard {}
  Filling = Fermi {
    Temperature [Kelvin] = 300.0
  }
  SlaterKosterFiles = Type2FileNames {
    Prefix = "../../pbc-0-3/"
    Separator = "-"
    Suffix = ".skf"
    LowerCaseTypeName = No
  }
  KPointsAndWeights = {
    0.0000000000000 0.0000000000000 0.0000000000000 1.00000000000000
  }
  Dispersion = LennardJones { 
    Parameters = UFFParameters {}
  }
}

ParserOptions = {
  ParserVersion = 3
}
