Geometry = GenFormat {
<<< "system.gen"
}

Driver = VelocityVerlet{
  Steps = 50000
  TimeStep [fs] = 0.2
  MDRestartFrequency = 25
  Thermostat = None {
    #InitialTemperature [Kelvin] = 300.0
  }
  Xlbomd{ 
    IntegrationSteps = 6 
    MinSccIterations = 2
    MaxSccIterations = 200
    SccTolerance = 1e-6 
  }
  Velocities [m/s] {
     -2.28962492E+02      1.71805485E+01     -7.18737692E+02
     -7.74858238E+02      6.66130384E+02      1.35381589E+03
      1.21510824E+03      7.07748370E+02     -1.02467071E+03
      4.43937799E+02      9.48452621E+02      2.22035590E+02
      7.51960188E+02     -7.12669350E+02     -7.49196010E+02
      8.93427755E+02     -5.58167329E+02     -1.77275810E+03
      7.97519033E+02      1.83330467E+02      1.71970384E+02
      1.96978909E+02      3.85314490E+03      4.93931939E+02
      7.05306758E+02      6.17000508E+02     -1.02369608E+03
      4.60496081E+02     -1.05491149E+03     -6.29439001E+02
     -1.94237049E+03      5.93742652E+02     -1.74993386E+02
     -4.96070721E+02     -1.15771598E+03     -1.58113409E+03
     -3.25523067E+02      9.74243172E+02      4.79089408E+01
      2.08044142E+02      1.54666674E+03     -9.08252829E+02
      1.96448604E+03     -2.85087835E+02      1.92802092E+03
     -1.84322296E+02     -6.16054571E+02      4.46411744E+02
      1.48489444E+03      1.32681200E+03      3.99908927E+02
      1.87231933E+03      7.87543128E+02      1.40301907E+03
     -4.35834371E+02      6.53487673E+02      2.81204011E+02
     -3.56407629E+02      1.02499543E+03      5.22047919E+02
     -2.98155081E+02     -1.56414328E+03     -1.40578392E+03
      7.35762936E+02      4.70775552E+01      9.71132473E+01
     -2.37486344E+02     -9.53282831E+02      2.71942104E+03
     -2.22869520E+03      2.90493037E+02      3.92139162E+03
      5.32282914E+02      5.58171672E+02      3.31970285E+02
      1.97411341E+03     -2.55389664E+02     -9.90249298E+02
     -6.28430071E+02     -2.23357004E+03     -6.39961038E+02
      1.55085126E+03      1.26097322E+03     -2.03719957E+03
      5.40810524E+01      6.75264563E+01      4.79255246E+02
      9.13027147E+02      2.47944322E+02     -1.65523026E+03
     -2.03718636E+03      9.96947969E+02     -2.02844626E+03
      1.67563133E+03     -5.03870066E+02     -1.63498653E+03
     -2.67951747E+02      6.51462927E+02     -2.38312925E+02
      1.03014266E+03      2.62756220E+03      1.37687540E+03
     -1.23794409E+03      7.09975241E+02     -4.18231683E+01
      1.39824435E+02     -3.21693705E+02     -1.69609199E+02
      2.25945035E+03      3.28898114E+02     -1.24668069E+03
      1.23796142E+03     -2.06126067E+03     -2.52122222E+03
      4.19223000E+01      5.54030323E+02     -1.20008464E+01
     -9.01131633E+02      9.05810840E+02     -2.19105912E+03
     -9.86113600E+02     -2.69049169E+03     -3.11849031E+02
     -1.29146128E+04      1.28041243E+04     -1.19919919E+04
     -2.13981957E+03     -2.62633272E+03     -1.99826686E+03
      1.17486881E+03     -2.66683630E+03     -6.03559439E+02
      6.05313283E+02      3.84443854E+02      6.27908934E+02
     -9.90212043E+02      1.93689770E+03      1.40460608E+03
     -6.22450161E+02     -1.01528739E+03     -1.85713244E+03
      4.13659876E+02     -2.20167639E+02      5.87033353E+01
      2.57188302E+03      3.74909855E+03     -1.59158294E+03
     -2.02059711E+03      2.62661253E+03     -9.89005329E+01
      7.44711098E+01     -4.49005815E+02     -2.67107227E+01
     -2.01591136E+03      6.22154344E+02      1.80417106E+03
     -1.97604818E+02      9.38569756E+02     -1.87534254E+02
     -4.57248424E+02      4.16652333E+02     -5.82544330E+01
     -1.58978201E+03     -1.49960666E+03      1.78921563E+02
     -6.88351894E+02      1.08800886E+03     -1.01567389E+03
     -1.08922222E+02     -1.34518496E+01     -1.15588467E+01
      1.63323101E+03     -7.99063717E+02     -4.65692565E+02
     -2.15991682E+03     -8.71413370E+02     -1.23607148E+03
      1.65562470E+03     -1.76462708E+03     -1.85267908E+03
     -4.64418855E+02     -3.76436818E+02      7.14420421E+02
      3.73105469E+02     -1.41534565E+03      2.71587270E+02
      1.13391438E+03     -3.14687965E+03      8.32601994E+02
     -7.32621541E+02      3.56822790E+02     -2.63194075E+02
      2.84692434E+02      2.71624063E+02      3.19736179E+02
     -3.72923612E+02     -6.81868162E+02     -1.34505485E+03
     -3.18416243E+03      1.21793661E+03     -7.92355884E+02
      3.13348653E+02      6.82183980E+02      9.01256649E+02
      2.74298044E+02     -1.32765273E+03     -3.50478959E+03
     -5.21718888E+02     -2.54176665E+03      1.11094476E+03
      8.09408536E+01     -1.57006568E+02      4.36114359E+02
     -3.61928200E+02     -3.16250819E+03     -1.50016734E+03
      1.75116938E+03     -2.65288603E+02      3.09089470E+02
     -2.84658651E+02      8.55646511E+01      2.50836988E+02
      1.89588174E+03     -1.12337177E+03      9.48022109E+02
     -1.70188502E+03     -1.05069439E+03     -8.40250255E+02
      2.76368625E+02     -3.11753113E+02      6.15040161E+02
     -3.17275742E+02      2.29480743E+03      2.18106804E+03
     -4.37714421E+02     -6.68809287E+02      1.59206609E+03
      1.46538006E+01      4.15286488E+02      9.13138880E+01
     -7.81818939E+02     -2.25405681E+03      3.05198047E+01
      3.48304600E+03     -1.01753741E+03      3.46323083E+02
      3.10161584E+02     -6.25435895E+02      5.89250968E+02
     -8.81096817E+02     -8.39106685E+02     -2.00585650E+03
      2.12591515E+03     -1.27340609E+02     -8.03849357E+01
     -1.34436528E+02     -2.85260995E+02     -1.87925736E+02
      4.66168763E+03      2.42028711E+02     -2.55543016E+02
      2.71338690E+03      1.30303426E+03     -1.67561091E+03
      3.41815789E+02     -3.17227660E+02      2.90865593E+02
     -3.35208873E+03      1.66307767E+02      8.36417030E+02
     -9.26112943E+02     -2.26973021E+03      1.24778896E+03
      1.10690833E+03     -2.31137934E+03      1.08960234E+03
      8.37246038E+00     -7.05215255E+02      3.57153393E+01
     -2.60609249E+02     -2.13536156E+03      9.36604246E+02
      3.37666330E+03      2.34417390E+03      1.06336584E+03
      1.82429853E+03      3.68957523E+02     -1.06906346E+03
      6.46072040E+02     -4.35046367E+02      4.55656501E+02
     -1.02350640E+03     -1.04840187E+03     -1.05729305E+03
      2.55299224E+03     -4.10867358E+02     -6.78675927E+02
      2.08949052E+02      7.71209630E+02      7.33087861E+02
     -9.33776936E+02     -5.20201824E+02      1.24656230E+03
     -1.80533171E+03     -4.11976618E+02      1.24636812E+03
      3.59672005E+02     -1.77731320E+02      6.24897659E+02
      1.98742454E+03      9.20397364E+02     -2.76248787E+02
      5.91538298E+02     -9.61689879E+02      4.29601460E+02
     -8.32148341E+01      2.54431939E+01      3.86375216E+02
     -2.15609171E+03     -1.72176428E+02     -5.10813548E+02
      1.61499753E+02     -1.56794945E+03     -2.11238494E+02
     -8.90067382E+02      1.41237815E+02      4.80748956E+01
     -3.29779479E+02     -3.49272719E+03      2.24074879E+03
     -1.16204041E+03      1.01620508E+03     -1.55231308E+03
     -3.55107519E+02      3.40803978E+01      4.98724205E+02
     -1.45019085E+02      3.03470125E+03      4.62971770E+03
     -8.18236213E+02     -7.84851682E+02     -8.46911390E+02
      5.12148382E+02      6.08111159E+01      3.82034960E+02
      3.64124293E+02      1.08388775E+03     -9.35970079E+02
      1.27184043E+03      8.19584529E+02     -1.77841226E+03
      3.11082962E+02     -5.41732849E+02     -6.82453630E+02
      6.18047225E+02     -2.15999578E+03      1.00727934E+03
      2.79842097E+03      4.04732989E+01      6.08873422E+02
      1.97835036E+01     -4.64009006E+02      1.02319191E+03
     -1.62892625E+03     -4.18631734E+02      3.06833210E+03
      5.26524511E+02      1.13911020E+03      6.56611541E+02
     -9.47470153E+02     -1.01719846E+03      1.69297415E+01
      2.33383611E+02      1.33116511E+02      4.85015711E+02
     -6.31566857E+02     -2.54295328E+03      1.60222729E+03
     -8.51546780E+02     -1.53919824E+03      4.19144218E+02
      1.90101696E+03     -1.22004490E+03     -3.79600130E+02
      3.58721386E+02     -1.19579933E+02      6.69436542E+02
      4.16052819E+03     -1.53754230E+03      1.05634438E+03
     -3.42032524E+03     -1.38036564E+03      6.12737754E+02
      5.31531193E+02     -1.70560509E+02      8.41202522E+02
     -3.77301102E+03     -1.75203887E+03      5.58489762E+02
      9.55445149E+02      3.48938607E+01      1.02473534E+03
      8.12190951E+02     -5.63967800E+02      6.16711571E+02
     -1.01491588E+03     -3.61320352E+03     -5.32802659E+02
      6.80935931E+02     -1.17292023E+03      5.15477278E+02
     -1.90447570E+02      3.35024685E+02     -3.70622371E+02
      4.60061470E+02     -3.50355284E+02      1.15684797E+03
      2.42577104E+03     -3.38486811E+03      9.84862131E+02
      3.41841624E+01      5.56344769E+02     -1.70284318E+02
      6.20688719E+02     -4.88982774E+03      1.74522043E+03
     -2.59947560E+03      4.51629735E+02     -1.40016526E+03
      7.23964623E+02     -5.32939958E+02     -4.91434311E+00
     -3.93251576E+02     -1.19493513E+03      2.05849051E+02
      4.32509048E+03     -1.85403518E+03     -1.50736352E+03
     -7.57461872E+01      7.45015874E+02      1.06798322E+03
      7.26881665E+02     -3.50119051E+02      1.87791785E+03
      1.74882686E+03      1.63209477E+03      3.24841478E+03
      6.25991401E+02     -8.69835893E+01     -5.69510553E+02
     -3.29157202E+02     -2.36641687E+03      2.12754451E+03
      1.77782304E+03      1.17090330E+03      1.39529985E+03
      5.26808484E+02      4.17125090E+02      5.87607428E+01
      1.80711833E+03     -1.01754364E+03     -1.43112317E+03
     -4.00968680E+02     -1.25870340E+03     -1.54750119E+03
      2.18197397E+03      4.35150038E+02      1.26886567E+03
      3.09092386E+02     -5.63678005E+02      4.93401437E+01
      2.14474975E+03     -2.23492927E+03     -4.48348901E+01
     -1.98424238E+03      3.14509338E+03     -2.01844448E+02
      1.28758127E+03     -1.04678297E+02      4.34728913E+02
     -3.77160184E+02      1.06335761E+02     -2.79040400E+02
      4.49495585E+02     -3.54859797E+02      4.80732188E+03
      1.52580213E+02      8.74018294E+02     -1.13450484E+03
     -3.54043467E+02      4.71479991E+02      4.82797732E+02
      1.33646774E+03      2.22077990E+03      8.36900448E+02
      4.49962638E+03     -1.09163095E+01     -2.79002353E+03
     -8.73037957E+02     -6.37305869E+02     -3.39355721E+02
     -6.96693367E+02     -1.33775133E+03     -3.11621361E+03
     -3.44356778E+03     -3.24859500E+03     -1.16776001E+03
     -3.38766916E+02     -1.20954707E+03      3.28429697E+01
      1.02312448E+03     -6.31381490E+02     -1.87175672E+03
     -1.37593432E+02      1.11261086E+03     -2.28653621E+03
      9.53340581E+02      9.42510278E+01      8.74718157E+01
      3.70206415E+03     -5.89747638E+00      1.50564513E+03
     -7.90872512E+02      4.96373497E+02      2.20349485E+03
     -6.53052235E+02     -4.60419238E+02     -4.02540316E+02
     -1.20664972E+03     -2.86653853E+03      7.46915702E+02
      4.85431981E+02     -4.03286149E+02     -1.11382428E+03
      2.84243798E+01      4.51606726E+02      1.91936997E+02
     -7.53927884E-01     -7.60287110E+02      4.45317492E+02
      9.68536832E+02      2.63442226E+03     -1.29438546E+02
      5.64060774E+02      4.97191275E+00     -8.45991956E+02
      7.67615838E+02     -6.45199357E+02      1.39544954E+03
     -2.76526213E+02     -3.26653362E+03     -1.18198131E+03
     -1.19102682E+02     -1.25908823E+02     -6.33549996E+02
     -8.69102135E+02      1.34011118E+03     -3.12868154E+03
     -1.69880644E+03      1.54236238E+03     -3.74301612E+03
     -4.52127402E+03     -1.04034851E+02     -1.12250044E+03
     -3.47474270E+02     -2.13429398E+02      4.76787939E+01
     -7.23650121E+02      1.01943564E+03      1.60592445E+03
      2.56066846E+01      1.40355500E+02     -3.03503552E+03
     -4.80000263E+02     -3.59846325E+02     -2.40729969E+02
     -2.42985940E+02      8.48830684E+02      3.51098133E+02
     -5.04939285E+02     -1.76932240E+03      2.33579086E+03
     -3.28974669E+03      2.15435813E+03      1.58215257E+02
      4.55701688E+02     -1.39555719E+02      1.50720771E+02
      4.39567155E+02     -1.75047186E+03     -9.60721802E+02
      2.01303750E+02      1.84537801E+03     -1.22249794E+03
      2.14935574E+02      3.39111070E+01     -2.50542717E+01
      2.48349835E+02      7.40858297E+02      2.64218604E+03
     -5.29459118E+02      6.22094442E+01     -8.60626637E+02
      2.23247560E+02      1.62200886E+02     -2.06976141E+02
      8.87463331E+02     -4.49967260E+02     -8.77538858E+02
      4.76009588E+02     -2.32565586E+03     -2.03081804E+03
     -1.26415245E+02      2.38883567E+02     -7.60269127E+02
     -1.00020278E+03     -2.72985842E+03     -7.94672246E+02
     -2.61774226E+03      1.09103802E+03     -2.30136497E+02
     -2.58287459E+02     -3.71066817E+02     -4.40135481E+02
     -2.74373339E+03      4.92282201E+02      1.05328664E+03
     -2.43691942E+03     -2.05916902E+03     -1.75757040E+03
     -2.58816389E+02      2.45010161E+02      2.04661876E+02
     -1.86405277E+02      5.30875174E+02     -8.92689278E+02
     -5.34423128E+02     -3.43930468E+02     -7.74448979E+01
      4.82491761E+02     -5.39012556E+02     -5.68449831E+02
     -1.25641543E+03      2.20671712E+03     -3.68546195E+03
     -5.17100429E+02     -1.46144840E+03      6.29557382E+02
      7.32144620E+02     -2.48442141E+01      6.34078045E+02
     -2.60997020E+03     -1.46711417E+03     -1.00948075E+03
      1.22813138E+03     -1.21371209E+02      1.15670563E+02
      1.72823058E+02      5.93715621E+02      1.34168497E+03
      6.84367960E+01     -2.35143772E+02      3.68103187E+01
      2.64569662E+03      6.43652078E+02      1.00316963E+03
      1.14533810E+03     -7.15643465E+01     -1.62869961E+03
      1.42152148E+03      2.89973921E+03      1.96484299E+03
     -4.26634814E+02     -2.44448022E+01      6.26146414E+02
      1.92070885E+03     -5.53109701E+02     -5.36652123E+02
     -1.02860149E+03     -1.00069431E+03      9.06775558E+02
      3.85220693E+02     -7.23841672E+02      3.47906780E+01
      2.08608593E+03      1.78135015E+03      6.65486021E+02
      2.38509089E+03     -2.19289362E+03      1.72565426E+03
      1.96099762E+02      5.21776664E+02     -1.85513315E+02
     -1.98007601E+03     -2.49236971E+03     -1.70897393E+03
      5.41045105E+02      4.13804073E+02      3.14821276E+03
     -3.20315127E+01      3.14280896E+02     -3.50229702E+02
      6.15030605E+02     -3.01253772E+02      5.31563983E+02
      1.09585251E+03     -1.73116458E+03     -1.77230622E+02
      1.07024088E+02     -7.65353540E+01      3.95477968E+02
      4.06711244E+02     -1.31063138E+03     -9.44031149E+02
     -1.55595121E+03     -7.77034310E+02     -4.97081679E+01
     -3.59068980E+01      1.20053162E+02      8.01474940E+02
     -7.52537683E+02      9.69183399E+02     -9.10653900E+02
      1.76518309E+03      6.06188142E+02      1.07833999E+03
      5.29364759E+02     -1.02628450E+03      2.93357441E+02
      9.53880866E+01      3.82889598E+02     -2.84472148E+03
      1.05221432E+03      3.73690045E+02     -5.42758232E+02
      1.12113571E+02     -3.96923454E+02     -2.05408325E+02
     -1.52089500E+03      2.49898796E+01      2.70218663E+03
     -4.50688251E+02     -7.78032099E+02     -1.74588370E+02
      2.59085233E+02     -7.96796710E+02     -1.87807162E+02
     -8.60282088E+02      1.70317933E+03      1.91754809E+03
     -1.56550542E+03      2.09459142E+03      2.89151183E+02
      8.27668545E+02     -4.49381105E+02     -8.56116322E+02
     -3.46707308E+02     -7.41494001E+02     -1.96511513E+01
     -5.49118830E+01     -1.21414285E+03     -2.55963974E+02
     -3.53064885E+03     -7.92899437E+02      8.01495125E+02
     -1.72521954E+03      2.30159040E+03      4.79220904E+02
     -6.14448616E+02      1.90516804E+01      3.51688895E+02
     -4.61210195E+02     -3.08682417E+03     -3.03553865E+02
      1.44252538E+03      1.52462951E+03     -7.31323633E+02
     -6.18420820E+02     -5.70877382E+02      1.06516122E+02
      3.19500676E+03      2.61836830E+03     -1.67579595E+03
      5.99634962E+02     -1.38298823E+03      2.43080508E+03
      4.57092549E+02     -2.03254771E+02      6.66895303E+01
     -1.03453552E+03      4.10128284E+02      1.79584704E+03
     -6.27532142E+01     -4.49440339E+02     -1.56595561E+02
      1.56186323E+02      9.43247929E+01      5.39043995E+02
     -8.10854044E+02     -2.57120431E+03     -9.60835185E+02
     -6.09595647E+00      1.21673855E+03     -2.00755439E+03
     -3.58265326E+02     -5.98912425E+02     -7.98452327E+02
     -1.85030435E+02     -3.69627069E+02     -1.16354461E+03
     -2.37782154E+03      4.04254468E+02      2.14890171E+03
     -2.00547509E+02     -6.14974431E+01      3.27152956E+02
     -8.70288721E+01      8.97359664E+02     -6.80655910E+02
      8.46528594E+02      1.26371546E+03      4.57863181E+02
      2.65698692E+02     -4.35157459E+02      1.55425271E+02
     -7.53160371E+02     -1.80820328E+03      1.65454875E+03
      4.09818440E+03      1.08507898E+02      6.22869825E+02
      6.91559432E+02      3.86957828E+02      5.44155546E+02
     -2.44431722E+02     -2.18607087E+02      1.36173229E+02
     -6.02155152E+02     -3.07777430E+02     -1.65512846E+03
     -4.26643220E+01     -1.79751120E+02     -1.41556731E+02
      1.78055081E+03     -4.93841264E+02     -4.25208498E+02
      1.71117818E+03      6.06223643E+00     -2.35355473E+02
     -1.53866375E+03     -3.95619852E+02     -2.85401653E+03
     -5.85231085E+02     -7.24959311E+02     -1.44335980E+02
      3.70837214E+02     -2.35621706E+03     -3.78329865E+02
     -2.82599833E+03      1.72267522E+03      9.82655642E+02
      1.03316552E+03      2.67988601E+03      3.78195601E+02
      3.91420344E+02     -3.92332146E+02      7.55552991E+02
     -1.20202257E+03      1.89192870E+02      1.61013723E+03
     -9.99574071E+01     -6.23859650E+02     -1.41855951E+02
      1.99490164E+02     -1.50374113E+02     -7.45438668E+02
      8.73221817E+02     -3.01647251E+02     -4.46668888E+02
     -1.06770598E+03     -2.97510595E+01      4.21849718E+03
     -1.14648469E+02      3.83011528E+02     -2.21021460E+02
     -2.56660634E+03      1.48263588E+03     -1.40592691E+03
     -1.21122261E+03      5.28281380E+02      1.84632630E+03
      1.46460725E+02     -1.19758915E+03      3.40821671E+02
     -2.43944945E+03      3.43605426E+03     -2.49452394E+03
      1.80875737E+03     -5.15400613E+02      4.63422760E+02
      2.56876023E+02     -3.91114277E+02     -6.36641236E+02
      6.47068531E+01      1.02111751E+03      2.61077502E+03
      1.73520237E+03     -1.27545017E+03      9.60204820E+02
      1.24076818E+03      5.92161279E+00      2.32265652E+02
     -5.92048776E+02     -5.17338131E+02     -1.93724029E+03
     -1.05131826E+03     -2.46129214E+03     -4.05309582E+02
      4.50471705E+01      2.83169349E+02      5.56029043E+02
     -9.68852545E+02     -3.44475675E+02     -2.60842795E+03
      3.80685126E+02     -1.07940418E+03      1.77072841E+03
     -5.49732197E+02     -4.53053806E+02      7.39804084E+02
      1.00953048E+03     -2.12359295E+03     -6.75984384E+02
      1.45459365E+03     -1.63231486E+02     -1.92085826E+03
      1.17044356E+03     -5.67126114E+02     -3.17558014E+02
      9.07965701E+02      1.96558745E+03      1.72061578E+02
     -5.53769353E+02      5.26810810E+02     -2.11392003E+02
     -1.59792112E+03      1.52712946E+03      6.90029332E+02
      4.85079639E+02      1.93786387E+02      5.25721421E+02
     -9.89090117E+02     -4.20542607E+02     -1.95091406E+03
      1.07505741E+03     -4.92851060E+02     -1.82532928E+03
      2.00938515E+02      4.80119380E+03      1.31196835E+03
      5.70111159E+01      1.03765451E+02      3.75268438E+02
     -2.43815991E+03     -3.93422117E+02     -1.17123733E+03
      1.08485993E+03     -8.74776247E+02      5.30117308E+02
     -3.99506411E+02     -2.49992397E+02      1.94469487E+02
      1.55390400E+03     -4.57434102E+02     -4.44124040E+02
     -9.48625765E+02     -1.77559296E+03     -3.35580582E+02
      4.76345067E+02     -3.29601308E+02     -4.85073673E+02
      8.33787625E+01      2.06278172E+02      5.93063540E+02
      1.56386006E+03     -1.57046545E+03      1.21008548E+02
      1.48645150E+02      1.41664992E+02      2.87011519E+02
      1.74192455E+03      1.13212739E+03     -2.65830544E+03
     -1.28728918E+03      2.04894996E+03     -1.79072669E+03
     -1.94255260E+02      5.08617787E+02     -1.82876345E+02
     -1.20046729E+03      9.23393967E+02     -9.43678186E+02
      1.59856891E+03     -2.40458449E+03      2.04023277E+03
     -5.33437872E+02     -2.39777636E+02      7.66538518E+02
     -6.46015283E+02     -2.37115682E+03      9.97356705E+02
      1.31126365E+03      8.68153274E+02     -4.44153342E+02
      5.62839685E+02     -1.39571470E+02      2.94536912E+02
     -7.21828320E+02      1.99624880E+03     -2.73942906E+03
      2.71540236E+03     -7.69980438E+02     -1.09297863E+03
     -5.63462091E+02     -1.27350328E+02      8.08278905E+02
      4.76850757E+02      4.22738030E+02     -1.28562091E+03
      1.12575636E+03     -1.86912312E+03     -3.86079847E+03
      4.84925327E+02     -3.95417172E+02      4.33677465E+02
      9.69834102E+01     -1.12114608E+03     -1.75184635E+03
      3.04209984E+02      3.48072033E+03      4.97068446E+02
     -2.16416876E+03     -3.01998920E+02     -3.53695221E+02
      1.13495112E+03     -1.57264283E+02     -7.52285078E+02
     -2.55679402E+03      5.31773608E+01     -9.83252399E+02
      3.24187900E+03     -1.13390688E+02      2.60722034E+03
     -2.60575862E+03     -8.42490673E+02      1.01708625E+03
  }
}

Hamiltonian = DFTB {
  SCC = Yes
  SCCTolerance = 1e-6
  MaxSCCIterations = 200
  ForceEvaluation = Dynamics
  MaxAngularMomentum = {
    C = "p"
    H = "s"
  }
  Charge = 0.0
  SpinPolarisation = {}
  Eigensolver = Standard {}
  Filling = Fermi {
    Temperature [Kelvin] = 300.0
  }
  SlaterKosterFiles = Type2FileNames {
    Prefix = "../../pbc-0-3/"
    Separator = "-"
    Suffix = ".skf"
    LowerCaseTypeName = No
  }
  KPointsAndWeights = {
    0.0000000000000 0.0000000000000 0.0000000000000 1.00000000000000
  }
  Dispersion = LennardJones { 
    Parameters = UFFParameters {}
  }
}

ParserOptions = {
  ParserVersion = 3
}
