Geometry = GenFormat {
<<< "system.gen"
}

Driver = VelocityVerlet{
  Steps = 100000
  TimeStep [fs] = 0.2
  MDRestartFrequency = 5
  Thermostat = None {
    #InitialTemperature [Kelvin] = 300.0
  }
  Xlbomd{ 
    IntegrationSteps = 6 
    MinSccIterations = 2
    MaxSccIterations = 200
    SccTolerance = 1e-6 
  }
  Velocities [m/s] {
      6.50131068E+02     -5.35583633E+02     -4.26149574E+02
     -2.29984050E+03     -6.82022573E+02      2.62543808E+03
     -1.13205495E+03     -6.30200497E+02     -7.35523291E+01
     -3.30148762E+02      1.18827384E+02     -1.23803803E+02
      1.79450188E+03      1.21772590E+03      8.94038319E+01
     -4.47775850E+02      1.13430291E+03     -2.27553399E+02
      6.49724634E+01     -1.27913274E+03     -4.99323699E+02
     -8.00263467E+02      1.40424565E+01      1.02596730E+02
     -1.10297104E+01     -1.41669411E+03      7.00726726E+02
      4.37382509E+02     -2.76319191E+02     -6.26186966E+02
      4.53971470E+01     -1.87686565E+03      1.23002043E+03
     -1.72339049E+03      1.79815689E+02     -1.33682803E+03
     -8.51267618E+02      4.29136515E+02     -6.01816157E+02
      3.13805084E+03     -8.63046121E+02     -3.23278524E+03
     -3.11984863E+03      2.15449667E+02      1.35947211E+03
      4.88047042E+02     -5.29691211E+02     -2.84268925E+02
     -5.52916370E+02      2.59135918E+03     -7.22478082E+02
     -2.07867211E+03      3.26501939E+01     -8.79775737E+02
      4.17056582E+02      3.23141150E+01     -5.07558899E+02
     -1.39248338E+03      1.02632472E+03     -1.89397625E+03
      5.46237969E+01      5.58363118E+02      4.24131650E+02
     -2.60286323E+02     -7.95079542E+02     -8.87736092E+01
      7.20806337E+02     -3.40351266E+02     -2.07425145E+03
     -5.76863838E+02      4.78813399E+02     -3.30182171E+02
     -3.11726613E+02      2.31784908E+02     -5.52997779E+02
      4.44840544E+02     -1.08062102E+03     -2.86235279E+03
      5.15928910E+01      1.49434460E+02      1.44739684E+03
      1.09235185E+03      4.69290320E+02      9.52969932E+02
      3.81256863E+02     -1.66308934E+02     -2.73177109E+02
     -1.20668563E+03      1.04086589E+03     -2.11830462E+03
     -1.67392994E+03     -9.94112112E+02      2.34642165E+02
     -2.28079238E+02     -6.59775726E+02      6.79663864E+02
     -3.92771650E+02     -5.90598398E+02      3.07234842E+02
     -2.73409977E+02     -2.09541040E+03     -3.78098625E+02
      1.94661722E+03     -8.79599698E+02     -1.98340942E+03
      1.71453091E+02     -1.25492483E+02     -6.24484683E+02
      2.31362336E+03      7.52513920E+02     -1.26295375E+03
      1.40340035E+03      3.22907404E+03      2.34200661E+03
      1.35881922E+02      6.98052073E+02     -1.70685080E+02
     -9.30597298E+02     -2.40090097E+03      1.76727286E+03
     -1.00921701E+03      2.06410043E+03     -1.93284255E+02
      8.85765488E+02     -2.29275456E+02     -8.89105741E+01
     -9.96387646E+02     -1.82983185E+02      6.67058768E+02
     -7.65378824E+02      2.33981704E+03     -2.39224649E+03
     -8.39776935E+02     -5.59228123E+02      6.35847285E+02
     -8.30531782E+02      4.56904069E+02     -2.29281289E+02
      6.11368487E+02      1.36209458E+03      2.84569435E+03
      5.26348531E+00      8.26607928E+01      3.29560278E+01
     -4.41196490E+01      9.40982184E+01     -1.63401515E+03
      1.13027269E+03      2.12847346E+02     -4.31492855E+02
     -4.49336022E+02     -8.36008362E+02     -3.20131185E+02
     -1.35683895E+03      1.31245575E+03     -1.56405991E+03
     -2.05308542E+03      1.01587956E+03      1.36619564E+03
      1.85712623E+04      6.43007830E+03      2.68613787E+04
     -1.19358475E+03      6.40331658E+02     -1.50691149E+03
      3.71104776E+02      8.52146394E+02     -1.07571725E+03
      1.39267907E+02     -6.92343720E+02     -2.63566038E+02
      1.12151923E+03      7.77878520E+02      2.71129830E+02
     -6.37245363E+02      1.69333193E+03     -1.88070644E+03
     -3.01095906E+01     -2.69467394E+03     -8.12685590E+02
      2.13622157E+02     -5.12397558E+02      3.24688928E+02
      2.71019300E+03      1.49114928E+03      2.49555577E+03
      3.18672490E+03     -8.78062587E+02      2.01967532E+03
     -2.34420129E+01     -1.34815873E+02     -2.49062237E+03
     -1.82924563E+02     -4.54614037E+02     -5.30956820E+02
     -7.94037881E+02      4.13114493E+02      4.87870107E+02
     -6.44671361E+02      2.19662806E+03     -1.23166455E+03
     -8.35053208E+02      3.03729076E+02     -9.55451566E+02
      3.92755425E+02     -9.32653343E+02      2.46400471E+03
      1.81950676E+03     -4.49175355E+02      5.18902991E+02
     -2.89857899E+02      2.35458413E+02     -1.53934130E+01
     -1.37365728E+03      4.65203135E+01      2.09577439E+03
      1.62755278E+03     -9.35905612E+02      1.83920642E+01
     -7.27442965E+02     -2.89315840E+02     -8.03776399E+02
      2.77133669E+03      8.20350302E+02      1.04816588E+03
     -2.73452410E+03      2.78641401E+02     -7.48553218E+02
     -3.55194591E+02      1.44459186E+02     -6.46394640E+02
      1.92716335E+03      1.11277696E+02      4.06725111E+02
      1.09090444E+03      9.19138166E+02      7.01045979E+02
      7.30574331E+01      8.30962501E+02      1.51805352E+02
      3.31201439E+02      1.87335060E+03     -1.32640338E+03
      2.32384293E+03     -2.07353551E+03      7.48833191E+02
      2.87241951E+02     -4.13248211E+02     -3.17100393E+02
     -1.12150824E+03      2.52910332E+03      2.48315320E+03
     -9.88163044E+01     -1.14387294E+03      1.94868579E+03
      5.57188464E+02      9.81933027E+02      5.10827238E+02
     -4.10420110E+03     -9.58097265E+02      5.68421573E+02
     -4.74121284E+02     -1.08018205E+03      3.52302313E+03
      8.03086706E+02     -1.02796222E+03     -3.94733134E+02
      1.61622441E+03     -1.91608595E+03     -2.21225263E+03
      2.27208707E+03      1.02933935E+02      1.75846844E+03
      1.16965132E+03      1.92183424E+03     -2.74160008E+03
     -3.45635063E+02     -7.18528619E+02     -5.40516706E+02
     -3.91273029E+03     -4.18569824E+03     -1.66999075E+03
      2.45089814E+03      5.73053996E+02     -1.52956107E+02
      1.06042081E+03      2.35116619E+03     -2.76447297E+03
     -2.16336004E+02      3.23040757E+02      4.14758356E+02
      7.97150788E+02     -1.14962073E+03     -7.17750829E+02
     -7.96743956E+02     -5.70270621E+02     -7.92779144E+02
     -4.67973489E+02     -1.60693663E+02      9.15072884E+01
     -1.30403805E+03     -2.25883671E+02     -1.59958638E+03
      1.06399182E+02      1.68557818E+02      1.11347483E+03
      7.82592168E+02      1.20544242E+02     -3.67927146E+02
      2.51332859E+03      8.72144334E+02     -2.13055605E+03
      9.24035563E+02     -3.17718057E+03      1.35384021E+02
     -1.32792873E+02     -2.60456272E+02     -2.33049035E+02
     -4.55413373E+02     -1.57159275E+03      9.03223066E+01
      9.15355318E+02     -1.46640168E+03     -4.18277114E+02
     -9.15770631E+01      7.68889582E+02     -2.18272173E+02
      2.97249090E+03      9.15988174E+02      8.39659413E+02
      1.38637118E+03      1.48127813E+03     -1.93191616E+03
     -4.26032675E+02      5.44059330E+01     -7.12220302E+02
      9.07349538E+01      5.80780452E+02      4.47644438E+02
     -8.29591634E+02     -2.62603563E+02     -3.05524857E+02
     -2.94090535E+02      2.25469956E+02     -1.87557103E+02
      1.74050845E+03      1.21486495E+03      1.22019362E+03
      1.86302185E+03      4.26562937E+03      1.62597106E+03
     -6.08413025E+02     -4.67994476E+02     -2.29575209E+02
      2.52604411E+03      5.19006148E+02     -4.48415437E+02
     -2.06762904E+03     -1.91007434E+03      3.73892231E+02
     -6.68506432E+01     -1.10453237E+02      2.61926985E+02
      1.31758713E+03      1.07585520E+03     -1.23506376E+03
      2.38293849E+02      1.84133367E+03     -1.31849041E+03
      7.43047063E+02      2.48449399E+02     -1.52022620E+03
     -5.81346948E+02      2.99425616E+01      5.88254443E+02
     -2.28462593E+03     -2.18862239E+03      1.09101346E+03
     -9.81350260E+02     -1.81595109E+03     -1.99806612E+03
      6.83065857E+02      1.77236670E+03      1.95326185E+02
     -3.02653743E+02      6.76017799E+02     -4.77718219E+02
      1.81770271E+03     -1.58425296E+02      5.55086460E+01
      9.68763936E+02     -2.53052812E+03     -2.68934121E+03
     -8.01859949E+01      4.52160646E+00     -1.11541922E+02
     -3.96532552E+03     -1.58740938E+03     -1.79173513E+03
      1.69188605E+03     -6.65287588E+02     -4.05594068E+02
     -6.50901387E+02     -7.56757509E+02     -6.60752737E+01
      1.57333692E+02      1.11612888E+03      1.98425778E+02
     -2.06966263E+03      5.24117979E+02     -2.16338517E+03
     -5.44377797E+02     -3.11106008E+02     -5.64916383E+02
     -1.99910252E+03     -4.37112651E+02      1.11458363E+02
     -5.70708260E+02      2.07957327E+03     -1.88234910E+03
      4.24384516E+02      1.45345289E+02     -2.88173217E+02
     -1.07635733E+03     -2.95235657E+02     -1.75270596E+03
     -5.65067217E+02      4.60538730E+03      1.87168802E+03
      3.11939364E+02     -1.98671368E+02      2.40792691E+02
     -6.44090227E+01     -1.62359107E+01     -2.73459631E+02
     -5.17033899E+01      1.41031705E+03      8.49824518E+01
     -6.68939852E+02      5.42373455E+02      6.03217412E+02
      2.27400201E+03     -1.53719371E+03     -1.28217909E+03
      6.68492090E+02      3.63818087E+01     -1.78102801E+03
      1.17534837E+02     -3.20714065E+02     -9.45865400E+01
     -2.36763454E+03      4.89281508E+02     -7.80968184E+02
      1.08827653E+03      1.64056799E+03      9.54171262E+02
     -7.14591854E+02      5.79805466E+01     -4.45940978E+02
     -2.77379651E+03     -4.62092883E+02     -1.06327512E+03
     -2.16777450E+03     -8.48007596E+02      3.74162288E+02
     -2.77305444E+01     -3.35669019E+02      1.53720334E+03
     -2.29704540E+02      3.94858727E+02     -7.32714656E+02
      1.39225883E+03     -3.21411607E+03     -6.29957949E+02
      3.62637997E+02     -8.74210646E+02      6.87087231E+02
      7.70546338E+02      1.84022179E+03     -1.04090794E+03
      3.25722833E+02     -9.98818041E+02     -1.98032808E+02
     -4.28991495E+02     -2.14788587E+03      1.57699880E+03
     -1.03486383E+03      9.24949088E+02      6.53284660E+02
     -1.15191837E+03     -2.41118522E+02      1.24979525E+02
      9.39365531E+02     -2.97577660E+02     -4.36857179E+02
     -6.60986128E+02      1.39518918E+03     -7.26562917E+02
     -7.52038580E+02      5.67053903E+02     -9.77964969E+02
     -1.13462013E+03     -3.10409360E+02     -8.29552334E+01
     -1.21969842E+03     -1.46317986E+03     -1.38779520E+03
     -1.52816998E+02      6.19145447E+02      1.09893193E+02
      9.27744004E+02      8.49876768E+02      5.32533180E+02
     -1.08734407E+03      1.64861701E+01     -1.55520949E+03
      1.46189582E+02      3.38837639E+02      2.23035711E+02
      2.55168502E+03      1.88482570E+03      3.03799139E+02
     -9.99942868E+02     -3.39728036E+03      9.86871178E+02
      5.39853880E+02     -1.16110844E+03      1.63279101E+02
     -1.07502932E+03     -3.37235212E+03      7.70461365E+01
      6.09065007E+02      1.35869393E+03      8.49093899E+02
      3.18162292E+01      1.99660358E+02     -4.97904942E+01
      3.15997243E+03     -7.15205017E+02     -3.91552885E+02
      2.38348495E+02      3.02053866E+01     -1.33123880E+03
      1.54817646E+02      5.89643068E+02      2.16430296E+02
     -1.24624995E+03     -2.64289008E+02      6.19943937E+02
      4.77541792E+03      1.73083820E+03     -2.54135721E+02
     -4.00344678E+02      5.03405384E+02      1.50862493E+02
     -2.16612754E+02      1.32118229E+03      1.27172910E+03
     -1.60553941E+03      9.22180139E+02     -5.06071534E+02
     -1.10863717E+02     -2.87335116E+03      1.17769381E+03
      2.72076145E+02     -1.50342911E+02      4.26759852E+01
      3.66045289E+02      3.40891437E+03      1.39461842E+02
     -1.53103113E+03     -2.21888657E+03     -1.85433210E+03
     -2.02444249E+03     -2.95985344E+03     -1.36662347E+03
     -6.66157981E+02      4.32518522E+02      7.10238550E+01
     -1.00221725E+03     -3.93670826E+02     -2.31625137E+02
     -5.79502121E+01     -2.35497096E+02     -2.81376299E+03
     -8.55348121E+02      6.55432182E+02      9.32967723E+02
     -1.03766862E+03     -5.18462671E+02      2.39155593E+03
     -1.10499978E+03     -1.26277592E+02     -2.25104192E+03
     -1.12020933E+01     -2.81417804E+02     -2.94845720E+02
      1.25420343E+03     -3.40784418E+02     -1.70278253E+03
     -2.19224422E+03      5.15015123E+02      7.83944555E+02
     -1.31563953E+02      5.63485766E+02     -4.12399661E+02
     -1.83451045E+03     -2.05945536E+03      7.95148941E+02
      2.01592685E+02      1.21963209E+03     -2.07481648E+03
      3.15900831E+02      3.67105413E+02      1.42253625E+02
     -6.85336268E+02      2.35816053E+03      4.54218484E+02
      4.35014874E+03      9.53419176E+02      1.41180265E+03
      1.70366828E+02      4.00462750E+01     -1.11991821E+03
     -3.15245300E+03      3.23140393E+02      1.14256590E+03
      2.04727238E+03     -1.99354145E+03     -1.27477868E+03
     -3.34984205E+02      3.43287434E+02     -5.00997366E+02
     -8.00549329E+02     -1.52476809E+02      1.63551711E+03
      3.20021172E+03     -1.15371923E+03      1.82059811E+03
     -6.61284625E+02     -3.26672320E+02     -2.56043454E+02
     -3.62120045E+02     -2.02780319E+02      8.47876664E+01
      1.38256502E+02      2.89301121E+03      7.09918538E+02
      2.99104061E+01      5.72649674E+02     -1.33038804E+02
     -1.57599162E+03      1.29419599E+03     -1.40498205E+03
     -1.38209672E+03     -3.88412281E+01     -1.53278785E+03
      1.14394105E+03     -1.02288959E+03     -2.44722495E+03
      9.15130131E+02     -3.41382110E+02     -6.63037936E+02
     -1.93219489E+01     -3.33518888E+03     -1.81147555E+03
      8.41691428E+02      1.59696761E+03      1.35063239E+02
     -1.06041132E+03     -3.72250379E+02     -1.92090023E+03
      2.83834384E+02      1.13054309E+02     -2.03249847E+02
     -4.89408843E+02     -9.19828189E+02      5.95162915E+02
     -1.25190322E+02     -2.31762151E+03      7.42482741E+02
      1.82582783E+02     -2.27358163E+02      2.69130396E+02
     -2.20892958E+03     -1.01495106E+03     -1.99342508E+03
     -6.40788313E+02     -1.44659486E+02     -2.32925155E+03
     -8.62098719E+02     -4.71694651E+02      3.38234150E+02
      7.88860546E+01      1.21433085E+03     -4.02732178E+02
      1.11350800E+03      1.20055457E+03     -1.46051679E+01
     -6.89584241E+02     -4.93626481E+02     -4.62876325E+02
     -3.06124258E+02     -2.55074702E+03     -4.19035826E+02
      1.91491691E+03     -2.06651524E+03     -2.16360189E+02
     -1.01035539E+03      2.30946205E+00      6.68780285E+00
      1.10392697E+03     -1.35079928E+03     -3.38376492E+03
     -1.15868853E+03     -1.40490306E+03     -1.84680944E+02
     -3.51146699E+02     -2.21737594E+02     -1.25660598E+02
      1.70163773E+03     -1.69980958E+03     -4.61932417E+03
     -1.14682547E+03     -4.09985722E+02     -1.31098601E+03
     -5.22905784E+02      8.18422854E+02     -2.55177421E+02
     -1.17887482E+03      5.59385005E+02      1.68863577E+03
     -1.24580316E+03     -3.12533086E+02     -4.66725106E+02
     -4.22042857E+02      1.62240207E+02     -8.53679799E+02
      3.57410652E+03     -3.04353984E+02      1.07419406E+03
      1.68212315E+01     -4.02424522E+02     -6.74991435E+02
      5.51436157E+02      1.43972140E+02     -1.40223220E+03
     -6.26624018E+02     -2.55713489E+02     -1.66345922E+02
      1.49461787E+03     -2.20533711E+03      2.58662144E+02
      3.16610893E+03      1.93015035E+03     -8.82356112E+02
     -4.06156064E+02     -7.23646721E+02     -1.66585736E+02
     -2.18640547E+03     -1.54937865E+03      1.25008132E+03
     -1.59472327E+03     -1.56451872E+03     -2.08415215E+03
     -1.75438049E+03      1.35603037E+02      3.66072948E+02
     -3.14486702E+02     -6.84986173E+02     -8.93489194E+01
      9.24553475E+02      1.91962542E+03     -3.35438231E+02
      1.73630671E+03     -3.18740742E+03      1.04768405E+03
      7.05018900E+02      7.84238366E+01      1.69929561E+01
      2.36672625E+03     -1.86570882E+01     -1.41768286E+03
     -2.10586913E+03     -2.18878038E+03     -1.94001255E+03
     -9.26962402E+01      2.42139365E+01     -2.16821241E+02
     -1.01256362E+03     -1.30876043E+03      2.05306782E+02
     -1.37080075E+03     -1.00193206E+03      7.32555836E+02
     -1.66184081E+02     -9.52187345E+01     -1.24691409E+02
      7.41150575E+02     -1.88991616E+03     -6.56291887E+02
      5.54297223E+02     -1.33144926E+02      2.44973123E+02
     -9.11808482E+02      5.70011479E+02      1.94090882E+02
     -2.42267920E+03      1.03548723E+03      7.51450143E+02
      8.77748326E+02      1.35013106E+03     -1.96885981E+03
      3.15680392E+02      3.28104123E+02     -3.24080497E+02
     -1.19254210E+02     -1.05895635E+03      1.86489642E+03
      6.05426269E+02      6.23196187E+02     -3.14992691E+02
     -9.58174089E+02     -2.04458436E+02      1.68702279E+02
     -1.37794684E+03      8.05331513E+02      6.41630131E+02
      1.45568837E+02      7.98567769E+02     -2.84259025E+02
      1.61623174E+02      1.12828777E+02     -2.88763715E+02
      6.20479215E+02     -1.51896027E+03     -1.65224952E+03
     -4.09917587E+02      2.89428287E+02      1.86327147E+03
     -5.11057611E+02     -6.46700951E+02     -6.29144602E+02
      1.50570661E+03     -6.48948131E+02     -1.47475894E+03
     -9.48212642E+02     -4.19466130E+02     -8.33593258E+02
     -1.72925979E+03     -1.93052298E+03     -6.84312788E+02
      2.60333982E+02      1.10805894E+01      6.20050852E+01
      2.59734265E+03     -8.50325125E+02      9.26283644E+02
     -8.87929797E+02     -1.42120970E+02      1.82169297E+03
     -1.31248549E+03      3.29016372E+02      2.06694475E+03
     -2.06380776E+02     -5.30556485E+02      9.12469272E+00
     -7.38482733E+02     -1.41139022E+03      2.87648297E+02
     -2.43154660E+03      5.57813737E+02     -1.16588415E+03
     -4.92058462E+01      7.72076586E+02     -6.37095480E+02
     -5.82839956E+02      1.07605883E+03     -1.08987799E+03
     -2.29148558E+03      7.67561216E+02     -3.15289181E+02
     -9.68645336E+02     -4.59615336E+02      4.92612681E+02
     -1.05102752E+02     -6.79170168E+02      8.58792815E+02
     -2.75554943E+03     -2.74262273E+03     -1.86980231E+03
     -6.75911547E+02      9.08538568E+02     -1.32251925E+02
     -9.86589264E+02      2.30028917E+03     -2.56641431E+03
      2.18730765E+03      7.96606291E+02      5.77858609E+02
     -6.84295151E+02      4.29584905E+02     -1.46366379E+02
     -2.05017727E+02      3.82942048E+02     -3.02002856E+02
     -1.26338654E+03     -3.08050261E+02     -1.25467569E+03
     -2.47324573E+02     -4.69412336E+02     -3.87931896E+01
      7.41356676E+02     -3.28834822E+03     -1.04609091E+03
     -2.74169981E+03     -7.58761449E+02      3.98956165E+02
     -2.74846860E+02     -5.74257190E+02     -4.17220714E+02
     -1.12042810E+03     -1.28569337E+03     -8.31154093E+02
     -7.07320322E+02      8.89533161E+01      1.77685551E+02
     -2.75942813E+01      5.83408254E+02     -4.30669098E+02
     -3.66173295E+02     -2.18599859E+02      1.97581550E+03
      7.18146313E+02      1.39579561E+03     -2.15662867E+03
     -6.79317887E+02     -3.35102388E+02     -2.75575687E+02
     -2.43600883E+02     -4.99254345E+02      2.29450120E+03
      1.33835480E+03      1.61622430E+03      3.97514031E+03
     -1.17101255E+03      2.22295517E+03     -1.65707989E+03
     -1.62909737E+02     -1.20890482E+03     -1.16321624E+03
     -4.46670865E+02      1.75046660E+03     -5.83438099E+02
      3.05466918E+02     -4.62270613E+02      1.87097282E+03
      7.27040857E+02     -1.31682475E+03     -1.15810305E+02
     -2.43442403E+02      7.02634510E+01     -7.52547223E+02
     -1.51757616E+03     -9.82708332E+02      5.62483439E+02
      1.04459010E+03     -2.22662976E+03      4.12798223E+02
     -6.75061826E+02      2.44670104E+02     -1.21441984E+03
     -4.48597984E+02     -1.72511902E+03      5.25148978E+02
      1.85259380E+03     -2.25820749E+02     -5.57754774E+02
      3.93556295E+02     -9.28389755E+02      1.57493762E+02
     -2.29014754E+03     -2.58333744E+03     -3.94789448E+03
      7.97803994E+02     -1.15827153E+03      9.12703604E+02
     -4.96747726E+02      1.44710456E+01     -3.71525195E+02
      1.56951350E+03      1.59718907E+03      1.94393431E+03
      1.22193993E+03      3.65787294E+02     -1.99099601E+01
     -1.50087710E+02      5.35098972E+02     -4.36889084E+02
      9.09498493E+02     -7.21403514E+01     -2.14955293E+03
     -3.04280498E+03     -5.87165019E+02      2.53481532E+03
     -2.78283225E+02      4.08556918E+02     -6.21699515E+02
     -6.00973253E+02     -2.45961395E+03     -3.06500059E+02
      6.95268688E+02     -2.92059810E+03      1.32188181E+03
     -9.70141227E+02     -5.67437979E+01     -7.67045635E+02
      1.55934827E+03      7.20063507E+02      2.78136805E+03
     -3.96402812E+02      1.08654269E+03      1.28847662E+03
     -1.09465489E+02      2.93177997E+02     -2.40642348E+02
     -1.62290656E+02      1.71522657E+03      4.23670407E+03
      1.68738922E+03      8.38007051E+02     -1.67227529E+03
      2.27613037E+01      6.06077333E+02      1.10155288E+02
      1.37868986E+03      1.27578705E+03      1.32222527E+03
     -8.39382465E+02     -3.99164336E+01     -5.50856485E+01
      3.33903374E+03     -5.87045650E+02      1.47991847E+03
     -1.05380591E+02      2.54900282E+02     -5.30124572E+02
      2.76944469E+03     -2.39168118E+03     -3.78874069E+02
      3.02560319E+03     -1.10624213E+03      3.41393150E+03
     -2.09488561E+02     -4.67927882E+02      1.87488845E+03
  }
}

Hamiltonian = DFTB {
  SCC = Yes
  SCCTolerance = 1e-6
  MaxSCCIterations = 200
  ForceEvaluation = Dynamics
  MaxAngularMomentum = {
    C = "p"
    H = "s"
  }
  Charge = 0.0
  SpinPolarisation = {}
  Eigensolver = Standard {}
  Filling = Fermi {
    Temperature [Kelvin] = 300.0
  }
  SlaterKosterFiles = Type2FileNames {
    Prefix = "../../pbc-0-3/"
    Separator = "-"
    Suffix = ".skf"
    LowerCaseTypeName = No
  }
  KPointsAndWeights = {
    0.0000000000000 0.0000000000000 0.0000000000000 1.00000000000000
  }
  Dispersion = LennardJones { 
    Parameters = UFFParameters {}
  }
}

ParserOptions = {
  ParserVersion = 3
}
