Geometry = GenFormat {
352  S
C  H
1 1    0.4034369051E+02    0.3439262667E+02    0.3834281617E+02
2 2    0.4024198614E+02    0.3554488062E+02    0.3845303411E+02
3 2    0.4131311842E+02    0.3456997267E+02    0.3783777437E+02
4 1    0.4054116866E+02    0.4937366762E+02    0.3984065874E+02
5 2    0.3864412821E+02    0.5031694096E+02    0.4029732785E+02
6 2    0.2622876132E+02    0.4995968466E+02    0.4016409247E+02
7 1    0.4099625024E+02    0.4781953486E+02    0.4002787404E+02
8 2    0.2641144980E+02    0.4754565781E+02    0.3932928108E+02
9 2    0.4019099660E+02    0.4708191410E+02    0.3996484737E+02
10 1    0.2610414512E+02    0.4758214060E+02    0.4145920092E+02
11 2    0.2521018471E+02    0.4790713165E+02    0.4195860214E+02
12 2    0.2690526891E+02    0.4848388978E+02    0.4162058344E+02
13 1    0.4202929491E+02    0.4617175483E+02    0.4149030090E+02
14 2    0.4153697910E+02    0.4542445951E+02    0.4069641707E+02
15 2    0.4148445575E+02    0.4576169588E+02    0.4271548526E+02
16 1    0.2819068038E+02    0.4624596982E+02    0.4161674185E+02
17 2    0.2853682318E+02    0.4688922031E+02    0.4248590797E+02
18 2    0.2844608964E+02    0.4690348649E+02    0.4066126816E+02
19 1    0.4436641431E+02    0.4501988144E+02    0.4194794225E+02
20 2    0.4371676816E+02    0.4411861365E+02    0.4189555500E+02
21 2    0.4447782848E+02    0.4499290559E+02    0.4309735088E+02
22 1    0.4567570414E+02    0.4482500968E+02    0.4129669625E+02
23 2    0.3116675697E+02    0.4431188005E+02    0.4191330103E+02
24 2    0.3077738941E+02    0.4589963422E+02    0.4138475501E+02
25 1    0.3942441458E+02    0.3380075134E+02    0.3729951610E+02
26 2    0.3988134996E+02    0.3341559395E+02    0.3638162294E+02
27 2    0.3876497318E+02    0.3293007851E+02    0.3793256329E+02
28 2    0.3857003520E+02    0.3449430774E+02    0.3719780552E+02
29 1    0.4560232698E+02    0.4450503802E+02    0.3985417481E+02
30 2    0.4486875005E+02    0.4513312623E+02    0.3944228582E+02
31 2    0.4663939982E+02    0.4456030231E+02    0.3944722003E+02
32 2    0.4530758190E+02    0.4347642277E+02    0.3974300631E+02
33 1    0.2611360513E+02    0.2937371181E+02    0.3718892634E+02
34 2    0.2591538194E+02    0.2831412821E+02    0.3703341623E+02
35 2    0.2595143119E+02    0.2940833496E+02    0.3826559551E+02
36 1    0.2763108873E+02    0.2966537960E+02    0.3694555620E+02
37 2    0.2821939189E+02    0.2899484733E+02    0.3764376751E+02
38 2    0.2793028778E+02    0.3071721053E+02    0.3703466494E+02
39 1    0.2807477180E+02    0.2923475498E+02    0.3555656558E+02
40 2    0.2757636428E+02    0.2825456109E+02    0.3537888475E+02
41 2    0.2916884258E+02    0.2897728457E+02    0.3574294276E+02
42 1    0.2767243085E+02    0.3005575092E+02    0.3427704600E+02
43 2    0.4287086918E+02    0.3117822346E+02    0.3448116575E+02
44 2    0.2662168768E+02    0.2968259876E+02    0.3414622807E+02
45 1    0.2865405469E+02    0.3000556316E+02    0.3307369773E+02
46 2    0.2968951524E+02    0.3038196013E+02    0.3332960324E+02
47 2    0.4349894304E+02    0.3083884177E+02    0.3244706374E+02
48 1    0.4425913490E+02    0.2864625691E+02    0.3246090583E+02
49 2    0.4334434037E+02    0.2825190315E+02    0.3195300510E+02
50 2    0.4447683316E+02    0.2783270914E+02    0.3320880535E+02
51 1    0.3000724322E+02    0.2884088275E+02    0.3143477954E+02
52 2    0.3086748902E+02    0.2957790887E+02    0.3179342638E+02
53 2    0.2961409875E+02    0.2926168232E+02    0.3044415768E+02
54 1    0.4612410439E+02    0.2748236753E+02    0.4638790939E+02
55 2    0.4635009907E+02    0.2689449866E+02    0.4738556416E+02
56 2    0.4707402929E+02    0.2782150682E+02    0.4584683081E+02
57 1    0.2519092921E+02    0.3028609606E+02    0.3642135373E+02
58 2    0.2419682318E+02    0.3031823827E+02    0.3694462987E+02
59 2    0.2548387673E+02    0.3127959322E+02    0.3646002241E+02
60 2    0.2501187543E+02    0.3006720688E+02    0.3534144438E+02
61 1    0.3004834583E+02    0.2651947989E+02    0.4549497105E+02
62 2    0.3063561969E+02    0.2555971694E+02    0.4557921674E+02
63 2    0.2899801658E+02    0.2624095534E+02    0.4582860694E+02
64 2    0.3004955897E+02    0.2683056961E+02    0.4442281529E+02
65 1    0.4274490728E+02    0.4132106511E+02    0.3885615771E+02
66 2    0.4262050608E+02    0.4141860516E+02    0.3770419340E+02
67 2    0.4319632114E+02    0.4231755213E+02    0.3910459807E+02
68 1    0.4139296888E+02    0.4134624882E+02    0.3929176549E+02
69 2    0.4080467306E+02    0.4066218172E+02    0.3987330696E+02
70 2    0.4094878508E+02    0.4234797262E+02    0.3900597694E+02
71 1    0.3924295460E+02    0.4950931039E+02    0.4058068905E+02
72 2    0.3922083015E+02    0.4977221139E+02    0.4166960835E+02
73 2    0.3881586746E+02    0.4851338405E+02    0.4028255032E+02
74 1    0.3322250508E+02    0.2955048542E+02    0.2904637922E+02
75 2    0.3294768698E+02    0.3025910571E+02    0.2824240070E+02
76 2    0.3265528954E+02    0.2868278763E+02    0.2891243817E+02
77 1    0.3446353853E+02    0.2983312910E+02    0.2991077773E+02
78 2    0.3530959508E+02    0.4488659172E+02    0.2928653520E+02
79 2    0.3451841083E+02    0.4433913025E+02    0.3063777682E+02
80 1    0.3439561343E+02    0.3141490606E+02    0.3054317849E+02
81 2    0.3344625139E+02    0.3148406150E+02    0.3111120868E+02
82 2    0.3426372940E+02    0.3208826991E+02    0.2974620058E+02
83 1    0.3570949078E+02    0.3152824775E+02    0.3134644721E+02
84 2    0.3610256138E+02    0.3049834472E+02    0.3150422396E+02
85 2    0.3544911849E+02    0.3215909166E+02    0.3219272391E+02
86 1    0.3690091719E+02    0.3225933464E+02    0.3075473144E+02
87 2    0.3685184107E+02    0.3334928934E+02    0.3083799509E+02
88 2    0.3693301950E+02    0.3216663939E+02    0.2967677297E+02
89 1    0.4375475943E+02    0.4035239944E+02    0.3925784670E+02
90 2    0.4365485201E+02    0.3996963186E+02    0.4021470649E+02
91 2    0.4352591473E+02    0.3944973114E+02    0.3854038076E+02
92 2    0.4466892486E+02    0.4076649661E+02    0.3909634930E+02
93 1    0.3811098003E+02    0.3198000073E+02    0.3188425299E+02
94 2    0.3796128753E+02    0.3260640171E+02    0.3280224722E+02
95 2    0.3804627584E+02    0.3093105823E+02    0.3191892783E+02
96 2    0.3907550671E+02    0.3217950282E+02    0.3142211858E+02
97 1    0.2656347695E+02    0.3714647579E+02    0.4274368096E+02
98 2    0.2700916806E+02    0.3743435937E+02    0.4378112407E+02
99 2    0.2686769543E+02    0.3608718528E+02    0.4254348533E+02
100 1    0.2507850912E+02    0.3724156889E+02    0.4303224482E+02
101 2    0.2436025001E+02    0.3697945495E+02    0.4218192679E+02
102 2    0.2474569003E+02    0.3826771668E+02    0.4342011718E+02
103 1    0.2491015116E+02    0.3620960956E+02    0.4429266526E+02
104 2    0.2463919599E+02    0.3688496797E+02    0.4522651941E+02
105 2    0.2584708370E+02    0.3556626509E+02    0.4444767877E+02
106 1    0.2383284979E+02    0.3507930539E+02    0.2873821875E+02
107 2    0.2373935661E+02    0.3450578163E+02    0.2973042741E+02
108 2    0.2428213779E+02    0.3437478165E+02    0.2800988304E+02
109 1    0.2240299339E+02    0.3557154592E+02    0.2853503031E+02
110 2    0.2244472672E+02    0.3652593890E+02    0.2786532339E+02
111 2    0.2203936919E+02    0.3591012762E+02    0.2944882598E+02
112 1    0.2138951310E+02    0.3463459710E+02    0.2787754412E+02
113 2    0.2111670072E+02    0.3385966316E+02    0.2862463088E+02
114 2    0.2174453943E+02    0.3421259327E+02    0.2690686626E+02
115 1    0.2007066378E+02    0.3539186381E+02    0.2758630069E+02
116 2    0.2021492021E+02    0.3641516189E+02    0.2720480022E+02
117 2    0.1975601515E+02    0.3536154992E+02    0.2871498594E+02
118 1    0.1917744492E+02    0.3460189530E+02    0.2668575958E+02
119 2    0.1809244955E+02    0.3500217503E+02    0.2688041142E+02
120 2    0.1920082897E+02    0.3359901748E+02    0.2695548655E+02
121 1    0.2703309308E+02    0.3809541083E+02    0.4169246047E+02
122 2    0.2691684359E+02    0.3911159189E+02    0.4192550499E+02
123 2    0.2808464941E+02    0.3791563954E+02    0.4165430617E+02
124 2    0.2654471508E+02    0.3791814066E+02    0.4071110025E+02
125 1    0.1958205684E+02    0.3485263045E+02    0.2527668005E+02
126 2    0.1893431003E+02    0.3436656103E+02    0.2457503413E+02
127 2    0.1947392396E+02    0.3595042901E+02    0.2495357233E+02
128 2    0.2061081438E+02    0.3469076986E+02    0.2507072956E+02
129 1    0.2778845599E+02    0.3310604458E+02    0.3037327412E+02
130 2    0.2777918202E+02    0.3329461145E+02    0.3144535356E+02
131 2    0.2758426012E+02    0.3415918497E+02    0.2993545116E+02
132 1    0.2916456156E+02    0.3270114693E+02    0.2987960706E+02
133 2    0.2924126549E+02    0.3246043361E+02    0.2874583301E+02
134 2    0.2965538053E+02    0.3183836270E+02    0.3043554572E+02
135 1    0.3004574315E+02    0.3394731185E+02    0.2994553716E+02
136 2    0.3014223239E+02    0.3411333234E+02    0.3106091153E+02
137 2    0.2949546990E+02    0.3484344111E+02    0.2954726544E+02
138 1    0.3136283147E+02    0.3392963701E+02    0.2931363947E+02
139 2    0.3136661331E+02    0.3382982039E+02    0.2818383016E+02
140 2    0.3186670668E+02    0.3297932596E+02    0.2966597611E+02
141 1    0.3228111717E+02    0.3506790899E+02    0.2978458092E+02
142 2    0.3331665988E+02    0.3502883877E+02    0.2933300145E+02
143 2    0.3234890309E+02    0.3504638756E+02    0.3087727995E+02
144 1    0.3182926244E+02    0.3639945583E+02    0.2913777159E+02
145 2    0.3149457704E+02    0.3619942526E+02    0.2811034982E+02
146 2    0.3276255490E+02    0.3701168837E+02    0.2890534117E+02
147 1    0.3082813434E+02    0.3719497548E+02    0.2999252054E+02
148 2    0.3034553538E+02    0.3647590141E+02    0.3068070798E+02
149 2    0.2992258606E+02    0.3763773463E+02    0.2950951513E+02
150 1    0.3158788288E+02    0.3827247311E+02    0.3091208103E+02
151 2    0.3135566316E+02    0.3923950642E+02    0.3053242941E+02
152 2    0.3270861418E+02    0.3815686439E+02    0.3068225692E+02
153 1    0.2653126215E+02    0.3231176311E+02    0.3005992690E+02
154 2    0.2651845305E+02    0.1607694333E+02    0.3062234855E+02
155 2    0.2550222591E+02    0.3287806678E+02    0.3007632305E+02
156 2    0.2659008644E+02    0.3183333291E+02    0.2900930815E+02
157 1    0.3121425009E+02    0.3815476226E+02    0.3236477299E+02
158 2    0.3008161235E+02    0.3834632750E+02    0.3254275042E+02
159 2    0.3136574374E+02    0.3714174395E+02    0.3298527570E+02
160 2    0.3169127740E+02    0.3894677243E+02    0.3300612163E+02
161 1    0.4122800376E+02    0.2692422384E+02    0.2878887942E+02
162 2    0.4020623949E+02    0.2745023404E+02    0.2877338737E+02
163 2    0.4188272276E+02    0.2762307895E+02    0.2922413263E+02
164 1    0.4110453117E+02    0.2558437711E+02    0.2941784648E+02
165 2    0.4209807123E+02    0.2504205099E+02    0.2926869478E+02
166 2    0.4036641415E+02    0.2486375003E+02    0.2884412067E+02
167 1    0.4076117144E+02    0.2536768549E+02    0.3095046504E+02
168 2    0.4166392204E+02    0.2538736013E+02    0.3157090874E+02
169 2    0.4024653260E+02    0.2434172626E+02    0.3111451078E+02
170 1    0.3977275318E+02    0.2633228497E+02    0.3154252497E+02
171 2    0.3892024764E+02    0.2639424956E+02    0.3081288433E+02
172 2    0.4021969919E+02    0.2742877200E+02    0.3147941217E+02
173 1    0.3932792534E+02    0.4123782731E+02    0.3288356013E+02
174 2    0.3858855220E+02    0.4047421037E+02    0.3290033636E+02
175 2    0.3881859408E+02    0.2670916828E+02    0.3344740677E+02
176 1    0.4040753920E+02    0.4069874060E+02    0.3377017556E+02
177 2    0.4075155857E+02    0.3964439431E+02    0.3345715101E+02
178 2    0.3992396524E+02    0.4043212006E+02    0.3476824828E+02
179 1    0.4154221648E+02    0.4166881231E+02    0.3409311835E+02
180 2    0.4110245982E+02    0.4257301130E+02    0.3454600617E+02
181 2    0.4202010148E+02    0.4195378871E+02    0.3314274282E+02
182 1    0.4256481656E+02    0.4124508559E+02    0.3509342989E+02
183 2    0.4200139062E+02    0.4129185995E+02    0.3608369807E+02
184 2    0.4327508997E+02    0.4213010950E+02    0.3516199867E+02
185 1    0.4168731263E+02    0.2684988554E+02    0.2724819226E+02
186 2    0.4166267391E+02    0.2783058000E+02    0.2675549540E+02
187 2    0.4263697129E+02    0.2641139278E+02    0.2699058983E+02
188 2    0.4100907623E+02    0.2621990918E+02    0.4196833728E+02
189 1    0.4347196791E+02    0.4004413902E+02    0.3501373893E+02
190 2    0.4391191818E+02    0.3974939462E+02    0.3407020113E+02
191 2    0.4425261189E+02    0.4031611539E+02    0.3575323478E+02
192 2    0.4313778872E+02    0.3898838579E+02    0.3531077468E+02
193 1    0.3168241462E+02    0.2556665254E+02    0.4093708600E+02
194 2    0.3130808121E+02    0.2650410143E+02    0.4054679851E+02
195 2    0.3158854492E+02    0.4024136701E+02    0.4002017286E+02
196 1    0.3319776971E+02    0.2571873540E+02    0.4120507721E+02
197 2    0.3322685093E+02    0.2650636593E+02    0.4196099501E+02
198 2    0.3369976861E+02    0.4142874055E+02    0.4027418534E+02
199 1    0.3404832644E+02    0.2452127781E+02    0.4167684091E+02
200 2    0.3495806028E+02    0.2470906746E+02    0.4107493983E+02
201 2    0.3356929704E+02    0.2361287777E+02    0.4126674680E+02
202 1    0.3442070698E+02    0.2432206308E+02    0.4311767664E+02
203 2    0.3474164819E+02    0.2318953375E+02    0.4310725284E+02
204 2    0.3355151125E+02    0.2432175782E+02    0.4377177441E+02
205 1    0.3554385239E+02    0.2526889780E+02    0.4365199447E+02
206 2    0.3554053276E+02    0.2631000457E+02    0.4324964960E+02
207 2    0.3655184255E+02    0.2483083205E+02    0.4335925221E+02
208 1    0.3553051724E+02    0.2528623342E+02    0.4521060073E+02
209 2    0.3633280599E+02    0.2589612549E+02    0.4560374278E+02
210 2    0.3583763119E+02    0.2429024572E+02    0.4573158167E+02
211 1    0.3416315351E+02    0.4099586623E+02    0.4575259086E+02
212 2    0.3345044168E+02    0.4016321356E+02    0.4566967284E+02
213 2    0.3380895970E+02    0.4180970802E+02    0.4516294893E+02
214 1    0.3429724827E+02    0.4149694412E+02    0.4715336903E+02
215 2    0.3333319033E+02    0.4197395296E+02    0.4741591781E+02
216 2    0.3492714040E+02    0.4241713483E+02    0.4731293470E+02
217 1    0.3081555710E+02    0.2508187009E+02    0.4205192795E+02
218 2    0.2989767393E+02    0.2569959579E+02    0.2683351786E+02
219 2    0.3044972393E+02    0.2400618211E+02    0.2682030920E+02
220 2    0.3136039856E+02    0.2530348776E+02    0.4301355288E+02
221 1    0.3481515558E+02    0.4049810555E+02    0.4820685834E+02
222 2    0.3538089200E+02    0.4094703548E+02    0.4897521257E+02
223 2    0.3390827407E+02    0.3997576718E+02    0.4859296824E+02
224 2    0.3557223542E+02    0.3972880099E+02    0.4775691277E+02
225 1    0.3976694028E+02    0.3929112050E+02    0.3740777531E+02
226 2    0.3943214343E+02    0.3924329963E+02    0.3634080087E+02
227 2    0.4013832976E+02    0.4036380935E+02    0.3762659581E+02
228 1    0.3866089493E+02    0.2378321071E+02    0.3848269817E+02
229 2    0.3847979614E+02    0.2471678717E+02    0.3909386685E+02
230 2    0.3885837304E+02    0.2291213000E+02    0.3913612158E+02
231 1    0.3727167527E+02    0.3881212257E+02    0.3782643834E+02
232 2    0.3679128274E+02    0.3798026780E+02    0.3842543782E+02
233 2    0.3712997955E+02    0.3842360518E+02    0.3678856488E+02
234 1    0.3629159842E+02    0.3997498917E+02    0.3788863714E+02
235 2    0.3613837757E+02    0.4040553942E+02    0.3887237409E+02
236 2    0.3522690914E+02    0.3961542722E+02    0.3758093854E+02
237 1    0.3665967622E+02    0.4109086246E+02    0.3688076227E+02
238 2    0.3572258388E+02    0.4138415129E+02    0.3629210555E+02
239 2    0.3741014920E+02    0.2540942360E+02    0.3613126788E+02
240 1    0.3731751763E+02    0.4227169119E+02    0.3754481073E+02
241 2    0.3817195375E+02    0.2672277752E+02    0.3822373178E+02
242 2    0.3651907235E+02    0.2752378872E+02    0.3812325345E+02
243 1    0.3792969520E+02    0.4308083262E+02    0.3637480018E+02
244 2    0.3858125454E+02    0.4248730676E+02    0.3568649186E+02
245 2    0.3871743751E+02    0.4362320778E+02    0.3682469229E+02
246 1    0.3687584055E+02    0.4390854389E+02    0.3570030617E+02
247 2    0.3662581847E+02    0.4491708803E+02    0.3624591493E+02
248 2    0.3592373205E+02    0.4340805763E+02    0.3591518344E+02
249 1    0.4085510194E+02    0.2292554891E+02    0.3774463985E+02
250 2    0.4181095703E+02    0.2301257589E+02    0.3719501218E+02
251 2    0.4107133156E+02    0.2309239517E+02    0.3882063595E+02
252 2    0.4037544643E+02    0.2184588562E+02    0.3758854695E+02
253 1    0.3690132605E+02    0.4416898459E+02    0.3414208338E+02
254 2    0.3644819942E+02    0.4514202869E+02    0.3401189818E+02
255 2    0.3799939870E+02    0.4421390674E+02    0.3381244383E+02
256 2    0.3627424787E+02    0.4338863662E+02    0.4905687605E+02
257 1    0.4536155609E+02    0.3562120475E+02    0.3902334978E+02
258 2    0.4638677787E+02    0.3520506095E+02    0.3885705736E+02
259 2    0.4538670290E+02    0.3669210365E+02    0.3880893428E+02
260 1    0.4429887718E+02    0.3500489494E+02    0.3804549427E+02
261 2    0.4337181798E+02    0.3556226455E+02    0.3800250008E+02
262 2    0.4405181776E+02    0.3402604185E+02    0.3850880545E+02
263 1    0.4486639333E+02    0.3462383308E+02    0.3665855984E+02
264 2    0.4586474443E+02    0.3404008138E+02    0.3680656184E+02
265 2    0.4513888334E+02    0.3546231270E+02    0.3595739306E+02
266 1    0.4401381497E+02    0.3368015008E+02    0.3571056997E+02
267 2    0.4374103440E+02    0.3275832847E+02    0.3622475148E+02
268 2    0.4476408906E+02    0.3331679156E+02    0.3504263238E+02
269 1    0.4278410121E+02    0.3428797912E+02    0.3517461779E+02
270 2    0.4193348792E+02    0.3401914105E+02    0.3592575189E+02
271 2    0.4245271271E+02    0.3376827411E+02    0.3422337404E+02
272 1    0.4280793975E+02    0.3583356131E+02    0.3488278349E+02
273 2    0.4362790181E+02    0.3597849788E+02    0.3416456712E+02
274 2    0.4289286122E+02    0.3646120534E+02    0.3581164019E+02
275 1    0.4143727345E+02    0.3623448269E+02    0.3417985363E+02
276 2    0.4124097085E+02    0.3722322149E+02    0.3445688808E+02
277 2    0.4061668330E+02    0.3561077567E+02    0.3463393650E+02
278 1    0.4152448394E+02    0.3601202142E+02    0.3268718938E+02
279 2    0.4057323480E+02    0.3606910853E+02    0.3221568171E+02
280 2    0.4184592970E+02    0.3499990627E+02    0.3240125186E+02
281 1    0.4494967919E+02    0.3558773119E+02    0.4050303306E+02
282 2    0.4445653952E+02    0.3655763436E+02    0.4072367756E+02
283 2    0.4424692605E+02    0.3483662371E+02    0.4084999628E+02
284 2    0.4580580008E+02    0.3574587966E+02    0.4119978612E+02
285 1    0.4234614585E+02    0.3700945705E+02    0.3191974434E+02
286 2    0.4310460872E+02    0.3654393817E+02    0.3117413505E+02
287 2    0.4162279065E+02    0.3775184565E+02    0.3135144446E+02
288 2    0.4293136541E+02    0.3767379523E+02    0.3264446637E+02
289 1    0.3309339171E+02    0.3233251601E+02    0.3547601322E+02
290 2    0.3279267999E+02    0.3325150374E+02    0.3594048040E+02
291 2    0.3414146554E+02    0.3221526233E+02    0.3533123054E+02
292 1    0.3262124642E+02    0.3114429615E+02    0.3636377974E+02
293 2    0.3283993516E+02    0.3018629033E+02    0.3582162400E+02
294 2    0.3151455687E+02    0.3151092798E+02    0.3664715405E+02
295 1    0.3324174730E+02    0.3113983121E+02    0.3792699588E+02
296 2    0.3231057411E+02    0.3133633685E+02    0.3850640408E+02
297 2    0.3392306456E+02    0.3193006646E+02    0.2288016117E+02
298 1    0.3380607039E+02    0.2973900126E+02    0.2303547191E+02
299 2    0.3474358161E+02    0.2947789934E+02    0.3780960265E+02
300 2    0.3312198560E+02    0.2894964290E+02    0.2277394858E+02
301 1    0.3422062250E+02    0.2960076110E+02    0.2454093435E+02
302 2    0.3442749713E+02    0.2852719894E+02    0.2471593223E+02
303 2    0.3337679106E+02    0.2987743855E+02    0.4050847135E+02
304 1    0.3548858851E+02    0.3040249077E+02    0.2498466582E+02
305 2    0.3500563586E+02    0.3132611847E+02    0.2545070186E+02
306 2    0.3625595582E+02    0.3073107463E+02    0.2416967248E+02
307 1    0.3630391060E+02    0.2986711287E+02    0.2604911708E+02
308 2    0.3573176563E+02    0.2984223484E+02    0.2699411292E+02
309 2    0.3716620164E+02    0.3049895402E+02    0.2630018482E+02
310 1    0.3684843898E+02    0.2841709496E+02    0.2578845355E+02
311 2    0.3729497861E+02    0.2839166050E+02    0.2474200793E+02
312 2    0.3597439082E+02    0.2768572171E+02    0.2586418895E+02
313 1    0.3252901460E+02    0.3236854333E+02    0.3411192940E+02
314 2    0.3251816371E+02    0.3330305547E+02    0.3356153898E+02
315 2    0.3290169535E+02    0.3170037375E+02    0.3337874270E+02
316 2    0.3150914947E+02    0.3208878764E+02    0.3415990519E+02
317 1    0.3786559053E+02    0.2788520226E+02    0.2672165050E+02
318 2    0.3891650764E+02    0.2827271689E+02    0.2657984348E+02
319 2    0.3762946418E+02    0.2785949298E+02    0.2773717679E+02
320 2    0.3819318881E+02    0.2694036389E+02    0.2633367511E+02
321 1    0.3190845406E+02    0.4127254343E+02    0.2067715542E+02
322 2    0.3098496177E+02    0.4109640659E+02    0.2125294477E+02
323 2    0.3247096568E+02    0.4177150650E+02    0.2141962900E+02
324 1    0.3243647721E+02    0.3991541152E+02    0.3572871947E+02
325 2    0.3345288509E+02    0.3995440592E+02    0.3525431796E+02
326 2    0.3191357246E+02    0.3941572967E+02    0.3493661141E+02
327 1    0.3240336394E+02    0.3900516932E+02    0.3697770527E+02
328 2    0.3133555917E+02    0.3877376466E+02    0.3702989155E+02
329 2    0.3271882392E+02    0.3954073113E+02    0.3787157267E+02
330 1    0.3327727495E+02    0.3773464728E+02    0.3685176006E+02
331 2    0.3293917659E+02    0.3701205819E+02    0.3766647600E+02
332 2    0.3428186684E+02    0.3786441613E+02    0.3715482109E+02
333 1    0.3320807833E+02    0.3690262276E+02    0.3549836854E+02
334 2    0.3252513013E+02    0.3739014798E+02    0.3478713949E+02
335 2    0.3297486611E+02    0.3585248613E+02    0.3572789091E+02
336 1    0.3454070329E+02    0.3687761182E+02    0.3477196271E+02
337 2    0.3537763517E+02    0.3662321047E+02    0.3551451170E+02
338 2    0.3477216566E+02    0.3794829439E+02    0.3445900712E+02
339 1    0.3448042693E+02    0.3596201625E+02    0.3359597914E+02
340 2    0.3370117885E+02    0.3637737029E+02    0.3284056684E+02
341 2    0.3392379850E+02    0.3507427892E+02    0.3383040221E+02
342 1    0.3582130742E+02    0.3558893465E+02    0.3297087238E+02
343 2    0.3551820711E+02    0.3507133880E+02    0.3212647880E+02
344 2    0.3628647528E+02    0.3474087668E+02    0.3357810226E+02
345 1    0.3167343219E+02    0.4204296480E+02    0.1930497249E+02
346 2    0.3254768897E+02    0.4198626524E+02    0.1857798291E+02
347 2    0.3070223725E+02    0.4179408683E+02    0.1889264769E+02
348 2    0.3160831328E+02    0.4306988326E+02    0.1968328801E+02
349 1    0.3677625824E+02    0.3674703402E+02    0.3254642944E+02
350 2    0.3608837689E+02    0.3741949621E+02    0.3206191115E+02
351 2    0.3726406055E+02    0.3728384428E+02    0.3343701421E+02
352 2    0.3755070323E+02    0.3625326632E+02    0.3191153330E+02
0.0000000000E+00    0.0000000000E+00    0.0000000000E+00
0.1532620600E+02    0.0000000000E+00    0.0000000000E+00
0.0000000000E+00    0.1532620600E+02    0.0000000000E+00
0.0000000000E+00    0.0000000000E+00    0.1532620600E+02
}
Driver = VelocityVerlet {
  Steps = 50000
  TimeStep [fs] = 0.2
  MDRestartFrequency = 5
  Thermostat = None {}
  Xlbomd = {
    IntegrationSteps = 6
    MinSccIterations = 2
    MaxSccIterations = 200
    SccTolerance = 1e-6
    PreSteps = 0
  }
  Velocities [AA/Ps] = {
5.37401132 2.99173392 5.85902557
41.66987574 -37.55854962 -21.62549946
-29.52437652 -10.93608898 14.80099423
4.57035799 -19.45431752 1.91553356
16.07606260 -13.92787456 11.07530894
16.57433679 -5.51694395 -33.45510975
-2.70349024 -17.05752323 -5.47921938
27.80422199 30.16521857 -9.08726658
21.39104971 -7.27617440 -16.88363411
1.53927811 17.48344916 8.05261425
2.84641375 -6.20657343 16.18985512
38.80797440 -34.88288429 18.71146486
-8.91000484 -12.62416130 -0.71629921
20.76607676 46.64622431 60.63344595
-10.29036467 3.48596606 -4.82927616
-0.98944592 8.18829232 -11.57661244
-42.12819132 -18.54894503 13.97711901
-36.00801359 -9.00663640 -40.46732714
2.96351133 0.87783974 1.48212233
-12.88760730 40.82028394 -10.11362723
-28.12370496 -44.45515159 -10.99045758
4.11592484 13.36002614 2.85415268
28.52839230 -14.53635919 62.73999161
37.39337867 6.23366886 72.11995402
-2.62343987 1.55348683 -5.95958637
32.87926906 -24.09132384 -49.29658230
12.48249842 7.49814714 29.60126079
-2.70109829 -8.08955910 44.23902636
8.71470179 9.13461996 -0.83253992
-28.12737988 6.06101818 -32.77819899
-51.51949749 -19.39439718 -0.67866448
-13.91106599 54.89175154 -44.95420189
-8.30619309 2.33722842 -3.99808294
12.23071931 -10.37370852 6.40479068
10.31144747 -10.59337727 -21.97873449
2.05335208 14.83171664 9.30082484
18.44932319 14.92565284 0.67595349
0.55619494 33.88240611 38.42913589
2.75259185 2.92796764 14.74563090
-24.07789259 56.85766688 -15.89685141
-9.11818818 0.06065766 3.58454411
-9.97650525 2.99538833 3.04254990
-40.69266747 -6.85723709 18.67451618
21.06850912 2.73334349 -9.45038215
8.38529700 2.55630866 1.81728807
31.14447480 -26.09730031 -21.92280363
14.95992050 9.58193460 -17.41861795
-5.51869032 7.25481059 -9.48957006
-2.02837574 -10.29611969 -15.70624398
-5.10039748 -19.81245051 -32.76337651
-0.40339618 -4.87537124 -9.88426001
10.02979710 -19.03265755 -0.63378728
33.30710350 -4.57416556 -5.64621915
8.07070608 -1.97613094 8.68755667
24.85035899 0.99631542 21.69696401
-15.01651868 -28.20421814 5.62167328
-3.39280472 3.36560702 -7.18860607
3.27354926 -10.01956041 25.07652969
9.76571861 4.70527928 23.22604540
-24.59874852 -3.32431161 -16.80074445
2.39233575 -6.06430143 2.08367280
-9.85066653 -1.77456011 -12.17748556
8.76532291 25.58722699 14.07729538
17.16767241 0.31033881 -4.78717499
6.52716842 -4.99743983 -10.91452737
51.08753862 -8.31572824 -8.36554940
-15.87725320 -33.76896656 8.61200720
6.01345143 7.78530717 -4.06468443
-33.39654852 -34.82123530 -23.89146935
-5.41297055 -15.44354314 2.09553386
-1.61445533 3.18168828 -12.69161131
31.48979595 34.63385056 -18.36508584
-27.26150080 34.08364159 26.41008218
8.81634804 -0.33775992 2.49813392
22.68790552 -8.01884731 14.50388241
-14.95560128 -9.67862526 -30.46210808
10.26084442 1.70203731 -1.59129886
-42.82012564 33.03095787 1.55022770
-10.02116467 31.66734478 -20.05047711
2.61877242 -15.24569080 -10.79073150
21.47584315 -18.36760789 -12.22904170
-11.11300573 -21.25678996 6.59732984
-1.33466552 3.10388101 15.44864865
28.26671121 -42.09497181 -66.28941968
-0.80871593 2.37273153 -7.80856964
1.88615830 -5.00426418 -2.25870698
-10.15286392 18.34639282 40.35573105
-3.80769775 6.81434738 16.25773679
3.18439859 0.21384318 0.72007682
32.79159863 -18.14277843 45.48423637
22.37995497 -12.45282774 15.84894303
-18.91589817 20.13280192 8.67961593
12.27113430 1.43970364 -8.38407681
30.35504294 -40.27237676 17.11520929
29.74723632 -34.46071217 -30.16760849
3.37874780 -7.53088308 -17.46629677
-0.22420663 2.51754915 0.76311795
5.20754207 27.65653987 12.94080663
10.88865408 37.59761443 -5.85880829
4.92600504 3.99915157 -3.87348787
15.00391964 18.74254089 20.12263059
-13.24136558 5.09804336 0.04193192
-9.55509080 5.19971386 -7.64846997
2.24015820 -32.25846889 -4.85431845
-16.98300225 20.77137089 6.33798698
-8.26777840 -1.16196958 -9.33210428
25.25771705 -50.26508982 -23.16258809
21.87697907 -1.49574441 8.10870818
-3.75181722 -4.74010620 -5.88437346
-2.78902279 -13.81049859 21.94425598
13.62296992 -19.25529910 -11.65021678
-2.97332506 7.65348553 -4.20196716
-12.64017575 -50.48627704 -10.12222079
7.43998851 0.93675493 4.57361198
2.24877956 0.62005943 -1.10065110
13.73881323 1.51231416 -17.13016879
33.12464362 2.24249801 0.25002105
-3.67703794 -2.48581101 0.89985444
-29.07445157 -11.82434132 1.67072010
11.08391984 -11.36338713 -5.28868003
-0.86995636 -2.18107217 0.16052379
0.61195229 29.29640377 -5.82173792
-9.55923064 -16.40859259 21.92152438
-9.64541313 11.45808766 -3.76379348
1.38245839 2.12214214 7.08330160
4.50049847 -1.66193481 -42.85087863
-29.42646202 -6.53508851 16.50380765
10.31225042 -11.87581417 12.75487952
-8.60429410 6.22047979 5.64723663
-15.21549209 -6.56738192 -1.38173524
29.29382994 -22.71194484 -33.71296694
-1.83616332 1.45154213 7.81996540
23.52607121 -26.32239394 2.07289813
-14.35663007 -3.16981109 -8.70232822
-6.92512878 -1.12301297 -4.86712649
9.52160522 -39.75473211 -3.59640247
3.55662401 -26.62423622 -13.48751505
-20.90138589 -2.81554994 -12.16526451
-16.60898091 12.37746151 4.78396771
9.28384179 -9.58540247 -18.81590174
3.20868397 -2.23423828 1.80713439
-14.21898424 0.51764352 1.16512504
1.04078910 20.46708825 -29.80882922
-5.98635637 -4.97049861 -5.76356206
-4.85175306 7.08378965 -6.62386273
-7.69314958 17.33444399 4.17392836
4.96021342 -4.99899445 -5.00209466
-14.26498221 -3.14151347 8.30598967
-31.54105575 9.28595410 -21.72935703
-8.60350213 9.83343077 -8.51650429
10.45064018 -28.05307505 6.45650515
10.88974357 15.65774293 -0.71034171
6.04459328 2.85821770 -13.00201697
-10.51060713 -30.74542050 -13.83563925
22.29173444 -4.92709299 -34.28706598
22.04158024 -17.15759415 0.61247452
-5.09956666 7.94763630 2.26459354
-11.22302538 0.22479080 27.36355316
27.72391968 38.13408399 -4.28999268
-24.37644595 -1.99028843 -23.01515984
-12.07678936 0.85771714 5.29820111
10.26029396 14.81867947 0.20026891
-22.71186881 28.20113465 6.14467468
1.32510349 7.40379979 2.14071772
-19.78620777 9.22343387 5.96404671
20.39986058 -26.02412741 0.87986759
-7.66369761 9.18380083 -1.03644195
-6.61553657 -14.11871469 6.44878594
17.10488228 -16.05668220 -21.72745173
-6.35452189 -7.39452761 1.16277326
-1.99323213 -5.50639582 20.77513513
19.05155261 2.26409425 -8.46268627
1.40888823 11.89247626 3.31588490
64.13018450 3.21159843 6.30807255
10.58347464 -9.93169739 24.46957017
-7.76404843 -3.43852483 9.34596992