Geometry = GenFormat {
<<< "system.gen"
}

Driver = VelocityVerlet{
  Steps = 50000
  TimeStep [fs] = 0.2
  MDRestartFrequency = 25
  Thermostat = None {
    #InitialTemperature [Kelvin] = 300.0
  }
  Xlbomd{
    IntegrationSteps = 6
    MinSccIterations = 2
    MaxSccIterations = 200
    SccTolerance = 1e-6
  }
  Velocities [AA/Ps] {
0.19600546 2.09343275 5.11763770
-25.19109997 3.91705752 4.52917461
22.32672222 -48.33740770 -21.40781789
0.20948528 3.54575223 -0.82327629
16.04725324 22.69436953 12.64379702
-5.31191068 -13.12843443 -14.03163361
-7.05847634 12.77650634 1.91502575
-18.63843718 -17.20480586 -6.57756371
37.12985033 -5.71588444 13.70935199
-5.33293246 -2.23562573 -3.47208342
3.24502062 -3.95343833 0.79746489
5.64072196 12.59914138 -5.61876674
-2.07983946 5.76180378 7.95192778
17.09434530 -20.25279000 2.92980874
17.45286922 5.59562869 -24.94349300
-6.02799018 -9.10582542 -0.35035428
24.70480232 -17.05368785 29.11368005
-19.17053670 -13.76840735 21.35276146
-3.06567605 7.61921625 0.24182201
-29.85172341 -6.41869986 -7.26859605
-19.14775507 -1.39111499 -4.62883860
-2.76989301 2.71995162 -12.17451969
-1.47724492 -10.48044616 25.42702049
13.92050402 -15.36444133 7.91407046
-2.46427678 -8.27569291 -2.30170744
21.44398755 -3.78072564 8.62535508
-8.46385671 7.50520174 -22.20414779
5.18943738 21.40455036 -5.15819569
10.77011820 6.60730793 5.39124555
4.91147769 10.71455817 37.88881650
-8.54633079 35.76279174 8.33604889
12.46654218 26.06180375 -28.21382791
8.05061431 6.94540487 7.63924323
-4.95943877 -55.71223760 22.96047551
1.18417288 -15.14350571 -19.02363832
7.00026729 8.11670094 -2.58878946
26.25788020 34.12944814 24.28677099
36.71778394 -5.38428740 -37.54944359
-1.73962511 7.58779177 3.18455644
32.62066827 -27.29178063 22.26945729
37.69884360 1.98850399 -3.53235006
-5.53194380 0.87979273 -1.12155652
-7.96034144 2.64614018 31.06390394
28.44659802 -47.65038172 -11.99183822
-7.36230855 1.17004640 -2.66310907
33.69003154 9.57609712 -23.06524326
-31.60168883 -14.74876119 -5.39651148
0.65849479 -7.11694210 0.25785208
-27.09194697 -27.78866625 -5.63300860
28.51297851 23.61903038 11.31193790
1.66926077 -11.53212588 4.34643413
-6.21057458 -16.00744916 4.60506919
17.02508724 -1.33355981 -5.46430338
-8.82102120 4.24957515 -1.63756489
-16.59839869 -9.14138848 -17.05957342
1.52902470 -4.24805886 -26.04151934
-10.75832832 -9.74216518 -6.38111550
14.78791616 0.45316901 3.01053766
-3.97768801 6.35537207 -22.49233946
16.52933527 -23.61176391 2.35668603
-0.58659091 8.16343182 13.32433599
28.45458917 0.64238690 -5.80407250
-0.11635612 -2.15325194 8.18922918
-32.70782069 17.07205422 6.17672265
4.62883409 -5.48933459 5.11034654
-21.57711659 -31.27930296 6.17357130
-24.84563818 -13.16146707 -4.28380704
-6.56333686 -8.91582390 -1.48183187
-8.42141567 -29.25404137 -21.06678797
12.62558000 0.08892453 -30.92801132
0.64984660 -1.55306731 -0.05301657
39.89476469 -8.28344611 37.26799010
-10.92140550 7.40039739 -22.15149971
-4.56714537 -1.95306749 -1.69800974
-7.65507317 -6.34713937 -16.02126861
30.97025055 27.17169245 17.32626047
0.24756051 -11.53393493 -6.86209048
-2.28052998 -8.60318063 -2.11944145
0.26599730 -31.71291095 4.01145789
4.88217105 2.18406969 -3.88823548
8.76467172 16.04241683 -38.17579355
5.03934683 17.51176332 -33.67229000
-0.61167555 3.52541975 -3.23094251
-27.54800824 3.65084562 15.29816835
17.59715364 4.38685847 -0.23193118
-0.98501768 -3.53531783 5.56304553
-3.36258028 -16.25559938 18.38099780
-7.72958054 13.23546301 -23.48341849
19.02128766 1.66118903 6.35938439
-2.80565796 -49.91225209 -1.04937018
6.92788816 -11.11982807 -13.96268608
14.99163655 -6.96949741 -18.24949004
5.67968390 11.75511801 6.07367282
-6.67293686 -40.96054392 -35.59501769
-13.12411496 -8.50381457 34.53206022
20.95204368 -13.29252910 -24.34709392
-12.90665333 -1.06110553 -8.51216456
-11.69135048 5.67107542 1.45544147
13.72503870 -34.43025808 2.76163250
-4.43614728 6.05164245 0.68073310
-0.87258879 -9.66838098 5.11273863
15.89954330 0.03641666 7.94974261
-10.31369211 10.61500972 5.83956341
-12.30320934 -6.36984926 -20.50473410
39.25946789 2.66025459 -4.81141928
-5.81536056 -8.60080216 1.01504627
-15.21018239 0.72079016 49.56771861
8.30148585 -7.95614382 6.91027329
2.82251952 13.28222297 -2.19143020
-30.47122990 -18.31124636 35.46950700
-11.69159969 40.30775783 -25.38141214
-3.99526185 12.08595750 1.49807745
14.19106587 17.63976103 -1.85626235
10.72006624 3.88635741 0.60740586
-0.97363843 -7.14137935 -3.25701829
0.56526483 -10.22627102 7.72354355
-3.42073134 -5.91645328 -5.39729197
1.70978064 5.36542696 3.11510419
43.04873243 8.40169877 -43.28935737
-0.37260976 -45.00800145 -35.35323232
2.78474030 2.13171240 0.55759190
-25.43707967 -40.12150063 0.58894654
-5.78151935 -23.36256374 6.25624041
-5.50326757 27.89069592 18.01144047
8.69776635 1.42334565 7.90533038
-13.99444767 19.88770248 55.46911908
-26.44367460 -1.86206058 -6.51921495
-39.12817435 44.82534308 22.78164358
0.35375023 -1.25296153 -0.76175103
2.72256175 -23.28349496 -6.87933551
18.93851751 20.98153890 40.82031138
5.94793628 0.53483668 -0.18402377
-29.84759109 12.26617996 -4.24000495
-9.97777340 -1.69882729 27.75687077
-1.82987169 -2.59215924 -3.81430435
-31.49966979 0.75799283 1.66140984
-2.53350347 -6.78312182 29.92776997
-0.63219627 0.46823378 -1.06181176
28.69287712 12.62177749 5.59980596
18.01591569 -4.78737476 -4.17887294
1.88531680 4.27873806 8.58399979
23.69590984 53.82854381 17.76159735
7.42281656 18.48830494 5.28350957
5.63391394 -4.40026166 -1.56211010
21.79105501 -3.95412586 7.03379902
22.71083057 10.06989107 60.55314970
-6.48446042 3.49422381 6.29397106
0.39632757 -7.71219126 -15.90535118
-9.85527814 37.05033397 -17.25835183
-1.68708638 -6.29596584 2.59216300
-7.18684200 33.13006904 -36.01290512
1.30582955 -29.99308123 -14.99109728
-7.35175898 -10.11473805 2.69104423
-12.60728123 12.82671664 -34.70807226
-20.98514891 -9.62640891 39.75711840
-11.76299142 -32.00562200 -30.00344924
-2.12992716 -5.47194343 2.64828618
19.12738436 -31.34113234 3.35443968
6.45658477 -37.98713958 11.80373743
0.76843158 -24.40749382 -12.02741310
2.60744429 -3.70480420 -3.47590968
-6.72251048 -18.39019239 4.26045046
-11.99934813 -7.76897594 -5.44607149
-5.44302873 4.66410677 2.35565476
-28.29793582 -2.66181691 29.07705550
-32.77508355 18.62149212 -10.47266940
-3.85730716 -11.92762459 3.43456643
24.73048264 33.57458060 10.31903103
7.12861541 -10.10953121 -10.62789325
12.89444575 -10.65589784 5.25049706
7.11045011 -12.02860973 1.21495056
46.81671482 2.81186498 -7.07844533
-4.28540652 -0.28561818 -8.72979037
9.87971839 34.66227085 -12.82044958
-28.44318574 -5.59976477 15.41947541
-5.46570695 -10.37233829 -2.09962240
16.06101551 0.68019595 4.96158366
0.41383434 -63.02200857 -1.46581363
6.86609961 -3.60791075 -1.50535093
-7.77061298 1.16336314 8.56077602
-44.17143094 -5.87535442 -19.68905302
-7.99766681 2.17948392 9.02076690
-7.49156865 5.27978660 -8.24589537
7.42137279 -1.56429862 -4.02859287
6.08826426 -7.03367965 9.45774326
12.97212313 -15.02436274 24.74319848
-3.34856620 -23.47275852 -30.23110996
-0.53528262 13.31550736 28.05852590
2.95306875 7.91772241 -6.20152210
0.38384446 -29.18168042 -10.22125443
5.80696844 -6.17568754 38.50419994
7.56410097 21.87423173 -14.80119763
1.52027866 -6.46875013 -2.48083871
29.94858451 -12.74185730 -12.68989052
-15.67783648 -4.97782465 10.67317317
-0.98427505 -9.84299582 -8.61704738
1.25571076 12.51099344 6.09077113
1.37948535 -1.59423308 8.46830140
8.82816776 -3.83593961 -4.18033343
-13.32535773 13.73600358 -31.94557501
-36.20024702 -9.40224145 -29.03116531
6.07615519 0.23996915 -6.72899103
-21.23769987 18.75400668 -22.17536858
-6.55794033 -16.98864769 4.34388075
11.46893776 11.10268633 -3.65585779
-10.43014271 4.03184084 -21.70944888
3.96436359 -7.94079455 -27.39822849
-1.71421529 -1.87772725 2.94121997
-10.41939498 -13.32803391 33.44012126
10.19779045 1.86300122 -11.93932158
-9.08056704 11.76182441 -6.89285028
-14.91158450 -9.10496701 1.09563010
-29.41684476 12.60003720 -29.27521175
12.45623495 -5.10889091 -0.27507210
18.16207937 -32.99210976 13.05030500
3.87197372 -1.30877127 -13.26012711
-4.04972006 1.01799589 -3.87403058
26.57538961 19.04727265 -18.72467475
-25.37442338 7.44021929 -4.53062532
-31.04390156 55.09733850 17.17579766
4.71047423 5.28435638 -4.84446583
20.39759574 0.62627781 28.52534668
-15.02849661 29.25409570 -4.45372663
-2.85077539 -26.65327984 8.40922738
-1.38322264 -2.07099668 0.85645403
-8.79991559 35.96612101 -14.19466821
-3.62864602 20.08933373 -19.27919618
-9.02889574 2.21551512 4.60360477
-23.26001946 -9.75106600 22.96391866
18.02297436 6.10118011 30.09068067
-2.74132658 -3.08051563 -9.32163497
17.74135087 -32.46336747 -5.54274560
4.78102343 21.72270744 17.75986435
-8.58650710 0.17534164 11.55390977
10.25024539 18.52745561 15.07388178
-26.70240097 7.65440934 -24.09904770
1.69219914 6.26193730 -2.37270195
-22.16692281 12.52754551 -5.12887552
25.10360210 5.02159434 -6.07131867
10.81634636 -5.05525842 6.61186522
-9.02923446 -9.53694376 6.42423927
7.89925358 -2.49400325 13.70729826
-8.50086558 -6.37629871 3.28604907
-21.90556838 -8.24937378 -15.95940361
3.35261275 -13.04486483 31.68342417
-4.23995424 2.56918179 -10.10435085
-37.23296959 -7.71789276 7.71148895
-50.26342507 17.03920900 -4.31447965
-4.58855245 5.67438895 -9.87314099
0.33114708 -16.16168586 -10.20409710
-16.00647015 -20.74361522 -2.90563960
-27.39297038 -6.30806246 1.69131492
-7.12174178 -1.08714458 2.26778172
-9.94202512 22.64656860 -12.76367510
-28.06641600 -32.92539373 -32.34861460
-33.55833913 -4.64262687 -5.49630628
7.36895662 -0.34321077 13.70648941
-45.07128890 13.98781713 -18.64080531
-17.76286172 -7.34857040 0.00549482
4.51509476 -10.08169714 -5.23076442
-18.19060741 -14.95273074 6.68330838
28.76170625 0.24192185 14.76641439
9.95233105 2.07139841 5.78975743
34.15596390 39.21868278 39.99039869
0.22326494 -22.33818203 7.59673647
-7.93059093 1.20228651 2.24999204
-40.78365909 -14.26946556 5.13428690
13.81346004 23.36130851 21.94680873
12.20696339 -0.30373555 -8.39157966
-1.08403884 0.62996508 -0.04054080
3.27586122 25.00738843 -17.70141480
-0.59933797 3.05706271 4.92940807
-21.04475784 6.83666311 -0.63871923
9.86348210 -17.25395411 1.59380535
14.86088036 2.07838757 -3.81024453
9.67035342 7.42336024 -5.93729703
22.77602716 4.05092487 -7.90937504
9.55869618 -1.80017113 16.60521358
18.91465410 10.67810774 8.13558520
18.06920493 -12.39103008 3.82569724
-7.98202697 3.03602283 -4.08084776
-1.52147700 -21.10432586 18.69008133
-12.56758710 16.89214666 3.28952820
1.97595702 4.00357521 13.76919431
1.57698708 4.70676814 -3.95277066
-40.03768622 9.48210066 -7.47561872
-4.59605394 -23.23229134 -24.33784906
2.68126447 7.10781059 -2.31851561
13.08079351 -3.87113122 -5.58273048
-43.72806551 -19.31900286 -70.84259491
0.56011193 37.55491822 38.30454232
-5.23006085 12.00345297 -7.59352013
-1.50016710 -31.62872707 -39.24773351
19.28550242 -13.71336379 55.91874109
6.79176451 4.86818706 1.24050571
-61.39126231 -43.62944745 12.98324361
73.56340401 -27.01240572 48.20578539
1.97930078 -11.76961242 -1.71335280
-14.93267280 -38.65039376 2.63845503
60.70812661 -19.72120594 6.88777732
-1.88179748 -3.84027350 13.06286162
24.69437415 -6.49684778 -2.38472445
8.42185432 -9.27563304 9.65506440
-1.77907452 -0.13932997 -1.65677054
7.19104495 -10.67677272 -64.42980218
57.43293775 30.78505548 -2.85818103
1.69407297 4.53465663 9.54227342
-21.23512505 5.96446535 -25.50003396
-25.45006940 18.78058260 36.67247469
-3.90779069 10.15050414 -4.73715066
-15.53918362 0.68717910 14.31013133
-12.62441240 -37.45656818 -20.80114004
-2.83420377 -0.55232558 -8.09631778
64.47572800 15.19412865 -31.83368680
37.86642500 -85.42626378 -21.37306801
-19.17186171 -8.24955986 30.74421985
-9.53345676 0.30970595 -6.19243277
-12.71395991 -22.84092745 16.52851508
30.07303412 28.41326725 45.90116746
16.95797064 9.67266396 1.80929056
-13.09360810 15.47240598 -6.50470739
-3.91505943 0.40917700 -44.98808736
-2.86635008 8.82769393 25.63753780
7.28376338 3.20161376 6.72352936
-37.85897938 33.88595744 -9.62376157
-9.38527141 5.52407754 -42.62177977
-3.28870777 4.68799958 -7.34899902
-0.26350573 6.50545594 33.90404882
19.84946074 16.67350758 -25.37179960
-8.69128873 -8.21409201 0.35134356
25.41208316 -7.81191062 -18.93851246
11.31589355 35.95127306 -9.84778481
1.59243233 5.21403775 0.84467658
31.49462215 4.99056921 31.73560158
-37.54502165 -37.31233834 -14.47595406
-6.49303082 3.02651038 9.79352324
19.27086048 -4.38520524 -14.05784842
23.60750278 -16.11726821 -4.75262327
6.77618603 6.22077581 1.10426403
20.66431345 1.02713768 -31.47548099
-13.04608878 27.74624738 3.78418073
2.03373779 2.77753878 -5.85738040
-16.92189555 -10.26369729 -34.26578345
-10.21600788 -11.60011782 -22.02127759
7.65622403 -3.61197378 -9.22764912
-0.60784521 45.00983516 -35.68801766
15.99542389 -38.58417882 15.22092247
-5.54702034 9.09749821 23.10951216
1.11714348 7.27907435 6.96907790
1.93738425 -15.60805171 -18.95091814
29.24578475 -11.51311448 -11.98026637
-5.16360553 -6.71120606 37.35766317
  }
}

Hamiltonian = DFTB {
  SCC = Yes
  SCCTolerance = 1e-6
  MaxSCCIterations = 200
  readinitialcharges = yes
  ForceEvaluation = Dynamics
  MaxAngularMomentum = {
    C = "p"
    H = "s"
  }
  Charge = 0.0
  SpinPolarisation = {}
  Eigensolver = Standard {}
  Filling = Fermi {
    Temperature [Kelvin] = 300.0
  }
  SlaterKosterFiles = Type2FileNames {
    Prefix = "/usr/workspace/troup1/second_set/real_data/decane_run_first_50/pbc-0-3/"
    Separator = "-"
    Suffix = ".skf"
    LowerCaseTypeName = No
  }
  KPointsAndWeights = {
    0.0000000000000 0.0000000000000 0.0000000000000 1.00000000000000
  }
  Dispersion = LennardJones {
    Parameters = UFFParameters {}
  }
}

ParserOptions = {
  ParserVersion = 3
}
