Geometry = GenFormat {
<<< "system.gen"
}

Driver = VelocityVerlet{
  Steps = 50000
  TimeStep [fs] = 0.2
  MDRestartFrequency = 25
  Thermostat = None {
    #InitialTemperature [Kelvin] = 300.0
  }
  Xlbomd{ 
    IntegrationSteps = 6 
    MinSccIterations = 2
    MaxSccIterations = 200
    SccTolerance = 1e-6 
  }
  Velocities [m/s] {
     -7.37659064E+02      2.74471977E+02      2.76342887E+02
     -2.65317855E+03      6.85683930E+01      7.40687920E+02
      6.76316260E+02      1.85525858E+03     -5.22176108E+02
     -4.20650962E+02     -6.68515482E+02      3.99701651E+02
     -9.01356627E+00     -7.77639139E+02      1.61991532E+03
     -2.06280494E+03     -1.99156416E-01      7.10274255E+02
     -2.45441791E+02     -6.20905614E+02      1.14836412E+02
      2.23655980E+02      1.16233098E+03     -3.13692146E+03
     -2.16222790E+02     -1.43371042E+02     -3.06697326E+02
      2.52100062E+01     -4.56358291E+02     -6.89047212E+02
      3.15325707E+03      1.47642856E+03      1.14710002E+03
     -2.37070522E+03      2.28576731E+03      1.06802807E+03
     -1.34932024E+02     -9.04784211E+02      2.55291614E+02
     -4.29504837E+01     -1.43831746E+03     -1.03404227E+03
     -8.56080426E+00     -2.24905926E+03      1.00067923E+03
      7.26685363E+02      1.17917974E+03     -6.13161878E+02
     -5.72375052E+02      6.65888013E+02      2.60608162E+03
      1.58285629E+03      1.45423211E+03     -9.30033245E+02
      4.08364995E+02     -5.67386360E+02      3.96295139E+02
     -6.59463617E+02     -6.80264145E+02     -4.40644414E+02
     -2.48233357E+03      4.39720226E+02     -1.76923422E+03
     -1.13908115E+02      1.26327259E+03     -1.02073512E+03
     -7.21244345E+02     -4.21406546E+02     -1.43907630E+03
     -9.88931949E+02     -3.33693855E+02     -9.99098556E+02
     -4.91577131E+01      8.74408285E+02     -3.68557716E+02
      3.46551217E+03      1.11784226E+03     -1.27273251E+03
     -1.65748039E+03      1.51413257E+03      2.71736505E+02
      8.41189510E+02     -1.45897857E+03      4.10263198E+02
     -5.25484942E+01      4.06243893E+01     -7.04082985E+02
     -2.39779440E+03      2.21342443E+01     -7.35577926E+02
     -2.32616687E+03      5.71391055E+02      1.68411485E+03
     -9.67872188E+02     -1.43777723E+03     -8.52120685E+02
      3.36890958E+02     -2.81698384E+02      5.96875450E+01
     -8.63334791E+02      1.55846604E+03      5.86655512E+01
      2.41428652E+03     -2.44165230E+02      1.99687027E+03
      3.88903691E+02     -4.96061914E+01     -2.61665452E+02
      1.10764190E+03     -4.22179319E+02     -7.00241305E+02
      1.76982718E+03      2.86534965E+03     -1.84990472E+03
     -3.05075934E+02     -2.08000328E+02     -5.79067500E+01
      1.79606494E+03     -8.00522151E+02     -3.08942391E+03
     -2.21272764E+02      2.42395698E+03     -2.42133062E+03
      2.13279708E+00      9.73527352E+02      2.82456643E+02
      4.56828102E+03     -3.02255712E+03      1.07774958E+03
      1.11399765E+03     -3.07807610E+03      5.81216355E+00
     -5.35085687E+02     -3.17084851E+02      2.28036645E+02
     -1.17289749E+02      1.03234463E+03     -1.08812333E+03
      1.52345955E+03      8.09905890E+02      3.56071711E+02
     -4.92698248E+02      9.63797767E+02     -3.38303664E+00
      1.10214333E+03     -1.93796239E+03      6.14755521E+02
     -1.55665879E+03      2.81487917E+03      1.15188612E+03
      5.70133966E+02      9.03077736E+01     -2.41889816E+02
      2.65822359E+03      1.70136498E+03      5.87518151E+02
      1.35294713E+03      4.52776499E+02      1.25119379E+02
      6.49020342E+02     -2.08841952E+02     -7.69815927E+02
      2.02744842E+03      8.15790301E+02     -3.33820344E+02
      3.13576444E+02     -2.46577747E+03     -8.45080334E+02
      8.79209902E+02     -8.88797107E+02      6.15212206E+02
      2.67540117E+03      2.31450801E+03      1.08685870E+03
     -2.69838691E+03      1.22900334E+03     -1.49689927E+03
     -1.50787785E+03      3.81759875E+03      3.18321047E+02
     -5.88243887E+02      2.56885253E+02      2.18299009E+02
     -3.11065470E+02      8.27183157E+02     -1.14015405E+03
      1.45173137E+03     -8.29991295E+02      6.31354097E+02
      1.12183783E+03     -1.17383143E+02     -2.37101934E+02
     -6.73086210E+02     -7.11135761E+01     -5.80069894E+02
      2.30889096E+03     -1.26507866E+02      1.76094980E+03
     -5.00614994E+02      1.36857438E+03      1.59294759E+02
      8.43941488E+01     -8.71861633E+01      3.40444186E+02
      1.17366465E+03     -2.00337746E+02     -3.50883120E+02
     -1.80628910E+02      1.97542826E+03     -3.03204030E+03
      2.52263762E+02      5.12363304E+02     -4.21644174E+02
      1.45513377E+03     -1.98672211E+03      2.59142248E+02
      2.06891166E+03     -1.98428711E+03     -5.52957554E+02
      7.45554668E+01      1.21605474E+02     -5.29450642E+02
      8.78109303E+02      1.01881488E+03     -5.95688341E+02
     -3.10439316E+03      1.88186959E+03      4.11657451E+02
      5.31449617E+00      1.41170242E+02     -4.34222422E+02
     -1.66066587E+03     -7.64624816E+01      2.87036054E+03
      1.29896776E+03      3.54809609E+02     -1.41943441E+03
     -2.45402594E+02      6.64886740E+02     -3.55381934E+01
     -1.80072459E+03     -3.70032158E+03     -2.17329539E+03
     -2.80764629E+02      1.26969076E+03     -8.05178692E+02
      1.69305590E+02     -4.05353643E+02     -1.12749442E+02
     -6.09559432E+01      6.43160220E+02     -3.08759791E+03
      2.52660722E+03     -8.44431120E+02     -1.54421852E+03
      6.72390318E+01     -2.78662723E+02     -4.80357583E+02
     -7.93590757E+02      1.15848939E+03     -5.18202374E+02
      2.02873808E+03     -7.78529852E+02      1.32459785E+03
      7.71802246E+02     -3.98310887E+02     -1.38944583E+02
      3.17502961E+03     -4.77155146E+02     -1.06217527E+02
     -6.37028864E+02     -5.32525663E+02     -2.78886229E+03
      8.49147369E+02      3.55271762E+03     -2.56633943E+03
     -2.66532902E+02     -1.36771716E+02      2.51917502E+02
     -5.12208240E+02      9.08668397E+02      1.22563728E+03
     -7.00269965E+02      1.17884575E+03     -3.46484716E+03
      2.53089068E+03      5.48218357E+02     -2.51350087E+03
      1.23612214E+02      5.13516365E+02     -5.14627391E+02
     -2.46555263E+02      4.07604342E+02     -5.68300589E+02
     -7.64815479E+02      5.56687445E+01      6.44364254E+02
      5.17275919E+02     -1.01645575E+02      2.86480454E+02
      1.06189978E+03     -9.49898248E+02     -1.12827869E+03
      7.98486060E+02      6.90393090E+02     -2.92010230E+03
     -1.89612271E+02     -4.56455554E+02      5.80661416E+02
      1.06427965E+03     -5.68609269E+02     -1.92980312E+03
     -9.44150743E+02     -1.52226392E+03     -8.93225581E+02
     -1.40618104E+02     -3.60294018E+01     -1.79397667E+02
      1.17179328E+03      1.47840545E+03     -4.03565801E+02
     -8.92724286E+02     -1.45135647E+01      1.93963682E+02
     -3.16228579E+02      6.41352143E+02     -1.18630903E+03
      2.53867048E+03     -5.82875120E+02     -1.39206930E+02
     -2.14711652E+02      1.58617667E+02      2.05222444E+03
     -7.00855286E+02      1.15792514E+03      6.70244415E+01
      3.01914787E+02     -1.55589776E+03     -1.26660356E+02
      1.69315695E+03      2.01991664E+03     -2.78943489E+03
      2.59384757E+02      6.33349748E+02     -3.23537291E+02
      1.63498905E+03      2.71569582E+02      1.93794236E+03
      1.95934672E+03      2.99868925E+03     -2.06366459E+02
     -4.92769642E+03     -1.06163202E+04      1.83546773E+04
      7.52587763E+02      1.10468834E+03      1.28294900E+03
      8.73995245E+02      1.61220605E+03     -1.14866806E+03
      1.60779866E+02      7.84178714E+02      6.31106221E+01
     -1.04606316E+02     -1.43950511E+02      4.65372299E+02
     -2.17877705E+03      1.60812230E+03     -4.77185827E+01
     -6.96974537E+02     -1.85351674E+02      4.45479346E+03
      7.80473548E+02      4.49998524E+02     -1.69049068E+02
     -3.21557698E+03      1.05441984E+03      6.97251161E+02
      5.74068945E+02      2.51543156E+03     -2.07285991E+03
     -1.02804647E+02      1.35112445E+02      6.49218656E+02
     -1.74568431E+02     -7.84767525E+02      3.13393631E+01
      2.08099237E+03      8.71227117E+01     -6.08966792E+02
     -7.55133269E+02     -4.30561814E+03      1.89129232E+03
     -2.26106544E+02      4.35742481E+01      2.05645932E+01
     -6.05178456E+02     -5.72923354E+02     -1.77233698E+03
      9.06320300E+02     -2.06034810E+03     -1.25554631E+03
     -7.73710866E+01      6.41462708E+01     -5.18639764E+02
      2.72395448E+02     -5.39548628E+02      2.30304820E+03
     -1.60398978E+03      9.35508546E+02     -3.35299316E+03
     -5.92816080E+02     -7.46012038E+02      3.59558666E+02
      1.14684366E+03     -4.45933118E+02      3.01920319E+02
      3.70836041E+02     -1.82801023E+03      4.92475590E+02
     -5.14505110E+02      1.45934743E+02     -6.59792706E+02
      9.60038912E+02     -2.15928064E+03      7.05235560E+02
      1.50312058E+03     -2.43365213E+02     -1.10435842E+03
     -2.55189626E+01     -1.09946810E+03     -3.23118963E+02
     -3.70696765E+02     -6.31101311E+02      1.04176573E+03
      1.59501671E+03      9.80338024E+02      9.32118722E+02
     -7.92859127E+01      1.86310292E+02     -7.46030764E+01
      1.69247398E+03      1.67604065E+03     -1.43176801E+01
     -2.65266312E+03      1.26739054E+03     -1.37311175E+03
     -7.21789594E+02     -4.87252520E+02     -1.43267539E+02
     -5.35983845E+02      6.05513617E+02     -3.52987058E+03
     -3.34842464E+02     -1.86547036E+01     -1.14853899E+03
      1.78388126E+02      1.66748119E+02     -4.42610868E+02
     -6.49432425E+02     -1.32624520E+03     -2.52099212E+03
     -6.53580738E+02     -3.36972008E+03      9.18993350E+02
     -1.44027658E+03      4.99607771E+02      5.61797114E+02
      8.48486209E+02      4.13273350E+02      7.91677060E+02
      1.73043812E+03     -4.51467469E+02     -1.13605068E+03
      6.93055759E+02      2.90137520E+03     -1.14745786E+02
      2.55270345E+03     -9.81668705E+02     -4.69971294E+03
      3.19434514E+02      3.08050121E+02     -1.31177765E+03
     -1.22319877E+03      6.02666982E+02      2.56906982E+03
     -4.55938087E+02      1.22590330E+03      1.51074684E+02
      4.57226202E+02      2.75573213E+02     -7.57698897E+02
     -3.64424828E+03     -1.43703952E+03     -1.45989873E+03
      1.35406557E+03     -1.26818353E+03     -1.43487749E+03
     -6.34772642E+02     -1.10148583E+02     -4.34393464E+02
      1.51335689E+02      3.08000666E+03     -1.03544962E+03
      2.22176914E+03      2.01218082E+03     -4.12303099E+02
     -1.65749349E+02      2.07556154E+02     -2.70063828E+02
     -3.20412491E+02     -1.01729465E+03     -6.46327206E+02
     -1.62975405E+03     -2.88645447E+01     -1.18493755E+03
     -1.84787520E+02     -5.42066079E+02     -1.12826844E+02
     -5.41912389E+02     -6.63593741E+02      5.29567898E+02
      1.40774741E+03     -4.70801884E+02     -1.13001025E+03
      1.06511873E+02      2.65042539E+02     -5.34118975E+02
     -3.77289219E+03     -1.41893805E+03      2.26806379E+03
     -4.27211651E+03      2.51919726E+03      1.07851734E+03
      1.80885912E+02      2.22305083E+02     -6.39954153E+02
      1.46537444E+03     -2.56770602E+03      2.88924556E+03
     -2.44781772E+01     -1.50295711E+03      7.92380374E+02
      3.98610382E+02     -3.45357082E+02      3.41971579E+00
     -2.56175086E+03      7.42484849E+00     -1.97265054E+03
      1.80515701E+03      9.81043657E+02     -7.74433386E+02
     -3.40049197E+02      3.57779980E+02      2.93919107E+02
      1.94882972E+03     -8.68040606E+02     -1.10567602E+03
     -3.02424079E+02     -3.00537855E+03      3.52945230E+03
     -1.10566510E+03     -7.84421519E+02     -1.19486988E+03
      1.84145931E+02     -1.08850884E+03      3.98359501E+02
      3.28542530E+02     -5.30068050E+01     -7.89123825E+02
      6.31681575E+01      1.29107154E+02     -2.24650097E+03
      1.24808806E+03      1.89283383E+03      1.49154567E+03
     -2.75597315E+01     -7.25227983E+01     -4.42800216E+02
     -1.29043857E+03      7.32130561E+01     -1.53025386E+03
      5.77925836E+02      2.00124798E+03     -3.88461839E+03
     -1.31590359E+02     -6.65319665E+02      3.83985117E+02
     -6.30588436E+02     -7.77151683E+01      3.40102113E+02
     -4.49469373E+02      1.52160102E+03      5.47585211E+02
      1.51669303E+01     -4.33413138E+02     -7.24435997E+02
      1.00491523E+03     -4.18949196E+01     -1.44710545E+03
     -3.70522610E+02      9.98403434E+02     -2.14991784E+03
     -2.85343587E+02      8.57655797E+02      1.70715496E+02
      1.05201563E+03      1.94327937E-01      1.30790939E+03
      5.71874309E+01      1.53440475E+02      7.28805688E+02
      6.37018312E+02      3.43356579E+02      5.72787272E+02
      5.34460802E+02     -2.31073892E+03      1.10102530E+03
     -4.35234064E+02      1.57962548E+03     -2.86644945E+03
      4.19197404E+01     -1.65977078E+02      4.22526011E+02
     -5.21149423E+02      6.84359506E+02      1.31659394E+03
      5.75745989E+02     -1.08663571E+03      4.04101475E+02
     -3.99427476E+02     -2.87105104E+01     -5.74637702E+02
     -1.66482024E+03      1.27336426E+03      2.61519228E+03
      2.67268554E+03      1.76032480E+03      1.81540592E+03
     -1.04538355E+02     -1.02029240E+02     -4.74635387E+01
      2.28000136E+03     -2.44558388E+03      1.34635892E+03
     -1.60140519E+03      2.38312100E+02     -8.47882064E+01
      7.00649755E+02      8.05351590E+02     -1.60966321E+02
      7.36337591E+02      8.95754606E+02      2.85720720E+03
      2.99526483E+01      1.44462954E+01      1.25456012E+03
      3.55701182E+03      1.01022626E+03      6.59515125E+02
      2.22579883E+02     -5.63837804E+02     -4.35583811E+02
      8.19272269E+02      3.91564792E+03     -3.54668587E+02
      4.02735276E+03      5.29064252E+02      1.87711805E+03
      2.10620318E+03      4.33181772E+02      6.61017711E+02
      3.88719515E+02      2.15053130E+02      4.12988407E+02
     -6.86254443E+02      1.90556449E+03      9.08020905E+02
      1.48691388E+03     -3.50538001E+01      3.81834943E+03
     -5.67284446E+02      1.36957298E+02     -3.31502191E+02
      9.42518068E+02      1.96444609E+03     -6.24155862E+02
     -3.66475185E+02      1.21165218E+03      8.28295225E+02
     -1.13404272E+01      5.68495643E+01      4.52696168E+02
     -1.68791550E+03      9.02407387E+02      1.40762542E+02
      8.56451348E+02     -1.58725404E+03     -1.17395053E+03
      4.27550395E+02      2.39882275E+02     -4.91632531E+02
      1.06556113E+03     -1.32944383E+02     -2.77237302E+03
      8.39128496E+02     -7.13303581E+02      1.36386806E+03
     -3.70833386E+01     -5.06351605E+02      5.85530972E+02
     -3.76324447E+02     -8.12739346E+02     -1.01384974E+03
     -1.48150457E+03      1.75419795E+03     -9.54975812E+02
      6.53566359E+02      2.53082045E+02      6.89578848E+02
      1.89564972E+03     -7.34352185E+01     -5.39887046E+02
      7.37375241E+02     -7.71223470E+02      9.45825314E+02
      4.28113574E+01     -6.53076197E+01      3.64720363E+02
      2.22532584E+02      1.80437348E+03      3.87389684E+03
     -2.05702248E+03     -1.81189548E+03     -1.38446963E+03
      3.43824226E+02      2.26825279E+02      6.36731345E+02
      2.75871288E+03     -2.06011633E+03      5.16149438E+01
      8.85829087E+02     -6.26406351E+02     -8.67486528E+02
     -1.63767054E+02      6.73289074E+02      1.02008207E+01
     -7.46747472E+02      1.69313278E+03      8.48999168E+02
      7.47015699E+02      2.30070557E+03     -1.11548045E+03
     -3.92146870E+02      4.65268551E+01      1.04580430E+03
     -5.96496381E+02     -1.59540180E+02      3.36546897E+02
     -1.41177997E+03      1.26762588E+03     -6.12062264E+02
     -5.63885384E+02     -1.57965190E+03      1.71044614E+03
     -1.01702424E+03      2.08706863E+03     -1.87876645E+03
      1.21599278E+02      1.81448600E+02      4.24767065E+02
      1.25491825E+03      1.72520627E+03     -6.44445479E+02
      2.65597833E+03      1.02344573E+03     -2.36889570E+03
      2.39283513E+02      1.91160048E+02      4.37670764E+02
      1.59919628E+03      1.99258520E+03      1.28794123E+03
      3.62558162E+02     -2.80646852E+03     -1.29493390E+03
     -1.53721791E+01      1.88256315E+02     -9.66468348E+02
     -7.45801172E+02      1.02094177E+03     -1.75518251E+02
     -1.23390549E+02     -2.07027065E+02      2.62175214E+03
     -2.54225882E+02      1.49629148E+02      2.30507421E+02
      2.03696754E+03      1.65050262E+03     -3.04314949E+03
     -2.90251154E+03      4.74481016E+02     -1.45960149E+03
     -3.08345097E+02      9.75725803E+02      8.50653945E+01
     -1.07435702E+03      1.94676489E+02     -2.16726333E+02
      1.31162928E+03      6.08899103E+02      2.33468690E+02
      5.42216928E+02     -2.18676449E+02      3.38646151E+02
     -7.30526414E+02      7.30398534E+02      1.75835389E+03
      1.46545211E+03     -3.46702728E+02     -1.62503836E+03
     -2.91439867E+02      1.89901837E+02      9.51031229E+01
      3.75364449E+02      2.22585060E+03      3.38045220E+03
      1.32294558E+03      7.60480550E+02     -1.42931810E+03
     -4.89083387E+02      1.20141299E+03     -8.69239411E+02
     -5.78066395E+02     -1.54020972E+03      4.36610120E+03
      1.18107129E+03     -1.57875864E+03     -2.98622540E+02
      4.44678914E+01     -5.60469428E+02      2.46753182E+02
      1.08456365E+03     -4.63245527E+02      5.91190552E+01
      6.76285621E+02     -2.91820855E+03     -2.63334165E+01
     -1.23515976E+02     -3.38140836E+02     -1.88386658E+03
      3.19511611E+01      1.71337973E+02      1.46756226E+02
     -1.61653530E+03     -1.72852997E+03     -1.13395864E+03
     -1.28261354E+03     -7.19817954E+02      2.89671518E+01
     -2.41253486E+03      3.97310175E+03     -7.87547324E+02
      3.74845344E+02      4.43534669E+02      9.53438291E+00
      9.60270887E+02      1.03587903E+03      8.64589735E+02
     -1.59027337E+03      6.76158682E+02     -3.20650856E+02
     -4.79896601E+01     -4.05766225E+02      1.98821434E+02
      2.38729662E+02      4.60703479E+02     -1.70108236E+02
     -3.17522988E+03      2.59440528E+03      1.82974989E+03
      5.12045012E+02     -6.27970629E+02     -5.79508693E+02
      1.11213965E+03      3.67853143E+02     -1.35735932E+03
      3.34753925E+01      1.29527842E+03      1.60435830E+03
      5.48194534E+02      9.99481234E+02     -2.60104920E+02
      1.84984875E+03     -6.35767020E+02     -6.86826063E+02
      1.67236402E+03      6.28748766E+02      2.56915635E+03
     -3.73718262E+02     -2.27586159E+02     -4.36620882E+02
     -1.50629770E+03      6.81044592E+02     -3.40392809E+03
      1.25721588E+03     -1.06877068E+03     -6.10160389E+01
      6.37952140E+02      2.03179384E+02     -8.26140490E+02
      2.58471226E+02      2.64106870E+03     -8.71863477E+02
      3.54790941E+02      1.39471563E+02      8.06691562E+02
      4.47407209E+02      8.98355482E+02      3.18614686E+02
      3.26520077E+03     -2.99506222E+02     -1.07755876E+03
     -1.39242958E+03     -1.65830269E+03     -1.29253896E+03
     -6.50970791E+02      4.05404359E+02     -5.00992777E+02
      5.33609301E+02      3.17593986E+03     -1.36459739E+03
     -1.89261244E+03      1.55299428E+03      3.77227843E+02
     -5.00605213E+02      4.93427419E+00     -5.06698974E+02
     -1.04108862E+03     -1.26178752E+03      1.47223938E+03
      1.04226581E+03     -1.03178258E+03      1.13009349E+03
     -1.81514253E+03      1.43805749E+03     -1.89942397E+03
      5.22167403E+02      8.68382826E+00      1.85315166E+02
      1.55329241E+03     -1.32960406E+02      4.26400925E+00
      5.33315210E+02     -2.10430814E+03     -1.31299826E+03
      2.17052159E+03     -7.18191757E+02     -1.89858057E+03
      1.34750317E+02     -4.18249404E+02     -5.41213193E+02
     -7.71624665E+02      9.57618069E+02     -8.28123987E+02
      5.57444796E+02     -1.63373815E+03      4.09084330E+01
     -1.47179645E+02     -8.77939852E+02      2.74848095E+02
     -4.82960112E+02     -1.06952112E+03     -1.81787578E+03
     -1.78105870E+03     -9.85385363E+02      1.86831413E+02
     -5.51574137E+02      5.69716407E+02     -1.60917286E+02
     -1.16045991E+03     -5.64880252E+02     -8.83341171E+02
     -2.32696212E+03     -1.26416014E+03     -3.90424704E+02
      5.32857931E+02      3.85552381E+02     -1.74751272E+02
      1.05616206E+03     -8.72038257E+02     -2.98064956E+01
     -1.81948241E+03     -1.10119860E+03      4.07443157E+02
      2.78185597E+02     -1.12324753E+01     -1.25078313E+03
      5.97598264E+02      1.50558908E+03     -1.40584144E+03
      2.45179718E+03     -1.91691732E+03      1.23472132E+03
      1.51428013E+01      7.99490796E+01     -1.82046572E+02
     -5.24075955E+03     -2.31671970E+03      1.07383069E+03
      5.90883719E+02      2.81559607E+03     -7.41064184E+02
     -3.97685621E+02     -4.03737069E+02     -4.42525455E+02
     -3.98812459E+02      2.52733819E+01      3.57409061E+02
      2.95409257E+01     -6.12619943E+02     -4.75346765E+01
      2.79037594E+01      1.21369326E+03     -1.11787996E+03
     -2.21008062E+03     -1.00649975E+03      2.26246029E+03
     -6.21027984E+02     -8.08934371E+02      5.75904248E+02
     -3.51820569E+02      2.72331296E+02     -4.28650621E+02
     -3.06472367E+03     -1.62682959E+03      2.44389449E+03
      5.04680603E+02      2.28972798E+02     -3.54631326E+03
     -1.53513673E+03     -2.15668094E+03      1.31743829E+03
      9.32925933E+02     -1.35552267E+02     -4.42012332E+02
     -3.04382817E+03      1.08646263E+03     -6.31146858E+02
     -5.12094591E+02     -1.66501312E+03     -3.13936408E+03
      2.17752009E+02      1.36085524E+03     -2.27742923E+03
  }
}

Hamiltonian = DFTB {
  SCC = Yes
  SCCTolerance = 1e-6
  MaxSCCIterations = 200
  ForceEvaluation = Dynamics
  MaxAngularMomentum = {
    C = "p"
    H = "s"
  }
  Charge = 0.0
  SpinPolarisation = {}
  Eigensolver = Standard {}
  Filling = Fermi {
    Temperature [Kelvin] = 300.0
  }
  SlaterKosterFiles = Type2FileNames {
    Prefix = "../../pbc-0-3/"
    Separator = "-"
    Suffix = ".skf"
    LowerCaseTypeName = No
  }
  KPointsAndWeights = {
    0.0000000000000 0.0000000000000 0.0000000000000 1.00000000000000
  }
  Dispersion = LennardJones { 
    Parameters = UFFParameters {}
  }
}

ParserOptions = {
  ParserVersion = 3
}
