Geometry = GenFormat {
<<< "system.gen"
}

Driver = VelocityVerlet{
  Steps = 50000
  TimeStep [fs] = 0.2
  MDRestartFrequency = 25
  Thermostat = None {
    #InitialTemperature [Kelvin] = 300.0
  }
  Xlbomd{ 
    IntegrationSteps = 6 
    MinSccIterations = 2
    MaxSccIterations = 200
    SccTolerance = 1e-6 
  }
  Velocities [m/s] {
      2.51299828E+02     -8.96528065E+01     -3.52099247E+00
      1.91118462E+03      6.26542998E+02      2.40972667E+03
      2.02764208E+03      1.24696647E+03      7.78028407E+02
      3.14305732E+02      2.53056140E+02     -8.93242010E+01
      2.85299473E+03     -2.59664164E+03     -4.90566691E+02
      8.09473421E+02      7.96133414E+01      1.29114777E+03
     -4.82583915E+02      2.21806742E+02     -7.12301691E+01
      6.93475915E+02      2.76865567E+03     -3.00494586E+03
      2.39592570E+03     -1.03018191E+03      4.13536660E+02
      2.51345007E+02     -6.06566833E+02      8.05432673E+01
     -2.34053187E+03      4.83002420E+02      6.28534860E+02
     -1.66043464E+03     -5.75555896E+02      4.15436947E+03
      1.47036415E+01      1.27465487E+03      7.35518777E+01
     -1.06131772E+03      1.50152224E+03      1.57912416E+03
     -1.69999504E+02      1.81549220E+03     -1.05291902E+03
     -2.21320198E+02     -2.53613101E+02     -3.70745390E+02
     -1.06756403E+03      2.14814520E+03      2.06973213E+03
     -7.92150303E+01      2.88601936E+03     -3.79979836E+03
      2.63448946E+02     -6.04063670E+02      4.04072511E+02
     -2.11761294E+02      1.66385532E+01     -3.08635400E+02
      4.90439489E+02     -1.94090108E+03     -2.03679610E+03
      6.36561514E+02      5.82689137E+01     -7.56700216E+02
     -1.84839278E+03      1.34774607E+03      9.03807040E+02
     -1.95263292E+03     -1.55628796E+03      1.39214129E+03
     -8.82732891E+02     -8.36861697E+02      1.08906324E+02
     -1.10876722E+03     -1.15425668E+03     -2.85836306E+03
     -1.54020631E+03     -2.45116981E+03      6.77345996E+02
      1.08665018E+03      7.16048272E+02      2.24694387E+03
      9.75127337E+02      4.10730233E+02     -4.56659259E+02
      5.50153634E+02      4.49883306E+02     -1.05888793E+03
      9.34070840E+02      3.04634486E+03     -1.35913348E+03
      2.63552906E+03     -6.11940257E+02      2.66744568E+03
      2.34850305E+02     -3.56637526E+02     -6.38892192E+02
     -3.34685946E+02      3.09541908E+02      9.96910783E+02
      1.84420267E+03     -1.49647401E+03      2.13557277E+03
     -9.76081974E+01     -1.02887855E+02      4.82414139E+02
      1.80014370E+03     -1.35548630E+03      2.32789744E+03
     -1.71608956E+03     -4.85873895E+02      1.21761553E+03
      4.67085488E+02      8.08872314E+01      1.00106178E+03
     -9.85369414E+01     -2.45117020E+01      5.77545007E+02
      2.44315815E+03     -1.91400545E+02      9.45063261E+02
     -3.15650083E+02      2.28436181E+02      2.06843212E+02
      5.98801216E+02     -1.52633769E+03      1.75657496E+03
     -2.28106991E+03      1.46822025E+03     -2.93181294E+03
      1.84848839E+02     -1.09174998E+03      4.07941780E+02
     -6.60577885E+02     -8.88175482E+02      5.75543393E+02
     -5.69765937E+02     -3.84254276E+03     -3.63245258E+03
     -6.84763013E+01     -2.15424970E+02      5.27269362E+02
     -6.46615035E+02     -1.41785738E+03      7.45039896E+02
      1.28685929E+03     -8.08299553E+02     -3.41848972E+02
     -7.97240231E+00     -3.62890130E+02     -4.66169572E+02
     -2.64508089E+03     -6.41553244E+01      1.06813749E+03
      3.28736988E+03      4.85175564E+02     -1.84022487E+02
     -2.86306434E+02     -4.36309632E+02      1.34624566E+02
     -6.43557091E+02      2.94405300E+02      1.02215573E+03
      1.94644424E+03      2.14966352E+03     -6.25601947E+02
     -3.05175135E+02     -1.28412187E+03      5.84593024E+02
     -3.17426944E+03      4.58223213E+01     -3.43020063E+03
     -1.86127114E+03      1.67773031E+03     -9.28732953E+02
     -4.02155670E+02     -8.89043833E+01      1.62840040E+03
     -2.57389590E+02     -3.39280918E+02      3.20914064E+02
     -1.87930678E+03     -1.03662305E+03     -4.59402539E+02
     -2.05182263E+03     -1.63335588E+03     -2.65841186E+03
      3.22195942E+02      3.55037100E+03     -4.59150860E+02
     -1.05764151E+03     -2.45396334E+02     -5.92814938E+02
     -1.02172854E+03      3.63755099E+02     -8.82758096E+02
      2.10635676E+03      1.58797987E+03      4.42594953E+02
      1.77371663E+02      4.01698567E+02      1.41458743E+02
      1.87094760E+03     -1.06596907E+03     -2.31999626E+03
     -1.88964669E+03     -1.19139038E+03      2.41056585E+03
      2.16064579E+02      5.90732201E+02     -1.86709104E+01
     -2.12583726E+03      2.26109324E+02      1.53325306E+03
      1.47554318E+02      1.48285760E+03      7.20045104E+02
      4.95681408E+02      1.14444150E+03     -9.37841845E+01
     -8.35581887E+02      1.91281303E+03      2.74103047E+03
      5.14574401E+01      4.95697618E+02      2.61808939E+03
      4.80834333E+01     -8.16254731E+02      3.24411347E+02
      4.30453815E+03      2.57988136E+01      3.80037055E+02
     -1.26648016E+03      1.40416389E+03      1.25392109E+03
      1.67007031E+01      4.81783212E+02      1.08872141E+03
      1.15857994E+03      4.65019487E+02     -4.31724613E+02
      1.76300591E+03     -2.91889554E+01      8.39986272E+02
     -4.39585407E+02     -1.88445136E+02      2.58330078E+02
     -1.46790865E+03      5.37803925E+01      1.70841064E+03
      1.85031582E+03      1.20193988E+03      1.25167949E+03
     -2.45420454E+02     -5.70278361E+02      5.96355741E+02
     -6.51713396E+02      8.78751115E+01      1.86354095E+03
     -6.54187173E+02      4.97341723E+02     -1.91594532E+02
      2.39445350E+02      1.27420445E+03     -5.86223989E+01
      9.83307058E+02     -8.06914558E+02      1.85985282E+03
      1.12214762E+03      2.50373523E+02      1.84438125E+03
      5.30605384E+02      6.36196322E+02      1.11433787E+03
     -2.71712804E+01      2.95904459E+02     -9.16232942E+00
      2.55366155E+02      2.17910899E+02      6.62921202E+02
      1.27515835E+03      6.36153762E+02     -9.12016926E+02
      1.07836327E+03      8.63292541E+00      1.89652352E+03
      3.24901041E+02      2.80373770E+02     -3.36304737E+01
      1.16923533E+03      2.70228002E+02     -1.86959340E+02
     -1.59523384E+03     -4.51897367E+02      3.01922736E+03
      8.08499440E+01     -1.44366386E+02     -2.45290937E+02
      2.99677706E+03      1.76665691E+03      1.69754797E+03
      1.88861588E+02     -9.38581963E+02     -4.40547844E+02
     -1.96386101E+01      8.87535011E+01      5.75601146E+02
     -4.37755764E+02     -9.49299982E+02      5.36509659E+02
     -6.42353586E+02      9.88579790E+01      1.18881051E+02
      1.97660103E+02      7.34530559E+02     -1.80739185E+02
     -4.50492441E+02      1.51416344E+03     -4.75851192E+02
      4.10247679E+02     -1.66648023E+03     -2.02065815E+03
     -4.11237001E+02      3.55941315E+02      2.89563880E+02
     -1.20113682E+03     -4.72535369E+02     -7.14677383E+02
     -1.24153838E+03      1.05295846E+03      1.65523003E+03
      1.52227108E+02     -2.85665750E+02     -6.14654126E+02
      2.53945889E+03      2.84479159E+03      9.98507033E+02
      1.25354826E+03      3.15426329E+03      2.34502134E+02
     -1.76993117E+02     -3.11622385E+02      9.96651367E+02
      9.54205888E+02      7.66153704E+02     -4.56086526E+02
      1.37782052E+03      6.67755754E+02      3.08859846E+03
      8.47556108E+01     -6.48217205E+02      8.64474504E+02
      9.25162042E+02     -1.17898016E+03      2.83653276E+02
     -3.89071703E+02     -5.09135524E+02     -2.70140458E+01
      4.48953508E+02     -7.00020033E+01     -2.19649451E+02
     -3.31913310E+03      1.03116088E+03      1.93198346E+03
     -2.45586552E+03     -1.28769837E+03     -1.57446960E+03
      2.36671890E+02      1.90080706E+02     -2.52903905E+03
      8.61046360E+02      3.54121378E+02      6.45070344E+02
     -1.07573467E+03     -6.67510741E+02     -1.27969005E+03
     -3.56945407E+02     -9.21628909E+02      4.16886901E+02
      1.18771272E+03      2.18667489E+03     -8.83363052E+02
     -3.30254569E+02      4.30993872E+02      3.70376183E+02
      3.04512956E+03      7.28247778E+02      4.66035677E+02
     -1.67166970E+03     -2.41880570E+03     -1.19767704E+03
     -6.84262970E+03     -4.67444718E+03     -2.01766097E+04
     -6.77052445E+02      3.90821678E+02     -9.85738687E+02
     -1.34590054E+03     -1.80443008E+02     -2.45276983E+03
      6.64401489E+02     -1.04092158E+02      1.31132634E+02
     -5.06168432E+03     -2.67046043E+02     -3.00953280E+03
      1.21888678E+03     -2.29001209E+03     -7.76331559E+02
     -5.90848468E+01     -3.67349147E+02     -6.93974181E+01
      7.38333806E+02     -1.01405222E+02     -1.34379064E+03
      1.78234717E+03      2.27269233E+03      1.93771005E+03
     -3.72914423E+02      1.84407801E+02      4.03050242E+02
      2.74572955E+03      4.61322490E+03      3.08967671E+03
     -1.81536075E+03     -3.48878590E+03     -8.17425986E+02
      1.13541116E+03      4.86323326E+02     -1.49674399E+01
     -1.13160538E+03      1.53403465E+03     -3.54291936E+02
      2.44671346E+03      2.59248782E+03      5.49853195E+02
     -2.53867877E+02      4.48408029E+02      3.85564372E+02
      5.69623134E+02      2.87621153E+03      2.17178030E+03
     -2.87244012E+03      2.77782968E+02      1.73835119E+03
     -7.37220001E+02     -8.63554165E+01      1.18016251E+02
     -6.82938465E+02     -2.84611814E+03     -6.22556102E+02
     -1.13223048E+03     -1.09539106E+03      1.32250262E+03
     -1.17873119E+02     -4.85332803E+02     -1.03577922E+02
      3.32180016E+03     -1.05144578E+03     -1.84524401E+03
     -5.16144800E+02     -7.42907620E+02     -8.01257659E+02
      3.18876991E+02      2.70661415E+03     -6.68225619E+02
      1.78916780E+01      4.16375639E+02     -3.39013928E+02
     -1.27608327E+02     -4.92384016E+02      1.55673505E+03
     -2.03584212E+03     -1.10380768E+03      4.41767822E+02
     -1.12691595E+03      1.36255625E+03     -5.53057183E+02
      3.72829819E+02      1.26969139E+02     -1.87537642E+02
      1.84326710E+03     -1.60218662E+03     -1.02107275E+03
      2.08285913E+03      3.90890584E+02     -1.41863035E+03
     -1.39036764E+03      1.44744520E+02      2.28264932E+02
     -3.49778265E+02     -2.56173695E+03     -3.23986504E+02
     -8.16149849E+01     -7.55446534E+02      1.60930430E+03
      1.42637728E+02     -5.82356825E+02     -1.29468282E+02
      3.11584703E+02      9.23535015E+02      2.05179214E+03
      2.00273378E+03      1.08346286E+03      5.54389100E+01
      1.26905838E+02      3.82216492E+01     -2.27091673E+02
      1.17848226E+03      3.37560895E+03     -4.50360634E+02
     -1.68982938E+03     -1.51045661E+03      5.05942900E+02
     -9.04860751E+02      1.14206847E+03      3.56329149E+01
     -1.16017619E+03     -8.94464671E+02      2.07973451E+03
     -1.03385688E+03      5.41422302E+02      2.60727415E+03
      2.49818070E+02      8.00685990E+01      3.86122510E+02
     -1.28605320E+03     -5.56987249E+02     -1.85376210E+02
     -2.90608750E+02      1.90112076E+03     -1.81908328E+03
      4.07535829E+02     -4.92208182E+02     -4.06616967E+02
     -1.09202555E+03     -3.54270114E+01     -2.16273709E+02
      7.43901156E+02     -1.60257244E+03      5.28458745E+02
      9.30856005E+02     -1.53571903E+02      8.19080156E+01
      1.43580327E+03      3.72091015E+01     -2.80170571E+03
      1.14466475E+03     -1.54625205E+03      6.25903605E+02
      2.62632843E+02     -1.83418113E+02      5.34335998E+02
      2.45580015E+03      1.43729404E+03     -8.01318376E+01
     -1.65845856E+03      3.10424874E+03     -1.53369628E+03
     -7.05185669E+02      2.56773599E+03      5.82482818E+03
     -4.84599302E+02     -7.39989805E+02     -5.89079668E+02
     -1.72228315E+01     -1.68307310E+03     -2.00028600E+03
      3.05918487E+02      7.74443724E+02     -1.86878910E+02
      5.50656443E+02      1.49780683E+03     -1.06239221E+03
     -5.78333900E+02     -1.50330632E+01     -7.77163075E+01
      1.18681623E+03     -6.69297438E+02     -1.32936448E+02
     -6.19344512E+01     -2.96658883E+02     -5.03790471E+02
     -4.98262849E+02      1.52450799E+01      1.10060922E+02
      2.78044368E+03      3.03761453E+03     -1.31725711E+01
     -7.96424528E+02      2.04997844E+02      2.23662970E+03
     -8.43315064E+01      1.00987377E+03      7.00909312E+02
     -1.75401863E+03     -1.00903003E+03      1.51558697E+03
     -6.49269859E+01      1.68143340E+03      6.45113118E+02
      5.66622393E+02     -1.43507048E+02     -4.33350781E+01
      9.43636073E+02      1.73453431E+03      1.45142048E+03
     -2.44450515E+03      1.78487297E+03     -2.51657840E+03
      7.63830087E+02      1.45186755E+02      3.74410425E+02
     -1.77226890E+03      2.08726791E+03     -1.07106919E+03
     -1.51501183E+03     -1.22437481E+02      2.14550296E+03
     -7.47904655E+01     -2.30674830E+02     -1.48664191E+01
     -5.23826279E+02      9.00217915E+01     -1.11013418E+03
      1.85183570E+03     -7.22899977E+02     -7.54182262E+02
      8.58867969E+02     -5.10687176E+02     -2.45158994E+02
      5.53729857E+01     -1.39756425E+03      8.34766264E+01
     -1.05785064E+03     -3.22230339E+03     -7.92790607E+02
      1.16481737E+02      8.25575051E+02     -3.80902191E+01
      9.65593578E+02      1.82222864E+03      9.70964168E+02
     -3.90477401E+03      8.04685352E+02      7.08984919E+02
     -2.68577322E+01      1.17074562E+02     -4.00374436E+02
      2.01719740E+01      4.34288340E+01      1.13016845E+03
      8.57833526E+02     -2.99826964E+01      5.00129900E+02
      6.04701622E+02      1.03744750E+02     -9.17634646E+02
     -3.24719391E+02     -1.76951656E+02      1.34238063E+03
     -1.33849022E+03      1.28233040E+03     -9.06817784E+02
      1.06972374E+02      5.08857988E+02      2.77988807E+03
      4.47296822E+02      6.05207280E+02     -7.55852336E+02
     -1.40454221E+02      6.86475827E+02     -2.45929478E+02
      1.60823301E+03     -1.83422365E+03     -1.03264965E+03
      1.80972880E+03     -5.05255065E+02      9.62151892E+02
     -6.60058394E+02      1.46425764E+02      5.17066421E+02
     -2.00799321E+03     -1.12553912E+03     -2.66491049E+03
      2.51326520E+03     -2.02886062E+02     -1.81339243E+03
     -3.35180714E+02      3.35114705E+02      1.05869580E+03
      2.13299383E+03      2.73936443E+03     -1.83487963E+02
     -4.93213584E+02     -4.43904237E+02      1.04276974E+03
      2.83194842E+02      4.48723879E+00     -5.17256637E+02
     -1.06219039E+02     -1.66420902E+03      1.94696811E+02
      8.93080199E+02     -1.24132544E+03      6.35127098E+02
      1.00530211E+02     -9.52551025E+01      8.76917244E+02
     -2.30865103E+03      1.29345187E+03     -2.77476198E+03
     -6.38152823E+02      9.19154471E+02      5.61768880E+02
      4.64094604E+02     -4.13076999E+02     -4.81633442E+02
     -3.27317680E+03      1.88793068E+03     -1.76364140E+03
      4.59295322E+02     -3.16388233E+02     -2.19297999E+02
     -2.11940909E+02     -6.98452447E+01      3.23991860E+02
     -2.84556489E+03      5.52080435E+02      7.07157962E+02
      2.38067030E+02     -1.12225871E+03      3.91128909E+03
      4.18250293E+02      2.40027894E+02     -1.17523287E+02
     -7.98413936E+02     -2.07430756E+03     -8.26646084E+02
      6.28283057E+01      7.10531908E+02      2.27673250E+03
      8.48129114E+02      6.09708282E+01      9.19042888E+02
      2.29017880E+02     -2.64316275E+03      5.62827745E+02
      7.20281112E+02      1.89267264E+02      3.54299101E+02
     -1.00944029E+02     -3.81270637E+02      1.57576829E+03
     -6.61322352E+02     -4.38765813E+02      1.15550306E+03
     -2.41628424E+02      2.58125120E+03      1.61511416E+03
      1.88010690E+03      2.59612906E+03      2.07342129E+03
      1.30804490E+03     -1.22744742E+03      2.86050877E+03
      7.41120213E+02      2.29375581E+02      2.11687338E+02
      2.30725493E+02      4.42292731E+02     -1.74543926E+03
     -1.53450194E+02     -1.32834721E+02      5.67424614E+02
      2.41545905E+02     -1.24986520E+03     -9.37377112E+01
     -5.36888441E+02      3.71833804E+03      2.21283529E+03
      3.52919569E+02     -1.52174182E+02      1.05618978E+03
      1.16931594E+02      1.64208827E+02      7.49774093E+01
      3.77138471E+02      8.21834855E+02      2.26973659E+02
     -5.76198200E+02      3.36093119E+02     -2.22077247E+03
      8.47779119E+02      4.37219234E+02      4.82701162E+02
      2.23449328E+02      1.17241661E+03      5.46045471E+02
      4.32935915E+03     -4.03404322E+03     -2.28796771E+03
     -3.37361229E+02      5.37787152E+02     -1.86093034E+02
     -1.32871866E+03     -3.09518905E+03     -1.30044320E+03
      1.10118118E+02     -7.95733845E+02     -3.70092146E+02
     -1.34358447E+02     -6.83445816E+02     -6.02076847E+02
     -1.96506148E+02      6.93740571E+02      1.21266464E+02
      9.16766644E+02     -2.77116377E+02      1.30604160E+03
      1.71097504E+02     -9.61647387E+02     -1.13115149E+01
      9.89133634E+02      7.16973589E+02     -2.66261006E+03
      2.81018577E+03      3.02931276E+03     -1.05940602E+01
     -3.10948349E+02      3.59583011E+02      2.05986773E+02
      9.91287324E+02     -2.18285214E+03      1.98371187E+03
     -6.63324744E+02     -3.36496874E+01     -1.92904065E+03
      6.68984378E+01     -1.15647699E+02      5.82595479E+02
      2.02634493E+03      2.38585316E+03      9.68120000E+02
     -2.82437783E+03     -9.93007151E+02     -8.64173757E+02
      1.23030161E+02     -1.04520624E+03      1.35339991E+03
      7.05991421E+02      5.64348731E+02      6.36621111E+02
     -7.35026042E+01     -2.63044381E+03     -1.12380730E+03
      1.61016097E+03      2.60798593E+03     -4.46791764E+02
      2.24639860E+03      1.03294832E+03      9.46381439E+02
      3.86061243E+02     -4.51177105E+01      4.79745244E+02
     -1.08905911E+03      7.05148168E+02      1.24234854E+03
      1.49734354E+03      4.34065551E+02      9.59025169E+02
     -1.45972815E+02     -1.01063192E+00     -3.57461583E+02
      5.69582335E+01      9.76674471E+02      1.00899206E+03
     -3.56986582E+03     -4.82760987E+02      1.06706877E+03
      5.95253921E+02      3.97653072E+02     -3.15875131E+02
     -1.34745293E+03      2.04511365E+03     -4.89905084E+01
     -1.13595038E+03      3.52776941E+03      1.63374937E+03
      1.34904514E+02      4.29217946E+02      1.67965981E+02
      3.77082594E+02     -2.52691940E+02     -1.32891379E+02
     -1.30994195E+03     -2.07301891E+03     -1.53747901E+03
     -7.19794336E+02     -2.49413498E+02      7.03146411E+02
      3.02761304E+03     -8.45880009E+01      1.13788250E+03
     -2.93105325E+02     -3.70570815E+03      1.14702535E+03
      3.87172763E+02      4.63027578E+02      2.89809021E+02
      2.27878535E+03      4.67190506E+02      7.82570911E+02
      1.57764714E+03      1.81460971E+03     -9.36609699E+02
     -4.77681871E+02      4.89248791E+02      8.88710280E+02
     -2.47966187E+03     -3.28403089E+03      6.03254186E+02
     -7.26371814E+02     -1.15444994E+01     -1.01855935E+03
      4.12575741E+02     -1.20327176E+02     -3.21179579E+02
     -1.14832144E+03     -2.71555730E+03     -9.33113655E+02
      1.00386002E+03      1.97817141E+03     -3.44917412E+03
      3.11877587E+02      9.79899283E+02      1.31901163E+03
     -5.40277262E+02      1.07965645E+03     -2.36063086E+03
      4.86671315E+02     -6.15194898E+02      9.37250424E+02
     -3.59681353E+03     -6.82587521E+02      8.84809527E+02
     -4.35324111E+02     -6.45050875E+02     -3.69155875E+02
     -2.96343156E+03      3.30704520E+03     -5.37068137E+02
      6.28371958E+02     -1.25633848E+03     -1.96929574E+03
     -6.38042513E+02     -1.72094608E+03     -2.50737550E+02
      7.39746765E+02     -1.77539238E+02     -7.54795473E+02
     -5.05989449E+01     -2.24291740E+03      6.78655787E+01
      1.97604759E+03      2.17939788E+02     -2.21198636E+02
      1.92603422E+01      4.15424564E+02     -5.22401423E+02
      1.25710164E+03      6.80713884E+01      4.72776993E+02
     -2.91291239E+02     -3.35812344E+02      2.78557113E+02
      1.89949469E+02     -3.99106584E+02      4.07050828E+02
     -1.60092427E+03     -3.52842236E+03     -7.84358380E+02
     -1.96191031E+03     -1.61892622E+03      3.60071495E+02
      1.72833452E+02      1.13360498E+03      1.25355189E+03
      1.42538417E+03      1.41894965E+03     -9.57830311E+02
     -1.65043323E+03      1.22081748E+03     -2.46862752E+03
     -3.62794768E+02     -5.05383629E+02      3.97439154E+02
      2.26250224E+03      1.57894339E+03     -5.87321751E+02
      1.17761260E+03      1.56651583E+03      1.27171463E+03
      4.45686259E+02     -5.38836689E+02      7.93049886E+02
      1.91052322E+03     -5.94160506E+02      3.09915076E+03
     -8.77656360E+02     -2.04402800E+03      2.08633861E+03
     -7.26896472E+02      5.77728795E+02      8.50858851E+02
     -6.88071574E+02     -8.20326669E+02     -2.83021482E+01
      2.53035631E+03     -1.39486919E+03      3.01584391E+03
     -1.92538460E+02     -3.67971763E+02     -1.05411521E+02
     -2.55811746E+02     -8.15822071E+02      4.53804337E+02
      3.80015678E+03     -3.11625041E+03      1.83618614E+03
      2.03587518E+02      9.61043745E+02      8.53395643E+01
     -1.13155747E+03     -1.82876120E+03     -1.17497410E+03
      3.13745233E+03     -1.27305458E+03      4.11668866E+01
      5.65773805E+02     -2.39583063E+03     -2.50609085E+03
      2.10919471E+02      8.64616765E+01     -4.64817205E+02
      1.03052753E+03      3.44188913E+03      2.19952771E+03
      9.61602375E+02      2.61267620E+02      8.34764668E+02
     -2.74610868E+00      3.06981525E+03     -2.46439242E+03
  }
}

Hamiltonian = DFTB {
  SCC = Yes
  SCCTolerance = 1e-6
  MaxSCCIterations = 200
  ForceEvaluation = Dynamics
  MaxAngularMomentum = {
    C = "p"
    H = "s"
  }
  Charge = 0.0
  SpinPolarisation = {}
  Eigensolver = Standard {}
  Filling = Fermi {
    Temperature [Kelvin] = 300.0
  }
  SlaterKosterFiles = Type2FileNames {
    Prefix = "../../pbc-0-3/"
    Separator = "-"
    Suffix = ".skf"
    LowerCaseTypeName = No
  }
  KPointsAndWeights = {
    0.0000000000000 0.0000000000000 0.0000000000000 1.00000000000000
  }
  Dispersion = LennardJones { 
    Parameters = UFFParameters {}
  }
}

ParserOptions = {
  ParserVersion = 3
}
