Geometry = GenFormat {
<<< "system.gen"
}

Driver = VelocityVerlet{
  Steps = 100000
  TimeStep [fs] = 0.2
  MDRestartFrequency = 5
  Thermostat = None {
    #InitialTemperature [Kelvin] = 300.0
  }
  Xlbomd{ 
    IntegrationSteps = 6 
    MinSccIterations = 2
    MaxSccIterations = 200
    SccTolerance = 1e-6 
  }
  Velocities [m/s] {
     -2.10487972E+02      4.64743990E+01     -2.70488990E+02
      7.91472829E+02      2.07544487E+01      2.14338602E+03
      1.04288707E+03     -8.58931132E+02     -2.65702765E+02
     -3.18920766E+02     -3.07322800E+02      2.66920916E+02
      1.81210355E+03     -5.33197157E+02      3.31239831E+02
     -9.05518135E+02     -1.24993896E+03     -2.04805587E+03
     -8.22155398E+02      1.05343762E+03     -3.90383300E+02
     -1.98754552E+03      1.61485532E+03      8.81972565E+02
      2.13832519E+03      3.31398867E+01     -1.78677777E+02
     -1.68576435E+02      1.53367982E+01      3.76320748E+02
      1.41561148E+03      1.82132740E+02      2.95879364E+03
      2.45263729E+02     -2.69748046E+03      1.66999070E+02
      4.60712859E+02     -3.27690428E+02      8.04708763E+02
      2.10085782E+03     -4.01386395E+02      5.12187214E+02
      2.22542578E+02      9.61251300E+02      1.74745163E+03
     -6.38729121E+01      1.00037242E+01      9.01202733E+01
     -1.66638592E+02      1.02981931E+03      6.54407078E+02
     -4.26836949E+01     -2.42684599E+02      2.51406408E+03
      1.13859794E+03     -1.01867290E+02      2.26560765E+02
      9.52845414E+02      1.98448518E+02      4.30874173E+01
      9.12465279E+02     -4.89769923E+03     -2.44677142E+02
     -1.26857673E+03      6.73174961E+01      7.96589658E+02
     -2.37874680E+02      2.01624469E+03      1.19822622E+03
     -7.87058027E+02     -1.91978472E+03      4.31846338E+03
      2.19024548E+02     -1.33240263E+02     -1.02516730E+02
      4.48095834E+02      1.58340321E+03     -4.71357553E+02
      2.13682896E+03      1.55253814E+03     -3.20309624E+03
     -3.17886322E+03     -4.27292272E+02     -1.75623524E+01
      3.98301472E+01      1.34036844E+02     -2.44198648E+02
      3.81484550E+02     -3.46951962E+03     -5.73618319E+02
     -1.37725421E+02     -2.21728703E+02     -1.38517994E+03
     -3.20135618E+02      2.32913477E+03      1.56403312E+03
     -1.47217602E+02     -2.54046377E+02     -6.01758614E+02
      7.29237442E+01      1.16518918E+03      8.39667479E+02
     -2.49649738E+03     -1.26269230E+03      1.85304788E+03
      3.77486511E+02      2.28302288E+02      5.96456229E+02
      9.76339931E+02     -5.63819521E+02     -8.63662951E+02
     -2.45201352E+01      4.58797739E+02      9.41099865E+02
     -4.03770567E+02      2.88075721E+02      4.11763088E+02
      2.62647849E+02      4.03806468E+02     -8.09196927E+02
     -1.41409277E+03     -5.90682973E+02     -7.08397397E+02
     -1.49052738E+01     -6.11166197E+02      1.88957085E+02
     -6.14724491E+02      1.84358644E+03      1.69688102E+02
     -2.67608662E+03      1.87209059E+03      7.63722443E+02
      2.16820927E+02     -9.00811005E+01     -6.47758935E+02
      2.98425482E+03     -4.12325777E+02     -1.15868081E+03
     -4.78670252E+01      2.06980962E+03      2.33975463E+03
     -6.59299893E+02      6.43379565E+02      6.64048859E+02
     -2.69369377E+02     -1.58399290E+02     -6.43655026E+02
      7.32935264E+02      3.16702990E+03      3.70770847E+02
      6.82925729E+02     -1.88954202E+01      1.72251796E+02
      1.82340743E+03      2.82134537E+02      9.13721175E+02
     -4.10102703E+03      7.25933302E+02      3.34918752E+03
     -1.21522543E+02      4.96984555E+02      3.25442670E+02
      5.83684376E+02     -4.16776230E+02     -2.24189212E+03
     -8.02332702E+02      3.62539489E+03      7.09582990E+02
     -9.24415226E+02      3.02382695E+01     -4.62506942E+02
     -1.43035368E+03      2.17966669E+02      1.79948949E+03
      9.29528602E+02     -6.06241607E+02      6.44959960E+02
      2.84810089E+02     -1.38025175E+03     -1.19378540E+03
      1.67627113E+02      6.84370952E+02      6.24487710E+01
      2.69462506E+03     -1.39751970E+03      2.10481424E+03
     -1.54314363E+03     -1.13493459E+03     -7.93909034E+02
     -7.84481493E+02     -1.19693500E+03      1.13946296E+03
     -2.34837345E+02      1.15003072E+02      1.34412097E+02
     -3.35780670E+03     -3.60248191E+03     -9.23518825E+02
      8.68872720E+02     -7.39350125E+02     -2.10970220E+03
     -3.90455610E+02     -3.88334302E+02      7.45911204E+02
     -1.21179176E+03     -8.50425067E+02     -4.76303801E+03
      4.89862225E+02      1.58695974E+03      2.70301613E+02
     -3.37007394E+02     -6.91254758E+01      2.61359237E+02
      1.27418484E+03      1.88347041E+03     -3.81246817E+03
     -1.15277843E+03      3.56061380E+02      2.06540868E+02
      2.01854025E+02      2.63265880E+01     -4.01246090E+02
     -9.18864278E+02     -2.04115144E+03     -2.16003899E+03
     -4.96210350E+01     -1.30560898E+03     -2.07438364E+02
      3.66592833E+02      1.00738315E+03     -5.41610075E+02
      3.80276419E+02     -1.06522073E+03      2.20374479E+03
      1.13245096E+03      6.75259673E+01      2.63875475E+03
      2.67910001E+02     -5.65659026E+02      3.32584135E+02
     -2.32914527E+03     -9.35722362E+02      2.40519101E+03
      1.47578643E+02     -1.77267682E+03      5.99545236E+02
     -1.90587865E+02     -9.45212307E+02      7.31263349E+02
      1.14931342E+03     -1.65901711E+02      6.00614931E+02
     -9.64085244E+02     -2.94056325E+03     -1.25749844E+03
      8.27642033E+01     -2.65994961E+01      9.43467287E+02
     -3.74447429E+02     -1.58462655E+02     -3.18123667E+03
     -1.03643252E+03     -1.64418217E+03     -4.75078980E+02
      2.57920146E+02      6.78697883E+02     -3.42036520E+02
     -2.91696279E+03     -3.66864468E+02      2.03308438E+03
     -1.49826321E+03     -1.82296712E+03      1.11569261E+03
     -2.27393017E+03      9.56415981E+02      1.22802383E+03
     -3.92207696E+02     -1.59388588E+01      3.66923480E+02
      1.16555407E+02      7.37492006E+02      2.39143850E+03
      2.15434381E+03     -9.86466551E+02      8.52417349E+02
     -9.33420373E+02     -2.45177490E+03      1.66411990E+02
     -8.80958565E+02     -2.05191019E+02      5.51308110E+02
     -3.16851863E+03      2.51520349E+03      2.26476084E+03
     -1.12926602E+03      4.27951109E+01      1.05657785E+03
     -3.85323471E+02      3.89938477E+02      5.07946162E+02
     -9.42825547E+02      3.15119122E+02      5.15723827E+02
     -1.85847611E+03      1.95577901E+03      5.85500856E+02
     -1.01037922E+02     -3.92008840E+02      1.40762745E+02
     -7.64160841E+01     -1.43403340E+03      4.15193293E+01
     -2.18757064E+02     -1.69327583E+03     -8.48314249E+02
      2.72755105E+02      3.05098124E+02      3.20395298E+02
      2.33487354E+03      3.02611061E+01     -8.34394327E+02
      2.14461000E+03     -5.87737933E+02     -1.82033692E+02
      1.52147670E+02     -4.49322757E+02      2.61513722E+02
      1.84822096E+02      3.24347415E+03      7.53828916E+02
      7.46744771E+02      5.50196436E+02     -1.90863138E+03
      4.23987362E+02      5.10685480E+02      3.50008327E+02
      7.48043529E+02      6.78443030E+02     -2.24425020E+03
     -7.09887817E+02     -2.42884625E+02      3.21924514E+03
     -1.71566458E+02      2.54830445E+02      6.16631592E+02
     -7.67051287E+02     -1.92075801E+03      3.72912410E+03
      1.03253800E+03      2.28627391E+03     -3.81839036E+02
     -4.39445125E+02     -2.59665032E+02      1.24351147E+03
     -9.76613419E+02     -4.21200805E+02      1.21750284E+03
      5.61403007E+02      7.83356293E+01     -8.90259653E+02
     -5.68332598E+02      1.56523795E+02      2.35695621E+02
     -1.82952822E+03      1.42558113E+02     -1.04828811E+03
     -6.27413217E+01     -1.08399076E+02     -1.78474596E+03
      2.02648029E+02     -3.29546631E+03      1.65580056E+03
     -3.57928737E+02      3.20802727E+01     -1.37813415E+02
     -1.79638017E+03     -2.85702519E+02     -1.33804134E+03
     -3.01390767E+02     -2.07329043E+03      2.87880790E+03
     -1.45040048E+03     -1.05485844E+03      3.81302303E+02
      5.18630473E+02      1.24450340E+02     -6.16416413E+02
     -1.51428366E+02      2.66277823E+03     -5.58574407E+02
      3.41399725E+02     -2.60638223E+03     -2.12804024E+03
     -3.50926592E+02      2.53890473E+02     -5.80095809E+01
     -5.34749040E+02      2.00701762E+03      4.93494573E+02
      9.82613728E+02     -1.26663196E+03     -1.61017026E+03
      3.31956001E+02     -3.60135303E+01     -3.01779429E+02
     -1.05536069E+03     -9.86395023E+01      1.60895220E+02
     -1.06766633E+03     -9.97556264E+02     -1.10449169E+03
      8.07959856E+02      5.12369841E+02     -1.67273853E+02
      1.01539296E+02      1.72243185E+03      1.04506681E+02
      1.43288634E+03     -1.54030526E+03     -2.26549418E+03
     -3.61499679E+02      4.22348278E+02      4.52530887E+02
      3.14756235E+02      3.61621925E+03      2.42158235E+03
      3.09404525E+02      1.11092545E+02     -2.78951172E+03
     -8.88771834E+02     -5.18502735E+01     -3.96856976E+00
     -1.78725553E+02     -1.20478236E+03      4.09241885E+02
     -1.26573156E+03     -2.40950408E+00      2.93434117E+03
     -8.72300781E+02      6.20909760E+02      1.03004780E+02
      1.33575043E+02      1.36257220E+03      1.48389955E+03
      1.06702466E+03      4.81409028E+02      9.84212417E+02
     -1.41261131E+02     -4.47980654E+02      5.59633718E+02
     -1.55058570E+03     -1.27719733E+03      1.72326001E+03
     -1.96111342E+03     -1.28392653E+03      3.12519224E+02
      5.36708243E+02      6.35011878E+02      5.56805837E+01
      1.64217546E+03      3.56981921E+03      9.67261390E+01
     -1.36978820E+02      2.07521164E+03     -1.31898597E+03
     -1.56642784E+03      5.05351463E+02      1.93884671E+02
      1.94357771E+02     -1.05975331E+02     -4.41438638E+02
     -7.23926695E+02     -1.46926481E+03     -1.96456727E+03
     -4.47405044E+02     -2.41237774E+03      3.08726880E+02
     -3.05306753E+03      1.31284713E+03     -1.13705698E+03
     -3.01565336E+02     -1.77906216E+02      3.87144070E+02
     -9.73457086E+01      2.94263648E+03      4.10897767E+02
     -1.25192920E+03     -4.58382438E+02     -2.32493563E+03
      1.23843112E+02     -6.79369532E+01      6.16583481E+02
      2.59778960E+03     -1.44583848E+03     -1.14574112E+03
     -9.50355460E+02      1.59649540E+02      3.64562303E+02
     -1.06440853E+02      4.46808104E+02      1.08017734E+02
      2.02930366E+03      1.20475547E+03      1.05743770E+03
     -6.60005931E+02     -8.15708194E+02      3.22085638E+03
     -5.31614408E+02      2.08755677E+02     -1.60407191E+02
      1.71995424E+03     -1.48686356E+03     -9.88015382E+02
      2.51556069E+03     -1.25889867E+03     -6.99730742E+02
     -1.59049070E+02      9.27229047E+01      9.04308278E+02
     -5.05203006E+02     -1.33775610E+03     -3.35976776E+02
      1.56129320E+03     -1.68131743E+03      4.96319163E+02
     -3.87422369E+02     -8.20238769E+02     -4.42041169E+02
     -1.65481806E+03      7.72436164E+02     -2.41738738E+03
     -1.38734403E+03      1.65613451E+02      1.04365549E+03
     -3.81437389E+02     -1.37396846E+02     -6.16268201E+02
      1.21047458E+03      2.14381901E+03      6.54330290E+02
      3.00848047E+03     -2.48985039E+01      9.99135918E+02
      2.61904532E+02      8.57113265E+02      7.51907682E+02
      6.98179961E+02     -8.02275724E+02     -1.03016876E+03
     -6.88251549E+02      1.36999987E+03      2.22165966E+03
      3.51046932E+02      6.87824774E+01      1.42303799E+02
      1.97973052E+03      5.63181970E+02     -2.73397270E+02
     -2.63841703E+03      1.04296839E+02      2.58423369E+03
      9.06920695E+02     -2.17184296E+03     -3.75587987E+03
     -1.19207258E+02      6.43196676E+02     -1.30683544E+02
      1.86933016E+03     -8.74079206E+02      2.52870398E+03
     -1.28927924E+03      2.74430546E+03     -1.86081246E+03
     -1.03488910E+03     -1.24364332E+03      2.52151081E+03
      1.18206163E+02     -2.06080478E+02     -8.61608066E+01
      1.05151194E+03      1.57851145E+03      3.67435526E+03
     -7.88563769E+02     -1.30732138E+03      2.94695560E+03
     -4.79356297E+01     -1.28205019E+02     -6.69124659E+01
     -5.55065573E+02      1.13007067E+02      2.47571185E+03
     -7.23615825E+02     -1.04810158E+02      8.86689462E+02
     -2.89796626E+02      2.66903316E+01      2.13769127E+01
     -9.96309786E+02     -1.89940312E+02     -9.55860085E+02
     -1.44362071E+03      2.02467747E+03     -2.20539956E+03
      4.22237420E+01      4.45243981E+01     -4.43546609E+02
      1.65361275E+03     -1.76004625E+03     -1.85517479E+01
      4.87134697E+02     -5.79118322E+02     -5.71195722E+02
     -6.54541905E+02      1.39295098E+03     -4.56319668E+02
     -7.16103553E+01     -1.15777286E+03      1.41634220E+03
     -3.23562850E+02     -1.26280881E+03     -2.51563015E+03
     -5.51742901E+01      1.46255167E+03      4.24043625E+02
     -3.51799933E+03     -4.19492168E+03      1.37669336E+01
      1.77606214E+02     -1.36865902E+03      1.72641994E+03
     -1.93926051E+02      2.56006602E+02     -2.03986936E+02
     -1.40568079E+03      8.49067283E+02     -1.53561466E+03
     -2.27750368E+03      3.42059902E+03     -6.72777682E+02
      1.82255786E+01      4.51845863E+01     -7.36372096E+02
      2.52978512E+02      5.63184659E+02      9.15014583E+02
     -4.68724563E+02     -3.97954120E+02      6.59554851E+02
     -5.99115600E+02     -3.95463176E+02     -5.25806691E+02
      2.17039072E+03      9.55807339E+02      5.37435555E+01
      7.16495254E+02      2.83169594E+01     -3.36939766E+02
      1.68354361E+03      3.95977235E+02     -1.59700378E+03
     -9.51667126E+02     -4.53680478E+01     -6.50164138E+01
      2.69823200E+03      9.16304907E+01     -1.25687542E+03
     -2.93322689E+01     -1.27575246E+03     -7.61789166E+02
      2.17327601E+03      1.84827399E+03      1.42466423E+03
      8.15738193E+02      1.57333564E+02      5.61320812E+02
      1.98636391E+03      2.49377012E+03      1.91880123E+01
      2.78990346E+02     -1.49337931E+03     -3.16147315E+02
     -6.33355754E+02     -1.08531915E+03     -5.82142265E+02
     -9.87367722E+02     -2.67518910E+02      2.48742370E+03
      9.15202732E+02      1.95433723E+03     -3.37305056E+02
     -4.34915708E+02      8.45248154E+02      5.76477274E+02
     -1.50932982E+03     -2.62518535E+03      4.81024855E+02
      1.59429019E+03     -4.63115190E+02      5.92751823E+02
      4.19237873E+02     -3.12976540E+02      5.68679290E+02
     -7.23529613E+02     -2.03853620E+03     -8.34276836E+02
      1.12260666E+02      4.00122234E+03      1.62557094E+03
     -6.16310287E+02      4.79536806E+02      5.48548795E+02
      5.43380839E+02     -2.23331550E+03      2.51147111E+03
      1.11813677E+03     -2.69521860E+02      1.41565414E+03
      1.56010457E+02      3.65504087E+00     -4.20096422E+02
     -9.41796747E+01     -7.64744018E+02      1.39487209E+03
      4.58513963E+02      3.36568577E+02     -1.67698603E+03
     -2.39361819E+02     -3.65413025E+02     -9.06367793E+00
     -2.56205667E+03     -3.01199351E+02      5.06276748E+01
      1.91568988E+03     -1.18405597E+03     -1.44571814E+03
     -2.06222699E+02     -2.96652086E+02     -9.70715105E+02
      1.63735352E+03     -7.17035144E+02      2.15109428E+03
     -4.35055505E+02      1.98684855E+03      1.18394044E+03
      5.98339961E+02      4.54310345E+02      7.27033335E+02
     -1.04262827E+03     -1.39206832E+03     -5.70608270E+02
     -1.35920046E+03     -1.92825402E+02     -1.21188496E+03
      2.24753417E+03     -7.36540259E+02     -1.28597679E+03
      1.06457399E+02     -2.89398140E+02      1.90980357E+02
     -1.58917031E+01      1.59387088E+02     -2.01937276E+03
      1.44386079E+03     -1.39684962E+03      2.86332942E+02
     -3.01163019E+03      1.43692296E+03     -9.00790650E+02
     -1.61379855E+01      1.36517087E+02      3.89753278E+02
      1.69910795E+03      3.16460429E+03     -3.17807866E+02
      3.31662169E+03      3.14761666E+03      1.00083221E+03
     -1.16771165E+02      3.69285172E+02     -6.64615164E+00
      3.09121174E+02      1.14392562E+03      1.22292765E+03
      5.77020837E+01     -1.35509907E+03     -3.27522336E+01
      1.70189939E+02     -3.53300836E+02      5.81630372E+02
     -2.27048269E+03      1.01874813E+03      2.51217925E+03
     -2.64792911E+03     -2.00582594E+03      9.29218089E+02
     -2.24968287E+02      6.56108053E+02     -1.01469129E+03
      1.13857701E+02      1.58651939E+03      9.23628782E+02
     -2.03349921E+03     -4.59380724E+02     -1.05099825E+03
     -1.16170616E+03      3.30434963E+02     -4.28771402E+02
      1.51158838E+03      1.46580430E+01     -3.37103247E+03
      1.75485221E+03      1.78141491E+03     -6.44546985E+02
     -5.34379309E+02      4.39290682E+01     -1.58045507E+02
     -1.48726353E+02      8.10169347E+01      1.25327270E+03
     -1.52037349E+03     -4.82409593E+02     -2.42066493E+02
     -6.09743798E+02     -8.30017695E+01      7.11783601E+02
     -2.81411438E+03      6.25876505E+02     -6.00485836E+02
      1.78113597E+02      2.08557159E+03      9.46171862E+02
     -3.93259055E+02      7.17667509E+01      2.86090243E+02
      1.50226315E+03      1.88125409E+03      3.98367276E+03
      1.12994292E+03     -7.34830202E+02     -1.44422063E+02
      9.62651501E+02      5.04576759E+02      1.30193507E+02
      9.95144131E+02     -4.78211887E+02      1.99666630E+02
     -1.64089893E+03     -1.54463147E+03      2.72765210E+02
     -6.94494315E+02      1.66010816E+02     -1.40511378E+03
      7.47906760E+02      5.79762921E+02      5.54240320E+02
      2.90131870E+03     -1.65249187E+03     -1.74687927E+03
      3.62647207E+02     -1.19319100E+02     -1.58236396E+03
     -3.15780857E+02      2.43505382E+03     -7.72586142E+02
      5.48859484E+02      1.70419813E+02      2.68099056E+02
      1.17946328E+03      6.54822490E+02      2.07009464E+03
      9.24471557E+02     -2.00911905E+02      9.13045291E+02
     -3.95237878E+02      1.95923913E+01      4.00589433E+02
      1.14623876E+03      1.40097392E+02      2.41849296E+02
      1.04499913E+03      8.73465453E+02     -1.27793370E+03
      1.11695671E+02     -5.74455726E+01     -2.61399924E+01
      2.82180446E+03      9.42241758E+02      1.55322842E+03
      1.90168355E+02     -1.02586555E+02      8.70766879E+02
      6.00064599E+02     -2.62905558E+02     -4.16010253E+02
      2.39583200E+03      1.77354474E+03      1.23091150E+02
      2.57429476E+03     -4.63281498E+02     -2.31548662E+02
      2.07522575E+02      9.88171774E+01      2.36822678E+02
      5.08066311E+02      3.31593392E+02      1.10535333E+03
      2.38053970E+02      1.47266144E+03     -7.53122619E+02
      2.58381845E+02     -1.86369395E+02     -3.08695460E+02
      8.04059575E+02     -2.02502787E+03     -6.68568065E+02
     -1.45718321E+03      9.45552830E+02      1.66741104E+03
     -2.82904908E+02     -7.07785131E+02      6.77256749E+02
     -1.78202311E+03      7.82523069E+02     -1.09607099E+02
     -2.97777418E+02      1.95558223E+02      7.38502954E+02
      1.44173281E+02     -3.77394702E+02      3.70312206E+02
     -2.94750503E+03      2.96520474E+03      1.19045835E+02
     -2.84379537E+02     -7.75431209E+02     -4.31646090E+02
     -6.36311120E+02     -2.60258894E+02     -3.71812189E+02
      1.19505595E+03     -3.17525798E+03     -1.40016356E+03
      6.71753275E+02      3.02197564E+02     -1.48556657E+03
      1.26692660E+03     -2.47798408E+03     -1.18281950E+03
     -9.52014644E+02      3.18598062E+02      7.02346972E+02
     -3.22046728E+03      1.52173313E+03      6.67910198E+01
      6.55830140E+02     -1.25515192E+02      5.55320071E+02
      1.64976069E+03      1.71730750E+03     -1.15238890E+03
     -3.50257233E+02      5.24297859E+02     -3.95457803E+02
      1.95381988E+03     -1.99630691E+03     -4.20759739E+03
      5.70759432E+02      2.98780645E+03      8.05567392E+02
     -8.60925469E+02     -7.93443336E+02      2.22070804E+00
     -1.06900186E+03      1.32793771E+03     -1.44756242E+03
      1.98574160E+03     -1.52653535E+03      7.66823052E+02
      2.87798992E+02     -1.34502836E+02      2.63200175E+02
     -1.38861221E+03     -2.00533761E+03     -6.02108399E+02
     -1.25109066E+03     -6.52902735E+02     -7.14249678E+02
     -5.25830876E+02     -9.04581009E+02     -6.40058402E+02
      1.99607927E+03     -1.04464478E+03     -1.46856940E+03
      2.33699220E+02     -8.13380801E+01     -3.72167335E+02
      1.20602158E+04     -6.30379940E+03     -1.15274378E+04
     -3.60363866E+02      1.56637737E+03     -7.97557888E+02
     -4.37285360E+02      2.28654345E+01     -5.63198636E+02
     -5.54667921E+02     -5.78471768E+02     -5.55662572E+02
      3.85894711E+03      1.04462068E+03     -4.89680001E+01
      7.85434125E+02      6.97939094E+02      1.49890146E+03
      1.43625607E+01     -4.76251465E+02     -3.66187901E+01
      1.01738139E+03     -1.94167565E+03      2.29664435E+03
      2.34929342E+03      1.70307829E+03     -1.05958949E+03
      8.49610502E+01     -3.03538010E+02     -4.21370418E+02
     -3.45605766E+01     -1.67480574E+03     -1.01776895E+03
     -8.66841266E+02     -2.35992921E+02      1.66531744E+03
     -5.41618901E+01      9.92032759E+02     -7.12652118E+01
     -6.38440030E+02     -9.69582626E+02     -2.63979325E+03
      1.99598626E+02      4.79114181E+02     -1.47653763E+03
     -8.63295764E+02      1.20158297E+03     -2.97512582E+02
     -4.76869072E+02     -4.17609363E+01     -1.55656209E+01
     -1.61742387E+03      9.24361392E+02     -1.79825996E+03
     -3.33865883E+02      2.26642104E+03      5.52349511E+02
     -2.48104285E+02      1.06078170E+02      3.57962568E+02
  }
}

Hamiltonian = DFTB {
  SCC = Yes
  SCCTolerance = 1e-6
  MaxSCCIterations = 200
  ForceEvaluation = Dynamics
  MaxAngularMomentum = {
    C = "p"
    H = "s"
  }
  Charge = 0.0
  SpinPolarisation = {}
  Eigensolver = Standard {}
  Filling = Fermi {
    Temperature [Kelvin] = 300.0
  }
  SlaterKosterFiles = Type2FileNames {
    Prefix = "../../pbc-0-3/"
    Separator = "-"
    Suffix = ".skf"
    LowerCaseTypeName = No
  }
  KPointsAndWeights = {
    0.0000000000000 0.0000000000000 0.0000000000000 1.00000000000000
  }
  Dispersion = LennardJones { 
    Parameters = UFFParameters {}
  }
}

ParserOptions = {
  ParserVersion = 3
}
