Geometry = GenFormat {
<<< "system.gen"
}

Driver = VelocityVerlet{
  Steps = 50000
  TimeStep [fs] = 0.2
  MDRestartFrequency = 25
  Thermostat = None {
    #InitialTemperature [Kelvin] = 300.0
  }
  Xlbomd{ 
    IntegrationSteps = 6 
    MinSccIterations = 2
    MaxSccIterations = 200
    SccTolerance = 1e-6 
  }
  Velocities [m/s] {
     -3.93072544E+02     -1.63171127E+02     -1.70563094E+02
     -1.16374683E+03      2.16939242E+03     -3.96199353E+02
     -4.42451219E+02     -2.86087797E+03     -1.80628746E+03
      3.77997966E+02      1.36683414E+02      6.23059416E+02
      1.03070687E+03      1.08673177E+03      2.09662774E+02
      2.19508928E+03      5.73216416E+02      4.66131610E+02
      3.95874612E+02      1.73045317E+02      4.42112065E+02
     -2.65254247E+03     -7.23221209E+02      2.20123068E+03
      1.19589036E+03      2.23389241E+03      1.99995859E+03
      3.93606941E+02      8.09604401E+01     -1.05336579E+03
     -8.16457999E+02     -9.83477127E+02     -7.08051653E+02
     -1.35018025E+03     -2.50192536E+02      3.75947955E+02
      7.21171432E+02      1.26275717E+02     -4.50494695E+02
      7.78957641E+02     -7.83242945E+02      3.39547315E+02
      6.47153208E+02      1.56095470E+03      1.05757575E+03
     -6.99653666E+02     -9.47601348E+02      3.84808811E+02
     -1.60446091E+03     -2.32968961E+03      1.70904576E+03
      6.29394900E+02     -1.68344098E+03      8.83164166E+02
      9.72787278E+02      1.24791027E+02      4.19878374E+02
      2.54417996E+03      3.03015005E+03      1.23633161E+03
      4.57882934E+02     -1.75518929E+03      8.51975518E+02
     -3.74236168E+02     -6.02856159E+02      4.30862950E+02
     -7.91907058E+02      3.99836811E+02     -5.79031926E+02
     -3.90917576E+02      3.21911753E+03      5.25642636E+02
     -4.62487890E+02      3.85171942E+02      2.77196826E+02
     -9.22544557E+02     -1.37107339E+01     -7.73046516E+01
     -5.80728351E+02     -1.72118748E+03      1.73212869E+02
      1.64611073E+03      3.25713730E+02     -1.91036953E+03
     -1.07075340E+02      3.61980091E+02     -1.66928546E+02
      2.31660161E+03      2.04022715E+03      4.80646504E+02
     -2.04640671E+03     -1.37687170E+03     -2.34680507E+03
      4.01420234E+02     -4.99372482E+02     -2.05870611E+02
     -6.64086472E+02      2.93221926E+02     -3.73666005E+02
     -2.01307836E+03      2.48200983E+03     -2.04978063E+02
      2.07816272E+03      1.28716227E+03      7.14747891E+02
     -5.91183481E+02      4.25670898E+02     -1.14642192E+01
      3.98621642E+02     -3.38508394E+02      8.25303830E+02
      2.04115955E+03      2.83152750E+02      8.97619949E+02
     -7.61656085E+02      5.49146917E+02     -6.91532756E+01
      4.51451227E+02      2.61312911E+02     -1.03394768E+03
     -3.76609029E+02     -2.54350954E+03      1.21902140E+03
     -3.61675515E+02     -3.51360626E+02     -4.20370812E+02
      2.18755027E+03     -1.60494820E+02     -1.74308299E+03
      1.91367119E+02     -2.03602503E+03      2.12319792E+03
      3.77888543E+02     -5.74085991E+02      1.70024646E+02
     -7.96467100E+02     -2.77116430E+03      9.69574185E+02
      2.54436356E+03      4.43729119E+01     -6.06630210E+02
     -1.43138501E+02     -3.92680072E+02     -4.23742339E+02
     -8.03583217E+02     -1.03948952E+03     -1.05113898E+02
     -1.59843001E+02     -2.79742471E+03      7.22475901E+02
      5.08317781E+02      5.37354476E+02      1.88057689E+02
      1.62199264E+03     -1.09009156E+03     -8.17934453E+02
     -3.85116364E+02      5.29869318E+02      1.50776213E+02
     -5.07973619E+01     -6.56689703E+02     -2.35834591E+02
      4.53435843E+01     -1.26483339E+03      1.44294520E+03
      2.51949803E+03     -1.67005310E+03      1.10099686E+03
      4.97453505E+02     -3.61217528E+02     -3.66694589E+02
      1.11599766E+03     -3.10535619E+03      1.07759324E+03
      2.01650515E+03      3.96937665E+02     -1.68989759E+03
      2.27701035E+03     -1.25136435E+03     -2.16143090E+03
     -1.28348857E+02     -3.85805023E+02     -3.02936731E+02
     -1.44585072E+03      8.42041976E+02      1.43684481E+03
     -6.76530376E+02     -4.75869717E+02      1.47641848E+03
     -2.31601668E+02      8.73354747E+02     -2.00399988E+02
      4.57330604E+02      3.97336940E+02      6.71845626E+02
      1.02245929E+03      1.58354113E+03     -1.82082098E+02
      2.67790646E+03      1.38698268E+03      1.18291246E+03
     -5.40152405E+02     -1.82727830E+02     -5.35671728E+02
     -1.18047767E+02      1.77893370E+03     -2.69039969E+02
     -1.05825817E+03      1.79438854E+03     -2.90405282E+03
      5.09443101E+02     -5.78316401E+01      1.12574518E+03
     -9.47295558E+02      2.91639212E+03     -1.26808010E+03
      3.29756970E+03      9.27745274E+02      9.61406128E+00
      1.43828170E+02      4.96963324E+02      1.92166124E+02
      1.77882768E+03     -8.69792601E+01      1.66809839E+02
      1.99832493E+03      1.43873079E+03      1.93038239E+03
     -4.66792351E+02     -5.50832753E+02     -1.87384070E+02
      7.04295928E+02      1.26394281E+03      1.13062880E+03
      1.26576777E+03      5.75977416E+02     -2.27813515E+03
      1.90818505E+02     -5.27641913E+02     -3.00989703E+01
     -5.03686821E+02      1.85328300E+03     -6.17126155E+02
     -8.72928011E+02     -1.66964192E+03     -4.69789569E+01
     -3.39953814E+02     -2.52022219E+02     -5.40704658E+02
      9.34102651E+02     -7.86079203E+02     -6.66644463E+02
     -4.06615188E+03      2.82392202E+01      2.05400617E+03
      8.61978370E+01     -3.85690493E+02     -6.51964536E+02
      1.37763252E+03      6.37288146E+02     -3.66115522E+02
      8.01777441E+02     -1.66137267E+03     -6.54690535E+01
     -1.97884677E+02     -1.62849753E+02      2.79203209E+02
     -1.00401229E+03      7.78299329E+02      3.03032275E+03
     -1.83384516E+03     -1.49295370E+03     -1.14634916E+03
     -7.13111108E+02     -1.70171774E+03     -1.10688320E+03
      1.12367273E+03     -4.44858317E+01      5.05670549E+02
      1.16661325E+03     -1.98213786E+03     -7.98305682E+02
     -6.17346090E+02      5.78688852E+02     -7.28432601E+02
     -3.35808766E+03     -7.45600869E+02      1.85028962E+03
     -1.42120319E+02      1.91147327E+02     -1.49585427E+02
      2.14890722E+03      5.38201755E+02      1.86536200E+02
     -2.97334259E+03     -2.11772081E+01     -3.06744080E+02
     -2.23409260E+02     -6.31168598E+02     -5.04807954E+02
     -3.47325798E+03     -2.91941992E+03     -2.82749311E+03
      4.14844744E+02     -2.78710182E+02      3.41397481E+03
      1.97530944E+02     -5.26780954E+02      4.84203929E+01
      1.68790172E+03      8.06590660E+01     -2.35074551E+03
      1.29059596E+02     -7.45668829E+02      1.19060594E+03
      2.71352151E+02     -3.86503072E+02      6.99769864E+02
     -1.70477315E+03      3.22505505E+02     -3.62388893E+03
     -4.51265557E+03     -3.36109950E+02      2.57661496E+02
      1.24921050E+03     -9.84468443E+02     -1.64425630E+02
      1.60189155E+03      8.16991224E+02     -2.19498359E+03
      7.36938078E+02      3.83333405E+02      7.52346940E+02
     -2.63548125E+02     -1.25634609E+02      1.78799587E+02
      2.48987014E+02     -8.21993398E+02     -1.11559062E+03
      1.68757021E+03     -2.15182405E+02     -3.26144507E+02
      1.00663787E+03     -1.00058187E+02     -9.82581648E+02
      2.21302381E+03     -4.82003374E+02     -2.42028216E+03
     -1.70509369E+03      3.77576712E+01     -7.18703690E+02
     -1.26493656E+04      1.61848695E+04      7.20249420E+03
     -1.52350480E+03     -1.68378369E+03      2.86285339E+03
      2.13342710E+03     -7.25841333E+02     -2.44153646E+02
     -6.76797660E+02     -6.63661746E+02     -2.47189028E+02
     -1.70155348E+03      7.13323083E+02      7.61109927E+01
      1.14470275E+03     -2.12101130E+03      9.27708971E+02
      1.59946317E+03     -3.50344411E+03      5.66151481E+02
      4.57847267E+02      6.98627912E+01      2.20462545E+02
     -1.96327642E+03     -2.32701393E+03     -2.01942078E+03
     -5.92039240E+02     -2.51647138E+03      1.39288061E+03
     -1.01512329E+02      1.23601752E+01     -2.67800925E+02
      4.29126814E+02     -4.85224329E+02     -1.50625052E+02
      4.48475129E+02     -7.59804799E+02     -1.44948995E+03
      7.50574240E+01      1.84581155E+03     -1.38908732E+03
     -3.60940946E+02     -4.72368417E+02      2.37985250E+02
      7.34866378E+02      4.15573843E+02      2.92718999E+03
      1.11702842E+02     -1.81501227E+03     -1.09757806E+01
     -4.65466544E+01     -3.37607762E+02     -8.61042678E+02
      1.88892690E+03     -1.85802056E+03      3.89389245E+02
      4.05924226E+02      2.07728903E+03     -5.43602786E+02
      4.80462779E+02      1.19919626E+02     -1.11058583E+03
      1.95656895E+03     -2.12662645E+02      3.95396112E+02
      2.58463495E+03      3.87896963E+02     -1.66740100E+03
      1.88408434E+01      7.65764213E+02     -1.86121602E+02
     -6.68167228E+02     -1.70231351E+03     -4.56293008E+01
     -3.72843406E+02      1.06271092E+01      1.04893731E+03
      1.81914947E+02      1.84987754E+02     -8.49615765E+02
      2.72997391E+03     -2.28097669E+03     -5.88784421E+01
     -1.09701098E+03     -1.86343803E+03      2.69839738E+02
     -9.13425394E+02     -6.95941030E+02     -2.46997819E+02
     -3.48130958E+02      6.45075809E+01     -6.69507064E+02
     -6.99415459E+02      1.29087856E+03      3.86775775E+02
     -2.11736194E+02      8.66073708E+02      1.69708626E+02
      2.60699676E+03     -3.30139839E+03     -5.13109801E+02
      1.18369233E+01     -9.49351034E+02      6.44180071E+02
      2.44881386E+02     -5.32583893E+02      1.70012635E+02
      6.90010358E+02     -2.28158559E+03      1.58350228E+03
      7.29731791E+02     -9.79034681E+02      4.86869083E+02
     -5.28708719E+02      7.78644988E+01      2.41149799E+02
     -8.13145721E+02      1.40060906E+02     -2.42251687E+02
     -3.03010190E+02     -1.70335928E+03     -4.51424668E+03
     -2.14330115E+03     -6.19756248E+02      3.83744727E+02
     -1.09436181E+03      5.28461451E+02     -4.11769650E+02
      7.85165543E+02      6.59483370E+02     -2.58301113E+02
      2.46687123E+02     -9.44859236E+02      6.06795589E+01
     -8.95510175E+02      2.11858093E+02     -2.23217204E+03
     -1.32175273E+02      2.75453821E+02      2.54505411E+02
     -3.35055431E+03     -4.56673370E+01     -1.25746343E+03
      2.76874770E+03      5.65377486E+02     -1.34420211E+03
      6.10072550E+02     -3.21567814E+01      1.05109138E+03
      1.45057846E+03     -1.83227872E+03     -4.39385748E+03
     -8.00259343E+01      1.01343529E+03     -4.60016567E+02
      1.94861727E+02     -3.13870256E+02     -7.79644769E+02
      1.97350340E+02      8.65231922E+02     -1.60876294E+03
      3.86921306E+02     -1.16283645E+03      8.78608644E+01
     -2.11575295E+02      2.66394045E+02     -1.41847663E+02
      5.35013498E+02     -3.71524242E+02     -2.05657921E+03
     -1.94775361E+03      1.51594977E+03     -1.38969030E+03
      7.22211166E+02     -5.00426411E+02     -1.17571935E+02
      2.06700140E+03      1.26299064E+03      2.11374478E+03
     -8.88509309E+02      3.80177514E+03      1.50121697E-01
     -1.27176839E+02     -7.29270417E+02      2.13441730E+02
      2.70438804E+03     -8.60320508E+02      1.14019050E+03
      1.36200979E+03      1.83327587E+03     -2.70221814E+03
      1.60596024E+02     -5.23383519E+02      2.48167061E+02
     -9.65349637E+01      4.30883832E+02     -2.57798752E+03
     -1.22419213E+02      3.55331309E+02     -6.76154439E+02
      1.22712004E+02      1.11855959E+02     -2.11955853E+02
     -2.81334439E+02     -8.87804049E+02      5.53421955E+02
     -4.10595572E+02      3.91522100E+02     -4.67378628E+02
     -3.92835369E+02      4.50622511E+02     -1.52825951E+03
     -1.91104760E+02     -1.91453733E+02      3.76816539E+02
     -3.06044674E+02     -1.60858447E+03     -1.31001367E+03
      1.95035158E+03     -1.50829267E+03     -2.01567558E+03
      1.76537811E+03     -1.38815224E+03     -3.00692801E+03
     -2.54433959E+02     -3.81156011E+02     -2.78548564E+01
     -1.19187187E+03     -2.96427869E+02      4.18120809E+02
      2.45511022E+03      2.49636561E+03     -8.95665121E+02
     -4.28413097E+02      3.16891489E+02     -2.67392911E+02
      1.04118162E+03      2.00181389E+02      2.63457386E+03
     -5.72005982E+02     -7.28610476E+02     -2.63583062E+03
      3.64879832E+01     -4.96943496E+02     -4.70174505E+02
      3.04641334E+03      3.70682429E+02      1.08193428E+03
      2.29295811E+03     -1.74929637E+02     -8.73968887E+01
      4.43407852E+02      1.28103170E+02     -1.35205955E+02
      1.21553358E+03     -7.24602895E+02     -2.37158342E+03
      6.29696496E+02      2.87177142E+02     -3.24123464E+02
      1.80899145E+02      8.61994310E+01     -6.41308609E+02
     -3.64886446E+03     -1.53557082E+03      5.43637146E+02
      2.38198245E+03      2.74331910E+03      1.22783384E+03
      8.83662998E+02      5.35892533E+01      3.42513200E+02
      2.34419547E+03      1.02147599E+03      2.33915083E+03
     -1.47341471E+03      1.44812171E+03     -1.08858175E+03
     -2.34857262E+01     -2.37796291E+02     -3.95081306E+02
     -5.44088033E+01      1.75735620E+03      5.05027950E+02
     -1.12340898E+03      7.12647596E+02      1.83705732E+03
     -2.86787694E+02     -5.86484657E+02     -6.60229860E+01
      1.78265169E+03      1.61969302E+02      8.25972181E+02
     -8.04154711E+02      3.23482740E+02      5.50903283E+02
     -5.29270082E+02      4.04034316E+02     -9.20789081E+02
     -3.80621918E+03      1.42259459E+03     -1.05927970E+03
     -2.15228019E+02     -8.72510597E+01      1.84696266E+03
      8.17275752E+02     -5.24387148E+02     -1.23010304E+03
      2.86869103E+02     -9.52208843E+01     -4.94108683E+01
     -2.90032826E+03     -7.41428620E+02      7.19048796E+02
     -1.31407724E+03      3.57147511E+03     -7.20739258E+02
      1.18614452E+03     -2.17649863E+03     -6.52180986E+02
     -4.34708435E+02     -1.85687005E+02      2.31763493E+02
      1.98447907E+03      7.26579540E+02      1.04652229E+03
      7.00070453E+02     -3.22621197E+03     -9.62637219E+02
      5.80794220E+02     -1.21099557E+03      3.95966411E+02
     -1.39022693E+03     -1.07011479E+03      1.47278642E+03
     -1.86209758E+03      2.08792020E+03     -1.32616050E+03
      2.06183947E+01      8.03380885E+01      4.04507912E+02
     -1.38438368E+03     -3.58252397E+02     -1.06825417E+03
     -8.28540827E+02      1.67136522E+03     -6.64837612E+02
     -1.30569349E+03     -2.00776584E+02      6.80358552E+02
     -1.08086309E+03     -1.09146779E+03     -7.69652444E+02
      6.36640088E+02     -8.36064246E+02     -3.92838063E+02
      2.74464717E+02      5.23595684E+02     -4.91390806E+01
     -3.56289457E+02     -1.19095092E+03      1.99943872E+03
     -4.89411024E+02     -3.98564308E+02     -1.72942776E+03
      2.39066512E+02     -1.69093513E+02      3.66072821E+02
     -5.39947775E+02     -1.76994197E+03     -2.12505779E+02
     -7.09390305E+02      8.28271254E+02      3.58556489E+03
     -2.39134476E+02     -3.31482733E+02      6.20429759E+02
      2.17410840E+03      3.75520333E+02      1.15579713E+03
      6.58311622E+02     -1.92608502E+03      3.27972756E+03
      1.69256135E+02     -4.12364879E+01      1.72725814E+02
      3.48914464E+02     -1.60189932E+01      1.89435812E+03
     -2.04442143E+03     -1.25684303E+03     -3.58278368E+03
     -4.47115035E+02      3.29032802E+02     -2.79495894E+02
      3.57085146E+01      6.58882454E+02      1.74510764E+03
     -5.34859064E+02     -4.97197858E+02     -1.16324149E+03
     -1.45509851E+03     -6.49215347E+02     -1.90127861E+03
      6.51130165E+02     -9.39159259E+01      8.80462721E+01
      5.36035893E+01      1.90826477E+01     -7.48747690E+02
      4.36205395E+02      1.00144588E+03      4.95162217E+02
      6.44952285E+02     -1.09084226E+03     -1.42894567E+03
      2.49391440E+01      4.97458121E+02      7.65580678E+02
      3.36925952E+03     -1.23983999E+03     -2.12629129E+03
      1.89328457E+03     -1.87669352E+03     -1.07970192E+03
      9.93698361E+02     -4.96860612E+02      3.64001367E+02
     -5.40547673E+02      8.54918433E+02     -4.96201837E+03
      4.70388308E+02      1.61824582E+03     -7.51973651E+02
      5.60010335E+02     -7.24581072E+01     -1.87751524E+02
     -2.46848296E+02     -1.47606241E+03     -9.13313341E+02
      1.19153970E+03      1.59036000E+03     -1.49212147E+03
      5.21745250E+01     -3.33261252E+02     -3.04965432E+02
      2.80525321E+03      4.36810138E+02      8.52406033E+02
      2.46595929E+02     -2.93850491E+03     -4.46870750E+02
     -1.29891976E+02      1.04199039E+02      2.65146322E+02
     -1.20928456E+03      9.24007875E+01      8.95010010E+02
     -5.11504322E+02      7.87166990E+02      2.53519466E+03
      6.18135569E+02     -3.97195665E+01     -3.16044941E+02
      4.36027598E+02     -6.19319426E+01     -1.68221382E+03
      4.09438693E+02      9.07486605E+02     -1.30089080E+03
      1.15940456E+03     -6.71201875E+01     -1.69517280E+02
      4.51255245E+02      1.70286105E+03     -2.88187723E+03
      4.13289534E+02     -4.19768187E+02      2.65214899E+03
     -4.56894506E+02      8.18541115E+01     -7.09943411E+02
      2.02170834E+03     -1.26691306E+03      2.70116123E+03
     -4.42513148E+02     -1.64181260E+03     -1.81063438E+03
      6.62679542E+01     -1.54029300E+01      5.51473161E+01
      1.29226608E+03     -3.12886851E+02     -1.85670359E+02
      3.38836429E+03     -1.62730690E+03     -6.14144460E+02
      1.82868188E+03      1.18479310E+03     -1.73835576E+03
      4.51780332E+02     -7.95938658E+02      1.74092830E+02
     -1.45736176E+03      1.39200834E+02     -6.60959149E+02
      1.76755513E+03      5.29489288E+02     -3.69003885E+02
      1.87154749E+03      2.25749246E+03      5.05844010E+02
      5.31992713E+02     -1.10647543E+02     -2.24072726E+02
     -3.10146471E+03     -1.24250602E+03      3.01189237E+03
      8.53053693E+02     -1.91652706E+03      4.18136358E+01
      3.71008450E+02      1.97624365E+02      2.40422302E+02
      2.27228838E+03      2.15466474E+03      4.84300676E+01
      2.49054547E+02      6.65631168E+02     -6.53089067E+02
     -8.56273543E+02      5.40705455E+02     -6.87398720E+02
     -1.12129558E+03      1.56382344E+03      2.05685121E+03
      4.18290012E+02      1.64401041E+03     -1.37971030E+03
      8.05139534E+02     -4.33540332E+02      1.63472040E+02
     -1.26918316E+03     -2.04830955E+02     -2.03692076E+02
      9.38891142E+02      2.82718956E+03     -1.21778430E+03
     -7.41134975E+02     -6.22979783E+01     -2.34292455E+02
     -6.60726207E+02     -3.40244165E+02      4.13041384E+02
      1.81559568E+02     -9.28077385E+02     -2.04362267E+03
     -1.80312672E+02     -2.38923901E+02      1.40022299E+02
      1.04870572E+03      1.32731632E+03     -1.40126565E+02
     -3.51522593E+02      1.72268600E+03     -2.11343811E+02
      1.62057779E+02     -3.71158993E+02      5.10840282E+02
     -2.14341152E+03     -5.85230801E+02     -1.00409184E+03
      1.10148739E+03      1.00917844E+03     -4.43636665E+03
     -2.47402130E+02     -9.99953374E+02      4.56304488E+02
     -2.80459752E+02     -8.23352814E+02      1.42055162E+03
      1.06036278E+03      2.56446644E+02     -1.13544087E+03
      6.36413367E+02      1.01651052E+02     -3.28433331E+02
     -1.92357623E+02     -1.54667947E+03      9.33848335E+02
     -4.38156878E+03      1.72035474E+03     -8.76021389E+02
      7.81323821E+02      1.83736879E+03     -2.43643322E+03
      8.75749439E+02     -2.58048286E+02      4.32560312E+01
     -7.17468703E+02     -1.17368554E+03     -2.29110756E+03
      5.97435781E+02     -2.31924175E+03     -2.38283476E+03
      1.29133595E+02      4.98938574E+02     -4.91380635E+02
     -5.48576843E+02     -3.54823866E+02     -5.26182417E+02
     -1.95179394E+03     -7.71348932E+02      1.44446388E+03
      1.42542720E+03      1.31983651E+02     -2.57462319E+03
      1.74472923E+02      8.75390592E+01     -2.70039387E+02
     -2.39384792E+02     -6.19763474E+02     -1.78076216E+03
      2.03580039E+03     -6.41281684E+02      2.84615592E+01
      9.57687121E+02     -2.03527514E+02      1.13117381E+03
      1.02909306E+02     -8.23152045E+02     -2.54274974E+02
      1.49407230E+03     -2.28229965E+03     -1.77007716E+03
      1.86756072E+02      2.90529685E+02     -2.81570580E+02
     -8.91052367E+02     -1.46117606E+03      6.04554576E+02
      3.42518403E+02     -1.09766039E+03      6.92261078E+02
     -4.52255366E+02      7.19690948E+02      9.66411521E+01
      1.23097856E+03      1.02129274E+03      2.30952060E+03
      5.64124074E+03     -2.93441688E+03     -3.48098736E+02
     -1.12050157E+02     -2.71161838E+02     -9.57900927E+01
     -2.15509254E+03     -2.98872903E+03     -5.39177320E+02
      1.81382707E+03     -7.75607597E+02      4.00563348E+02
      9.93910073E+01     -4.58950886E+02      6.12807770E+02
      1.75958172E+03     -8.42778483E+02     -4.47457311E+02
     -9.54230022E+02     -1.81991744E+03      9.18433038E+02
      1.64957079E+02      1.62427821E+02     -5.08358625E+02
     -2.08534439E+02     -1.02545283E+03     -7.15337906E+02
      2.04035573E+03     -3.76906444E+03      1.19481952E+03
     -9.04986593E+02      1.81555227E+02      4.11404348E+02
     -1.33840312E+03      7.30884799E+02     -1.49701408E+03
      1.81365674E+03      3.80346796E+02      4.43778489E+02
      2.82785301E+03     -6.40020846E+02     -1.00021138E+03
      8.50112973E+02     -4.07451733E+02      5.34128644E+01
      8.29340454E+02     -1.42544322E+00     -6.62993578E+02
      7.22136969E+02     -7.09749591E+02     -2.21729758E+03
     -1.04240540E+03     -1.32313151E+03      2.46458559E+03
  }
}

Hamiltonian = DFTB {
  SCC = Yes
  SCCTolerance = 1e-6
  MaxSCCIterations = 200
  ForceEvaluation = Dynamics
  MaxAngularMomentum = {
    C = "p"
    H = "s"
  }
  Charge = 0.0
  SpinPolarisation = {}
  Eigensolver = Standard {}
  Filling = Fermi {
    Temperature [Kelvin] = 300.0
  }
  SlaterKosterFiles = Type2FileNames {
    Prefix = "../../pbc-0-3/"
    Separator = "-"
    Suffix = ".skf"
    LowerCaseTypeName = No
  }
  KPointsAndWeights = {
    0.0000000000000 0.0000000000000 0.0000000000000 1.00000000000000
  }
  Dispersion = LennardJones { 
    Parameters = UFFParameters {}
  }
}

ParserOptions = {
  ParserVersion = 3
}
