Geometry = GenFormat {
<<< "system.gen"
}

Driver = VelocityVerlet{
  Steps = 100000
  TimeStep [fs] = 0.2
  MDRestartFrequency = 5
  Thermostat = None {
    #InitialTemperature [Kelvin] = 300.0
  }
  Xlbomd{ 
    IntegrationSteps = 6 
    MinSccIterations = 2
    MaxSccIterations = 200
    SccTolerance = 1e-6 
  }
  Velocities [m/s] {
      4.09379341E+02     -5.63720185E+01     -3.15903986E+02
     -1.11149917E+03     -5.01390387E+02      1.79843914E+03
      2.73474737E+03     -9.75407084E+02      3.41148516E+03
     -6.76807548E+02      1.23277326E+02     -6.31650430E+02
     -7.44263533E+02      1.05930765E+01     -2.02088433E+02
      1.31349418E+03      2.36720741E+03      8.77387270E+02
     -8.23563667E+02     -3.04797356E+02     -1.86659113E+02
      1.01464382E+03     -1.76427576E+03      2.00506176E+03
     -2.50131591E+03     -1.57525959E+03     -1.22862269E+03
     -2.51408151E+02     -4.14498678E+02     -6.04057729E+02
      1.19997409E+02     -1.11580443E+03     -3.70133510E+03
      7.27374008E+02     -4.82478287E+02     -1.49052817E+03
     -3.95078354E+02     -1.39744208E+02     -3.14607279E+02
      2.34419381E+03     -4.38910888E+02      7.42471823E+02
     -3.68346584E+03     -1.40198002E+03     -1.31982246E+03
      2.49354122E+02      4.42184972E+02     -3.03831475E+02
      2.02127609E+03      1.38251042E+03      2.85310327E+03
     -2.41325635E+02     -7.66353027E+02     -1.65833724E+03
     -6.81134798E+02      5.81615368E+02     -4.26168696E+02
     -5.19358102E+02     -1.75575962E+03      7.49557692E+02
     -2.84895751E+03      2.94651486E+02      1.31370669E+02
      1.61782204E+02     -3.94549983E+02     -2.18617648E+02
     -9.28809729E+02      8.46191234E+02      1.34588512E+03
     -1.40621902E+02      7.68659382E+02      1.27727310E+03
     -7.38251910E+02     -4.04878565E+02      3.31062779E+02
      1.07700111E+03     -4.19623186E+02      2.07166983E+03
      3.56740061E+03      7.56491710E+02     -1.88957483E+03
      4.92935768E+01     -1.45670887E+03      6.58840624E+02
     -1.20518103E+03      3.55457842E+02      2.26181534E+02
     -9.13327508E+02      1.54817075E+03     -2.74302708E+02
      3.43584012E+03     -1.25695476E+03     -1.23060214E+02
     -9.51480353E+02      1.51658473E+03     -1.79612063E+03
     -5.71670355E+02      7.64955153E+02     -1.24574114E+03
     -3.87365206E+03      5.35851510E+02      2.19710521E+02
      1.39020856E+03      3.69726489E+02     -1.51449490E+03
      1.63638428E+02     -3.48228596E+02     -2.53877708E+01
     -9.55775872E+02      7.80471888E+01     -1.39870421E+02
      1.99722295E+02     -1.34327867E+03     -1.16754227E+03
      2.04821769E+02     -2.09628534E+02     -9.16055471E+01
      5.92697676E+02      5.07748706E+02     -1.11012318E+03
      6.21916404E+02      1.14721182E+03     -1.14117105E+03
      1.24997488E+00     -2.50120553E+02     -1.79143081E+02
     -2.03518829E+02      1.81108582E+03      1.25289290E+03
     -2.66954071E+03      1.84657818E+03      2.87299776E+03
      2.85778432E+02      3.23875431E+01      5.36291864E+02
      7.31370386E+02     -1.42905193E+03      1.27897116E+03
      7.12030615E+02      5.76306917E+02     -6.39866363E+02
      6.95183770E+01     -5.86464589E+02      4.63653925E+02
      7.95615204E+02     -6.82944523E+02     -2.12051626E+02
     -2.68194070E+02      2.23395041E+03     -8.65351958E+02
      5.38086672E+02     -1.07559847E+03      3.07837102E+00
     -1.56715449E+03     -1.54725695E+03     -7.16981298E+01
     -5.75573378E+02      1.38943465E+03      7.65875894E+01
      2.97047462E+02     -5.78169656E+02     -4.07402920E+02
     -2.76334056E+02     -1.41926989E+02      7.73945007E+02
     -1.06832785E+03      5.63638172E+02      6.21845634E+02
     -1.03239804E+03     -7.12460202E+02     -8.18267952E+02
     -1.44739467E+03      7.70971107E+02      6.16089336E+02
     -9.71747050E+02      1.29029099E+03      5.75006893E+02
      1.62087647E+03     -1.36617471E+03     -6.68083558E+02
     -2.63573479E+02     -4.16675711E+02     -2.49319597E+02
      7.30258107E+02     -3.22372670E+02     -1.78069448E+03
     -2.31969064E+02      1.89064633E+03     -2.64969295E+03
      4.78563745E+02      8.99886284E+02     -1.61056009E+02
     -1.17737072E+02     -2.12850312E+02     -2.39842574E+02
     -1.77428835E+02     -9.85694462E+02      1.31646438E+03
     -1.14541734E+03      1.14854133E+03      1.46320891E+03
     -5.88648572E+02      2.81806155E+02      5.62795242E+01
     -1.99294350E+03      2.06121786E+03      7.00480640E+02
     -1.51212289E+03      2.63045156E+03     -3.05132552E+02
     -3.33560285E+02     -1.47716053E+02      2.79729847E+02
      6.66830474E+02      1.74948123E+03      3.64535971E+02
      3.97160608E+02     -7.17399961E+02      4.28883221E+02
     -6.16087714E+01      3.58653785E+02      2.81985075E+02
      2.79252134E+03     -4.10424085E+03      2.89010990E+03
      2.79264684E+03     -8.63782155E+01      2.21173509E+03
      3.27331752E+02      3.65857541E+02      4.57781128E+02
     -1.35111734E+03      3.49776962E+02     -1.53477201E+03
     -1.98084939E+03     -1.46272756E+03      1.63749854E+03
     -2.82250730E+02     -1.02846254E+03     -5.07350398E+01
      1.52739632E+03     -6.83271527E+02      1.95419321E+02
      7.85738210E+02      1.73855446E+03     -1.39344265E+03
     -4.30037396E+02      6.10659100E+02     -7.41003893E+01
     -1.10478617E+03     -4.82556339E+03      1.29834405E+03
      5.65822763E+02     -2.71523692E+03      1.17131712E+03
      2.69630221E+04      7.33776126E+03     -3.80767814E+03
      2.80499482E+03      2.96833642E+03      5.47549457E+02
     -3.36269609E+02     -1.62371928E+02     -8.97778339E+02
     -1.37432996E+03      8.56268941E+02      6.19428530E+02
      5.02143626E+02      9.20225718E+02     -3.70772311E+03
      4.24839878E+02      7.49063941E+02      2.11866519E+03
     -2.05621535E+02      4.51161215E+02     -3.45103384E+02
     -2.18190107E+02     -6.73246066E+01     -2.05820074E+02
      1.41437125E+03     -1.79797678E+03      1.33359518E+03
     -1.46141393E+03      5.17269957E+02      1.36646776E+03
     -2.23626608E+02     -3.88048187E+02      1.19220331E+03
     -4.06926432E+01     -4.75332676E+02      3.71125037E+02
      1.19054798E+03     -5.46328094E+02     -2.60908727E+03
     -3.27646960E+03      2.11581389E+03     -6.44958778E+02
     -8.24216284E+02     -3.47463339E+02      5.39610670E+02
      6.42201745E+02     -1.04941167E+03     -1.56282566E+03
     -4.61176699E+03     -3.16898589E+03     -1.88657259E+03
     -3.09867811E+02     -3.44669670E+02      2.58664668E+02
     -1.67056406E+03      2.76870655E+03      1.36544044E+02
     -1.48811113E+02      7.60938023E+02     -1.40121715E+03
      1.06922936E+02      1.21656193E+02      2.30873649E+02
     -2.73855102E+03      2.35914925E+02      3.23180634E+03
     -3.09051644E+03      1.29110330E+03      7.44853020E+02
     -1.85207507E+02     -8.31686713E+02      3.57990732E+02
     -2.02032873E+03     -1.19523565E+03     -5.39390390E+02
     -1.61661386E+03     -6.03143349E+02      4.04137653E+02
     -1.05805258E+02      8.50211272E+01      2.17225126E+02
      1.76424791E+02      1.37670687E+03      2.23636641E+03
     -7.12950802E+02      3.76327738E+03     -1.11657519E+03
      9.81530402E+01     -1.39144251E+02      6.26971377E+02
      1.26115029E+02      8.32113914E+02     -2.44587784E+03
     -1.91732410E+02     -1.55547750E+03      1.96380160E+03
     -7.83344583E+02     -7.71589872E+02     -1.22120569E+02
     -3.39557518E+03      2.07402711E+03     -5.56647898E+02
     -1.48260591E+03      9.67245565E+02      2.41950863E+02
     -5.82920704E+02     -7.34352513E+02     -9.05969246E+01
     -2.82905528E+02      9.58863095E+02      2.78558693E+03
     -2.02762623E+03     -1.12594793E+03      2.20791242E+03
     -5.58793425E+02     -1.05606318E+03      1.02318353E+03
      1.02645885E+02     -3.77309872E+02     -2.11484654E+02
     -3.16788376E+02      2.21552270E+03     -8.19592559E+02
     -9.86105763E+02      1.71174055E+02      6.93825600E+02
     -2.90646989E+03     -3.42565204E+02      8.13363253E+02
     -8.47507944E+02      3.08803320E+02     -2.80226654E+02
      4.77829867E+02      2.54611177E+03      1.62664243E+03
      4.45913009E+02      2.44609895E+03      7.66618422E+02
     -1.20952338E+03     -5.82699471E+02      1.61894685E+02
     -2.03958711E+03     -1.34008476E+03     -4.02934032E+03
      1.06147432E+02      1.32116430E+03      8.65919563E+02
      6.46488273E+02     -1.47990806E+02      5.71189987E+02
      1.10314044E+03     -1.75956803E+02      6.47584397E+02
      1.49552470E+03      1.61073129E+03     -1.05204830E+02
     -2.87507733E+02      3.05998296E+02     -4.90273339E+02
     -6.95658989E+02      9.87166584E+02      2.08312405E+03
      2.08498681E+02      1.96265185E+03     -3.55513262E+03
      5.59572983E+02      1.42329012E+02      1.83253611E+01
     -1.88524114E+03     -1.49506440E+03      5.46252546E+02
      8.72356241E+02      1.83830104E+02     -1.88996125E+03
     -3.55871094E+02     -1.07057855E+03      4.01017461E+02
      2.36126531E+03      1.17395723E+03      2.81221393E+02
     -9.02518949E+02      9.04303232E+02      1.92699516E+03
      1.60001792E+02     -6.57271310E+01      6.86577222E+02
      9.12412367E+02      3.01693692E+02      1.64401938E+03
      5.13819532E+02     -1.12351827E+03     -3.61527732E+02
     -1.97192882E+02      3.92642268E+02      5.49009529E+02
      3.39104343E+02      5.70622126E+02      2.65124058E+02
      5.78557335E+02      1.17711294E+03      5.00910439E+02
     -3.76013006E+00      2.21459254E+02     -8.23309548E+01
      1.16766018E+03      9.02262109E+02     -1.74625854E+03
     -1.98271788E+03     -6.00747681E+02     -3.22003042E+03
      2.75329362E+03      9.83229749E+02      1.02789106E+03
      2.11794482E+02     -7.33837614E+02      1.29159662E+02
      1.67346909E+03      1.29973973E+03      2.03801793E+03
      7.01298440E+02     -2.50176192E+03      2.01591442E+03
      6.25987923E+02      4.86661546E+02     -1.94076527E+03
      1.71518800E+02     -8.40888677E+00     -6.25449701E+02
     -1.40967333E+03      2.32627331E+03      1.74653678E+03
      3.18204700E+02      1.86903708E+03      2.73915451E+03
      5.15961499E+02      7.85703426E+02      7.60430008E+01
      9.04164075E+02     -3.59987156E+02      3.29272150E+02
      2.69086819E+02     -1.15199174E+03      2.26056755E+03
     -5.28297822E+02      1.50576800E+02      1.01690868E+03
      2.18544893E+03      1.48233889E+02      1.51877736E+03
     -2.32828995E+03     -1.88165144E+03      1.69145570E+03
      6.86377488E+02     -2.24267782E+02      6.17412987E+02
     -3.55416656E+02     -2.34414775E+03      1.38573426E+03
      1.91416833E+02     -7.18503077E+02      1.42018879E+03
     -3.52112383E+02      5.68295740E+02     -1.50482808E+02
     -2.22000910E+03      9.95105057E+02      1.52202278E+03
      8.44924797E+02     -1.61303090E+03     -9.60544868E+02
     -3.30233717E+02     -7.23840917E+02      7.91919648E+02
      5.10957564E+02      3.78470810E+02      1.35597965E+03
      8.89287314E+02      1.16291737E+03      1.77916859E+03
      4.38237614E+02     -3.50768330E+02      4.89080331E+02
      5.19760136E+02      1.12031045E+03     -3.11012159E+03
      5.62536104E+02     -1.01830614E+03     -9.61146065E+02
     -9.44521093E+01      5.24216107E+02      3.87553434E+01
     -1.48859631E+03      1.63881154E+03     -1.85909848E+02
     -5.81932818E+01     -6.37999260E+02     -3.58615039E+02
     -1.71646733E+02      4.12600906E+02      9.81871431E+01
     -5.54011742E+02     -2.03385041E+02     -3.88884094E+03
      2.80477250E+01     -1.85365503E+02     -3.10497365E+02
     -1.01277552E+03     -7.53127997E+02      4.14537705E+02
     -1.13691276E+03     -9.36729255E+01     -2.20886553E+02
     -1.16910600E+03      1.05588735E+03      1.38361296E+02
     -4.15678041E+02     -2.15541497E+03     -2.48528766E+03
     -1.54447448E+02     -1.69587144E+03     -3.79363392E+02
     -1.49537643E+02     -2.29427320E+02     -1.73157991E+02
     -2.27206632E+03     -1.16877091E+03     -1.34500938E+03
      1.33390009E+03     -1.43550293E+02      3.11476527E+03
     -1.16445422E+02      2.16567357E+02     -7.34064865E+02
     -1.51987118E+03      4.76267189E+02      1.81176082E+00
     -3.17476297E+02      2.52695253E+01      1.63568806E+03
     -1.45529282E+02     -1.27567378E+01     -4.61312516E+01
      7.93113592E+02     -2.40431640E+03     -1.98642451E+02
     -3.32517010E+02      1.44557717E+02      6.11024931E+02
     -4.03802265E+02      5.32259879E+02      1.92419857E+02
     -6.97809751E+02      1.08904499E+03     -7.95768687E+01
     -5.03398987E+02      4.93695108E+01     -2.06151670E+02
     -4.66237145E+02      2.20029464E+01     -5.12773411E+02
      9.89555491E+02      9.25986682E+01     -1.26177484E+03
     -1.11248152E+03      1.65161232E+03     -4.76399854E+03
     -3.60807034E+02     -1.19505658E+02     -3.72516152E+02
     -3.92069787E+02     -7.53238189E+02     -1.47677069E+03
      1.16892345E+02     -1.39459058E+03      3.94262445E+02
      8.92884632E+01      2.07085693E+02      1.27217540E+02
      6.17750445E+02      1.90766078E+03     -2.32627675E+03
     -1.08429894E+03     -7.59917216E+02     -1.64967495E+03
     -7.33890269E+01     -2.71565267E+02     -2.31884763E+01
      1.56065611E+03      2.34217824E+03     -1.21132590E+03
      1.35125363E+02     -1.74128055E+03     -4.79117971E+01
     -2.66122429E+02     -5.22064352E+02     -5.37856976E+02
     -7.88395149E+02     -2.16906447E+03      4.49016792E+02
     -5.15020486E+01     -4.87631908E+01     -2.84229352E+03
     -1.59956015E+03      9.08035909E+01      2.33253862E+02
      3.21186158E+02     -5.82486363E+02     -2.86456389E+02
      3.12059710E+03      1.11855854E+03      2.16151460E+03
     -4.29853601E+02      1.41766701E+02     -2.47603811E+03
     -3.60608643E+02     -6.08572188E+02      4.35626400E+02
      3.36699904E+02     -6.13303759E+02     -8.37831663E+02
     -8.89443812E+02      1.55413184E+03     -2.34645364E+02
     -5.20972816E+02     -1.03184314E+03      4.81217892E+02
     -3.15368741E+02      9.60489971E+01     -4.94557004E+02
      8.66128332E+02     -2.35547814E+03     -1.10387553E+03
     -1.61144405E+03      3.39613581E+02      9.73228621E+01
      4.28619174E+01     -3.04552166E+00     -3.19358579E+02
      7.37034309E+02     -7.11684404E+01      1.61692105E+03
      1.41273175E+03      1.48120630E+03      1.88845303E+02
     -5.76887924E+02     -3.83587298E+02      9.65132969E+01
     -2.20663786E+03      5.38272042E+01     -9.51646900E+02
     -1.47298859E+03     -4.06823338E+02     -4.01017462E+02
     -2.59857781E+02      1.89590573E+02      2.74829868E+02
      2.18000692E+03      1.66657307E+03      2.63657435E+02
     -1.22096535E+03     -2.10551517E+03      1.91362640E+03
     -7.78240107E+02      5.16535147E+01      3.10952133E+02
      1.91021852E+03      2.08409342E+03      1.73540504E+03
     -1.51490946E+03      7.41508950E+02      2.74216352E+03
     -2.61241661E+02      7.81151887E+02     -8.30796601E+02
      1.87625141E+03      1.33910276E+03      4.75594708E+02
     -9.03066710E+02     -1.87002966E+03      2.48133634E+03
     -2.68944833E+02     -1.09226514E+00     -6.48158111E+02
     -2.18874055E+03      8.71541799E+02     -2.23046101E+03
     -5.33614963E-01     -2.21506909E+02      1.88425388E+03
     -3.00230105E+02     -6.06544493E+02      1.20049879E+02
     -1.55398196E+03     -6.10634923E+02     -1.91383876E+03
     -6.41352277E+02      2.55371002E+02     -4.16272404E+02
     -7.57384147E+01      4.75603731E+02      2.55081207E+02
     -2.03041343E+02      5.26297675E+02     -8.81513992E+01
     -9.39439077E+02     -1.40625229E+03     -2.47268110E+03
      6.80793458E+02      1.48261916E+03     -2.76758118E+03
      1.92762007E+03     -5.72855952E+02      1.43954134E+03
     -3.89150520E+02     -7.53088990E+01     -7.03533396E+02
     -1.10731286E+03      5.64719805E+02      2.09593253E+03
     -2.83128769E+03     -1.84668028E+03      7.16583512E+02
     -1.21137282E+03      1.08574759E+03      3.58672683E+02
     -2.87794679E+03      1.36451700E+03     -1.38961898E+03
     -2.10480589E+02      6.76501871E+02      2.41606732E+01
     -2.44323510E+02     -5.08876267E+02      1.57071513E+02
      2.34290725E+03      7.60614799E+02     -1.51935485E+03
     -2.07613979E+03      3.54845274E+01     -6.05910876E+02
      4.16743759E+02      5.08458261E+02      4.42324458E+02
      2.09639218E+03     -4.89861654E+02     -1.27964672E+03
      1.57363646E+03      2.63581629E+03     -5.07809472E+02
     -3.40564556E+02     -1.66706253E+02      4.34630658E+02
     -9.77001070E+02      1.44538069E+03      1.00298541E+03
      8.92931213E+02      1.44168059E+02      2.86486297E+03
     -1.99213136E+02     -4.24226971E+01     -3.47001753E+02
     -3.04167472E+02     -4.31872648E+03     -2.16789119E+03
     -1.27201137E+03     -1.04929531E+03      7.16291969E+02
     -7.74611573E+02      1.11425873E+03      8.92533960E+02
      1.04240890E+03      1.32987584E+03      3.44424585E+02
      1.03437915E+03      1.40203262E+03     -9.95200367E+02
     -4.34096965E+02     -2.51968371E+02      9.84999152E+01
     -2.45518076E+03     -1.44041691E+03      6.48598786E+02
      8.98355863E+02      1.83277932E+02      2.61238511E+03
      1.03690209E+02     -4.92165469E+02     -3.89739965E+02
     -2.51206444E+02     -9.54566979E+01     -1.64913301E+03
     -2.62800962E+03      1.22912325E+03      1.88632531E+03
      3.66564387E+01      3.56938394E+03      1.19508021E+03
     -4.74175069E+01      1.05349233E+02      3.94643360E+01
     -2.68365115E+03      3.76181090E+02      5.92112304E+02
     -2.67265070E+02      2.35328774E+03     -2.11830800E+02
     -8.73511532E+02     -1.23704629E+03     -1.83787877E+03
     -1.72864654E+02     -2.02335422E+02      1.45352366E+02
      8.75682588E+02     -3.89309341E+03     -6.40198555E+02
      1.19394380E+03     -8.24984938E+02     -1.18009990E+03
     -2.79276305E+02      1.62000026E+02      1.58000057E+02
      1.42335274E+02      1.60647029E+03      1.42461549E+03
     -4.77672521E+02     -4.79662837E+02      6.62674155E+02
     -1.22092079E+02      8.63814137E+01      5.20991144E+02
     -4.71550753E+02     -1.42613690E+03     -3.87092723E+01
      1.50460243E+03     -7.40775469E+02      1.42906561E+03
     -6.68676646E+02     -4.02448844E+02      2.29413711E+02
      1.20953732E+03     -1.46218235E+03      2.94431389E+03
     -1.04233574E+03     -3.96172983E+03      1.01511954E+03
     -2.39272113E+02      5.46538187E+02      5.08210050E+02
      9.22128263E+02     -3.93384200E+03      2.08493537E+03
     -1.92816445E+03     -3.25607417E+03     -1.01266889E+02
     -3.96471962E+02     -4.50660210E+01      9.35019480E+02
      2.47389193E+01      2.49909974E+03     -5.42016239E+02
     -2.73007420E+03      4.41588638E+03     -5.07435068E+02
      4.27575931E+02      6.84749108E+02      2.98273507E+02
     -1.19206966E+03     -2.84508699E+03      6.69607977E+02
     -5.22489986E+02     -1.70835490E+03      3.68413370E+03
      1.82745389E+02     -5.22276254E+02     -6.18878737E+01
     -2.76437714E+02      1.67131341E+03     -1.69522897E+03
     -3.43571323E+03     -1.21521950E+03     -8.17563019E+02
     -9.92463297E+01      3.07659106E+02     -1.44142484E+01
     -2.55559319E+03     -4.98033924E+02      1.49169993E+03
     -2.42732861E+03      7.08011648E+02      1.20153230E+03
     -4.77699642E+02      1.60124895E+03     -2.58925967E+03
     -9.59064814E+02      4.92258132E+01     -1.59593330E+02
      1.28006466E+03     -1.02497045E+03      8.31808812E+02
      9.78431407E+02     -1.87203452E+03      5.58761112E+00
     -1.30495390E+03      1.47094147E+03     -1.06998770E+03
      4.52170925E+02      8.06492209E+01      1.94128653E+02
      8.05177552E+01      1.84515963E+03     -1.16676024E+02
     -2.64831274E+02      3.67225259E+02      1.69136086E+03
     -3.08479729E+02      2.64490176E+02     -4.40401762E+01
      2.75800164E+03     -6.31400028E+02      1.78356818E+03
     -9.68911994E+02     -4.49591301E+02     -1.42638242E+03
     -4.73022094E+02      1.71977875E+02      3.76817858E+02
      1.21738411E+03     -3.13607401E+01     -8.27222044E+02
     -9.41876758E+02     -9.21524492E+02      1.88408137E+03
      4.16561849E+01     -9.87648072E+02     -1.91736587E+02
     -9.11419533E+02      1.85603043E+03     -2.16909332E+03
      3.97172246E+02     -1.08904683E+03      3.96340506E+03
      4.82790923E+02     -4.07845725E+02     -7.13536185E+01
      8.97200356E+02     -1.55637341E+03      2.14139631E+03
     -1.13574797E+03     -2.55200187E+03     -3.72186854E+03
      1.94706456E+02     -8.41071234E+02     -4.63901771E+02
      6.54806477E+02     -1.08725391E+03     -3.82730445E+02
     -4.38841004E+02      5.89658497E+01      7.97027994E+02
     -3.29916152E+02     -6.84870418E+02     -2.17764803E+02
     -3.70693438E+03      5.81003988E+02     -1.89793309E+02
      4.72609780E+02     -4.05943673E+03     -1.71028832E+03
      2.72751621E+02     -4.02909903E+01     -8.70355617E+02
      8.65965785E+02      2.81988215E+02     -4.49741464E+02
     -2.57484228E+03     -1.08036559E+03      2.11606428E+03
     -1.44292650E+02      1.44490129E+01      4.94635017E+02
     -5.04205914E+02     -1.53142633E+03      1.83512114E+03
      4.67280223E+02     -3.64307619E+02     -1.84556403E+03
      3.40189195E+02      1.39958279E+03     -1.45513253E+03
     -7.86158228E+02      5.01959281E+02      7.55369257E+02
     -3.46558952E+02     -3.58331480E+02      1.73799329E+03
      9.52889222E+02     -2.62876833E+03      1.46075770E+01
     -1.42638017E+03      8.24323195E+02      2.03648669E+03
  }
}

Hamiltonian = DFTB {
  SCC = Yes
  SCCTolerance = 1e-6
  MaxSCCIterations = 200
  ForceEvaluation = Dynamics
  MaxAngularMomentum = {
    C = "p"
    H = "s"
  }
  Charge = 0.0
  SpinPolarisation = {}
  Eigensolver = Standard {}
  Filling = Fermi {
    Temperature [Kelvin] = 300.0
  }
  SlaterKosterFiles = Type2FileNames {
    Prefix = "../../pbc-0-3/"
    Separator = "-"
    Suffix = ".skf"
    LowerCaseTypeName = No
  }
  KPointsAndWeights = {
    0.0000000000000 0.0000000000000 0.0000000000000 1.00000000000000
  }
  Dispersion = LennardJones { 
    Parameters = UFFParameters {}
  }
}

ParserOptions = {
  ParserVersion = 3
}
