Geometry = GenFormat {
<<< "system.gen"
}

Driver = VelocityVerlet{
  Steps = 100000
  TimeStep [fs] = 0.2
  MDRestartFrequency = 5
  Thermostat = None {
    #InitialTemperature [Kelvin] = 300.0
  }
  Xlbomd{ 
    IntegrationSteps = 6 
    MinSccIterations = 2
    MaxSccIterations = 200
    SccTolerance = 1e-6 
  }
  Velocities [m/s] {
     -1.21197556E+02      2.00199206E+02     -7.45156827E+01
      7.13800030E+02     -4.26303300E+02      3.74635895E+03
      4.66053099E+02     -5.70319010E+02     -1.26275602E+03
      1.72629907E+02     -6.63362639E+02     -2.69880217E+02
     -1.57739327E+03     -7.60723256E+02      1.52516173E+03
      3.73702867E+03     -1.65243397E+03     -1.28792254E+03
     -7.48702580E+01     -4.94576417E+02     -1.33953766E+02
      2.71563353E+02     -7.42780448E+02      1.37467690E+03
     -4.24450919E+02      1.03141794E+03      6.12885998E+02
      7.42981330E+01     -3.83465208E+02      3.09255734E+02
     -2.72122599E+02      8.57951249E+02      2.93624066E+02
      7.42014889E+02     -1.70870476E+03      1.30515952E+03
      1.02542437E+02     -1.43509526E+02     -3.79669323E+02
      3.08855868E+02     -1.42020014E+03     -1.73149322E+03
      2.42098209E+03     -2.59379294E+03      1.44738048E+03
     -1.74061762E+02     -6.42702311E+02      1.12176357E+02
      8.50370269E+02      1.95665614E+03      2.92412739E+02
      5.04501064E+02     -1.00234815E+03      9.71867935E+02
     -8.86214111E+02      2.24344032E+02      2.86825250E+02
     -1.69158025E+03     -4.50893548E+02     -1.82305253E+03
     -4.69036149E+03      2.11194859E+02     -7.71375012E+01
      3.32431253E+02     -3.73591401E+02      8.61995559E+01
     -1.98560552E+03     -1.59574392E+03     -1.71265624E+03
      1.33519094E+02     -1.31207112E+03      4.32559244E+02
     -6.30154541E+02     -8.67290692E+02     -7.42132091E+02
      4.91060494E+02      1.40868037E+03      8.08521919E+02
      1.82204637E+03      6.65724481E+02      2.50027208E+03
      1.06807713E+03      1.59630219E+02      4.52392223E+03
     -8.32431050E+02     -1.01210867E+03      6.49194657E+02
     -1.96976978E+03      7.94285805E+02     -6.17964022E+02
      9.44944888E+02     -2.05887744E+03      3.30914185E+02
     -1.52547679E+03     -2.80204315E+02      2.82894578E+03
      2.16428375E+02     -4.91152734E+02      2.26791762E+02
     -3.64340164E+02     -8.41066158E+02      1.04991310E+03
     -1.05818248E+03      6.74512165E+02     -1.78485832E+03
     -2.61324832E+02     -8.56200612E+02      1.57393778E+01
     -1.94976144E+03      1.16966085E+03     -2.54427402E+03
      3.33994921E+02     -2.30869752E+03      8.80405013E+02
      1.33998990E+02     -8.32024476E+02      3.72152973E+02
      9.08392760E+02      1.42974467E+03      6.58818533E+02
      2.18230118E+03     -4.25727956E+02      1.78924736E+03
     -8.42321144E+01     -3.88961220E+02      4.81645231E+02
     -1.77386585E+03     -9.70598656E+02      9.15962715E+02
     -5.96545392E+02      2.84367188E+02     -1.59869242E+03
      3.49008644E+02     -4.54899652E+02     -5.64460530E+02
     -1.24702372E+03     -4.77551243E+02      2.15107432E+03
     -5.93459484E+02     -1.18608092E+03      2.23913894E+03
      2.22699382E+02     -9.50874592E+01     -4.65139598E+02
     -1.40792843E+03     -1.21493859E+03     -1.58056979E+00
      1.23857117E+03      1.30094491E+03      2.96780190E+03
     -1.91962900E+02      6.23437959E+02      1.90498578E+02
      2.19775249E+03      1.35505463E+02      5.84065086E+02
     -4.19429446E+02     -5.56515644E+02     -9.94936496E+02
     -8.25174919E+01     -8.89610297E+01      3.75321341E+02
      2.74793123E+03     -3.40110794E+02      1.20316396E+03
      3.12583450E+02      1.52829500E+02      1.94024901E+03
     -7.17042951E+02     -3.79809864E+02      5.82541484E+02
      8.90016737E+01     -2.91035067E+03     -1.59322271E+03
     -3.19841549E+02     -2.13018723E+03      2.12457479E+03
     -8.26137591E+02     -4.16624021E+02     -1.48181504E+03
      2.60384722E+02      8.80157420E+01      9.44820638E+01
      2.13755099E+01     -3.01575937E+03      1.15690664E+02
     -3.84636984E+02     -2.84552753E+03     -1.82577569E+02
     -2.71518003E+03     -4.05655835E+03     -2.82543883E+03
     -6.01542203E+02      1.92599186E+02      1.23136547E+02
     -1.32221249E+03      1.29214499E+02     -2.96901899E+02
      1.61022973E+02      7.10729603E+02     -4.94005126E+02
     -1.23791550E+02     -2.84642740E+02     -2.54031827E+02
     -8.58987933E+02      3.67664626E+03      4.08493380E+03
     -2.40970157E+03      2.12437658E+03      2.79337830E+02
     -2.84527225E+02     -9.69257848E+02      5.48569210E+02
      9.20001924E+02     -1.36470903E+03      1.21964308E+03
     -1.13585214E+03     -1.08028832E+03      6.18857237E+02
      2.68098400E+02      3.81871218E+02     -5.38520663E+02
      5.02475389E+02      2.20474614E+03      1.08207109E+03
      3.38750910E+03     -4.11683268E+02     -1.29215427E+03
      5.33386019E+01      4.37600153E+02      9.41664105E+02
     -1.46919481E+03     -6.49169347E+01     -9.19585830E+01
      1.01340774E+03      5.83708492E+02      4.76645428E+01
      1.04720089E+03     -3.73138888E+02      6.09668952E+01
     -1.17654982E+02      1.68378108E+03      1.36412035E+02
      2.72607728E+03      1.22502631E+02     -6.70419769E+02
      8.69354443E+02     -3.97626547E+02      1.99664193E+02
     -4.78799442E+02     -1.74194019E+03      1.78801455E+03
      2.68764040E+03     -8.61188278E+02     -2.03993600E+03
      4.50122646E+02      1.41286567E+02     -5.27411437E+02
      5.04139077E+02     -3.15010534E+02      5.41456737E+02
      1.03333223E+03      3.09585482E+03     -2.35593246E+01
      1.03165395E+02     -8.43674401E+01     -3.82665077E+02
      2.75622586E+03     -5.55200789E+02      5.90617405E+02
     -2.80953697E+03      4.06430524E+01      3.50691507E+03
      7.60794673E+02     -9.69256478E+02     -1.57062105E+03
      1.18767934E+02     -4.63178644E+02     -3.23074717E+02
      1.60166525E+02     -1.29133869E+03     -1.55470665E+03
     -2.09015309E+03      1.30690159E+03      7.25052700E+02
      6.69035636E+01      2.10353813E+03      1.23976108E+03
     -5.20447866E+02      7.20798143E+01      5.74703065E+02
     -2.39322032E+03     -2.23956163E+02     -5.01696637E+02
     -1.93037779E+03      9.31664682E+01      1.13851100E+03
      8.26398404E+01      4.85404611E+02      8.64434568E+01
     -4.46307566E+01     -2.50915121E+03     -1.82246198E+03
     -1.20369994E+03      1.52914851E+03      5.07167700E+01
     -3.09492352E+02     -4.48000215E+02      2.07380053E+02
      2.65148881E+03      2.47968718E+02     -1.61108439E+03
     -1.15244854E+02     -4.13813440E+02     -3.67279534E+02
     -7.09424274E+01     -2.52757154E+02     -1.77111897E+02
      1.11898033E+03     -5.07732820E+02      6.89880468E+02
     -1.84009890E+03      4.41461657E+03      3.16317777E+02
      6.11195624E+02     -5.45351280E+02     -3.30366520E+02
     -1.37246041E+03      3.66271636E+00      1.43764481E+03
      8.87776944E+02     -1.36493305E+03      3.16389345E+02
      1.99823986E+00      5.06906222E+02      9.58855667E+01
     -1.62312925E+03     -7.48956516E+02     -1.09838915E+03
      1.49117743E+03      3.14563067E+03      8.84224218E+02
      7.38720612E+01     -1.20645891E+03     -5.67068842E+02
     -1.41589295E+03      3.99216400E+03      5.48613936E+02
      7.98660310E+01      1.03745723E+03      2.12598248E+03
      7.32024124E+02     -2.17717855E+02      7.92896010E+02
      1.21063901E+02      8.52153903E+02     -1.46949842E+03
     -7.11062981E+02      5.39492881E+02      3.71944930E+02
      1.00849686E+02      3.37402578E+02      6.77948632E+00
      1.22820401E+03     -1.75122679E+03      4.10634895E+02
      1.34015149E+03      3.50120850E+03      1.55400592E+03
     -2.22888510E+03     -1.26369357E+02     -2.39054023E+03
     -2.62558696E+02     -3.36448337E+02      1.92798192E+02
      2.93489421E+03     -4.62280085E+03      1.97079417E+03
      2.98351062E+02      3.87059741E+02      2.72169082E+03
      1.97961205E+03      4.34368927E+02      3.19857263E+02
      1.85496298E+02     -1.28228659E+03     -1.73932740E+02
      2.11941461E+03      1.37297003E+03     -4.96643586E+02
      3.52936658E+02     -5.50065760E+02     -3.30249089E+02
      3.90800050E+02     -7.54117481E+01      3.95646300E+02
     -5.23269915E+02      1.77989148E+03     -3.52506372E+03
     -2.55372486E+03      9.38794095E+02     -9.98140539E+02
     -1.25810557E+03     -6.18836756E+01      4.36387521E+02
     -2.51924090E+02      7.87827254E+02      6.92907563E+02
     -2.41127090E+03     -1.83745351E+03      3.39289379E+03
      3.81032502E+01     -5.12905179E+02      1.21307863E+03
      8.64278213E+02      2.73086740E+03     -3.08791977E+03
      1.12741837E+03     -7.70567527E+02      2.06807533E+01
      5.52784061E+01     -4.19771643E+02      1.13268143E+03
      1.94494767E+03      1.47409365E+03      1.22550064E+03
     -8.04460758E+02     -6.60163011E+02      4.22801414E+02
      3.98995801E+02     -2.52622593E+02      2.73172793E+02
      1.12683449E+03     -1.65876638E+03     -3.34992359E+02
      1.69371702E+03      2.34965760E+03      1.62031285E+03
      5.91845970E+02     -7.75105005E+02     -2.27065568E+02
      6.53767842E+02      8.81164800E+02     -1.04200228E+03
      5.59163863E+02     -1.77913906E+03     -1.78682460E+03
     -2.92722830E+03      1.96668298E+04     -1.98328423E+04
     -1.43746360E+03     -2.28418134E+02      1.48892626E+03
      8.74232116E+02     -9.28124820E+02     -9.41029192E+02
     -1.28794143E+02     -6.25537324E+02      1.19022506E+03
     -8.62942414E+02     -1.04843812E+03      8.80554988E+02
      4.63148686E+02     -3.24917813E+03      3.09943506E+01
     -1.23186603E+03     -5.61634120E+02      1.26688740E+03
     -2.62093583E+02      2.82162188E+02      4.80685886E+01
      1.82495747E+03     -3.37654091E+03     -1.60727728E+03
     -2.48805529E+02     -1.75589797E+03      1.04527084E+03
     -1.42605377E+03     -1.63937215E+02     -2.26949038E+02
     -5.38593757E+02     -3.20295617E+02      2.72498532E+02
      2.02448689E+03     -2.40237564E+03      1.25264009E+02
     -4.81924424E+02      5.57270031E+01      3.81887154E+02
      2.57179096E+02      1.52972387E+02     -3.32492527E+02
      1.18487981E+03      2.28502292E+03      8.58567019E+02
     -1.27402407E+03      1.04693237E+03      3.36326953E+03
      4.04671889E+02      1.82392054E+02      7.57832544E+02
     -8.33695989E+02     -2.01021966E+03      3.56714671E+02
      3.51611663E+03      2.81957882E+03     -1.04594554E+02
     -6.00308468E+02     -3.81748415E+02      3.69429872E+02
     -6.74244641E+02     -1.91159364E+03      1.00611401E+03
      1.48542797E+03      2.08366379E+03     -2.00488020E+03
      1.48446249E+02      5.72660918E+02      1.38399727E+02
      5.92515489E+02      5.46869762E+02     -1.86711851E+02
     -1.90712015E+03      1.66407590E+03     -5.90895204E+02
     -6.45291608E+02      1.59858644E+02     -6.34344092E+01
      3.53428129E+03     -1.99960076E+03      2.53261600E+02
      2.07133763E+03      4.24764127E+02      5.95335740E+02
     -1.47879371E+02     -5.27497386E+01      2.29752754E+02
     -4.22325096E+03     -8.97237190E+02      2.23148584E+02
      6.31715393E+02     -2.69102957E+02      2.30666295E+03
     -2.83528152E+02     -5.20664030E+02      1.39676797E+02
     -2.86349333E+03     -6.15048272E+02      2.52341077E+02
      9.99163778E+02      4.99490452E+02     -1.93039330E+02
     -1.44581483E+02     -3.08344343E+01     -6.80390712E+02
      9.78704122E+02     -1.48694812E+03      2.65369758E+02
     -2.32733849E+03     -2.32070513E+02      1.61887056E+02
      6.42261017E+02      7.59377372E+01      1.58416444E+03
     -6.09934054E+01      4.19761132E+01     -6.83058952E+01
      5.96915243E+02      3.61871798E+03     -1.64450344E+03
     -2.19832581E+03      7.47798735E+02     -1.84692176E+03
     -3.50538040E+02      1.66030715E+03     -2.92563366E+02
      4.61528437E+02     -1.52581167E+02      1.59633510E+02
     -1.92273254E+03     -2.58239160E+03      8.33488875E+01
      8.97790301E+02      1.19948073E+03     -1.61434588E+03
      1.66444788E+02     -6.80960837E+02     -6.00520625E+02
      2.35032156E+02      3.11116576E+02      6.66079043E+02
     -5.45130763E+02     -4.11997963E+01     -2.28808510E+02
     -1.31818850E+02     -6.57421483E+02      1.73923602E+02
     -1.45539820E+03      4.32408983E+03     -1.38923119E+03
      5.78193616E+02     -2.11487079E+03     -3.82360397E+02
     -6.54273086E+02     -6.33790755E+02     -2.37181095E+02
     -1.46291197E+03     -1.74318719E+03      2.68923670E+03
     -1.43953655E+03      3.77786140E+02      1.21325643E+03
     -9.48267743E+01     -5.28909288E+02      4.44566205E+02
     -8.75072747E+02     -6.77659467E+02     -2.85928815E+03
     -2.92317589E+02     -1.15064169E+03     -4.98296975E+01
      7.69839119E+01      1.63379376E+02     -6.32179340E+01
      8.85181039E+01     -2.92011839E+02      1.96729902E+03
     -5.45803942E+02      1.15350482E+01      1.04765090E+03
     -4.50931859E+02     -4.79167038E+02      5.26748280E+02
      7.53574486E+02     -1.67647430E+03     -1.06652594E+03
      7.16585301E+02      3.83312163E+02     -2.21651367E+03
     -2.12053303E+01      3.46484956E+02      4.37490359E+02
      1.70640132E+02     -6.11618133E+02      1.54026722E+03
     -9.18590614E+02     -4.21075414E+02      7.91255608E+01
     -1.42605810E+02     -3.81900189E+01     -2.07626784E+02
     -3.63909688E+02     -1.15288280E+03      5.32136474E+01
     -3.28390670E+02     -2.07535764E+02      1.24314333E+02
     -2.00990107E+03     -8.06153191E+02     -3.54275300E+03
      2.36291344E+02      5.67145922E+02      6.27427342E+02
     -1.03614380E+03      8.61722834E+02     -1.36881624E+03
     -1.12817205E+03     -2.06107353E+03      1.12786682E+03
     -1.61276648E+03      1.81805278E+03      2.58615460E+03
      1.25408929E+02     -3.85753140E+01     -1.07477157E+02
      2.60176565E+02     -4.88693386E+02      9.20496816E+02
     -9.50719651E+02      5.44178619E+02      6.42751038E+02
     -4.22010256E+02      1.49587421E+02      6.60886164E+02
      1.03493707E+02     -1.24022695E+03      3.87259227E+02
     -2.70540830E+02      1.35733392E+03     -5.04949488E+02
     -6.37617347E+01     -3.62990290E+02      1.22618490E+02
     -1.09228043E+03     -1.40184739E+03     -2.81998763E+03
      6.21744328E+02     -2.31593256E+02     -1.43320719E+03
     -4.92382250E+02      3.01041275E+02     -5.41192034E+02
      1.88191275E+03     -7.97137269E+02      8.80033514E+02
      1.80452024E+03      3.49072030E+02      5.95564004E+02
      5.10183136E+02     -7.96633973E+02     -2.48796798E+01
     -3.32743791E+03      6.66822720E+02     -1.73741028E+03
      2.90740997E+02      2.23086098E+02     -7.11952976E+02
      6.27751428E+01      2.56886324E+02      7.16561823E+02
     -5.72702167E+02      2.23345852E+03     -1.76321218E+03
     -3.92156976E+02     -8.06207868E+02      5.81771743E+02
      2.45909499E+02      3.13168365E+02     -1.71055772E+02
      1.55344585E+03      9.27091888E+02      2.00410506E+03
      3.52367728E+02      4.24073526E+03     -2.31460451E+03
      4.47207252E+02      7.44546865E+00     -1.98136012E+02
     -2.91945880E+03     -3.01504306E+03      7.12698330E+01
     -8.15959573E+02     -3.25859452E+02      1.31033532E+03
      5.93251974E+01     -1.73346052E+02      8.50109146E+02
     -7.17969646E+02     -1.12211430E+03      2.95188945E+03
      6.49009119E+02     -1.09754803E+03     -4.80776577E+03
     -3.16469670E+02     -1.68015062E+03      1.52106035E+03
     -5.46206923E+02     -1.72906908E+02      1.05530958E+03
     -1.25405811E+03     -2.78523148E+03      2.04955652E+03
     -7.02806562E+02      4.02436810E+02      3.80936641E+02
      2.20808685E+03     -4.23453340E+02      1.27273713E+03
      2.33061880E+02      7.16626370E+02      2.95153547E+02
     -3.28349579E+02     -1.05858092E+03      1.76992423E+03
      2.61647393E+03      1.68017734E+03      1.63308128E+03
      2.48858586E+02     -2.18543419E+01      2.24015479E+02
      2.94791204E+02      6.17592284E+02     -4.59566298E+02
      2.88156613E+02      3.22473163E+02      7.84010051E+02
      2.92151420E+02      2.44114139E+02     -5.04691206E+02
      1.57642208E+03     -1.45194068E+03      2.32985987E+03
      3.94931064E+02      9.72075456E+02     -5.20976722E+02
     -9.47844183E+01     -1.16978735E+03      9.23669520E+02
     -1.27271704E+03     -1.61142741E+03     -3.73767949E+03
      1.17991623E+03      1.23631756E+03      5.53431623E+02
      1.93905052E+02      2.54996484E+01     -5.54065311E+02
     -2.04895244E+03      1.26440259E+03     -2.34866589E+03
      1.73928032E+03     -1.48312073E+03      1.41068322E+03
      8.35394072E+02      1.93340908E+02      6.70310887E+01
      5.18087954E+02      7.03224620E+00     -3.32781685E+03
      1.38991798E+03     -1.11607480E+03      1.24634494E+03
      4.41303780E+01     -1.76728680E+02      2.88726414E+02
     -5.65420626E+02     -1.36154347E+03      1.51262413E+02
     -1.74374445E+02      1.17298555E+03     -8.49853808E+02
      7.68248267E+02      4.08896153E+02      3.84970251E+02
     -1.17390593E+02     -4.03045761E+02     -6.62346828E+02
      2.20532043E+01     -3.55808361E+03      3.01035335E+03
     -7.00228907E+02     -5.44663470E+01      5.54882882E+02
     -1.07971865E+03     -6.75538799E+02      1.52551207E+03
     -2.85019640E+03     -1.23985266E+03      5.92891373E+01
     -4.00758018E+01     -1.01336583E+03      5.38416091E+02
     -4.18842561E+02      7.16604099E+01      1.20670997E+02
     -1.27319998E+03      1.99966466E+03      1.66805340E+03
     -1.56983485E+03      1.06999662E+02      1.17016003E+02
     -1.57883321E+03     -2.42676182E+03     -1.26743258E+02
      1.94590451E+02      6.22116636E+01      1.15515237E+02
      5.66232806E+02     -6.88809859E+02     -1.04624127E+03
     -1.39763120E+03      5.47704303E+01     -6.76114263E+02
      4.38435700E+02     -6.64186590E+01      3.74567507E+02
     -1.92841155E+03      9.73811216E+01      2.03971566E+03
     -8.77516509E+02      1.38241008E+03      2.39314011E+03
      4.48826042E+02     -3.71263373E+01      4.48495816E+02
      2.57878026E+03      2.46415747E+03     -1.47308664E+03
     -1.68659383E+03      1.74411717E+03     -4.44480523E+02
     -7.16388181E+01     -1.84501192E+02     -2.86531338E+02
      4.33305141E+02     -2.43671510E+03     -3.98952373E+02
     -1.62251512E+02     -6.62590558E+02      3.88673602E+03
      2.85492987E+02     -4.83970316E+02     -1.82386768E+02
      2.38838618E+03     -1.32680634E+02      2.13854073E+03
     -6.50206752E+02     -3.49847445E+02     -6.48950443E+02
     -3.55117303E+02      4.04877866E+02     -6.25715082E+02
      6.35545905E+02      1.85086824E+02      8.68431156E+02
     -5.78986041E+02      1.84303644E+03      1.31855125E+02
      2.19400608E+02     -1.02824636E+02      1.78503249E+02
     -1.24419449E+03     -1.11502649E+02     -3.87388654E+02
      1.18787617E+03      3.82203978E+02      2.02787787E+03
      2.33532599E+02     -3.49174833E+02      3.20917233E+02
      1.24149018E+03      3.52193449E+02      3.38916538E+02
     -2.30428698E+03      1.61565754E+03     -1.29710447E+02
      8.43112304E+02     -6.54106365E+02      2.88359849E+01
     -1.54797562E+03     -2.52566508E+03     -1.64789064E+03
     -2.05440560E+03      2.44917059E+02     -8.87327632E+02
     -2.55279642E+03     -1.78777473E+03     -1.99649394E+02
      6.46710733E+01     -2.80874002E+02     -4.30358329E+02
     -6.61079209E+02     -8.97778087E+02     -2.46120659E+03
     -9.30232187E+02      8.44885367E+02      2.91508976E+03
     -1.34706308E+03     -7.13843657E+01     -3.94067006E+03
      2.06619068E+02      2.66793357E+02      7.00496961E+02
     -6.21595634E+02      8.64188459E+02      2.09125937E+03
     -9.16136868E+01     -3.55700620E+03     -1.75950768E+03
      5.64463693E+02     -7.08481709E+02      1.06063637E+02
      2.61216264E+03     -2.74607782E+03     -7.09178992E+00
      2.33769275E+02      8.83051925E+02      1.07613486E+03
      1.34289573E+03      5.15274909E+02      9.32378514E+02
     -1.92411943E+03      4.61516324E+02     -8.72123535E+02
     -9.58370715E+02      4.28187955E+02      2.02848385E+03
      5.40508131E+02      7.11356355E+02      8.66422180E+02
     -2.43600632E+03     -1.50841580E+03      2.09563495E+03
      7.79639846E+02      1.39795927E+02     -2.92858492E+02
      3.21558397E+02      1.53250274E+02     -2.30910915E+02
      2.72280800E+03     -1.03611445E+03     -1.49715614E+02
     -4.71225790E+02      6.90510415E+02     -1.41347351E+03
      6.49558108E+02      5.23331708E+02      4.96530960E+02
      2.36429440E+03      4.65125837E+02     -8.44688071E+02
     -9.25483246E+02      2.35620150E+02      1.88387437E+03
     -3.20355175E+02     -3.01009746E+02      9.56896522E+00
      1.19314840E+02     -1.23699569E+03     -8.98971049E+02
      1.32560614E+02     -1.15529756E+03      2.43456986E+03
     -9.84608957E+02     -4.94690995E+02      4.84935098E+02
      1.44606056E+03     -2.07154686E+03      7.16203776E+02
     -4.98704603E+02     -5.65590849E+02      1.15967975E+03
      5.72149565E+02      2.84839803E+02      3.54834962E+02
      6.70810029E+02     -3.26685386E+02      1.15855980E+03
     -1.44189762E+02      3.01867824E+02     -2.81325455E+02
      2.52918943E+03      2.62063100E+03      8.47169108E+02
      5.33904553E+02     -2.95966110E+01     -2.34783793E+02
     -6.36628020E+02     -1.08646731E+03     -1.61181237E+03
     -1.42515946E+03      3.16475977E+03      5.12098702E+02
     -1.83442981E+03      3.42163190E+03     -8.50311918E+02
  }
}

Hamiltonian = DFTB {
  SCC = Yes
  SCCTolerance = 1e-6
  MaxSCCIterations = 200
  ForceEvaluation = Dynamics
  MaxAngularMomentum = {
    C = "p"
    H = "s"
  }
  Charge = 0.0
  SpinPolarisation = {}
  Eigensolver = Standard {}
  Filling = Fermi {
    Temperature [Kelvin] = 300.0
  }
  SlaterKosterFiles = Type2FileNames {
    Prefix = "../../pbc-0-3/"
    Separator = "-"
    Suffix = ".skf"
    LowerCaseTypeName = No
  }
  KPointsAndWeights = {
    0.0000000000000 0.0000000000000 0.0000000000000 1.00000000000000
  }
  Dispersion = LennardJones { 
    Parameters = UFFParameters {}
  }
}

ParserOptions = {
  ParserVersion = 3
}
