Geometry = GenFormat {
<<< "system.gen"
}

Driver = VelocityVerlet{
  Steps = 50000
  TimeStep [fs] = 0.2
  MDRestartFrequency = 5
  Thermostat = None {
    #InitialTemperature [Kelvin] = 300.0
  }
  Xlbomd{ 
    IntegrationSteps = 6 
    MinSccIterations = 2
    MaxSccIterations = 200
    SccTolerance = 1e-6 
  }
  Velocities [m/s] {
      6.38693970E+02      2.60177647E+02      1.22642794E+02
     -6.63387459E+02     -8.56609774E+02      1.29699394E+03
     -9.23827278E+02     -1.69948073E+02     -1.26280219E+03
      2.90724324E+02      4.04913198E+02      3.47437345E+02
      6.26272480E+02     -1.62140934E+03      1.34940887E+03
      1.80707413E+03      2.48438671E+02     -2.81589298E+02
      5.45745930E+02     -6.62744821E+02      5.64440478E+02
      4.93340133E+03     -1.83002210E+03     -2.55256656E+03
     -1.64915632E+03      2.05630951E+03      2.14875999E+03
      1.50780368E+02     -2.45679935E+02      2.22190837E+00
      1.85086977E+03     -5.69541554E+02     -1.07889277E+03
      1.29005006E+03      2.33678030E+02      1.01110272E+03
     -1.26983205E+02      4.31220722E+02     -2.81491787E+02
      7.70998564E+02     -2.95718767E+02     -2.53586298E+02
     -3.50621125E+02     -1.38866997E+03     -1.57325545E+03
      3.30066871E+02     -1.33819674E+03      3.93687354E+02
     -1.45220519E+03     -7.21807421E+02      1.35986070E+03
      3.98129520E+01      2.50821705E+02      5.13773552E+01
     -6.31075432E+01     -1.68167303E+02      3.28789142E+01
      1.97331315E+03     -1.05444314E+03     -1.74993599E+03
     -4.82381273E+02      1.56474442E+03      2.55354259E+02
     -1.55580446E+02     -6.48488624E+02      1.24779308E+02
     -1.73947813E+02     -7.25748611E+02     -4.91941251E+02
     -7.21567708E+02     -6.25152827E+02      4.34727132E+02
     -1.03492283E+02     -3.18091867E+02      4.76188669E+02
      8.48870371E+02      5.50929348E+02      8.89542131E+02
      7.00641145E+02     -5.46985775E+02      1.83420644E+03
      1.61126981E+03      9.95624551E+02      3.03460172E+03
      1.76795268E+02      3.93886137E+02      8.36794645E+02
     -1.07352391E+03      5.26087888E+02      9.00101506E+02
     -1.97740656E+03     -1.22101198E+03      2.45584153E+02
      5.60283597E+02     -1.38993842E+01      1.55247137E+03
      1.50440102E+02     -5.29962630E+02     -5.96008745E+02
     -2.35368948E+03      1.13746234E+02      1.67758185E+03
     -2.76547806E+03      8.65978959E+01      1.75292298E+02
     -3.44804171E+02      1.08802694E+03     -3.61585067E+02
     -1.66432075E+03     -8.55294616E+02      3.09421560E+03
     -1.72233688E+02     -5.91748472E+02     -8.54562695E+02
     -9.15305319E+00      1.96746907E+02     -8.51556140E+02
     -3.91386595E+02      4.72596076E+02     -1.15751876E+03
     -3.01668888E+03      1.28188246E+03     -6.61326818E+02
      1.55201291E+01     -8.54595885E+01      9.71268613E+02
     -7.98173387E+02      8.02318840E+02      3.27596268E+03
      3.18054293E+03      2.23293115E+03     -2.27951186E+01
     -4.70190947E+00     -1.25534554E+02     -3.37865048E+02
      3.07824511E+03      2.37406050E+02     -2.86201718E+02
     -1.06628140E+03      5.49092759E+02      1.00366985E+03
      4.40518418E+01      3.32919415E+02      9.33114316E+02
     -4.16673619E+01     -1.46533576E+03      2.45257096E+03
      3.98166959E+02     -1.46184969E+02     -8.80620585E+02
     -5.76688323E+01      3.05420390E+02      1.59995481E+02
      2.27172284E+02     -1.00359201E+03      1.25146570E+03
     -9.56824718E+02      5.58464618E+02      2.23641652E+03
     -6.92885622E+02     -3.43106064E+02      4.55574917E+02
      8.17413764E+02     -1.85396568E+03      1.79327953E+03
      3.62848529E+02      8.19567953E+02      3.11063529E+03
     -4.92901754E+02     -4.89787391E+02      4.67981958E+02
      1.28226919E+03     -8.55367607E+02      1.46360953E+03
     -1.61421678E+03      7.41421920E+02     -2.74938377E+01
     -2.79484731E+03     -1.22747506E+03      1.31265222E+03
     -4.58523287E+02     -4.82470963E+00      5.31792865E+02
     -2.06256546E+03      2.38782571E+03      4.80240937E+02
     -1.62582695E+03     -1.00614991E+03      2.70482588E+03
      2.56494277E+02     -3.36583168E+03      9.44687739E+02
     -7.67857140E+02      4.34176153E+02      9.49915947E+02
      2.83033326E+02      1.88685425E+01     -2.19848534E+03
      1.55210215E+03      2.33226166E+03     -5.76593815E+02
      5.41793584E+02     -7.12996991E+01     -4.80909544E+01
      2.49219155E+03     -4.50925929E+02      4.66796596E+02
     -2.49043671E+02      3.84910883E+02     -1.60590847E+03
     -2.20037484E+02     -2.92559379E+02      8.66130718E+00
     -1.83959574E+03      4.94600086E+02      1.50669595E+03
      4.79597032E+02     -2.46952795E+02      1.88788472E+03
     -1.07639005E+01     -2.31484117E+02      4.52467450E+02
     -1.36385580E+03      1.58002856E+03     -1.16438615E+03
     -1.26976126E+01     -7.31020543E+02      6.61017823E+02
      3.60096059E+01     -5.95694120E+02     -3.03239123E+02
      1.51627915E+02     -5.47542496E+01      1.06330011E+03
     -2.39287543E+02     -6.90102308E+01     -4.14838434E+01
      2.34260900E+02     -4.83057631E+02      5.42552624E+02
     -1.25099738E+03     -1.26489363E+02     -9.97231670E+02
     -4.15815874E+02      1.54908007E+03      4.96801974E+02
     -4.03826661E+02     -2.07458291E+02     -1.13682803E+01
     -1.57030550E+02     -1.82609239E+02      3.50190157E+03
      4.17193940E+03      1.69294306E+03      7.91351092E+02
     -4.70488822E+02     -1.66106043E+02      5.46117308E+02
      1.99230366E+02     -1.93306311E+03     -5.97525932E+02
     -1.83386769E+03      3.36982247E+02     -4.80347039E+02
     -4.92247838E+02      3.92790191E+01     -6.83400605E+01
      9.51152588E+01     -2.22278370E+03     -1.56775897E+03
     -2.44685664E+03     -7.36556725E+02      7.04027089E+01
      1.29580295E+03     -8.70087865E+02     -1.96374717E+03
     -5.14833093E+02      5.50246386E+02     -7.15356020E+02
      1.61171858E+03      6.78238593E+02     -1.24494833E+03
     -1.81175875E+03     -1.22177722E+03      2.58943949E+03
     -4.30147538E+02     -9.83637168E+02     -7.12418968E+02
     -6.25844674E+02      4.50362375E+02     -4.44240249E+02
     -4.44683421E+02     -4.29660133E+02     -5.63618026E+01
      1.06166896E+03      1.55995932E+03     -3.70454631E+02
     -2.39675320E+02     -5.12945310E+02     -7.79127188E+01
      6.14304194E+02      2.48164509E+03     -1.47071634E+03
      1.28903983E+03     -6.54393372E+02     -8.51434912E+02
      2.99017573E+01     -1.32017662E+02      1.81050725E+02
     -3.56707612E+03      6.35209226E+02     -3.47285934E+02
     -7.57875877E+02      4.09402564E+02      8.68421799E+02
      2.49100678E+02     -5.51386061E+02      4.02288689E+02
     -2.03708888E+03      1.13774956E+03     -5.77318058E+02
     -5.50044330E+02      6.95225794E+02     -2.83319675E+02
     -1.11410021E+02     -3.66984456E+02     -3.32292315E+02
     -3.51943191E+01     -5.73123469E+02      6.71982378E+02
      2.41495664E+03      2.22431674E+03     -9.75719470E+02
     -2.55951436E+02     -1.61321519E+02      4.37420582E+02
     -1.98838438E+02      2.07278292E+03     -3.95064792E+01
      2.67023330E+03     -9.47054500E+02     -1.70201772E+02
      9.63791857E+01      4.70567676E+01      8.70968769E+02
     -5.21366874E+03     -1.22729369E+03     -1.69013817E+03
      6.35781294E+02     -1.83000270E+02     -3.61428311E+02
      2.02547463E+02     -3.27748428E+02      1.75871214E+02
      1.50967662E+03      1.82428084E+02      1.29213633E+03
      2.86575437E+03      3.99431295E+03      3.98371841E+02
     -2.43063351E+02     -3.85968273E+02      8.96453884E+02
     -4.15912028E+02      2.83585243E+02     -1.48755143E+03
      6.23157763E+02      3.10018152E+02      1.58259293E+03
     -3.68019559E+03      1.68997739E+03     -2.43915377E+03
     -4.19558855E+02      4.00117612E+01      8.40521829E+01
      2.07695742E+02      8.55271603E+02     -5.21256085E+02
      1.09082601E+03     -3.28936600E+03     -1.06829119E+03
     -1.09235123E+03     -2.43603450E+03      1.50386174E+02
      2.13650330E+02     -1.48223889E+02      4.07137402E+02
     -7.21750238E+01     -2.47713563E+03     -1.26835615E+03
     -1.51878359E+03     -9.94473254E+02      1.13459258E+02
     -1.15006196E+02      5.94494483E+02      1.55961524E+02
     -1.29656083E+03      6.02526407E+01      2.33173649E+03
      1.31621090E+03      3.17558447E+02     -1.75397520E+02
     -4.62216277E+02      4.82544523E+01      9.53092062E+02
     -3.45838180E+03      1.39942247E+03     -7.38193701E+02
      8.51152655E+02      4.59471011E+02      6.25813949E+02
      1.49493575E+02     -4.24716277E-01      5.56229543E+02
     -2.98123780E+03     -1.05997494E+03     -5.62463822E+02
     -1.37602184E+03     -6.23819459E+01     -6.47290693E+02
      5.14866673E+03      4.19795962E+03     -2.07320654E+04
      3.12129138E+02      7.56256972E+01     -1.80247244E+03
      1.61199267E+03      9.14137341E+02     -1.69522698E+03
      3.63916040E+02     -4.75904500E+02     -5.29511078E+02
     -1.33933416E+03      2.83257993E+02     -1.30376681E+03
      4.27492734E+02     -8.32822925E+02      8.68885462E+02
      1.85181848E+02      5.52209581E+02      6.92010607E+02
     -8.16248608E+02     -3.97656025E+02     -1.65670765E+03
      1.32480376E+03      1.28662984E+03      3.69168237E+02
     -6.33207848E+02     -4.27651239E+02      1.90347832E+02
     -1.05965162E+03     -1.36383527E+03      1.06990378E+03
      5.96196570E+02     -1.76190230E+03      2.55606103E+03
     -6.34158489E+01      4.03012026E+02      3.45802480E+02
     -1.66853112E+03     -2.34625148E+03      6.09875267E+01
      9.40265785E+02     -1.69850562E+02      8.33380649E+02
      2.25224288E+03     -4.82627820E+02      3.94318395E+02
      3.06061562E+02      1.96241992E+02     -4.38737630E+02
      2.76970429E+03     -1.75613367E+03     -2.60559932E+02
     -1.48598577E+03      7.48779846E+02     -3.28494082E+02
      2.08153456E+03     -5.64448433E+02      2.66594443E+02
      3.56384374E+02     -6.31496575E+02      5.14839544E+02
      1.33949956E+03     -7.93761553E+02      4.55701865E+02
     -7.21163763E+02     -4.05733330E+02      1.43243634E+03
      2.18728778E+02     -1.16486995E+02      4.83660022E+02
     -1.36378177E+03      1.29417029E+03      1.75740308E+03
      3.17583892E+02     -8.40458751E+02     -2.01213904E+03
      7.08029577E+02     -4.52105650E+02     -3.01648846E+02
      6.16251514E+02     -1.49014454E+03      1.86859040E+03
      2.47765497E+03     -1.05322765E+03     -5.59884195E+02
      1.19850920E+02     -4.12751806E+00      6.79208648E+02
     -5.21941577E+03      4.71037036E+03     -4.23603335E+02
      1.08575236E+03     -2.19890881E+03      3.37487323E+01
     -8.14677210E+02     -8.40485875E+02     -3.80493497E+02
     -3.18002712E+03      2.63047139E+03      1.56608276E+03
      6.76087607E+02      5.48246329E+02     -1.02771944E+03
     -2.25957884E+02      9.35913908E+01     -7.25510143E+02
     -9.19415263E+02     -1.83232535E+03     -1.66538010E+03
      2.71474755E+02     -9.91736786E+02     -5.95765398E+02
      9.04460458E+02      2.88471043E+01      8.36594031E+02
      2.67616248E+03     -4.89231086E+02     -4.38300171E+02
     -6.68552303E+02     -4.29475312E+02     -1.96367362E+03
      4.78718564E+02      8.58657684E+01      4.49680814E+02
     -1.06082717E+03     -9.85309265E+02     -9.85943486E+02
      2.33237831E+03      6.04675084E+01     -1.00125432E+03
     -1.84813410E+01     -1.37320876E+02      3.97418119E+02
     -9.50218728E+02     -2.92412212E+02     -1.14630729E+03
     -1.01429625E+03     -5.99393704E+02      2.86954195E+02
     -2.02773254E+03      6.89040227E+02     -2.16042786E+03
      1.05752539E+02      5.54620620E+01     -4.79007710E+02
      1.95119728E+03     -8.06195921E+01     -3.17203911E+02
     -2.99664201E+03      1.81897449E+02     -1.01182993E+03
      1.78609831E+03      7.16079279E+02      8.61777899E+02
      2.67522533E+02     -8.45908633E+01      6.31670248E+02
     -1.96842668E+03     -2.08142419E+03     -2.09434969E+03
      2.17634546E+02     -9.90232930E+01      1.77574673E+03
     -8.90706788E+01      1.25809631E+03     -1.00484185E+02
      2.81192452E+01      2.84568567E+03      8.29946204E+02
     -6.88228172E+02     -1.13054697E+03      2.18049043E+03
     -6.35651693E+02     -6.53158512E+01      4.37813490E+02
      2.28602241E+03      1.66697555E+02      1.25284062E+03
      1.47328401E+03      1.54761512E+03     -1.52697463E+03
     -1.83871132E+02      1.38832450E+02     -6.33453707E+01
      9.45826061E+02      3.07655516E+03      4.33514669E+03
     -1.13444073E+03     -1.46687832E+03     -1.57862487E+03
     -4.61931651E+02      3.14911224E+02     -6.87647035E+01
     -2.17933827E+03     -1.80195441E+02     -1.24200183E+03
      1.69653519E+03     -3.82718536E+02     -1.94719946E+03
      2.99348257E+01     -8.95101179E+00      9.57944644E+02
     -5.04921141E+02      5.60760812E+02     -2.73894735E+03
     -6.36174661E+02     -8.55251996E+02     -1.65714563E+03
      4.25670902E+02     -4.96550904E+01      6.44426612E+02
     -2.68412787E+02      2.82917074E+03     -2.11597321E+03
     -3.29448059E+02      1.79399109E+03     -7.08579086E+02
     -2.09624742E+02     -1.99494166E+02      2.24608378E+02
      4.21092118E+02      2.61081752E+03      2.75095586E+02
     -6.26796354E+02     -6.59282460E+02     -3.30193810E+02
      6.94204509E+01      6.26057908E+00      4.50739991E+02
      8.89795668E+02     -3.48990075E+02     -1.02451371E+03
      1.46619961E+03     -9.47278270E+01     -2.52593653E+03
     -3.48257082E+01     -4.84083217E+02      1.34726697E+03
      3.14020609E+02      7.55145333E+02     -1.04903714E+02
      9.23610807E+02      1.69655644E+01      7.70457147E+02
      2.67654356E+02      2.54907134E+03     -2.47093045E+02
     -7.36260880E+02     -1.00909629E+03     -9.78063054E+02
     -3.46396741E+02      5.17418565E+02      7.60107052E+02
     -1.12720360E+03     -1.87596406E+03      1.33116526E+03
      2.96692606E+03      1.23986170E+03     -1.23013831E+03
     -8.64725773E+02      2.81283858E+02      3.81089489E+02
      6.36719734E+02     -7.80809495E+02     -4.25911599E+03
      8.82551288E+02     -8.31978256E+02     -5.63209542E+02
      8.72338633E+01      3.90454526E+01      1.95240398E+02
      2.18494932E+02     -1.03747793E+03     -1.00394132E+02
      2.09588454E+03      2.12468275E+03      2.63926769E+03
     -2.29216176E+02      3.88056481E+02     -4.23295836E+02
     -1.26734435E+03      1.23703457E+03     -1.34364736E+02
     -1.57462196E+03      1.63897560E+03      6.80362169E+02
     -6.63761285E+02      7.71138748E+02     -2.92497403E+02
      2.95060059E+03      1.95862274E+03      2.90069834E+02
      8.72936550E+02      5.23453030E+01      3.31381913E+03
     -2.30762449E+02      2.27705411E+02     -1.74346565E+02
     -1.01459756E+03      9.99116297E+02     -1.25639065E+03
     -3.36787509E+03     -4.91645816E+02     -1.35707133E+03
      2.65435991E+02     -2.53977222E+01      7.21729507E+01
     -2.04809366E+03      3.18703165E+01     -2.40019487E+03
      3.03479583E+03     -5.74750869E+02     -1.69599259E+03
     -5.63071141E+02     -9.66262996E+01      2.76243436E+02
      6.27334957E+02      1.26199436E+03      2.69140990E+02
      5.02907433E+02      3.16819622E+03      4.42076862E+02
      1.44661699E+02     -5.00144700E+02     -4.66444822E+02
      2.50191716E+02     -1.07866177E+03     -1.35500484E+03
      6.47611916E+02      8.13057432E+02     -2.12066289E+03
     -2.54000657E+03     -4.18920731E+02      1.71585974E+02
     -8.07030944E+01      3.76622349E+02      2.92985867E+01
     -8.40414089E+02     -9.03486371E+02      1.14538286E+03
     -1.76873442E+03      3.96827467E+02      7.45977676E+02
      1.41551692E+03      5.35855260E+02     -3.47404178E+02
      6.41789288E+02      5.55122350E+02      6.99043482E+02
      3.05935635E+02     -2.22762089E+02      6.34354937E+02
      3.46865294E+03      3.43159831E+02      2.61030484E+03
     -5.68987517E+02     -2.43904459E+02     -3.26953135E+02
      2.75752731E+03     -3.30790135E+02     -4.24051273E+02
      4.64421632E+02      2.60984616E+03     -1.05845785E+02
     -1.81170204E+01     -3.92321855E+02      3.56029755E+02
      3.31748121E+02      8.64904290E+02     -1.25593968E+03
      2.92953180E+02     -5.41009262E+01     -7.69610974E+02
     -1.36422449E+02     -4.51982302E+02      2.54323935E+02
     -4.45244382E+02      2.75203638E+03      1.18378076E+03
     -6.85342225E+02     -4.76172368E+02     -1.16455169E+03
     -1.14126059E+02      3.54922261E+02     -1.89502864E+02
     -7.72879780E+02      1.13729995E+03     -2.73889396E+03
      4.77988232E+01     -1.57632625E+03     -2.21529909E+03
      1.52415487E+02      6.45829710E+02      1.99938910E+02
     -2.24558696E+03     -5.59890827E+02      4.20338557E+02
      2.11590120E+03     -9.05965023E+02     -1.88316919E+02
      4.89556302E+02     -5.99139841E+02     -6.70870506E+02
      6.83475715E+02      6.10038265E+02      3.22679538E+03
     -3.12431423E+03     -9.73983059E+02      8.59795280E+01
     -3.26732217E+02     -3.84351062E+02      2.85660114E+02
     -1.55786331E+03     -1.75968108E+03      2.83379544E+03
      3.64286771E+02     -1.92041892E+03     -9.51368071E+02
      2.45001391E+02      5.92815904E+02     -2.39123321E+02
      2.40265020E+03      1.37385946E+03      1.25778247E+02
     -1.14502341E+03      2.26134501E+03      3.35427241E+03
      3.52789016E+02      1.72907870E+03      1.47348313E+03
     -4.80755551E+02      1.66319300E+02      6.51392661E+01
      5.84039918E+02      1.06385329E+03     -1.36656522E+03
     -9.77155474E+02     -4.66740302E+02     -4.94246709E+02
     -2.37593022E+02     -9.66848453E+02      1.88186927E+03
      2.18539534E+02     -4.53574403E+02      7.40743466E+02
     -1.93105440E+03      1.41611505E+02      2.16362585E+03
     -3.93572138E+02     -2.98307291E+01      1.97295249E+03
     -1.05048467E+01     -1.48750520E+02     -6.02799361E+02
      1.61375780E+03     -5.32207399E+02      8.91080551E+02
      7.06896294E+02      8.36014729E+02      1.37901992E+03
      4.34352594E+02     -6.26571141E+02      6.40057287E+02
      9.32175150E+02     -1.13577405E+03     -1.15600458E+03
     -2.10974821E+03     -1.52814077E+03     -9.08063584E+00
      3.35606962E+01     -5.45248728E+02     -1.66764783E+02
     -1.31889904E+02     -6.23483137E+02      2.14528155E+03
     -1.10098672E+03      3.71500928E+03      1.79323205E+03
     -5.71019296E+02     -1.18279839E+02      3.11262122E+02
     -5.20529646E+02     -5.40756666E+02     -8.17872150E+02
      1.87916371E+03     -1.86861274E+03      1.73047695E+03
      4.26278741E+02     -5.68528874E+02     -4.53835637E+02
     -2.76354252E+03     -2.43553398E+02     -1.80911786E+03
     -6.37320051E+02     -2.12139572E+03      1.97325275E+03
     -9.08373477E+01      2.27131100E+02     -9.53215451E+01
      3.66866122E+01     -9.71455535E+02      1.13906658E+03
      6.22291218E+02     -1.69501595E+03      4.23432435E+03
      4.45304550E+02     -4.58066001E+02     -8.60553293E+01
     -2.97721954E+03      1.56275062E+02     -1.51623500E+03
     -2.04304988E+03     -1.91535701E+03     -1.48406072E+03
      6.80202155E+00     -1.68191700E+02      5.92474170E+01
      3.74791361E+02      2.05652048E+03     -1.45206037E+02
      7.38649396E+02     -2.39823711E+01      2.24533069E+02
     -5.23999592E+03      3.23301707E+03      5.18519213E+03
     -5.06850969E+02     -3.58117716E+02     -2.86781741E+01
      2.17191375E+03     -2.95937850E+02      1.23546846E+03
     -1.85562166E+03      1.87286517E+03      1.13987743E+03
     -2.49057202E+02      3.26735805E+01     -1.43909259E+02
     -3.29066813E+01      5.57776156E+02      8.89901371E+02
     -7.41738044E+02     -5.39732462E+02     -1.26440476E+03
     -1.01926342E+03     -2.45328256E+02      1.01918940E+03
     -6.66115306E+02     -4.68179260E+02      8.07899204E+02
     -2.66556811E+03     -3.06077082E+03     -1.37891620E+03
      6.85752892E+02      2.54442279E+03      9.44626226E+01
      1.42217291E+02     -4.79214279E+02      1.62517112E+02
      3.89363000E+03      2.41001680E+01      4.84180155E+02
     -1.79643643E+03      2.22122129E+03      2.32660650E+03
      2.88125105E+02      6.39129777E+02     -1.92321729E+01
      4.16594383E+03      8.24235871E+02      5.40108156E+02
      8.75809896E+02      2.09243762E+03     -7.30118655E+02
     -4.05663035E+01      4.20202570E+01     -7.63487017E+02
      7.12060132E+02     -1.19441886E+03      1.46869108E+03
      2.24888672E+03      1.62160837E+03     -1.39300645E+02
      2.72020021E+02      2.02574002E+02      1.01102218E+03
     -2.49844672E+03     -2.52440197E+03      1.12505904E+03
     -2.06327527E+03      1.47500764E+03      1.64270576E+03
      1.36869989E+02      3.08900200E+02     -7.36165494E+02
     -8.84144526E+02     -1.81713963E+03      3.40785109E+03
      1.25739117E+03     -1.27455385E+03      5.40672292E+02
      3.02685167E+02      1.35483314E+02     -2.10868076E+01
      4.66433932E+02     -2.30825830E+03      4.29280313E+02
      1.29689055E+03     -1.53291838E+02      9.81860232E+02
      4.78031074E+02     -5.66498339E+02      7.89127528E+01
     -6.19586177E+02     -1.03389666E+03      4.86850084E+02
      6.84046772E+02      2.43852562E+03      7.81865884E+02
      3.94608271E+02      1.01992406E+03      2.70294017E+03
     -2.45986456E+02     -8.60413931E+02      4.87519973E+02
      2.78872363E+02     -4.39813775E+02     -1.45061506E+03
     -7.34901755E+02     -5.49457737E+02      1.23168051E+03
      1.22729137E+03      1.16151028E+03     -1.04305063E+03
  }
}

Hamiltonian = DFTB {
  SCC = Yes
  SCCTolerance = 1e-6
  MaxSCCIterations = 200
  ForceEvaluation = Dynamics
  MaxAngularMomentum = {
    C = "p"
    H = "s"
  }
  Charge = 0.0
  SpinPolarisation = {}
  Eigensolver = Standard {}
  Filling = Fermi {
    Temperature [Kelvin] = 300.0
  }
  SlaterKosterFiles = Type2FileNames {
    Prefix = "../../pbc-0-3/"
    Separator = "-"
    Suffix = ".skf"
    LowerCaseTypeName = No
  }
  KPointsAndWeights = {
    0.0000000000000 0.0000000000000 0.0000000000000 1.00000000000000
  }
  Dispersion = LennardJones { 
    Parameters = UFFParameters {}
  }
}

ParserOptions = {
  ParserVersion = 3
}
