Geometry = GenFormat {
<<< "system.gen"
}

Driver = VelocityVerlet{
  Steps = 100000
  TimeStep [fs] = 0.2
  MDRestartFrequency = 5
  Thermostat = None {
    #InitialTemperature [Kelvin] = 300.0
  }
  Xlbomd{ 
    IntegrationSteps = 6 
    MinSccIterations = 2
    MaxSccIterations = 200
    SccTolerance = 1e-6 
  }
  Velocities [m/s] {
      9.03650194E+02     -1.76923164E+02     -2.49659336E+02
      8.21366848E+02     -8.56624600E+02      1.23588407E+03
      2.07780215E+03     -6.00456623E+02      2.15564001E+03
     -6.31160845E+02     -2.55645774E+02     -7.54670314E+02
      2.58581010E+03      9.36274561E+02     -1.61619681E+03
      2.00443424E+03      8.55557394E+02     -2.26604971E+03
     -3.04021291E+02     -6.30579646E+01     -1.42772345E+03
      2.22802884E+03     -6.88419839E+01      1.14430758E+03
      2.24870002E+03     -2.17119603E+03     -2.26356474E+03
      6.39771988E+02     -4.32355807E+02      3.39324969E+02
      2.34920309E+03     -1.55295063E+03      6.83055540E+01
      1.14074552E+03     -1.82352288E+03     -2.65139921E+03
      5.09902926E+02      4.59826358E+01     -5.01297981E+02
      1.10513703E+02     -2.09144235E+03     -1.28145752E+02
      3.09540065E+02     -7.05523291E+02      2.04699619E+02
     -2.29215389E+02     -1.01748199E+03      5.08677515E+02
      3.26369034E+03     -7.03695749E+02      5.97905602E+02
     -4.79256281E+02     -1.28840414E+03     -2.25265969E+03
      1.75637544E+02     -4.85213613E+02     -3.73425906E+02
      8.03083557E+01      8.94661937E+02      2.33379837E+03
     -4.50695525E+02      7.44921327E+02     -6.00714506E+02
      2.58937286E+02     -3.04880908E+02      1.26598840E+02
      2.00253747E+03     -1.58959955E+03      2.11483023E+03
     -1.92085984E+03      1.73640517E+03      6.36119928E+02
     -3.52251032E+02     -4.14697045E+02     -8.46977579E+02
      1.80363963E+03      2.70820141E+03      8.86428060E+02
     -1.87495690E+03      6.76810659E+02      1.78720192E+03
     -2.83663949E+03      4.79896412E+02      4.38181690E+02
      1.03013129E+02      2.85938008E+02     -5.58433370E+02
      6.60195120E+02      1.05751391E+03      7.06008798E+02
      1.01897957E+03      2.96932840E+03      8.77765685E+02
     -2.02211079E+03     -2.60112982E+03      1.12978005E+03
      4.90508028E+02     -4.90284194E+02      4.77120979E+02
      4.96408962E+02      1.71432313E+03     -8.64876114E+02
      5.50474653E+02      5.66661695E+02     -1.06295888E+03
     -2.55790720E+01     -8.90475813E+02     -4.85681587E+02
      1.98698253E+03     -1.14298069E+03     -8.69051968E+02
     -9.47393068E+02     -2.31395889E+03      1.50325918E+02
      4.56846135E+02     -1.90622869E+02      4.61611922E+02
      9.11299552E+02     -1.35138722E+03      2.20588545E+03
     -2.16960294E+03      1.99937324E+03     -2.28700416E+03
     -5.18899178E+02     -2.92340133E+01     -5.79927876E+02
      1.49967855E+03      1.63841483E+02      3.34441223E+02
      3.18827767E+01     -4.52251730E+02     -9.60192896E+02
     -2.72363241E+02     -2.76560639E+02     -3.35539444E+02
     -1.97147490E+03     -2.94627866E+03     -1.19585232E+03
     -6.18025547E+02      1.69273455E+03      1.16537844E+03
     -3.29506814E+02     -4.18890842E+02     -2.18369259E+02
      1.11012997E+03      1.04807366E+03      1.99370199E+02
     -9.47490916E+02     -2.46720973E+03      9.04591237E+02
     -4.28641479E+02     -5.00336109E+02     -3.58261860E+02
     -1.00618310E+03      1.04650886E+03     -1.39431154E+03
      6.75768807E+02      5.29910702E+02     -1.52997152E+03
      4.30903270E+02     -4.69526775E+02      8.65909927E+01
      3.12632983E+03     -1.41567532E+03     -1.34983385E+03
      1.39772455E+02      1.58178515E+03     -2.90779260E+03
     -5.81597365E+02     -6.15765065E+02     -2.39809773E+02
     -5.81109107E+02     -1.89244287E+03      2.52202345E+02
      3.43021965E+03     -1.58611024E+03      8.34213177E+02
      5.73876896E+02      4.81616528E+02     -3.14240140E+02
     -1.51557165E+02      1.29490210E+02     -1.75977256E+02
      1.20532649E+02      6.83839850E+02     -7.71031301E+01
      2.98340681E+02     -3.16933259E+03     -1.43524229E+02
      2.65589334E+03     -1.97894736E+03      1.02659258E+03
      4.13136566E+02      6.68950298E+01     -5.04757955E+02
     -4.39145639E+03      8.22144825E+02      9.20948136E+01
     -1.09796521E+03      1.05601153E+03      3.23378754E+03
     -1.47919541E+02      2.01740683E+02     -2.02563721E+01
      1.93159335E+02      2.79125008E+03     -1.60404045E+03
     -1.03431438E+03      1.30285026E+03     -2.84516830E+03
     -9.60654701E+01      1.96442852E+02     -6.93870166E+02
      1.43564716E+02     -2.29495832E+03     -1.40807784E+03
     -9.07139202E+02     -4.35154485E+02      1.38734419E+03
     -3.31349232E+02     -1.71408214E+02     -1.56102523E+02
     -3.38405069E+02     -8.66220789E+01      1.59767141E+03
     -3.34908513E+03     -1.88527871E+03     -7.32723595E+02
     -2.27298591E+02     -8.02636200E+02     -8.19334594E+00
      1.54005677E+03     -4.31408199E+02     -2.65612758E+03
      9.04705782E+02      3.64721187E+01     -1.02423866E+03
      5.88511289E+02     -6.25668256E+02     -1.18077866E+02
     -8.99467305E+02      9.64978212E+01     -6.63164564E+02
      8.11754492E+02     -5.44176157E+02     -1.57924150E+03
      7.74466587E+02      3.33464280E+02     -9.00570335E+01
     -1.26328479E+03     -1.61894551E+03      8.30114821E+02
      1.22485444E+03     -1.96198562E+03     -4.94336979E+02
     -1.45435985E+02     -6.26011518E+02     -2.59794094E+02
     -2.36889474E+03      2.34309267E+03     -1.70237868E+00
      2.40848397E+03     -3.21489283E+03     -2.88087929E+03
     -6.16154877E+00      3.82018290E+02      1.10195246E+02
      1.13185919E+02      6.14845666E+02     -2.25972573E+03
      2.84995130E+02     -2.66254805E+02     -3.19133245E+03
     -9.53941015E+02     -1.36206903E+03     -1.44366592E+03
      9.68610495E+01     -2.19729610E+02     -2.54586881E+02
     -2.75140592E+02     -2.54271633E+03      4.80772201E+01
     -8.15002546E+02      9.40598475E+02     -1.33798541E+03
     -2.38544321E+03     -1.33773902E+03     -1.21807807E+03
     -5.24131299E+02     -1.03887238E+02     -2.20707555E+02
     -5.61286990E+02      1.30369026E+03     -2.20082260E+03
      7.59195755E+02     -1.63269976E+03     -1.56098062E+03
     -8.54658866E+02      6.95239684E+02      1.29118684E+02
      1.58199073E+02      1.68281004E+03      3.28102192E+02
      1.92736058E+03     -1.87887779E+03      4.48199945E+02
      3.88572687E+02      2.60903509E+00     -3.37877372E+01
     -1.30218384E+03      9.76608653E+02     -5.80684921E+02
      1.51090613E+03     -6.84399651E+02      7.74131724E+02
      1.24064736E+03     -8.64299254E+02     -4.11337595E+02
     -2.31092786E+02      1.96755819E+02     -6.05542346E+02
      2.97075407E+02     -1.31273849E+03     -5.26736248E+02
     -2.57576160E+02      3.81451743E+02     -6.24410603E+01
      5.17098919E+02      4.71433216E+03     -3.50595439E+02
     -5.80244026E+02     -3.39616121E+02     -1.01325624E+02
      2.01709983E+01     -5.89573247E+02      4.53009122E+02
     -1.34651932E+03      1.19956443E+03      1.36758305E+03
     -2.55595670E+02     -1.15766891E+03     -5.08125105E+01
     -5.72912823E+02      7.26982535E+01     -1.84948835E+02
      5.82725678E+02      1.06169831E+03     -2.30974916E+03
     -1.52790940E+03      1.63540905E+03     -6.50285657E+02
     -5.33863075E+02     -1.23160373E+02      7.89307620E+01
     -1.45724306E+03      2.73009225E+03     -2.19429268E+03
     -3.98503856E+03     -1.29895806E+03      8.57660462E+02
      1.28986461E+02     -4.05437307E+02     -2.90545327E+02
      2.53508315E+03     -3.45098017E+02     -1.44654363E+02
      1.44294411E+03     -1.38216250E+03      5.23594805E+02
      1.31214048E+03      1.99232040E+03      1.87180406E+03
     -4.95963497E+02     -3.29896941E+02     -4.48551314E+02
      1.43632961E+03      2.99286266E+03      9.84114888E+01
      3.42154788E+03     -6.16200349E+02      2.23113277E+03
      1.97731128E+03      1.09759673E+03      4.48560617E+02
      5.44432813E+02      4.56966455E+01      2.10985646E+02
     -6.94363208E+02     -2.50527960E+03     -1.56088311E+03
     -8.86426978E+02      9.51801177E+02      8.25995336E+02
      3.16959447E+02     -5.20784199E+02     -4.45365662E+02
     -7.03038796E+01      7.31720587E+02      1.50621889E+03
     -1.39485364E+03      8.25872251E+02     -7.39914852E+02
     -1.64013502E+04      2.30453056E+04      1.74506774E+04
      4.85420676E+02      1.14435659E+02      1.88418683E+02
      2.31502424E+03      3.29910240E+02      6.36345022E+02
     -1.90971241E+02     -1.77622209E+02     -1.27946775E+02
     -9.47606503E+01      3.92397027E+02      5.22752848E+03
     -1.93107815E+02     -3.64237050E+03      1.69158325E+02
     -1.94332992E+02     -8.70879607E+01      5.95773449E+02
      1.96180349E+03      3.06665052E+03      4.04770322E+02
     -7.01481442E+02      8.73704378E+02      2.18873634E+03
      1.04478683E+03     -4.60403846E+02     -1.07419167E+03
      8.92329738E+02      3.95772592E+03     -2.23119955E+02
      1.27109973E+03     -1.30370621E+03      1.01947610E+03
      3.48529573E+02     -2.10330643E+01      2.23001370E+02
      4.06202404E+03     -1.74070273E+03      1.31514934E+03
      1.61654195E+02      1.16241165E+03     -2.15023204E+03
     -2.62110097E+02     -1.81547698E+02      6.83196536E+02
      9.89312494E+02     -9.46355680E+02     -3.52877964E+02
     -2.18002183E+03     -1.40979326E+02      2.82118420E+03
     -2.80462577E+02     -4.63762943E+02     -3.83692090E+02
     -1.40633650E+03     -1.15541511E+03      5.65685381E+02
     -5.03607541E+02      1.19274674E+03     -6.12496154E+02
     -2.03056956E+03     -3.31421778E+03      5.86021793E+02
      6.54045691E+01     -5.10151083E+02     -8.57580183E+02
     -5.25273782E+01     -1.87659727E+03      1.56056912E+03
      8.36127954E+02     -1.44158392E+03      3.06699747E+02
     -2.00991716E+03     -1.30595427E+03      2.97339119E+03
      3.58786620E+02     -2.62578622E+02     -6.55328344E+02
     -5.11687601E+03      2.57155951E+03      1.81993513E+03
     -1.30471473E+03     -9.05712493E+01     -1.79367944E+03
      7.19262601E+01      2.35533282E+02     -2.50726731E+02
     -1.85070258E+03      1.16150945E+03     -4.24241253E+03
     -8.30000301E+02     -1.22746891E+03      1.81265973E+01
      4.32192129E+02     -6.63949870E+02      1.05977613E+02
      9.67521110E+02      2.48895009E+03      5.17503687E+02
      3.82177987E+02      1.80485877E+02      2.62193600E+02
      1.21725960E+03     -1.01001440E+03     -4.65182773E+02
     -1.17443408E+03      7.95930416E+02     -1.07560245E+03
      2.91429735E+02     -1.21685780E+02      1.78380634E+03
      3.32608938E+02     -2.76489688E+01      7.64202098E+02
      7.74823474E+02     -1.55613629E+03      1.28697164E+03
      3.40809144E+02     -1.84849885E+03     -2.86988944E+03
     -2.26101873E+02      2.21860036E+01     -4.56263759E+02
      6.80486435E+02      9.85118879E+01     -1.43248062E+03
     -5.55370690E+02      2.85423992E+02      1.11051534E+03
     -4.09521495E+02     -1.04995026E+02     -2.98935953E+00
      2.46078765E+03     -2.91248211E+03     -5.04712281E+02
     -8.91123891E+02      2.79247223E+02      3.00224686E+02
     -2.30320476E+01     -2.77452671E+02     -1.65411552E+02
      7.82849751E+02      7.55322242E+01      6.26770650E+02
      9.02697765E+02      1.13722329E+03      2.88364495E+03
     -4.84124352E+02     -4.95749957E+02      2.31428842E+02
      1.08473841E+02     -3.90032150E+03     -9.86884241E+02
     -1.05896182E+03      6.44334367E+01     -6.20612551E+02
     -1.59435592E+02     -9.00566275E+02      6.15211995E+02
      6.02523541E+02     -4.68483315E+02      2.39351284E+02
     -1.81619802E+03      1.59204071E+02      7.76474014E+02
     -8.70806123E+02     -1.34545324E+02      2.32076651E+03
     -5.87079967E+02     -2.07051392E+03     -1.58870803E+03
      3.17441196E+02     -3.62767290E+02     -1.97569359E+01
      1.98868545E+03      6.81454102E+02      2.72365967E+03
      2.28437789E+03      1.74770937E+03     -2.64723668E+02
      5.88411324E+02     -4.78922682E+02     -2.92307371E+02
      6.22806780E+02      1.28943380E+03      8.97385897E+02
      1.36876592E+03      1.34091866E+03     -2.29066885E+03
     -7.02953553E+02     -1.47366403E+02     -1.00758895E+03
     -1.36341347E+03      7.63019444E+02     -6.81322161E+02
     -1.19365035E+03      9.10458457E+01      9.10085963E+02
      3.91590770E+02      1.14735701E+03     -1.79785220E+02
     -6.25664560E+02     -7.41885374E+02     -2.09905587E+03
      1.15382747E+03     -1.87782450E+03     -5.80168135E+02
      1.67255782E+02     -5.13193397E+02      5.23075434E+02
      2.78916809E+02      2.05019302E+03     -1.49969096E+03
     -1.39851073E+03     -3.84264270E+02      3.60105139E+02
      1.01625198E+03     -5.20798056E+02     -2.67990163E+02
     -4.54066654E+02     -1.60418788E+03     -1.14951962E+03
     -1.39430335E+03      6.21668219E+02     -9.51790066E+01
      4.42379741E+02     -6.48520843E+02     -3.31226719E+02
      7.01465281E+02     -1.29779828E+03      1.63782116E+03
     -1.59048948E+03     -1.81222411E+03     -5.00453549E+02
      4.07044015E+02     -2.01525418E+02     -4.67354399E+02
     -1.12123771E+03     -1.55746908E+03      1.74150157E+03
     -8.14767819E+02     -3.52951061E+02      2.68843748E+02
      2.92460500E+02      8.60575436E+02     -4.89955013E+02
      1.56955853E+03     -1.16285991E+03      2.63772265E+02
      3.80166917E+03     -2.71928022E+02     -3.94268739E+03
      9.06181398E+02      4.27322385E+02      3.68448371E+03
      6.83195685E+02     -1.51973199E+03      3.28573335E+02
      4.88745645E+02      9.35181992E+02     -1.01793491E+03
     -7.94722180E+02     -3.75995448E+03     -2.53123438E+01
     -5.80212771E+02     -1.37061770E+03      7.95823485E+02
     -7.59829201E+02     -5.01102157E+02      3.93079735E+02
      6.24494684E+01     -2.83261153E+03     -9.84444537E+01
      1.34926518E+03     -5.49549266E+02     -6.21800276E+02
      4.10686335E+02     -4.98673127E+02      2.09021211E+01
     -1.64670292E+03      1.13270355E+03      1.30649742E+03
      1.65844133E+03      2.20037871E+03      1.17778101E+03
     -3.63350530E+01      2.93238288E+02      7.37094688E+02
     -2.05247225E+03      6.86008899E+02      1.36352829E+03
      2.41232839E+03      1.10798605E+03     -6.56182877E+02
      3.88653571E+02     -1.61796433E+02     -2.08300102E+02
      3.10692623E+02     -3.84326862E+03     -2.75825242E+01
     -7.73130078E+02     -2.38698426E+03     -8.41501557E+00
      9.32638490E+02     -5.06063564E+02     -3.82913242E+02
      1.84633316E+03      1.44013057E+03     -1.42091328E+03
     -5.72988140E+02      8.58722171E+01     -1.53208571E+03
      1.39626035E+03      7.11687249E+01      3.72934851E+02
     -7.16633515E+02     -2.47790694E+03      7.18532917E+02
     -2.71795922E+02      1.28962614E+01      7.80691201E+02
     -1.81636310E+02      7.43790476E+02      4.78896322E+02
     -2.26342361E+03     -1.06687440E+03     -2.86433644E+02
      3.19365292E+03     -2.07792175E+03     -2.33399036E+03
     -5.87943860E+01     -4.49376894E+02      1.62986733E+02
     -2.54787225E+02     -1.14194904E+03      1.22464179E+03
      5.52305234E+01     -9.63410668E+02     -3.16920638E+02
      3.70101753E+02     -7.00629269E+01      2.95299758E+02
     -1.77835637E+03      2.95010421E+02      2.37363639E+03
     -9.06977268E+02     -2.15017393E+03     -2.25222981E+03
     -2.30850493E+03     -2.67724684E+01      1.68053326E+02
     -3.03613269E+02     -2.97042717E+02      6.80511502E+02
     -2.17066443E+03      7.14558349E+02      1.75531330E+03
     -5.38250293E+02     -4.71176672E+02      1.48526379E+03
     -2.58244431E+02     -6.20310637E+01     -1.71118889E+03
      6.23780749E+02     -1.63307980E+02      5.47451486E+02
      2.54359516E+03      4.27550058E+02      1.78732015E+02
      1.36216405E+02      4.06839230E+02      6.47363906E+02
     -5.24252248E+01      3.54051619E+02     -6.20477168E+02
     -2.28064109E+03      1.87480902E+03     -7.34470578E+02
      2.80192320E+03      1.11178152E+03      3.69886566E+02
     -3.99798789E+02     -4.40426273E+02     -4.59256150E+02
      2.98041145E+03      1.25463681E+03      8.95256628E+02
      1.90849310E+03      3.32136250E+03      8.71557977E+02
      5.44438113E+02     -3.28262204E+02     -2.20135816E+02
      3.73383196E+03      1.26370068E+03     -1.37530525E+03
     -1.13972712E+02     -1.44468890E+02     -1.24197514E+02
      3.54789845E+02      3.52021196E+02     -8.28356194E+02
      9.38274370E+02      1.19508573E+02      1.72541795E+02
      1.54693256E+02     -1.99999236E+03     -5.49849359E+02
      2.70359747E+02      3.81563727E+02     -3.09500737E+02
      1.10556556E+03     -2.61007524E+03      2.39413880E+03
     -1.37445240E+03     -1.28443961E+03      2.80193788E+02
     -4.54317016E+02     -7.35171697E+02     -1.72470201E+02
     -1.98199569E+03     -5.10084308E+02     -3.73978051E+02
      7.92786221E+02      2.15364731E+02     -6.08172342E+02
      9.45647312E+02     -7.30532784E+01      1.05978247E+02
     -1.93194835E+03     -6.18027473E+02      1.72846977E+03
      6.40486579E+02     -2.65326646E+03     -8.67209041E+02
      2.32076342E+02     -3.68589386E+02      4.44182227E+02
      1.40676668E+02     -5.62439546E+02      2.11022414E+02
     -3.64062574E+02      2.32271363E+03      1.61306565E+03
     -5.68939181E+02     -1.74100554E+03     -1.59693776E+03
      8.72929928E+02      5.66381107E+01      9.94421127E+01
     -1.04340780E+03     -1.97590711E+02     -9.41474727E+02
      5.88840761E+02     -2.22753052E+02     -3.24250318E+03
      8.86924160E+02      4.18375710E+01     -1.49567483E+02
      1.45773896E+02     -1.14854001E+02      3.37833617E+02
      3.28232393E+02     -1.38422116E+03      1.41889852E+03
      6.31011409E+01      2.89866195E+03      2.47027591E+03
      2.75818929E+02      2.47956119E+02      3.24673631E+01
      7.38524637E+02      2.72547917E+03     -1.19567408E+03
     -1.02039878E+03     -9.40872372E+02      7.72188818E+02
     -1.62930674E+00     -8.63655130E+01      1.86542442E+01
      6.42536961E+02     -1.93343202E+03      1.58155055E+03
      8.28954346E+02      4.26058326E+02      3.54098304E+02
      2.82415278E+02      8.15706246E+01     -1.07789154E+03
     -4.57672799E+02     -1.91870692E+03     -2.45553651E+02
     -2.87262545E+01     -1.19222821E+02     -6.04850921E+02
      1.62609486E+02      2.65943047E+02     -1.09288964E+03
      2.43693834E+03     -3.80179222E+03     -6.25938645E+02
     -8.89151839E+02      1.28904455E+03     -1.74554020E+02
      6.19069367E+02      4.39913329E+02      8.06171693E+01
     -2.34017456E+03     -2.19419730E+03     -9.14152516E+02
     -3.42150394E+02     -8.09889553E+02      9.69135262E+02
      3.60141074E+02      8.79980427E+01     -5.73000205E+02
      9.07890819E+01     -2.16152580E+03      2.46214248E+03
      1.75357447E+03     -2.86378323E+02      4.16724030E+02
      5.12742490E+02      2.56692031E+02     -8.94234091E+02
      3.52216577E+03     -2.10692776E+03      1.99554921E+03
     -9.90548032E+02     -2.81149691E+01     -1.51418572E+03
     -3.07646798E+02     -1.86821110E+01     -3.35356006E+02
      3.47311686E+02     -2.12404424E+02     -1.47846049E+03
     -5.52372846E+01      1.76882438E+02     -1.40583364E+03
      1.24794897E+03      4.24403368E+03      1.83106473E+03
     -7.19179224E+01      2.55496366E+02     -2.57893546E+02
     -5.02655636E+02     -1.79617046E+03      1.55806801E+03
     -1.56453630E+03      8.48775973E+02     -1.49267827E+03
     -2.72734096E+02      5.14340273E+02      2.99843631E+02
     -8.91250626E+01     -1.00290139E+02     -4.86172834E+02
     -1.84152769E+02      3.53756128E+01      3.46501126E+03
      9.52476306E+02     -1.26905619E+03      3.22061085E+03
     -2.88289281E+00     -3.86367123E+02     -5.76909831E+02
     -1.96676721E+03      2.20358059E+03     -4.41987864E+02
      2.16696246E+02     -1.43730627E+03     -2.78063882E+03
     -1.61586560E+02     -4.36804698E+02      1.61057531E+02
      7.73103066E+02     -2.56660945E+03     -1.52985397E+02
      4.69323630E+02      9.22218855E+02      4.06202519E+02
     -5.99278753E+02      2.84367940E+02     -1.65200739E+02
      1.01298430E+03     -2.77962280E+03      1.69037932E+03
     -1.35428967E+03     -9.57250143E+02     -3.01864381E+01
      1.79163855E+02      5.30447968E+02     -6.26724731E+02
      3.13068272E+03     -1.73940387E+03     -5.45363663E+02
      4.06445060E+02      1.33528597E+03     -6.88766031E+02
     -2.68866253E+02     -4.79925821E+02     -7.79109287E+02
     -1.87243651E+03     -1.28836538E+03      7.60280579E+02
      4.20732977E+01     -7.28933849E+02      1.89811511E+03
      1.25228204E+02      7.10772352E+02     -1.97001231E+02
     -1.58343674E+03      4.99460894E+02     -3.72229778E+00
      6.54204490E+02      5.81415291E+02      3.07667977E+03
      5.78568613E+02     -4.79508633E+02     -2.64265581E+01
      3.74877660E+03     -1.52226119E+03     -2.42826979E+03
      2.16264714E+03      4.92156020E+02     -6.69524956E+02
      7.72535033E+01      1.46225095E+02      8.09059049E+01
      8.62440676E+02     -6.04135163E+02      2.73721339E+03
     -8.34966554E+02      1.11990429E+03     -2.28210886E+03
      6.93877517E+02     -2.35179427E+03     -8.82290606E+02
      3.99246703E+01     -2.08048728E+02     -2.09911001E+02
      1.19832773E+03     -1.67337749E+03     -4.72226079E+02
      1.41844969E+03      5.08872485E+02     -2.87612404E+03
      3.22762175E+03      3.35547854E+01      9.71645407E+02
  }
}

Hamiltonian = DFTB {
  SCC = Yes
  SCCTolerance = 1e-6
  MaxSCCIterations = 200
  ForceEvaluation = Dynamics
  MaxAngularMomentum = {
    C = "p"
    H = "s"
  }
  Charge = 0.0
  SpinPolarisation = {}
  Eigensolver = Standard {}
  Filling = Fermi {
    Temperature [Kelvin] = 300.0
  }
  SlaterKosterFiles = Type2FileNames {
    Prefix = "../../pbc-0-3/"
    Separator = "-"
    Suffix = ".skf"
    LowerCaseTypeName = No
  }
  KPointsAndWeights = {
    0.0000000000000 0.0000000000000 0.0000000000000 1.00000000000000
  }
  Dispersion = LennardJones { 
    Parameters = UFFParameters {}
  }
}

ParserOptions = {
  ParserVersion = 3
}
