Geometry = GenFormat {
352  S
C  H
1 1    0.4285064624E+02    0.2867940491E+02    0.3522146365E+02
2 2    0.4228371240E+02    0.2924808394E+02    0.3598124988E+02
3 2    0.4276697341E+02    0.2769523324E+02    0.3559531464E+02
4 1    0.4224948990E+02    0.4407301379E+02    0.3375522818E+02
5 2    0.4269138727E+02    0.4333525255E+02    0.3309024317E+02
6 2    0.2718265701E+02    0.4506011719E+02    0.3330111695E+02
7 1    0.4072982979E+02    0.4392212722E+02    0.3367060329E+02
8 2    0.2510322466E+02    0.4283248087E+02    0.3377360530E+02
9 2    0.4049473937E+02    0.4434489540E+02    0.3257890286E+02
10 1    0.2444331685E+02    0.4469540579E+02    0.3474503323E+02
11 2    0.2491400916E+02    0.4573199115E+02    0.3503691139E+02
12 2    0.2434665287E+02    0.4401546684E+02    0.3555394766E+02
13 1    0.3830157505E+02    0.4496570812E+02    0.3428585341E+02
14 2    0.3767182685E+02    0.4398500809E+02    0.3445348523E+02
15 2    0.3838003759E+02    0.4529287184E+02    0.3319064517E+02
16 1    0.2224551486E+02    0.4611094247E+02    0.3503515187E+02
17 2    0.2267872381E+02    0.4707620617E+02    0.3453398799E+02
18 2    0.2252510026E+02    0.4614881390E+02    0.3614793808E+02
19 1    0.3606665394E+02    0.4601153543E+02    0.3484948254E+02
20 2    0.3577686124E+02    0.4502944293E+02    0.3526879542E+02
21 2    0.3569771869E+02    0.4590675857E+02    0.3370276565E+02
22 1    0.3516944751E+02    0.4704452374E+02    0.3550698371E+02
23 2    0.1882744002E+02    0.4708614564E+02    0.3507764960E+02
24 2    0.2003469486E+02    0.4812733285E+02    0.3529398884E+02
25 1    0.4430086980E+02    0.2917791911E+02    0.3520125406E+02
26 2    0.4423775218E+02    0.3010780692E+02    0.3450005666E+02
27 2    0.4463511766E+02    0.2956908279E+02    0.3608668653E+02
28 2    0.4507345447E+02    0.2861974672E+02    0.3475430581E+02
29 1    0.3502385616E+02    0.4679789981E+02    0.3693206174E+02
30 2    0.3455642819E+02    0.4587031262E+02    0.3727549529E+02
31 2    0.3606240682E+02    0.4687846428E+02    0.3740425635E+02
32 2    0.3438229899E+02    0.4751999945E+02    0.3742825602E+02
33 1    0.2568048041E+02    0.2568860611E+02    0.4037996601E+02
34 2    0.2462518174E+02    0.2546480929E+02    0.3997820630E+02
35 2    0.2631974668E+02    0.2473889161E+02    0.4041951354E+02
36 1    0.2639713012E+02    0.2657910973E+02    0.3933880098E+02
37 2    0.2603590498E+02    0.2760015955E+02    0.3955524533E+02
38 2    0.2592443453E+02    0.2639264499E+02    0.3834267172E+02
39 1    0.2784089767E+02    0.2656098506E+02    0.3936098370E+02
40 2    0.2821952615E+02    0.2692249427E+02    0.3841341654E+02
41 2    0.2818961095E+02    0.2558577748E+02    0.3909615724E+02
42 1    0.2863118366E+02    0.2712837383E+02    0.4045799703E+02
43 2    0.4427696610E+02    0.2643362085E+02    0.4121429208E+02
44 2    0.2805275145E+02    0.2796948809E+02    0.4085752800E+02
45 1    0.2993823668E+02    0.2789315581E+02    0.3990321849E+02
46 2    0.2957013474E+02    0.2842041482E+02    0.3894260051E+02
47 2    0.4609380523E+02    0.2721747148E+02    0.3961755593E+02
48 1    0.4575396248E+02    0.2897043382E+02    0.4096502754E+02
49 2    0.4630254865E+02    0.2835119470E+02    0.4171238660E+02
50 2    0.4490802414E+02    0.2938981962E+02    0.4148388487E+02
51 1    0.3135432011E+02    0.3000711665E+02    0.4032992689E+02
52 2    0.3187333739E+02    0.3037930995E+02    0.4123962678E+02
53 2    0.3082917413E+02    0.3083895479E+02    0.3992864265E+02
54 1    0.4780050000E+02    0.2958815291E+02    0.5454491335E+02
55 2    0.4847469922E+02    0.2876791469E+02    0.5491325359E+02
56 2    0.4849662235E+02    0.3038036280E+02    0.5445080633E+02
57 1    0.2565455625E+02    0.2615968927E+02    0.4181509363E+02
58 2    0.2561487993E+02    0.2727361919E+02    0.4188986052E+02
59 2    0.2477458618E+02    0.2575363270E+02    0.4242008154E+02
60 2    0.2654128893E+02    0.2582339853E+02    0.4226101706E+02
61 1    0.3207088088E+02    0.2919827162E+02    0.5311497992E+02
62 2    0.3292900229E+02    0.2930625546E+02    0.5251663647E+02
63 2    0.3167969732E+02    0.2818932350E+02    0.5299001715E+02
64 2    0.3130417004E+02    0.2985359057E+02    0.5260227274E+02
65 1    0.3729493958E+02    0.4464931550E+02    0.2943647861E+02
66 2    0.3740150636E+02    0.4558083066E+02    0.2880694435E+02
67 2    0.3623034245E+02    0.4482732677E+02    0.2969594125E+02
68 1    0.3748052543E+02    0.4342024343E+02    0.2854959038E+02
69 2    0.3708454489E+02    0.4262594126E+02    0.2920331484E+02
70 2    0.3855980104E+02    0.4349276291E+02    0.2835502406E+02
71 1    0.3661027887E+02    0.4342469441E+02    0.2729706730E+02
72 2    0.3704029708E+02    0.4286099673E+02    0.2651507751E+02
73 2    0.3662697983E+02    0.4438919246E+02    0.2676805937E+02
74 1    0.3526841214E+02    0.2737563131E+02    0.2740484859E+02
75 2    0.3537116533E+02    0.2651869422E+02    0.2828805756E+02
76 2    0.3491718369E+02    0.2707181027E+02    0.2644343557E+02
77 1    0.3418833138E+02    0.2820124681E+02    0.2811077143E+02
78 2    0.3346898160E+02    0.4412581508E+02    0.2746069548E+02
79 2    0.3471574708E+02    0.4450107904E+02    0.2851214097E+02
80 1    0.3344449934E+02    0.2744084973E+02    0.2924123807E+02
81 2    0.3326882898E+02    0.2810444042E+02    0.3011016004E+02
82 2    0.3397545107E+02    0.2646891438E+02    0.2963470309E+02
83 1    0.3198970638E+02    0.2717007080E+02    0.2880744528E+02
84 2    0.3195251194E+02    0.2746236098E+02    0.2773648667E+02
85 2    0.3110666943E+02    0.2738979495E+02    0.2950835451E+02
86 1    0.3168185074E+02    0.2563628767E+02    0.2878567521E+02
87 2    0.3194600285E+02    0.2525321837E+02    0.2968857777E+02
88 2    0.3228594784E+02    0.2507374702E+02    0.2803085601E+02
89 1    0.3812539603E+02    0.4473586994E+02    0.3067814004E+02
90 2    0.3895456660E+02    0.4546117489E+02    0.3051006368E+02
91 2    0.3752214817E+02    0.4500978275E+02    0.3155902061E+02
92 2    0.3869102896E+02    0.4383345051E+02    0.3074758782E+02
93 1    0.3017686762E+02    0.2539825843E+02    0.2857791233E+02
94 2    0.2966333016E+02    0.2508068984E+02    0.2951875281E+02
95 2    0.2961800283E+02    0.2633730755E+02    0.2831644744E+02
96 2    0.3010783337E+02    0.2480940068E+02    0.2762526546E+02
97 1    0.2938303435E+02    0.3659833127E+02    0.4306762116E+02
98 2    0.3039569287E+02    0.3693086617E+02    0.4266419603E+02
99 2    0.2888753970E+02    0.3569174319E+02    0.4234413756E+02
100 1    0.2959262711E+02    0.3592780178E+02    0.4446415825E+02
101 2    0.2974500711E+02    0.3678122221E+02    0.4518007920E+02
102 2    0.3039541402E+02    0.3518557442E+02    0.4428928792E+02
103 1    0.2829271718E+02    0.3520106596E+02    0.4502639808E+02
104 2    0.2755378427E+02    0.3483281347E+02    0.4429831687E+02
105 2    0.2774346465E+02    0.3594039751E+02    0.4561767107E+02
106 1    0.2864443237E+02    0.3402919424E+02    0.3059147720E+02
107 2    0.2877685304E+02    0.3450631337E+02    0.3167501962E+02
108 2    0.2966432153E+02    0.3381708702E+02    0.3035385406E+02
109 1    0.2745878287E+02    0.3304296937E+02    0.3048921788E+02
110 2    0.2770700634E+02    0.3232630243E+02    0.2970392569E+02
111 2    0.2658091859E+02    0.3358482760E+02    0.3001152847E+02
112 1    0.2712201497E+02    0.3221288615E+02    0.3168154013E+02
113 2    0.2806527489E+02    0.3222547997E+02    0.3237199616E+02
114 2    0.2710656218E+02    0.3110484950E+02    0.3137092089E+02
115 1    0.2582790873E+02    0.3255802641E+02    0.3249365588E+02
116 2    0.2575368938E+02    0.3179422238E+02    0.3326602645E+02
117 2    0.2502827991E+02    0.3250475863E+02    0.3171818478E+02
118 1    0.2584912781E+02    0.3392542163E+02    0.3308979230E+02
119 2    0.2677937551E+02    0.3410429156E+02    0.3373603766E+02
120 2    0.2500926468E+02    0.3384237193E+02    0.3381171656E+02
121 1    0.2834522036E+02    0.3767935784E+02    0.4327458983E+02
122 2    0.2778533619E+02    0.3811629411E+02    0.4237554257E+02
123 2    0.2739443814E+02    0.3739859829E+02    0.4388504844E+02
124 2    0.2866556842E+02    0.3845757349E+02    0.4398215586E+02
125 1    0.2554215620E+02    0.3512608861E+02    0.3218696946E+02
126 2    0.2647364258E+02    0.3526956745E+02    0.3169737668E+02
127 2    0.2463515601E+02    0.3484511670E+02    0.3157511470E+02
128 2    0.2542135801E+02    0.3598299369E+02    0.3282951478E+02
129 1    0.3408978924E+02    0.3666435220E+02    0.2912066140E+02
130 2    0.3515958708E+02    0.3645430466E+02    0.2903712136E+02
131 2    0.3363219962E+02    0.3563599842E+02    0.2895023536E+02
132 1    0.3411573439E+02    0.3713927235E+02    0.3057727754E+02
133 2    0.3455881411E+02    0.3923995059E+02    0.3084561935E+02
134 2    0.3448907459E+02    0.3620262740E+02    0.3099581073E+02
135 1    0.3268113704E+02    0.3763204639E+02    0.3115401943E+02
136 2    0.3203105045E+02    0.3702535871E+02    0.3068555133E+02
137 2    0.3242608653E+02    0.3864683803E+02    0.3088913012E+02
138 1    0.3261826271E+02    0.3754332356E+02    0.3265948020E+02
139 2    0.3360186907E+02    0.3785858088E+02    0.3316489974E+02
140 2    0.3240851677E+02    0.3651572762E+02    0.3306026731E+02
141 1    0.3152634834E+02    0.3838802989E+02    0.3320333387E+02
142 2    0.3061360631E+02    0.3800235790E+02    0.3281203315E+02
143 2    0.3134325379E+02    0.3946294154E+02    0.3274218120E+02
144 1    0.3178522203E+02    0.3850104291E+02    0.3474179450E+02
145 2    0.3287121710E+02    0.3860613341E+02    0.3485287547E+02
146 2    0.3166393281E+02    0.3745514803E+02    0.3525446576E+02
147 1    0.3089391099E+02    0.3953874663E+02    0.3555280120E+02
148 2    0.3121124411E+02    0.4066625324E+02    0.3536927009E+02
149 2    0.3124860168E+02    0.3943967156E+02    0.3664629457E+02
150 1    0.2935937983E+02    0.3934234791E+02    0.3545348760E+02
151 2    0.2889287125E+02    0.3937908285E+02    0.3649944270E+02
152 2    0.2903105624E+02    0.3833131904E+02    0.3499013723E+02
153 1    0.3347656146E+02    0.3771822640E+02    0.2815637007E+02
154 2    0.3405868974E+02    0.2326378607E+02    0.2813641349E+02
155 2    0.3324899635E+02    0.3726502127E+02    0.2715013028E+02
156 2    0.3240900819E+02    0.3794535559E+02    0.2825680306E+02
157 1    0.2883862760E+02    0.4050863420E+02    0.3456664776E+02
158 2    0.2791197483E+02    0.4022255970E+02    0.3402127268E+02
159 2    0.2867149378E+02    0.4146067879E+02    0.3511244051E+02
160 2    0.2950542806E+02    0.4072115493E+02    0.3372900485E+02
161 1    0.4305808402E+02    0.2868811965E+02    0.2796295204E+02
162 2    0.4380220163E+02    0.2819920900E+02    0.2735991650E+02
163 2    0.4260753617E+02    0.2950402127E+02    0.2725772829E+02
164 1    0.4258794360E+02    0.2862188613E+02    0.2919361040E+02
165 2    0.4174519441E+02    0.2922214328E+02    0.2952697748E+02
166 2    0.3592620274E+02    0.2313217568E+02    0.3008452033E+02
167 1    0.4310073897E+02    0.2758218462E+02    0.3003634404E+02
168 2    0.4325745023E+02    0.2794031552E+02    0.3108722887E+02
169 2    0.4402685354E+02    0.2731465400E+02    0.2970931740E+02
170 1    0.4201529853E+02    0.2652082334E+02    0.3008680269E+02
171 2    0.4201434291E+02    0.2614488347E+02    0.2906367982E+02
172 2    0.4115463815E+02    0.2716738303E+02    0.3012140186E+02
173 1    0.4235094041E+02    0.4075838976E+02    0.3115648791E+02
174 2    0.4252573459E+02    0.4118072780E+02    0.3220582154E+02
175 2    0.4330010846E+02    0.2482113601E+02    0.3073191528E+02
176 1    0.4113356235E+02    0.3983143273E+02    0.3146358760E+02
177 2    0.4056292635E+02    0.4053308917E+02    0.3201293370E+02
178 2    0.4158136699E+02    0.3895790436E+02    0.3207355736E+02
179 1    0.4021175942E+02    0.3939551255E+02    0.3028868166E+02
180 2    0.4073269870E+02    0.3877114205E+02    0.2957198358E+02
181 2    0.3974922837E+02    0.4024297084E+02    0.2974288792E+02
182 1    0.3920557303E+02    0.3847272591E+02    0.3091053943E+02
183 2    0.3843919746E+02    0.3920540332E+02    0.3138608101E+02
184 2    0.3954994148E+02    0.3793292166E+02    0.3179493018E+02
185 1    0.3510507382E+02    0.2293952634E+02    0.3089293789E+02
186 2    0.3551288405E+02    0.2273917192E+02    0.3191850267E+02
187 2    0.2994362403E+02    0.1616624895E+02    0.4434019068E+02
188 2    0.3055262360E+02    0.1678144757E+02    0.5864397038E+02
189 1    0.3840140684E+02    0.3756797136E+02    0.3002488984E+02
190 2    0.3893326989E+02    0.3710564515E+02    0.2921862643E+02
191 2    0.3799696789E+02    0.3664275252E+02    0.3052547945E+02
192 2    0.3755541658E+02    0.3803726408E+02    0.2962852898E+02
193 1    0.3727750701E+02    0.2761470774E+02    0.3781930154E+02
194 2    0.3783910341E+02    0.2743127321E+02    0.3873961397E+02
195 2    0.3775121898E+02    0.4377044157E+02    0.3731456038E+02
196 1    0.3708735491E+02    0.2633298755E+02    0.3687140736E+02
197 2    0.3642892211E+02    0.2665360164E+02    0.3603719475E+02
198 2    0.3665044923E+02    0.4091342463E+02    0.3747386037E+02
199 1    0.3847844768E+02    0.2587444802E+02    0.3633272469E+02
200 2    0.3917329491E+02    0.2571659798E+02    0.3720961617E+02
201 2    0.3885369772E+02    0.2673973475E+02    0.3585018327E+02
202 1    0.3817920556E+02    0.2473150784E+02    0.3530510722E+02
203 2    0.3778269744E+02    0.2523311482E+02    0.3427511327E+02
204 2    0.3735041742E+02    0.2415279178E+02    0.3560162087E+02
205 1    0.3945639196E+02    0.2393658592E+02    0.3492506559E+02
206 2    0.4013882136E+02    0.2457028746E+02    0.3440954900E+02
207 2    0.3922346941E+02    0.2306554697E+02    0.3425936046E+02
208 1    0.4015504474E+02    0.2320923868E+02    0.3614905040E+02
209 2    0.3929565513E+02    0.2274895867E+02    0.3675330478E+02
210 2    0.4058929600E+02    0.2393171998E+02    0.3688276687E+02
211 1    0.4133936979E+02    0.3765152230E+02    0.3582864831E+02
212 2    0.4213871639E+02    0.3834662107E+02    0.3546093605E+02
213 2    0.4105085277E+02    0.3699956396E+02    0.3491315062E+02
214 1    0.4193686431E+02    0.3675171395E+02    0.3692086457E+02
215 2    0.4190277659E+02    0.3728628667E+02    0.3787486565E+02
216 2    0.4304582541E+02    0.3666339947E+02    0.3682279676E+02
217 1    0.3589293543E+02    0.2813750390E+02    0.3824085525E+02
218 2    0.3606163141E+02    0.2893552106E+02    0.2374739336E+02
219 2    0.3545772168E+02    0.2871340405E+02    0.2207017796E+02
220 2    0.3524825587E+02    0.2737929440E+02    0.3865733873E+02
221 1    0.4137688445E+02    0.3533280187E+02    0.3687390775E+02
222 2    0.4061771385E+02    0.3525742855E+02    0.3606819156E+02
223 2    0.4225567865E+02    0.3455639313E+02    0.3689620192E+02
224 2    0.4093703796E+02    0.3511343711E+02    0.3785538144E+02
225 1    0.3377530417E+02    0.4263806175E+02    0.3405606292E+02
226 2    0.3411167120E+02    0.4314688304E+02    0.3495378181E+02
227 2    0.3267538078E+02    0.4218600097E+02    0.3430271549E+02
228 1    0.3344698368E+02    0.2854878519E+02    0.3306617400E+02
229 2    0.3298143442E+02    0.2812410598E+02    0.3207930244E+02
230 2    0.3434494135E+02    0.2924581314E+02    0.3289174144E+02
231 1    0.3252386885E+02    0.4484633502E+02    0.3373736248E+02
232 2    0.3313541870E+02    0.4528281410E+02    0.3459612335E+02
233 2    0.3162859552E+02    0.4435223060E+02    0.3409517921E+02
234 1    0.3204273807E+02    0.4593687748E+02    0.3280687914E+02
235 2    0.3148703368E+02    0.4549151083E+02    0.3197085761E+02
236 2    0.3289527339E+02    0.4641690801E+02    0.3231898620E+02
237 1    0.3117915323E+02    0.4709659647E+02    0.3339003431E+02
238 2    0.3015981364E+02    0.4674856325E+02    0.3375793390E+02
239 2    0.3087867683E+02    0.3245918224E+02    0.3256772843E+02
240 1    0.3187357751E+02    0.4774059587E+02    0.3457540304E+02
241 2    0.3286918832E+02    0.3273494264E+02    0.3426734961E+02
242 2    0.3202969939E+02    0.3170365975E+02    0.3532841938E+02
243 1    0.3128506116E+02    0.4903892780E+02    0.3521930965E+02
244 2    0.3209077431E+02    0.4955703467E+02    0.3580023619E+02
245 2    0.3048203789E+02    0.4874304600E+02    0.3594703691E+02
246 1    0.3072278874E+02    0.5014767385E+02    0.3430826619E+02
247 2    0.3116493026E+02    0.5014975105E+02    0.3331786813E+02
248 2    0.3105922289E+02    0.5114850577E+02    0.3463485161E+02
249 1    0.3464763160E+02    0.2618786678E+02    0.3366892397E+02
250 2    0.3445773537E+02    0.2584948621E+02    0.3259526382E+02
251 2    0.3572701790E+02    0.2634381580E+02    0.3353859856E+02
252 2    0.3447084999E+02    0.2530400596E+02    0.3437060587E+02
253 1    0.2913607002E+02    0.5007019682E+02    0.3424313270E+02
254 2    0.2869553349E+02    0.4919214509E+02    0.3375069579E+02
255 2    0.2878125298E+02    0.4993619184E+02    0.3528043317E+02
256 2    0.2867734661E+02    0.5094884140E+02    0.4908284799E+02
257 1    0.3765078869E+02    0.3866696829E+02    0.4139551257E+02
258 2    0.3671765959E+02    0.3802279775E+02    0.4142272720E+02
259 2    0.3786271808E+02    0.3883874345E+02    0.4239645577E+02
260 1    0.3875734812E+02    0.3790540971E+02    0.4071524848E+02
261 2    0.3968154067E+02    0.3849050108E+02    0.4077736460E+02
262 2    0.3852776353E+02    0.3789283071E+02    0.3961106541E+02
263 1    0.3881231200E+02    0.3651763668E+02    0.4119031929E+02
264 2    0.3886669685E+02    0.3588030030E+02    0.4025098357E+02
265 2    0.3799601877E+02    0.3626976377E+02    0.4188310978E+02
266 1    0.4008898287E+02    0.3625722694E+02    0.4198347208E+02
267 2    0.3990383237E+02    0.3538657799E+02    0.4270254104E+02
268 2    0.4033795368E+02    0.3700276285E+02    0.4263734555E+02
269 1    0.4127974973E+02    0.3586790884E+02    0.4113439537E+02
270 2    0.4220378777E+02    0.3634731551E+02    0.4155491177E+02
271 2    0.4126238945E+02    0.3624257028E+02    0.4000996991E+02
272 1    0.4146849455E+02    0.3438502530E+02    0.4126363654E+02
273 2    0.4054635357E+02    0.3392169682E+02    0.4067370730E+02
274 2    0.4148070222E+02    0.3395035931E+02    0.4229739814E+02
275 1    0.4271861031E+02    0.3377954908E+02    0.4056138646E+02
276 2    0.4363841302E+02    0.3428668242E+02    0.4100502471E+02
277 2    0.4286646350E+02    0.3385136072E+02    0.3948285603E+02
278 1    0.4289835433E+02    0.3231825445E+02    0.4081770019E+02
279 2    0.4189764906E+02    0.3189347651E+02    0.4086280904E+02
280 2    0.4345586934E+02    0.3208643493E+02    0.4180920822E+02
281 1    0.3734524519E+02    0.4000757634E+02    0.4074319716E+02
282 2    0.3831728083E+02    0.4060766696E+02    0.4075226882E+02
283 2    0.3702397950E+02    0.3977691676E+02    0.3968712033E+02
284 2    0.3674491106E+02    0.4071580800E+02    0.4133237824E+02
285 1    0.4370192240E+02    0.3166365227E+02    0.3967367903E+02
286 2    0.4313538973E+02    0.3192743542E+02    0.3876708523E+02
287 2    0.4464256250E+02    0.3220639440E+02    0.3946480490E+02
288 2    0.4376870122E+02    0.3055594355E+02    0.3989470046E+02
289 1    0.3906038602E+02    0.3047050335E+02    0.3979132649E+02
290 2    0.3946990662E+02    0.3035577327E+02    0.4081203413E+02
291 2    0.3811527259E+02    0.2995805215E+02    0.3979676274E+02
292 1    0.3862188024E+02    0.3198095921E+02    0.3959799847E+02
293 2    0.3854519845E+02    0.3222988658E+02    0.3851949964E+02
294 2    0.3952359711E+02    0.3256443914E+02    0.3989106229E+02
295 1    0.3736718049E+02    0.3239364343E+02    0.4042031278E+02
296 2    0.3660958694E+02    0.3152674138E+02    0.4026388160E+02
297 2    0.3677908833E+02    0.3314706812E+02    0.2449562403E+02
298 1    0.3756107605E+02    0.3281181575E+02    0.2651561277E+02
299 2    0.3847311259E+02    0.3350978207E+02    0.4204684417E+02
300 2    0.3770284853E+02    0.3192397718E+02    0.2719326755E+02
301 1    0.3625694571E+02    0.3345127128E+02    0.2685214279E+02
302 2    0.3550228123E+02    0.3264905330E+02    0.2668041842E+02
303 2    0.3608317718E+02    0.3424400906E+02    0.4134267208E+02
304 1    0.3617789960E+02    0.3400340524E+02    0.2828263403E+02
305 2    0.3517629721E+02    0.3436402650E+02    0.2848418183E+02
306 2    0.3701465054E+02    0.3473380743E+02    0.2841554369E+02
307 1    0.3644253649E+02    0.3282932053E+02    0.2933090436E+02
308 2    0.3723700053E+02    0.3214032814E+02    0.2900573120E+02
309 2    0.3553416647E+02    0.3211092465E+02    0.2928978600E+02
310 1    0.3690759945E+02    0.3326577128E+02    0.3068028110E+02
311 2    0.3657145619E+02    0.3431447453E+02    0.3078528152E+02
312 2    0.3805832948E+02    0.3338376518E+02    0.3066171972E+02
313 1    0.4016505108E+02    0.2999916192E+02    0.3878728251E+02
314 2    0.3985283101E+02    0.2992286950E+02    0.3770424953E+02
315 2    0.4096382303E+02    0.3072701093E+02    0.3889276634E+02
316 2    0.4064430919E+02    0.2901629869E+02    0.3915223353E+02
317 1    0.3649240575E+02    0.3234427411E+02    0.3177685763E+02
318 2    0.3727617232E+02    0.3205245276E+02    0.3247573178E+02
319 2    0.3575808579E+02    0.3281452170E+02    0.3246243390E+02
320 2    0.3610373547E+02    0.3139366991E+02    0.3140575107E+02
321 1    0.3195441512E+02    0.3441184389E+02    0.2478095196E+02
322 2    0.3146242624E+02    0.3538179360E+02    0.2514310862E+02
323 2    0.3112774683E+02    0.3412847125E+02    0.2410871454E+02
324 1    0.3325591454E+02    0.3458600601E+02    0.3936156217E+02
325 2    0.3361729650E+02    0.3357285672E+02    0.3889749329E+02
326 2    0.3399157840E+02    0.3496556004E+02    0.4014517699E+02
327 1    0.3302054312E+02    0.3562474987E+02    0.3834002119E+02
328 2    0.3242382281E+02    0.3657843913E+02    0.3861437633E+02
329 2    0.3236250545E+02    0.3524860027E+02    0.3750405622E+02
330 1    0.3429977612E+02    0.3597411210E+02    0.3759281270E+02
331 2    0.3484319689E+02    0.3506471861E+02    0.3719726799E+02
332 2    0.3500491268E+02    0.3653315612E+02    0.3818423622E+02
333 1    0.3394160308E+02    0.3697875619E+02    0.3643974483E+02
334 2    0.3371721384E+02    0.3797461725E+02    0.3687122557E+02
335 2    0.3320164585E+02    0.3662835522E+02    0.3572594448E+02
336 1    0.3521407330E+02    0.3709477690E+02    0.3552830374E+02
337 2    0.3592176918E+02    0.3771030824E+02    0.3611956413E+02
338 2    0.3484979923E+02    0.3770434283E+02    0.3459836601E+02
339 1    0.3584267500E+02    0.3582396462E+02    0.3504010232E+02
340 2    0.3555173394E+02    0.3558349429E+02    0.3396716495E+02
341 2    0.3547340845E+02    0.3493162485E+02    0.3543411729E+02
342 1    0.3735002078E+02    0.3574317007E+02    0.3515228637E+02
343 2    0.3772840610E+02    0.3672562209E+02    0.3553664519E+02
344 2    0.3792821151E+02    0.3550899179E+02    0.3415573649E+02
345 1    0.3195586711E+02    0.3347641878E+02    0.2594014149E+02
346 2    0.3238757292E+02    0.3398953639E+02    0.2685215266E+02
347 2    0.3088910325E+02    0.3314258737E+02    0.2618628393E+02
348 2    0.3263695945E+02    0.3264304556E+02    0.2586299008E+02
349 1    0.3797561692E+02    0.3465228452E+02    0.3609447551E+02
350 2    0.3891089845E+02    0.3420966418E+02    0.3573734700E+02
351 2    0.3822921925E+02    0.3515512745E+02    0.3702567974E+02
352 2    0.3729071813E+02    0.3385496565E+02    0.3626166929E+02
0.0000000000E+00    0.0000000000E+00    0.0000000000E+00
0.1532620600E+02    0.0000000000E+00    0.0000000000E+00
0.0000000000E+00    0.1532620600E+02    0.0000000000E+00
0.0000000000E+00    0.0000000000E+00    0.1532620600E+02
}
Driver = VelocityVerlet {
  Steps = 50000
  TimeStep [fs] = 0.2
  MDRestartFrequency = 25
  Thermostat = None {}
  Xlbomd = {
    IntegrationSteps = 6
    MinSccIterations = 2
    MaxSccIterations = 200
    SccTolerance = 1e-6
    PreSteps = 0
  }
  Velocities [AA/Ps] = {
-4.07044545 -7.29406609 -5.74536644
14.04847123 -38.32236175 2.08092700
4.50835045 -2.65832658 3.61988344
3.88858418 7.17410253 -2.09798320
-4.50529888 4.39633659 -13.33650821
1.57536971 10.26751213 -3.25328021
-2.21621776 1.60159035 -8.24869492
-3.47906000 -15.69477721 -31.36488525
-19.64458189 -21.20725642 -13.36006169
-0.23003881 4.97848271 -12.23628253
5.98406543 9.47978973 24.47486235
22.19787344 -4.13001161 -13.83602937
-6.49138654 4.67569228 -5.22786908
6.79427082 28.77317139 -15.90484471
-0.54568774 -14.20377139 31.64464075
7.14997260 6.43873918 -9.88777303
9.51690801 0.69475627 -8.10249346
-18.41190388 -2.35250961 -22.09351556
6.37744211 9.42753631 -6.11044060
43.13555129 12.11427996 -26.64623832
15.69594984 -12.52038686 -3.89454186
-3.27614715 0.73580952 -6.91920147
6.03485022 11.12761708 -5.27726413
13.02461653 21.28013344 24.14526635
-1.34179255 4.64157868 -0.60685510
-2.34334695 9.96668351 -0.72661000
-29.56287063 29.99755620 -22.43136817
13.03399901 -10.33260442 25.42933204
-5.97324524 -2.18498227 -8.72057845
-29.77909022 -7.79098971 3.09405880
-7.16137243 -41.89245035 -16.15340086
15.77014533 -5.11114007 -12.55705328
2.67444593 6.41258542 1.57922749
1.99750526 -26.57624042 33.13391628
-3.94774608 38.62100860 -25.50953918
-1.73095006 -2.42056772 -9.52409387
2.41529426 -3.49096389 14.68542850
9.12517541 -0.96223298 44.85719704
-5.85790002 1.51644743 -5.25793136
3.23643527 -22.11030810 -38.19994979
-6.21802532 -16.89378439 4.16078278
-2.72723028 -12.76734058 5.48074223
20.27980295 53.70885478 8.97048967
-28.33380304 2.06799783 3.09270173
7.94461752 -4.08182300 0.39085624
35.26179633 -1.46854241 -9.86764519
-14.19232157 3.00924065 18.09635813
6.68059444 6.19682277 -7.92141543
-14.37806918 -15.71602289 10.92447291
-21.60478196 37.14503778 5.79082444
3.66714715 1.98690093 -0.19197739
5.87847465 -15.92164156 35.68557306
-29.32657043 7.96726502 -19.16875774
6.59461307 1.26196935 7.40583687
7.96075725 5.68524220 -7.17279564
15.39994805 6.26238125 12.69615203
-18.89881513 2.69689362 -0.28550507
-34.62049446 -10.93005355 -9.73708255
-11.27612001 -15.38540937 -18.12839426
-22.00319613 -6.29917039 -4.08483126
12.72744171 1.43236938 -1.71708231
19.30722381 31.30813616 -11.97901490
-16.44907537 -22.75325412 8.39558181
1.78505209 -4.81701792 1.36996738
1.00651006 1.56680257 3.78109932
-34.53850910 -33.42294373 6.85376781
5.77075809 0.29467979 -5.65736343
-3.21556415 8.37403819 13.74277063
9.94965323 -21.60138198 34.11925310
-1.44402153 10.78443828 -23.47574602
-3.98482022 -3.08890333 1.82815526
0.37246407 11.80736320 -4.66705468
5.53798250 -9.52760236 2.18846464
11.34506810 0.94547185 -7.28483442
-2.98780075 10.38188084 42.19443449
23.95053113 -29.95941743 12.42452553
2.41557431 -0.61498747 1.33400416
15.45395931 -13.17799596 -22.23966662
-46.09646809 29.73143830 19.17322950
-3.30724370 2.98063625 0.54565509
-37.29504652 -1.03890157 27.97425042
22.97416516 40.52983960 -40.60829192
-5.14526005 -5.01229037 -7.13787034
-33.95471365 5.48861799 44.34477584
-30.53791906 4.95518602 -5.89562783
0.52893654 5.93269466 3.47099881
-33.45028633 2.68868095 29.11347497
7.18188693 10.50020579 -31.26298467
13.41466333 8.21963891 -12.50382522
21.99137770 19.41329799 21.70309065
-29.89102767 -0.62341353 -33.45749800
1.29492771 -6.55899878 3.82705837
0.74840043 5.95665622 -3.74683446
-0.62897909 -12.47657767 8.48844956
24.27116020 23.89087893 34.53402067
5.00285516 -15.63611579 0.76422558
1.98095315 -8.67324231 1.93682253
-3.32620963 -18.99695157 20.15098325
-10.06819918 32.64266093 9.88616663
-4.39280959 3.92420877 8.11976587
7.14092382 26.69024386 16.83880324
20.04901040 -11.01928741 -6.66234292
4.53957011 -0.18378302 2.40304450
-7.85714301 22.46316139 -13.21234012
45.53149136 23.12957580 -11.19435139
5.56108259 -5.59737527 -9.67625813
15.60987473 4.46785909 -11.51109567
-6.99693162 -13.50167664 19.54993277
8.32620870 -1.72766540 13.48510747
37.69879293 -12.55754946 19.83636898
49.63757401 14.36563703 -2.91671755
-1.89004731 -3.27838601 -6.09597171
4.04117987 14.72082267 -16.44524436
29.81332862 -21.69638525 -14.60567623
1.49549863 -15.94218155 -0.08275766
-23.82596463 33.89678375 11.07360364
39.31661000 -25.19788621 21.65574311
1.57296367 -2.34733377 -4.31194150
-33.21512229 2.73089059 11.20570407
-2.56507702 45.24058806 15.08793470
-5.25061213 -2.04668758 2.04551325
-46.68119278 3.51932786 -22.01076012
-12.47988212 9.43874704 -8.82983936
0.29429837 -11.36229388 -8.34252574
-4.63298665 -2.21388719 -1.22691946
13.90709264 4.60953182 -11.26181502
4.05106196 29.45906117 -50.75905141
-9.41945188 14.07189068 29.39052352
-9.29354836 -6.48736469 0.85214115
33.58490030 -4.58288923 14.01666491
2.59901095 -16.60551306 -16.50798929
11.86736173 -11.00537595 14.07265373
-20.60393497 -30.77241571 -22.51999660
-15.74127235 4.29630274 10.59000042
-5.11858374 5.13351667 11.21804193
-6.78498825 16.42902696 -15.47663455
11.69019511 -15.76696960 30.02384106
4.55517497 5.40886327 20.15012501
30.34848605 -59.74161355 2.47366159
-36.29279082 20.98588513 -9.14071470
-10.03985624 9.32624440 -9.79101117
8.30864731 -34.88246923 -5.11091328
-24.52635114 -8.80750789 26.06609981
-0.72069623 -0.06481662 -19.75114744
-8.42333820 -4.24696732 6.99509522
-37.97345695 4.45510023 -4.60675134
-5.10451833 6.11815573 13.27597828
7.88655089 10.84645831 -37.84638932
-32.89844482 9.63450353 -10.09591331
-9.13864872 -2.90800544 -1.18264316
39.10870502 5.41717655 25.70768273
-18.97249420 -7.96093419 14.36233699
-1.81541482 7.24020130 -2.97666034
-2.95016316 -2.15824310 -39.81898454
8.93218723 -1.63520729 -1.08633012
-8.40550096 22.94094549 13.96378603
11.14547733 -7.86285999 -4.83986491
-5.98307490 39.67728619 18.08878739
63.72802256 -10.39030598 -0.04882058
-20.89624410 2.49989864 17.36841457
-11.90387678 -1.30987293 -14.00547842
29.52704790 57.71133598 24.24618477
0.02447494 -21.43618293 -17.74810344
6.42528295 3.30809079 -7.18512194
-9.52428276 30.43864462 -6.77090384
-31.22043276 -25.97946728 18.72729086
-5.80899054 -11.68481423 -1.30897841
-8.61820056 12.37961360 22.74309589
-1.81772707 11.35333359 -17.87190626
-10.33366122 -4.70371188 -4.98792447
-14.57935370 24.38020382 -44.49500151
41.95103218 -39.25224687 15.83978354
0.99338928 12.04616765 2.36272978
3.98232317 7.79018329 8.65181721
-12.94052154 -4.58407782 3.25009983
2.15088803 -4.81695154 10.39066440