Geometry = GenFormat {
<<< "system.gen"
}

Driver = VelocityVerlet{
  Steps = 50000
  TimeStep [fs] = 0.2
  MDRestartFrequency = 25
  Thermostat = None {
    #InitialTemperature [Kelvin] = 300.0
  }
  Xlbomd{ 
    IntegrationSteps = 6 
    MinSccIterations = 2
    MaxSccIterations = 200
    SccTolerance = 1e-6 
  }
  Velocities [m/s] {
     -3.72783423E+02      4.45083324E+01     -3.54551662E+02
      2.76951930E+03     -9.87969992E+02     -3.14477495E+02
      2.12511553E+02     -2.95360773E+02      1.22980308E+03
      1.77886353E+02      5.13775487E+02     -1.07105982E+01
      1.08784384E+03      6.26316617E+01     -1.67357666E+03
      6.61420602E+02      7.13894301E+02      5.18972684E+02
     -2.98679969E+02      5.34650665E+02     -1.82360535E+02
     -1.12485026E+03      2.29230372E+03     -1.76558682E+03
     -5.74457387E+02      9.38760700E+02     -1.79869758E+02
     -4.89478526E+02      4.32718339E+02     -8.46299719E+02
      1.26469946E+03     -3.23436431E+03     -1.56514509E+02
     -9.53203671E+02      5.47744617E+02     -1.62171623E+03
      2.44487538E+02     -7.43205444E+02      1.09977757E+03
     -2.79756787E+02     -1.23271505E+02     -7.86645166E+02
     -3.85579004E+02     -2.65427924E+03     -2.78825635E+03
      5.67576082E+02     -2.97744475E+02      1.42346864E+02
     -7.79785369E+02      1.97961824E+02     -9.46204769E+01
      2.35408838E+03     -2.04608746E+02     -9.43960874E+02
     -3.00954731E+02      8.49475804E+02     -1.94469400E+02
      3.05233360E+03     -5.44031543E+01     -7.89494767E+02
     -1.15707922E+03      1.97153761E+03     -8.76094750E+02
      1.21173691E+02      8.53540594E+01      1.27585888E+02
      8.50661639E+02      3.17682555E+03      2.10871941E+02
     -3.93018151E+02     -2.23247543E+02     -7.42121263E+01
      5.20641843E+02      9.33174870E+02     -3.13065974E+02
      7.67420455E+02     -6.90334722E+02     -1.29182293E+02
     -4.84540938E+02     -6.96020364E+02     -6.69696530E+02
     -3.19869669E+03     -2.09910722E+02      4.77773827E+02
      2.49581920E+02     -1.59416402E+02     -8.83191846E+02
      1.84051880E+03      3.53962172E+03     -2.65440677E+02
      1.86231027E+03     -1.29572117E+02     -1.72088997E+03
     -2.31341862E+03     -2.90269264E+03     -4.70615566E+02
     -1.50462563E+02      5.29541322E+02      1.53015017E+02
     -1.36553058E+03     -7.18615808E+02      1.30100252E+03
     -2.76837593E+02      1.00200053E+02     -6.09845123E+02
     -2.38973083E+02      4.91171848E+02      1.61143330E+02
     -1.27305207E+03      9.43070725E+02      3.68260036E+03
     -1.28092548E+03      6.17132994E+02      4.19181911E+02
      1.53658282E+01      8.69684333E+01      3.39800359E+02
      8.00926049E+02     -1.83044861E+03     -1.43193901E+03
      4.03235276E+03      1.08898609E+03     -9.55768449E+02
     -7.48817902E+02      1.36214825E+03      6.30228337E+01
     -1.61877704E+03     -4.00526410E+02      2.01671101E+02
     -6.05132436E+02      1.31926109E+03      2.13213649E+03
      3.06410383E+02     -3.46156224E+02     -4.48221377E+01
      6.89761886E+02      9.75666114E+02      1.69040868E+03
     -1.50935411E+03     -1.82954969E+03      1.69352011E+03
      3.37637416E+01     -1.33172802E+02      7.37686282E+01
     -1.04621548E+03      5.87083709E+02     -1.97968924E+03
      4.41405568E+02     -1.60962838E+03      1.71999422E+03
      5.58696979E+02      9.23341674E+02     -6.52541631E+02
     -1.18281302E+02     -1.57148171E+03      2.81884086E+03
      5.70950215E+02      3.20064556E+02      3.30832329E+03
      4.87563327E+02     -9.22234456E+01     -1.49146205E+00
     -7.19477168E+02     -1.14486560E+03     -5.64827798E+02
     -4.68117832E+02      9.83935441E+02      9.15515488E+02
      6.44491930E+02      1.88128902E+02     -5.28224774E+02
      1.07253020E+03     -1.32039634E+03      6.36337637E+02
      7.82203843E+02      1.67879706E+03     -2.24091516E+02
      1.38624571E+03     -1.93847705E+02     -2.35260811E+02
      1.30390027E+02     -7.57159059E+02     -1.17342250E+03
     -4.96474603E+02      2.64393545E+03     -3.10860570E+02
     -6.40360933E+02      6.06798363E+01     -3.14060993E+03
      4.95602873E+02     -2.58565170E+03      2.87819416E+03
     -6.89308400E+01      2.45538122E+02      1.54895441E+02
     -6.77810763E+02      1.22482409E+03     -8.19516296E+02
     -1.34573114E+03      2.95645637E+02      1.12475227E+03
      1.41608116E+02      3.29483213E+02      4.22566057E+02
      5.99507268E+02      1.59948210E+03      1.61949693E+03
      9.96858154E+02     -1.10741600E+03      2.20654689E+02
     -7.77607709E+01      3.57262067E+02     -2.58688879E+02
      7.78717067E+02      1.82673152E+03      2.28012260E+03
      2.47796682E+03     -1.40696288E+02     -2.21784337E+03
     -1.00915727E+03     -4.20303200E+01     -1.04367288E+02
     -1.09265018E+03      1.92670117E+03     -1.75056651E+03
      7.55059643E+01     -1.43727839E+03      6.54694636E+02
     -5.12396197E+01      4.42500182E+02      2.15542407E+02
      2.68703187E+03      1.32740295E+03     -5.06958183E+02
     -2.50327754E+02     -1.95583666E+03     -5.13466787E+02
      1.80870623E+02     -1.95852815E+02     -6.98416900E+02
     -2.20044234E+02     -1.93576091E+03      2.73715715E+03
     -1.09760905E+03      1.16824584E+03     -1.20682615E+03
     -3.23050078E+02      4.28816411E+01     -8.04880569E+02
      4.22925593E+02      3.04077667E+02      2.95013262E+02
     -2.53057876E+03      8.93512090E+02     -1.19096102E+03
     -6.85013507E+02     -7.82423013E+02     -1.78652365E+02
      3.34545247E+02      9.90751116E+02     -9.64430945E+02
      3.65766913E+03      1.87269549E+03      5.69987416E+02
     -2.23100259E+02     -3.04615144E+02      3.94269748E+02
      1.79909513E+03     -1.44020406E+03      4.58796535E+01
      2.99829678E+01     -4.72373301E+02      7.20694428E+02
      1.65126481E+03      6.74242021E+02      7.41115918E+02
      3.31876015E+01      1.81809421E+02     -3.87553526E+02
     -1.53756961E+03     -7.55039445E+02     -4.75610776E+02
     -3.64593583E+02     -1.61125320E+03      3.59687478E+03
      1.19070115E+03     -2.39496982E+02      1.26586112E+03
      5.29376676E+02     -3.52257059E+02     -5.40109057E+02
     -3.01475661E+02     -1.11996747E+02      6.69314867E+02
     -1.24430398E+03      7.25961793E+02     -1.45822950E+03
      3.73416187E+02     -2.12833701E+02     -2.19604054E+02
     -3.30826359E+00      7.71069328E+02     -1.47645984E+02
      2.18763161E+02      3.08315150E+03      3.38029721E+03
      3.31681660E+02      8.04778408E+01      1.74825756E+02
      1.08381479E+02     -5.72758312E+02      1.28407604E+03
      1.11304481E+03      3.83480184E+03      3.64962932E+02
      5.81465514E+02      1.15200585E+02     -1.70216342E+02
     -8.97840859E+02     -4.23025199E+02      1.04074603E+03
      9.58679353E+02     -2.55384409E+03      1.84810348E+03
      3.36201050E+02     -3.54320615E+01      5.94688263E+02
      1.08466383E+03      2.63387889E+03      2.23223173E+02
     -1.68157977E+03      8.72965133E+02      1.17914510E+03
      6.65100090E+02     -4.92231996E+02     -3.59893705E+02
     -1.27610705E+02      1.42037138E+03      1.10072338E+03
      4.70813810E+02      1.70008169E+03      1.68437485E+03
     -1.37325171E+02      4.70009160E+02      4.03465079E+02
     -8.33538973E+02     -5.20919485E+02      1.36105873E+03
     -2.80998432E+03      1.52937844E+03     -2.27687861E+03
      2.73248762E+02      1.11364831E+03      4.31469877E+02
      2.93296979E+03      1.47546589E+03      1.01631811E+03
      3.38679700E+03     -6.66045862E+01     -1.23414796E+03
      4.09697030E+02      3.85866901E+02     -3.91651509E+00
     -7.61126976E+02      7.21165401E+02     -1.04825680E+03
      2.50298447E+02     -7.39073971E+02      4.80005221E+02
      5.49716857E+02      3.44688517E+00     -3.36749075E+03
     -5.06294851E+02     -3.40150554E+01      4.29125232E+02
     -1.32840749E+03      2.63512193E+03     -3.27076119E+02
     -1.53213518E+03     -1.13396416E+03      1.23505892E+03
      1.00104135E+03     -1.37928631E+03     -2.22590538E+03
      1.23509919E+02      2.38787718E+02     -4.75354598E+01
      1.48401241E+03      1.03738771E+03     -1.67759059E+03
     -7.14988362E+02      2.03047985E+03      5.69616427E+02
      6.11125054E+02      3.74263319E+02      1.63062898E+02
      1.03298873E+03      2.08240819E+01     -2.49714989E+03
     -5.41207272E+01     -3.09857266E+03     -2.85412461E+03
      1.56288687E+02     -2.52064395E+01      1.54634241E+02
     -2.56400111E+02     -9.42849291E+02     -2.99416681E+03
      2.07007236E+03     -2.11802948E+03     -2.23723692E+03
     -2.73431623E+02      7.41165672E+02      2.42325021E+02
     -9.76337924E+02      4.27255369E+02      6.89906087E+02
     -7.06954478E+02      6.52428174E+01      6.63590974E+02
     -2.73183612E+02      1.77476854E+02      2.83214771E+02
     -4.04634034E+02     -8.06201068E+02      1.74312396E+03
     -5.82785768E+02      5.21278263E+02     -5.76214335E+02
      7.72411312E+02      8.69349569E+02      6.52062734E+02
     -3.51749109E+03      1.64403126E+03      6.45054407E+02
      1.18553630E+03      2.15980131E+03     -1.08362855E+03
     -2.14493691E+01     -2.84712592E+02     -7.69149401E+02
      1.92112964E+03     -1.01525172E+03      6.03583028E+02
      3.68788634E+03      1.10345327E+03      1.47942489E+02
     -1.45737700E+02     -8.86523721E+01     -4.51629418E+01
     -8.64602026E+02     -3.14235682E+03     -1.20170489E+03
      1.74710729E+03     -8.98463531E+01      7.88801227E+02
      4.70729446E+02      8.45138151E+02      4.95112863E+01
     -2.86711142E+03      1.53034573E+03     -1.67514222E+03
      8.06100002E+02      5.03049874E+02      7.52587739E+02
     -2.67339626E+03      1.23129634E+03      2.94652641E+03
      5.95166056E+02      5.18200979E+02     -2.86939346E+02
      1.80408222E+02      1.77792807E+01      1.74864101E+03
      1.21349751E+03     -7.60716285E+01     -2.25590799E+02
     -1.01281964E+03     -1.70019454E+03     -4.40905635E+02
      3.44566141E+02      1.35723683E+02     -2.29038653E+02
     -8.39714824E+02      8.16814644E+01      1.59385285E+03
      1.00769946E+03      2.82259417E+03      4.45842934E+03
      9.89247121E+02     -5.31698978E+02     -3.54795073E+02
     -1.42490828E+03      1.26277024E+03      1.39027464E+03
      2.52492533E+03     -1.04234853E+03      1.66899634E+03
      7.09787359E+02      5.32811434E+02     -7.46822270E+01
      2.13861617E+02      3.01721990E+03     -2.68186549E+03
      1.43257110E+03      2.57066684E+03     -4.87214790E+02
     -1.02786875E+03      6.72513483E+02      3.40103684E+02
     -1.32109862E+03     -5.52821961E+02     -8.80388178E+02
     -3.44725591E+01      2.06544463E+03     -1.42814815E+02
      1.01296650E+02      1.92711711E+02     -2.32686539E+02
      1.12424652E+02      1.48279592E+02     -1.16956753E+02
     -2.24210156E+03     -1.77706382E+03      7.27501080E+02
      1.93821775E+02      2.53926095E+02     -2.18337415E+01
     -1.41435984E+02      1.59313387E+03     -1.19461792E+02
      2.16781570E+01      1.24944025E+02      2.95157125E+02
      1.88852536E+02      3.07039505E+02      7.38336967E+01
     -1.04730714E+02     -2.54114302E+03      1.04384425E+03
     -1.48478094E+03     -1.30404635E+03     -1.57446808E+03
      6.48615917E+02      4.27328052E+02     -6.48669595E+02
     -1.93503065E+03     -1.58967122E+02     -3.06522587E+02
     -2.97769017E+02     -3.69652108E+02      2.83868741E+03
      3.48145413E+02      2.38905977E+02     -3.36355066E+02
     -4.83796333E+01      6.30654511E+02     -6.10403390E+02
      1.61361924E+03      1.08151069E+03     -1.59223868E+03
      1.26959506E+03     -2.21836378E+02      1.14011657E+03
      5.50720733E+02     -3.59811342E+01      1.14276356E+02
      1.79379922E+03     -1.27560914E+03      3.17665730E+03
     -3.56768505E+03      3.70614731E+03      6.46039438E+02
     -1.08713222E+03     -3.70901198E+02     -1.88670674E+01
      5.66785382E+00     -1.97703585E+02     -6.15037224E+02
      9.05601073E+02      1.72465240E+03     -8.16975955E+02
     -2.15104426E+03      9.81108396E+02     -1.74505466E+02
      4.34110072E+02     -2.69498671E+02      6.45294898E+02
     -2.45453428E+03     -1.76611233E+03      7.63140499E+02
     -4.16460233E+02     -6.10681724E+02     -1.32016305E+03
     -9.92354396E+01      3.07613967E+02      4.61100752E+02
      1.48495313E+03     -5.03481950E+02      1.53853973E+03
     -3.04343927E+03      1.68856324E+03     -2.53708322E+02
      3.05751847E+02      8.06557509E+02     -3.88530389E+02
      7.14086487E+02      1.22870487E+03      7.60269019E+02
     -1.05420147E+03     -1.29908301E+03     -6.88821605E+02
     -3.88152248E+01     -1.17750484E+02     -3.69915560E+02
      3.39797136E+03     -3.84323347E+02      8.32953398E+02
      1.44280445E+03     -8.89186504E+02     -1.30823653E+03
     -2.76167701E+02      3.99122998E+02     -3.51508955E+01
      4.09170367E+02      4.14648017E+02      2.35793547E+02
     -1.01340735E+03     -1.08215563E+03     -1.13159625E+03
     -7.98593327E+02      5.39372041E+02      2.15674528E+02
     -1.01933999E+03      1.56367874E+03     -3.70134626E+02
      1.91431703E+03     -6.45440744E+02     -3.48709302E+02
     -1.72667056E+02      7.76853875E+01     -3.79687131E+01
      9.15490092E+02      8.24293310E+02      2.74056335E+03
     -3.90478747E+02     -8.15969982E+02      1.41009847E+03
      9.29362342E+02      1.98142079E+02     -5.95554059E+02
      2.93159910E+03     -5.55634615E+02     -1.02053845E+03
      2.23205746E+02      2.45902677E+02     -9.13654356E+02
      2.28499120E+02      1.51747986E+02      2.57567570E+02
     -3.79535779E+01      5.75556585E+00     -7.23320621E+02
      1.11380394E+03     -1.05618783E+03     -2.50656935E+03
     -3.11484678E+03      2.10843439E+03      8.00752229E+02
     -4.49547708E+02      4.23281788E+02     -3.12442346E+02
      6.04484827E+00     -5.63531687E+02      6.56724463E+01
      7.49750102E+02      6.13894793E+02     -2.71631270E+03
     -2.14909392E+03      2.53647167E+02      9.50450152E+02
      2.82126502E+01      1.20523320E+02      2.69940686E+02
      2.09401958E+02      3.49392051E+02      4.83867634E+02
      8.91195871E+02     -3.10481279E+02      7.21498125E+02
     -3.59920232E+02     -3.55308216E+02      1.13178314E+03
      2.48686493E+03     -1.26384361E+03      3.09637021E+03
     -1.46237092E+02      3.33378073E+02     -3.97841962E+02
      1.66596922E+02     -5.51167922E+02      7.14658594E+02
      5.52495544E+02     -9.79279229E+02     -4.64384290E+02
     -1.54363117E+03     -3.73437326E+02      6.38722755E+02
      1.13054318E+02      3.58018257E+02     -7.22747041E+02
      4.69991373E+02     -4.71295419E+02      1.76318617E+03
      9.54247293E+02     -1.60723202E+03     -2.55749745E+02
     -1.49319112E+02     -4.48904129E+02      2.10845195E+02
      2.95350587E+00     -9.53198159E+02      1.59443622E+03
     -1.83607641E+03      2.11791567E+03      3.11440942E+02
     -6.33795977E+02     -5.09446542E+01     -4.90948313E+02
     -2.81137143E+03      2.60176156E+02     -1.50484763E+03
     -2.38308444E+03     -2.39556532E+03      1.41029462E+03
      5.61484734E+02      5.67496630E+02      4.81359254E+01
     -1.32613646E+03     -3.55272701E+03      1.41640352E+03
     -2.25975197E+02     -4.95661718E+02     -2.55031631E+03
      4.08923544E+02      3.14779209E+02     -6.24780987E+02
     -4.30252225E+02     -7.72283087E+02      1.17222163E+03
      1.73914956E+03     -2.82418489E+02      1.68743174E+03
     -1.89673481E+03      9.89289565E+01     -2.73102385E+02
     -5.44872629E+02      3.61040881E+02      8.45715481E+01
     -3.18878867E+02      1.69619736E+03     -1.16248290E+03
      4.26169864E+02      7.50326291E+02     -7.55570692E+02
      2.92515688E+03     -1.24021905E+03      8.29198735E+02
     -4.58560465E+02      1.21900485E+03     -4.93592126E+02
     -1.98493373E+01      4.09350315E+02      2.67862173E+03
      7.51799053E+02     -6.37096876E+02     -2.21275496E+02
      4.09786162E+02      2.32912575E+02     -5.09259744E+02
     -1.21650834E+03      2.61292691E+03     -3.00119265E+03
     -1.46535229E+03      1.41655330E+03     -1.89836582E+03
      8.97622315E+02     -5.17332336E+02      7.12780956E+01
     -1.48113515E+03     -9.68163280E+02     -7.99200237E+02
      1.67904247E+03      2.56885486E+02      3.06079670E+02
     -9.89912055E+03     -1.83941080E+04      6.01772417E+03
     -5.57836992E+02     -2.94207729E+02     -1.15143330E+03
     -4.13326506E+02     -6.38335846E+02     -1.05032736E+02
     -4.10123467E+01      7.33531153E+01      4.48429029E+02
     -3.01325924E+02      2.26464957E+03      1.72522517E+03
     -1.22962560E+02      3.01564396E+03      8.52290020E+02
     -1.08926059E+02      3.63275331E+02     -1.28214515E+03
     -3.98398451E+02      8.60022427E+02      2.96593463E+01
      2.70266407E+03      9.60161367E+02     -1.11954504E+03
      3.87105548E+02      5.76841165E+02      1.42252401E+02
      3.19413128E+03     -4.85042923E+02     -1.02088646E+03
      1.98767932E+02      3.49550733E+02     -1.20903909E+03
      4.20521588E+02      4.90229126E+02     -5.29194526E+02
     -1.89445019E+03     -4.69568933E+02      1.92423925E+03
     -2.85636368E+02     -8.63173608E+02     -2.84401734E+03
     -3.24886909E+02     -2.47358467E+02      6.81386008E+02
      1.45107518E+03      6.75305595E+02     -4.92341410E+02
      1.53880985E+02      1.90956989E+03     -8.05910563E+02
     -4.35106935E+02     -6.88321436E+02      4.14623911E+02
     -1.08651468E+03      1.53245650E+01      1.33398250E+02
     -1.79403270E+03     -1.78282006E+03      3.04057230E+01
      1.80628181E+03     -1.69618100E+03     -1.12137915E+03
      5.73755530E+02      6.11382980E+02     -2.14745904E+03
      5.98582070E+02     -3.15795150E+01      3.79438738E+01
     -1.08562202E+03     -7.82334255E+02      1.03912943E+03
     -1.36898292E+03      2.10294330E+03     -3.86396892E+02
     -3.09208937E+02     -7.71957373E+02      3.49431949E+02
     -1.73664039E+03     -8.26482728E+02     -1.33263564E+03
     -1.03927430E+03      3.07579904E+03     -4.45656558E+03
      1.28241425E+02     -3.78512930E+02      2.95463997E+02
      9.41125931E+02      3.03750520E+03      1.33397435E+03
      4.21402289E+03     -4.86610970E+02     -1.32791232E+03
      4.77783903E+02      7.32004886E+02      7.03678303E+01
      1.12354628E+03      2.22875059E+03      2.55593281E+03
     -1.84545871E+03     -2.47146873E+03     -1.13137842E+03
      2.11608447E+02     -1.20752493E+02     -6.74585124E+02
     -1.67965333E+03     -3.61442577E+02      1.28880179E+03
     -8.99887654E+02      3.12643048E+02     -2.56941774E+03
     -3.24999785E+01     -6.05577256E+02     -1.51648500E+02
      8.92327825E+02      1.16895322E+03     -5.58414822E+03
     -6.56453281E+02     -1.50713616E+03     -9.15575409E+02
      5.69551935E+01      3.19049197E+02     -7.65082393E+02
     -2.51444563E+03      2.19295998E+02      1.53468095E+03
      3.27489514E+03      3.44224581E+03      2.08487781E+02
      4.81252415E+02      1.93731479E+02     -7.15163743E+02
      1.45616160E+03     -1.51684208E+03      5.85463489E+02
      5.28467112E+02     -1.39350747E+03      2.92490362E+03
     -2.44272742E+02      1.46954701E+02      2.52243683E+02
     -3.08305350E+03     -1.58194326E+03      1.67161790E+03
      6.54607433E+02      1.06933471E+03      8.05903084E+02
     -3.44049714E+02      1.82432654E+02     -1.18792282E+03
     -3.01583230E+02      7.27453479E+02     -2.54223796E+02
      6.61766123E+02      1.81985272E+03      6.94869475E+02
     -3.64804554E+03      5.04696439E+02     -1.40180878E+03
     -5.05636262E+02     -9.80593448E+02      2.28652611E+03
      3.05182401E+02      4.46776213E+02      2.03441377E+02
      1.62934999E+03      6.48407156E+02     -1.06744043E+03
      2.49952288E+03     -6.32133866E+02      1.43967645E+03
      2.89287699E+02      4.06609620E+02      2.73624453E+02
     -1.31953505E+03     -5.46718751E+01      1.31823432E+03
     -9.48265821E+02      2.35081008E+00     -4.14775643E+02
     -7.72142711E+01     -3.13393657E+02     -1.70095190E+02
      3.60932539E+02     -7.91966029E+02     -1.26912138E+02
     -1.21114309E+03      2.06643049E+03     -1.06165689E+03
      2.85674780E+02     -4.25664423E+02     -3.43160751E+02
      1.34689449E+03      1.22312765E+03      2.62159260E+03
     -3.73529112E+03      1.92253775E+03      9.72754580E+00
     -1.14810785E+02      2.02585354E+02      8.06030324E+02
     -2.86133334E+02      1.52546180E+03      1.90759243E+03
     -1.49787112E+03     -9.79160343E+02     -1.83568305E+03
      2.40865357E+02      6.29672098E+02     -8.22265707E+02
      5.03712406E+03      2.30287549E+03      4.71884290E+02
      1.27037939E+03     -2.20615399E+03      3.18126374E+03
      1.35837771E+00      1.53204261E+02      9.58398402E+02
     -4.18538383E+02     -1.84143967E+03      1.79114889E+03
     -1.91021408E+03      1.30101049E+03     -1.93295763E+03
     -3.36396729E+02     -2.50284150E+02     -1.75511578E-01
     -1.93936210E+03      7.95832437E+02      1.36330509E+03
      1.38507532E+03     -7.06664722E+02      4.50704941E+02
      4.96573391E+02     -3.34956951E+02      1.71414054E+02
      1.00594295E+03      8.16035468E+02      2.07402977E+01
     -6.64817892E+02     -9.56243929E+02     -1.10601210E+03
      1.82718987E+03      7.19269494E+02     -8.88624068E+02
      2.84003745E+02     -6.10458320E+02      1.89963208E+02
      1.60745417E+03      1.51296231E+03      5.06992475E+02
     -2.05451639E+03      1.36938045E+03     -2.83374029E+03
      3.22071683E+01     -1.71844625E+03     -6.53419873E+02
  }
}

Hamiltonian = DFTB {
  SCC = Yes
  SCCTolerance = 1e-6
  MaxSCCIterations = 200
  ForceEvaluation = Dynamics
  MaxAngularMomentum = {
    C = "p"
    H = "s"
  }
  Charge = 0.0
  SpinPolarisation = {}
  Eigensolver = Standard {}
  Filling = Fermi {
    Temperature [Kelvin] = 300.0
  }
  SlaterKosterFiles = Type2FileNames {
    Prefix = "../../pbc-0-3/"
    Separator = "-"
    Suffix = ".skf"
    LowerCaseTypeName = No
  }
  KPointsAndWeights = {
    0.0000000000000 0.0000000000000 0.0000000000000 1.00000000000000
  }
  Dispersion = LennardJones { 
    Parameters = UFFParameters {}
  }
}

ParserOptions = {
  ParserVersion = 3
}
