Geometry = GenFormat {
<<< "system.gen"
}

Driver = VelocityVerlet{
  Steps = 100000
  TimeStep [fs] = 0.2
  MDRestartFrequency = 5
  Thermostat = None {
    #InitialTemperature [Kelvin] = 300.0
  }
  Xlbomd{ 
    IntegrationSteps = 6 
    MinSccIterations = 2
    MaxSccIterations = 200
    SccTolerance = 1e-6 
  }
  Velocities [m/s] {
     -9.52986281E+02     -3.31782940E+02     -2.67352925E+02
     -2.00921562E+03      1.02399238E+03      2.06478405E+03
     -2.82022454E+03     -8.72438162E+02      8.18917946E+02
     -8.84286110E+02     -2.63901733E+02     -1.91169005E+02
      5.55237119E+02      1.04200197E+03     -1.33303662E+03
     -7.05422802E+02     -1.41462947E+03     -6.70385046E+02
     -5.65267142E+02     -2.93729124E+02      4.80219486E+00
      2.63490080E+03      1.06148031E+03     -1.64306521E+03
     -4.92525990E+02      4.23908262E+02      9.21170749E+02
      2.23300166E+02     -2.50645894E+02     -3.22779706E+02
      5.59238951E+00      5.19728134E+02      2.50404107E+02
     -1.11604330E+03     -1.13927083E+03      5.33227170E+02
      3.98014539E+02     -7.68769049E+02      7.13862845E+02
      5.68779950E+02      4.76939955E+03      1.77493978E+03
     -7.52258330E+02     -8.59427808E+02      1.27791875E+02
     -1.57573030E+03      4.45292450E+02      3.27866775E+02
     -1.64697960E+03      2.63587773E+02     -2.46594312E+03
      1.63336503E+03     -2.04522957E+03     -6.59183927E+02
     -1.97924488E+01     -1.72863549E+02      7.78717668E+02
     -6.58946539E+02     -3.55361147E+03      9.56394850E+02
     -2.53881323E+03     -4.62227893E+02      1.08840124E+03
     -1.30607517E+03      1.91669683E+02     -6.79993224E+02
     -2.56323360E+01     -1.37528364E+03      5.10489556E+02
      6.16398316E+02     -8.26757317E+02      1.93336127E+03
     -4.62943217E+02     -1.13007535E+03      2.70698454E+02
      1.69682003E+03      1.05625538E+03     -7.96131875E+01
      4.45676770E+02     -1.08765840E+03      9.50923941E+02
      1.06999357E+02      4.51394117E+01      1.99350243E+03
     -3.24365545E+02     -7.31522197E+02     -5.41791090E+01
     -1.05841708E+03      3.37630476E+01     -1.18843466E+03
     -1.66656221E+03      7.33961916E+02      1.72540831E+03
     -3.44577762E+03      1.33525955E+03      3.79016308E+02
     -1.78253345E+02     -2.52192272E+02     -5.26982208E+02
     -5.77738685E+02     -1.51643058E+03      1.52397676E+03
     -9.66695465E+02      5.73005951E+02      1.86553144E+02
     -2.93402946E+02      7.38020541E+01     -1.45461878E+02
      2.01458573E+02      4.87540263E+00     -2.82514891E+03
     -9.26846211E+02     -1.26089204E+03      1.78882598E+03
     -1.06680392E+03     -4.52015826E+02     -2.99423631E+02
      2.65999767E+02     -2.65044758E+03     -5.99843029E+02
     -5.28909748E+02      5.07687706E+02     -9.91419079E+02
     -1.49497842E-01     -5.20003241E+02      3.65423994E+02
     -5.04189166E+02      4.19505821E+02     -1.55390673E+02
      1.11522462E+03      7.94960258E+02     -5.26730861E+02
     -1.97167900E+01      2.35362814E+02     -1.89374767E+02
     -2.18893765E+02      4.40962043E+02      2.31533464E+03
      1.95176658E+03     -2.34842605E+03      1.23424677E+03
     -3.00890566E+02     -1.02376468E+03      6.52376658E+02
      6.34613801E+02     -7.52646760E+01     -6.01730624E+02
     -2.72187286E+02     -4.42361866E+03      2.17110574E+02
      4.68290025E+02     -4.75851669E+02     -5.11576167E+02
      2.06204685E+03      3.10481185E+02     -1.36125428E+01
      5.08494379E+02      1.15557141E+03      1.08007065E+03
      3.12218922E+02     -2.75929811E+02     -4.07221395E+02
      1.67243550E+03     -8.02941702E+02      5.39091843E+02
      7.63980068E+02      5.40512851E+02      1.96576609E+03
      2.69112217E+01     -1.96379692E+02      4.35357249E+02
     -5.02617586E+02     -2.19181989E+03      4.90433050E+02
     -1.63039444E+02      5.32359531E+02     -3.38690477E+03
     -5.95098702E+02      3.27912193E+02     -3.20179385E+02
      1.34456942E+02     -1.90118070E+02      1.82332902E+02
     -6.95220685E+02      1.39003623E+02      1.32627407E+03
     -3.35145186E+02      1.67796028E+03      1.12156151E+03
      8.67704300E+02     -1.66184338E+01     -7.13468638E+02
     -4.71622454E+02      4.94276424E+02      4.91634321E+02
      2.34390497E+03      3.19549026E+02      2.63930648E+01
     -1.69327773E+03     -1.38562443E+03     -1.02137895E+03
     -6.08493097E+02      1.20965093E+03     -1.18150424E+02
      1.54091060E+03      2.17416150E+02      1.59391515E+03
      1.21723907E+03     -4.79221616E+03     -1.30558394E+02
     -1.70562101E+02     -3.90253071E+02     -5.08712852E+02
      5.14715302E+02      1.55223687E+03     -8.07390722E+02
      7.18219136E+02     -4.56496121E+02      7.52382937E+02
      3.96842375E+02      2.52335453E+02      7.49116368E+02
      1.50386071E+03      4.08773314E+02      2.55242195E+02
     -7.45482420E+02     -2.66550646E+03     -1.16312998E+03
     -3.01000134E+02     -3.20339737E+01      3.98911172E+02
     -4.01606924E+02      1.08129230E+03     -6.01098200E+02
     -7.96361901E+02      4.45338002E+02     -3.25302818E+03
     -1.04972481E+02     -1.95934153E+02      6.47413038E+02
     -1.45629065E+03     -2.40668288E+03     -2.63122365E+03
     -2.36839062E+03      1.58169403E+03      2.88519150E+02
     -6.96696233E+02     -3.86009215E+01      5.01815520E+02
      5.85982256E+02      2.28405298E+03     -8.25720790E+02
     -9.60658858E+02      1.88440913E+03      1.49982778E+03
      1.76172347E+02      1.15933587E+01      8.48366467E+02
     -2.45261381E+03      2.90899766E+02     -2.50305062E+03
     -1.35436849E+03     -2.16664535E+03     -4.49718669E+02
      1.68064016E+02     -1.06069316E+02      2.42618608E+02
      2.12189518E+02     -9.11210918E+01     -5.54705532E+02
     -1.75488121E+02     -1.65267361E+03      1.79071761E+03
     -1.70902367E+03     -1.28596758E+03      1.46643381E+03
      6.04707245E+01     -3.14558290E+02      3.87863683E+02
     -4.43450107E+01     -1.68638834E+03      1.13687088E+03
     -1.00478478E+03     -4.45199112E+02      2.71702945E+03
     -1.43257048E+03     -2.11912346E+03      3.93625592E+02
     -3.74415776E+02     -3.08603363E+02     -1.33421189E+02
     -2.38537296E+03      7.64934440E+02     -9.89507058E+02
     -1.58882139E+02      3.75547113E+01      1.84209068E+03
     -1.92229565E+02     -2.40421811E+00      1.18130451E+02
      1.89511682E+03      4.40210365E+02     -9.15734237E+02
      1.00611578E+02      1.80604100E+03      3.76887038E+02
      3.87104281E+01     -1.95182625E+01     -8.21877240E+02
     -3.12470609E+03     -4.65327228E+02      2.50632287E+02
     -8.84853820E+02     -2.65971561E+03     -3.18767574E+02
     -1.16292094E+02     -2.68909115E+02      6.10519351E+02
     -4.95401079E+02     -4.79289994E+02      1.02675605E+03
     -8.71284474E+02      2.73349275E+02     -1.57811587E+03
     -1.12128444E+02     -4.39890574E+02      3.32381728E+02
     -3.02682766E+03     -6.63281157E+02      8.05878534E+02
      8.58950451E+02     -1.09971811E+03      2.37396801E+03
      1.00665445E+03      1.70462476E+02      9.26583286E+02
      6.49973249E+02      1.29230006E+03     -2.43052671E+03
      9.78744634E+02     -1.67220945E+03     -2.95704045E+02
     -1.97076536E+02     -1.02800653E+01      4.36420912E+02
     -2.10721770E+02      3.35928276E+03      6.06921724E+02
     -1.66685387E+02     -1.07942579E+03     -9.15239437E+02
     -9.59276340E+02     -2.41546442E+02      2.52834357E+02
      8.00758489E+02      5.08397919E+02     -2.23601746E+02
     -3.71644037E+03      1.28749675E+03     -1.82386186E+03
     -8.28564376E+02     -6.08405479E+02      6.99716211E+02
      3.89297098E+02      2.59092946E+02     -3.10652799E+02
     -4.30978787E+02     -3.15420852E+02     -1.55599241E+03
      1.37902055E+02     -2.40078962E+03     -8.71072796E+01
      4.11955617E+02     -4.00687446E+02     -5.32069356E+02
     -3.17183641E+02     -1.34748984E+03      3.16040335E+03
     -1.88009215E+03     -7.49625863E+02     -1.34129080E+02
     -6.79996601E+02      6.11338996E+02     -6.03114703E+02
      1.67968569E+04      1.98497830E+04     -1.07389431E+04
      1.45427215E+03      2.86261152E+03     -1.38932604E+03
     -6.12155137E+02      8.51897468E+02      3.35421948E+03
     -2.71177187E+01     -5.07308936E+02      7.55926188E+01
     -1.09845171E+03     -2.43738952E+03     -7.31834346E+02
     -2.20850631E+00      2.34246566E+03      5.92247146E+02
     -2.05631387E+02     -2.97821546E+02      4.88517725E+02
     -2.67012940E+02      1.72806117E+03     -3.62569509E+02
     -2.08744512E+03     -1.47121371E+02      1.71569456E+03
     -1.68249486E+02     -3.50408505E+02      7.79611700E+01
     -5.71945935E+02     -2.97945137E+03      2.36532319E+02
     -1.83590623E+02     -3.39036172E+02      1.66640604E+03
     -2.39198036E+02      5.62559426E+01      4.33902797E+01
     -9.39686785E+02     -2.01870307E+03      1.12968288E+02
     -3.75052357E+03      1.24687455E+03      8.60351545E+02
     -5.56814026E+02      4.94849288E+02      2.07421069E+02
      3.14673600E+03      1.17851279E+03      8.93885970E+02
     -8.36252078E+02     -2.61197398E+03     -2.85230054E+03
      4.72727806E+02     -1.71265610E+02      5.63421365E+01
      1.41177196E+03     -1.85012451E+03     -5.62531436E+02
     -1.99632565E+03      1.31018545E+03      4.61001863E+02
      6.72474658E+02     -1.65674964E+02      6.07313578E+02
     -1.98244123E+03      1.10223071E+03     -1.10318596E+03
     -1.06682952E+03      6.19082279E+01      7.68920002E+02
     -1.41326794E+02     -5.52557259E+02     -1.10647705E+03
      1.06459085E+03     -1.91715541E+02      1.96548745E+03
     -1.82452960E+03     -5.00781159E+02     -1.91782928E+03
      2.32656956E+03      3.38445292E+02      1.97704784E+03
      6.21057155E+01      3.51145311E+02      1.35210384E+01
     -1.36628422E+03      5.35373501E+02      1.75576913E+03
      9.11203268E-01      3.88565312E+02      1.59329604E+03
     -1.80733812E+02      1.41602378E+03     -1.42637110E+03
     -2.99663568E+02     -4.86118666E+02     -2.38100120E+02
      4.54909130E+02     -1.73286822E+03     -3.30012995E+03
      1.52505954E+03     -1.34668220E+02     -5.17487400E+02
     -2.07132557E+02     -5.59354402E+02      1.95471492E+02
      2.51189593E+03      2.03132447E+02      3.09412476E+03
     -1.10438477E+03     -3.47312693E+03     -2.01124290E+03
     -2.68676651E+02      4.82141679E+02      1.68249469E+02
      8.28168528E+02     -2.51691519E+03      7.41216688E+02
     -2.89168633E+03     -1.74839137E+03      1.82287129E+03
      3.09130405E+02     -4.99585468E+02     -8.34728122E+02
      3.04491744E+02     -6.19485696E+02      6.30695160E+02
     -1.83220044E+03     -1.30213825E+03      1.09411067E+03
     -5.21105870E+02     -1.08855029E+02      1.80218527E+02
     -3.29366192E+03      3.30820533E+02      3.70859237E+02
      1.04597097E+03     -5.22492849E+02      5.39494386E+02
      5.96424541E+02     -2.05329196E+02     -2.23342495E+02
     -9.64424035E+02      3.57262954E+03      7.36300772E+02
     -1.46422509E+03     -1.02077310E+03      2.32337510E+03
     -6.41173647E+02     -6.48961900E+02      5.55408500E+02
      5.23866219E+02     -1.34744535E+02      1.96524452E+03
      5.13108643E+02     -2.21744378E+02     -2.23103451E+03
      6.16379674E+02     -7.82487447E+01      1.51988631E+03
     -4.88351578E+02      4.07172188E+03      1.85327825E+03
      1.82624609E+02      8.99802998E+02     -1.31789394E+03
     -1.04027225E+03     -3.19473369E+02      8.12979152E+01
      4.03238095E+02     -4.61992018E+02     -1.15693203E+03
     -9.06478646E+02      5.78340758E+02     -1.42393730E+03
     -1.94632861E+03     -4.03895411E+02     -2.28809853E+02
     -3.96741077E+02     -2.24073219E+02      2.96971477E+02
     -4.54910979E+03     -2.83961121E+03      1.68556822E+02
     -2.26314290E+02     -2.47859016E+03     -2.72555463E+03
      2.09299686E+01      7.43294185E+00     -3.16060753E+02
      2.20790008E+02      3.49785759E+02      5.59482586E+01
      7.06791687E+02      1.47056774E+03      1.71363202E+03
     -3.64705637E+02      4.83289605E+02      1.17603623E+03
     -7.79910734E+02      1.90719625E+02     -1.11716117E+02
      1.62664312E+03      9.91697473E+02      1.62781479E+03
     -5.16633814E+02     -8.83352012E+02     -1.37008633E+03
     -2.80609016E+02      3.53848925E+02      3.76404651E+02
      1.64295279E+03     -2.49044424E+02      4.84145817E+03
     -3.08613001E+02     -1.54478481E+03      1.44610720E+03
     -1.32499723E+02     -3.67127892E+02     -7.33153446E+02
      1.65312597E+03     -4.99793389E+02     -3.93382627E+03
      2.31261201E+03     -8.06585721E+02      1.65931647E+03
     -4.49733628E+02     -4.32538637E+02     -1.01286268E+02
     -1.63712856E+03     -7.68704724E+02      2.10214364E+02
      6.70631966E+02      1.74789152E+03     -9.13493170E+01
     -9.17286634E+02      1.67689006E+02      3.34448719E+01
     -1.68767336E+03      1.24760608E+03     -1.54218514E+03
     -3.22135910E+01      2.31033659E+02      1.28166053E+02
      3.06235931E+02      2.11961640E+02     -2.31533567E+02
      2.26397001E+03      7.67912874E+02     -9.67784847E+02
      2.22617938E+03     -1.22298104E+03      2.50494735E+03
      2.30475595E+02      6.39201580E+02      4.06797180E+02
     -9.43723021E+02     -1.95888496E+03      1.66788566E+02
     -1.50450958E+03      8.03501844E+02     -9.93511009E+01
     -4.90001864E+02     -3.02653045E+02      6.31752154E+02
     -1.49419897E+03     -1.06925307E+03     -6.66307876E+02
      4.89466743E+02     -1.70095312E+02     -3.61579526E+02
      2.05459535E+03      1.53991542E+03     -9.09600481E+02
      2.29349142E+02     -5.77703429E+02     -2.31856851E+02
      1.23520437E+03      4.14404693E+03      3.88593192E+03
      1.24395907E+03     -2.18000868E+03      6.41116986E+02
      1.41688986E+03      1.20369393E+03      2.10771058E+03
     -2.86643770E+02      1.76127274E+02      2.18358379E+02
      1.29384528E+03     -3.09569418E+03     -3.89619970E+02
      1.27671564E+03      2.81378705E+01      1.68433362E+03
     -5.75133862E+02      2.34464076E+02      4.46747702E+02
     -1.14526803E+03     -3.00080009E+02      3.94676074E+02
      1.94844268E+03     -2.85446204E+03     -3.14512464E+02
      5.37552756E+02     -7.13146598E+01      4.88142879E+02
      7.52423809E+02     -6.51777552E+02      7.94981370E+02
      1.53366904E+03     -1.02413161E+03      6.72126080E+02
     -7.12845753E+02     -1.01288007E+03     -9.04406447E+02
      2.51867472E+03     -1.86779181E+03     -2.67926126E+02
     -7.09215958E+02     -1.37619243E+03      2.48064980E+02
     -3.40696739E+02     -6.38733913E+00     -4.89030042E+02
      7.36408639E+02     -7.49278380E+02     -7.79687133E+02
      2.00287169E+03     -1.26826151E+03     -2.00643968E+03
      1.12455009E+02      3.03204593E+02     -8.73062821E+02
     -9.28835609E+02     -5.04108241E+02      5.09446198E+02
      5.31126419E+02     -1.00959675E+03      1.85809895E+03
     -1.90588484E+02      1.28998705E+02      4.01274369E+02
     -1.09368701E+03      2.00376876E+03     -1.41784995E+03
      3.26193878E+03     -4.92487145E+02      5.14176609E+02
     -8.23016853E+02     -1.07172213E+02     -1.35810178E+02
      1.68043818E+03      9.33953148E+01     -2.40480089E+03
      3.47148817E+02      1.18468418E+03      7.63133425E+01
      8.03747442E+02      4.91685936E+02      4.62791480E+02
      2.03023164E+03     -1.24500733E+02     -8.14014043E+02
      7.31766232E+02      1.55598106E+03     -1.70717580E+03
      3.73571596E+03      5.69824117E+02      2.40572945E+03
     -4.69399340E+02      5.82528197E+02     -2.13476617E+02
     -1.11389922E+03      4.91948714E+02      1.53561108E+03
     -3.99614349E+02      1.86926106E+02      1.01675714E+03
     -1.03588609E+03      8.62734228E+02      5.72078325E+02
      3.59259532E+01     -2.10165499E+01     -2.31552710E+02
      1.58518685E+03      7.81518198E+02      3.50586124E+03
     -1.72972540E+03      8.59420754E+02      6.54262356E+02
     -3.60586499E+02     -1.16206627E+03      5.43232885E+02
     -1.28916861E+03     -7.62600427E+02     -9.17341174E+02
      2.47286757E+01     -3.27726553E+03     -1.35602105E+02
      3.30157225E+02     -2.23133640E+02      2.87474725E+02
      2.23077130E+03     -2.05590632E+03      1.85657290E+03
      4.69809227E+02      3.06491224E+03      2.64016289E+02
      3.27865122E+02      1.48920064E+02      5.82047937E+01
      2.65500277E+03     -6.53714414E+02      1.86494114E+01
      1.01748130E+03      9.14955405E+01      1.33948160E+03
      5.84764364E+02     -3.64142472E+02     -7.10592998E+02
      7.90818969E+02      1.55243193E+03      3.06815665E+02
      8.54135818E+02     -1.52490468E+03      1.03368458E+03
      5.84300294E+02     -5.80116625E+02      2.12861247E+02
      1.75741536E+03     -1.72000206E+03      4.06192263E+02
     -1.40138773E+03     -2.42605482E+03      1.23939794E+03
     -4.12685091E+02     -2.09381551E+01      1.51438487E+02
      2.64596546E+02     -7.83564403E+02     -1.05107136E+03
     -1.93794812E+03      9.77433352E+02     -1.36339742E+01
     -4.18019849E+02      7.19766690E+02     -5.26255164E+02
      6.22695371E+01      6.05223968E+02     -8.91193062E+02
     -6.28898975E+02     -2.98942764E+03      1.66082481E+03
     -3.72492822E+02     -7.08172328E+02     -3.70292728E+02
     -1.53698399E+03      8.26446483E+02     -5.21274745E+02
     -1.28391840E+03      2.19376764E+03      1.92543740E+03
     -7.63443764E+02      1.09684781E+03     -6.50166295E+02
      1.44790228E+02     -1.21772681E+02      3.09490872E+02
      8.58632517E+02     -1.45455003E+03     -4.46537859E+03
      1.66871687E+03      1.75772910E+03     -2.72717077E+02
      4.63952557E+02      1.28706928E+02     -1.65446492E+02
      2.36540235E+02     -5.54325140E+02      1.14750738E+03
      3.04078136E+01      2.38994188E+03     -2.57499997E+02
      1.84131387E+03     -4.23661695E+03     -6.49617307E+02
     -2.17226023E+02     -1.12845238E+03      3.79940361E+02
     -2.20622948E+03      9.14718126E+02     -9.51912012E+02
     -9.08002658E+02     -1.72038674E+03     -1.31397692E+02
     -2.19413196E+02     -7.35215224E+02     -7.82778105E+02
     -1.79116517E+02      3.21521168E+03      1.02786868E+03
      1.00547156E+03     -9.24104334E+02      8.55473295E+02
     -4.71566993E+02      7.22637775E+01     -5.93573896E+01
     -1.68618259E+03     -1.35369456E+03     -1.11118070E+03
     -2.01873654E+03     -2.18926669E+03     -1.54889987E+03
      5.34260859E+01     -1.07075558E+03     -2.09501471E+01
      2.12750851E+03     -7.14662327E+02     -1.45473673E+03
     -7.98434258E+02      1.11140906E+03     -2.49552277E+03
     -7.38679468E+02      2.19083089E+01      2.71977600E+02
      2.88629700E+02      7.48044586E+02     -1.71060274E+02
      2.30727730E+03     -1.81080834E+03      1.09990514E+03
     -3.11589171E+02     -5.54131219E+02     -3.73209691E+02
     -4.26743088E+02      1.36516130E+03      1.29816649E+03
     -9.96440874E+02     -6.52512128E+00      9.19003633E+02
      6.55832075E+02     -3.20821105E+02     -5.26432490E+02
     -2.63974227E+03     -1.21525075E+03      2.55513872E+01
      3.41330186E+03     -1.69227078E+03      2.65377119E+02
      2.37400233E+02      8.58852217E+02     -7.62195775E+02
      1.73934369E+03      2.01617382E+02     -1.05993463E+03
      5.36202124E+02      1.05375626E+03     -1.12017500E+02
     -8.85226889E+02     -4.73011194E+02     -1.67360430E+03
      6.00722873E+02     -1.08253211E+02      5.60266646E+02
      8.75264235E+02      1.80755406E+03      1.87339268E+02
     -3.41383717E+02      2.38696294E+02      1.37228040E+03
      1.65870528E+02     -2.28651889E+03     -2.46788739E+03
     -2.47236146E+02      5.74414801E+01      4.06988604E+02
      5.36938730E+02     -4.84286770E+02     -4.92122686E+02
     -2.42230990E+03      2.05289739E+03     -3.11507224E+03
     -7.96876012E+02     -1.66978533E+02      2.49170322E+02
     -1.27334354E+02     -1.57742390E+03     -4.71460328E+02
      2.15423499E+02      1.35738128E+03     -6.35500350E+02
     -1.99599674E+02     -2.60194426E+02     -2.55247872E+01
     -7.60630449E+01     -4.47184835E+02      1.39051763E+03
      1.57893293E+03     -1.90336627E+03     -4.47079792E+02
     -6.87770133E+02     -1.84345430E+02      1.88484465E+02
     -1.25851456E+03      6.49270965E+02     -6.26258469E+02
      9.98570344E+02      4.08502996E+02      3.18151970E+02
      8.95764372E+02      2.26005107E+02      1.98255707E+02
     -1.49657961E+03      1.08715838E+02     -1.30256156E+03
      2.42297067E+03      8.26351129E+02      3.81006309E+02
      2.08764625E+02     -4.99498040E+02      3.64119808E+01
     -1.05996873E+03      5.63485444E+02     -6.49439635E+02
      1.02219676E+03      3.72958681E+02      3.21429705E+03
      1.04856808E+03      6.58537339E+02      9.00505494E+02
     -7.93906125E+02     -9.54564641E+02      1.82229148E+03
      4.21639013E+02     -4.08536476E+02      1.36853821E+03
     -6.12240573E+02      2.33962125E+02      3.45330948E+01
      3.03953231E+02      5.61591593E+02      1.23664192E+03
     -4.26605721E+01     -9.87672685E+02      4.69392348E+02
     -2.16129762E+02      3.22615244E+01      1.50117725E+01
      1.18650517E+03      2.39190880E+03     -5.64987694E+02
     -5.06290493E+01      1.53615207E+02     -2.94416966E+03
      1.76421943E+03      1.16513146E+03     -2.02381240E+02
     -3.91584842E+02     -3.70748096E+02     -3.55986564E+02
     -2.63829139E+03      4.82471543E+01     -4.55275297E+02
      2.23983411E+03     -9.50605354E+01     -1.40946352E+03
      1.31128040E+03      1.88894966E+03      1.34736096E+03
  }
}

Hamiltonian = DFTB {
  SCC = Yes
  SCCTolerance = 1e-6
  MaxSCCIterations = 200
  ForceEvaluation = Dynamics
  MaxAngularMomentum = {
    C = "p"
    H = "s"
  }
  Charge = 0.0
  SpinPolarisation = {}
  Eigensolver = Standard {}
  Filling = Fermi {
    Temperature [Kelvin] = 300.0
  }
  SlaterKosterFiles = Type2FileNames {
    Prefix = "../../pbc-0-3/"
    Separator = "-"
    Suffix = ".skf"
    LowerCaseTypeName = No
  }
  KPointsAndWeights = {
    0.0000000000000 0.0000000000000 0.0000000000000 1.00000000000000
  }
  Dispersion = LennardJones { 
    Parameters = UFFParameters {}
  }
}

ParserOptions = {
  ParserVersion = 3
}
