Geometry = GenFormat {
<<< "system.gen"
}

Driver = VelocityVerlet{
  Steps = 50000
  TimeStep [fs] = 0.2
  MDRestartFrequency = 5
  Thermostat = None {
    #InitialTemperature [Kelvin] = 300.0
  }
  Xlbomd{ 
    IntegrationSteps = 6 
    MinSccIterations = 2
    MaxSccIterations = 200
    SccTolerance = 1e-6 
  }
  Velocities [m/s] {
     -8.33337122E+02     -1.39044850E+02     -4.49916820E+02
      1.20456212E+03     -1.72698653E+03     -2.10461127E+03
      6.72120041E+02     -2.17571009E+03     -2.23013218E+03
      3.71578961E+02      1.98612711E+02     -2.08800795E+02
      4.33339039E+02     -1.38647614E+03      1.94684904E+03
     -1.34783714E+02     -5.11030901E+02      2.35803850E+02
      4.66559196E+01     -3.16054385E+02     -6.98590424E+02
      8.37503244E+02      5.93608560E+02     -1.83556276E+03
      1.61251036E+03     -8.38032457E+02      1.16320682E+03
     -1.96340373E+02      3.49793685E+02      5.68813909E+02
     -1.12455169E+03     -1.80001008E+01     -2.38454004E+02
      1.46465409E+03      2.98729489E+02      1.68535287E+02
     -5.49771929E+02     -2.92847307E+01      6.97100834E+02
     -1.09870104E+03     -5.56139439E+02      1.97879435E+03
     -1.10925205E+03      2.71256664E+03     -8.81266607E+02
     -1.23285491E+03     -2.96770773E+02     -4.51851636E+02
     -1.54582559E+03     -2.47675905E+03     -1.16625753E+03
      4.58677764E+02      1.24809679E+02     -7.90007902E+02
     -9.06710564E+01     -5.91133988E+02      1.22063959E+03
      1.60936698E+03     -2.61166328E+03      2.20549795E+03
      6.48272687E+02     -1.69959652E+03     -5.32527901E+02
      2.96052909E+02     -2.06193538E+02     -6.21280862E+02
      5.49213746E+02     -7.47654149E+01      4.56818540E+01
      1.35613478E+03     -8.60156594E+02      1.48464958E+03
     -1.97591744E+02     -1.00557691E+02      2.78009723E+02
     -1.30372878E+03     -2.17338177E+03      1.79310506E+03
     -1.95504273E+03     -1.37509119E+03     -3.12462819E+02
      9.86280317E+02      3.00636035E+03     -1.06456153E+03
     -5.05329108E+02      3.11746900E+02     -1.07831301E+02
     -1.79027256E+03     -1.46486323E+03     -2.80378233E+03
      1.24108183E+03      3.16809404E+02      1.13608575E+03
     -1.37794161E+03      1.58775630E+03      7.36150104E+02
      6.97028966E+02      4.42658905E+02      6.41026491E+02
      5.36411717E+02     -1.48558968E+03      1.74735098E+01
      1.26351802E+02      4.11358522E+02      5.94434866E+02
     -9.12610077E+02      3.47886950E+02     -3.75245295E+02
      7.47048177E+02     -2.87564120E+02      7.08976995E+02
      8.78313726E+02      2.71765986E+02      2.47793774E+03
      4.56452148E+02     -1.39599384E+02     -7.06012607E+02
     -5.26630046E+02      6.77474595E+02      1.39209889E+02
      3.24520053E+02      1.18561943E+02      7.03806249E+02
     -5.37323581E+02      4.72571971E+01     -3.68283300E+02
      9.49766983E+02      2.80523805E+03     -6.82132495E+02
     -5.09029899E+02     -2.10195127E+03      1.95323252E+02
     -2.19043183E+02      3.60329886E+02     -9.55544118E+02
      5.93259875E+02      1.46550609E+03     -1.15807018E+03
     -8.64933692E+02      5.33549828E+02      7.49447537E+02
      2.63566684E+01      7.08423473E+01     -2.61939318E+02
      4.49435949E+02      1.28101233E+03     -4.24754943E+02
      1.25488639E+03     -1.10594294E+03     -7.74225807E+02
      6.53761701E+02     -1.56361771E+02     -4.47769239E+02
      4.02393814E+02      8.30292487E+02      9.87940487E+02
     -3.04947790E+03      2.35006628E+03      1.61989801E+03
     -3.61429347E+02      7.45983759E+02     -4.16951811E+02
     -1.81826539E+03     -4.27547576E+02      2.44822421E+03
     -1.12054368E+03      7.66158643E+02     -8.42127000E+02
      1.61181115E+02     -5.21368991E+02     -2.50287201E+01
     -2.36030335E+03     -7.68465498E+02     -1.79027118E+03
      1.88346529E+03     -3.57928572E+03     -2.59440332E+02
     -1.24237141E+02     -3.69271314E+02      8.39996858E+02
      3.94944984E+02      3.53061249E+02      3.57236798E+02
      4.80778101E+03      3.62132740E+02     -1.27913786E+03
     -1.26892816E+03      1.38816823E+03      1.89542574E+03
     -1.03045345E+03     -4.29710821E+02     -3.78681153E+03
     -7.26023783E+01     -7.16676017E+02     -6.69269956E+02
     -1.48989633E+02      1.15903361E+03     -4.20251184E+03
     -1.20064149E+03      1.33905921E+03      1.09734106E+03
     -6.56775786E+01      1.99846219E+02     -4.33735964E+02
      3.47790840E+02      1.61384622E+03      9.55491273E+02
     -2.55738597E+03      3.63753916E+03     -9.90695644E+02
      6.45860481E+02     -6.48871290E+02      1.40867182E+02
      1.55614973E+02      2.25475385E+03      1.58796370E+02
      1.79758983E+02     -5.11031777E+03     -2.32170352E+03
     -2.22733428E+02      2.77194749E+02     -6.87670468E+02
     -2.07347023E+02     -1.35763985E+03      8.53682656E+02
     -8.06812662E+01      1.13233065E+02     -1.04268741E+03
     -6.44888896E+01      1.18546657E+02      1.19940798E+02
     -2.49000890E+03      3.44162912E+03     -6.00758226E+02
     -8.13558010E+02     -2.61101832E+03      4.64591502E+03
      9.36938195E+02     -3.14977585E+01     -4.44135222E+02
     -4.56202113E+02      1.15176914E+03      1.19648332E+03
     -2.37211253E+03      2.05681066E+02      5.36983177E+01
      4.83028975E+02      1.22993492E+02     -4.75580904E+02
      2.36879908E+03      1.58424157E+03     -3.68132638E+03
     -1.29061687E+03      2.05135117E+03     -2.64058229E+03
     -2.12525184E+02     -1.48058951E+02      8.10491242E+02
      2.25413907E+03     -6.17885287E+02      1.25009130E+03
      1.01479739E+03     -2.06530910E+03     -2.27512033E+03
     -1.68034241E+02      5.98129942E+02      2.82420682E+02
     -1.95244334E+03     -1.06578154E+03      7.98802641E+02
      5.25835863E+02     -1.14413856E+03     -1.29454012E+03
      2.84511684E+03      6.70560993E+02     -1.08550725E+03
     -1.89024830E+02      5.19434386E+02      1.33902577E+02
     -4.99547943E+02      2.46079597E+03      1.19816629E+03
     -1.83648487E+03      1.17863624E+03     -9.87353447E+02
     -2.81958227E+03      2.36413657E+03      1.81761413E+03
     -3.41922610E+02     -2.61872690E+01      7.66752015E+01
     -2.17015278E+03     -1.70246566E+02     -3.12674341E+03
     -2.47857431E+03     -1.27909392E+03     -2.61404417E+02
     -7.20572206E+02      8.82178703E+02     -4.15132386E+02
      3.76060697E+01      1.75155542E+03      1.64656143E+03
      1.13369684E+03      3.32964374E+02      1.46151445E+03
     -4.24995398E+02     -1.23625140E+02      3.47110284E+01
     -7.67090781E+02     -1.10909273E+03     -2.59487772E+03
     -2.23970999E+03     -2.75686758E+03     -1.19133240E+03
     -4.28863818E+02      7.00061409E+01     -8.31223964E+01
      7.42445140E+01     -8.37410459E+02      3.08168000E+02
      1.98150204E+02      3.39580673E+03     -2.37511246E+03
      5.22028497E+02      4.67608832E+02      1.11705048E+03
     -1.37025578E+03     -1.12302705E+03     -4.31586958E+02
      1.31268507E+03      9.36109582E+02      3.08919947E+01
      4.82350066E+02      1.16056145E+02     -2.69002228E+02
      7.08309711E+01      1.11936712E+03     -5.48779110E+02
      1.01469361E+03      2.43167198E+03     -2.33672751E+03
     -7.33387710E+01      1.11516636E+03      3.49363260E+02
     -1.88697824E+03      1.47041267E+03      1.84473241E+03
     -2.79014135E+03      8.69454891E+02      7.93890092E+02
     -6.46951570E+02     -3.00495230E+02     -2.36490559E+02
      9.29807235E+02      1.26746728E+03      1.02495168E+03
      2.40895872E+01     -1.18026344E+03     -4.70365733E+02
     -1.69028889E+02      4.35549357E+02     -5.71882981E+02
      1.25788648E+03      1.71499297E+03      2.44810040E+03
     -2.65604929E+03      1.19460522E+03     -1.25621952E+03
     -1.78197765E+03     -8.95670227E+02     -1.50848625E+03
      5.62399385E+02      8.52085600E+02     -4.35235851E+02
     -5.56622834E+01      1.39310743E+03      5.57556804E+02
     -4.18492429E+03      1.55645908E+03     -1.59142824E+03
      8.91825041E+02      5.87194276E+02     -1.29137151E+03
     -1.94931135E+02      1.48418390E+02      1.42485915E+02
     -4.57825519E+03     -4.57413684E+02     -4.85652453E+02
     -4.06200798E+02      4.01300719E+02      1.81616997E+03
     -3.08143725E+02      1.59925029E+02     -1.63392077E+01
      1.52728115E+03      3.58852476E+03      1.02163572E+03
     -1.58596476E+03     -7.49898978E+02      7.16018176E+02
     -5.37072057E+02      4.68688927E+02     -9.11297411E+02
      1.86289775E+02     -4.08645825E+02      3.37467053E+03
      2.30349624E+02     -2.95046980E+03      1.89214304E+03
     -1.01350869E+03      3.57675815E+02     -7.74307161E+01
     -1.19484504E+03     -8.22407950E+01      1.47888027E+03
     -6.79218055E+02      2.39440854E+03      3.13489310E+02
     -2.42404193E+02      6.07811990E+02      2.24386188E+03
      1.95970772E+03     -2.06515480E+03      2.72890572E+03
      3.98341339E+02     -1.18970239E+03     -1.73179318E+03
     -4.47341847E+02      8.22707145E+02     -6.03769699E+01
      3.84430657E+02      3.65726590E+02     -1.82286233E+03
     -5.13321063E+02      6.85147774E+02      1.72591745E+03
     -1.88452522E+02     -6.13362358E+02      4.38129531E+02
      6.90677088E+02      2.24877746E+03      2.00913647E+02
      2.94154802E+03     -2.07623032E+03     -6.47563321E+02
     -7.47660161E+02      3.96078907E+02      6.41552874E+02
     -1.43789345E+03      1.06852326E+03     -1.76480613E+03
      2.69552805E+03      2.13879732E+03     -1.15222148E+03
      2.32124456E+01      9.47530400E+02      4.92975636E+02
     -1.06978821E+03     -3.03989108E+03      2.18636171E+03
      1.27452090E+03      1.20141647E+03     -2.19501798E+02
      3.27341846E+02     -1.35591875E+03     -2.28535559E+03
     -1.27065966E+02      4.31513648E+02     -7.69475077E+02
      1.89481012E+03     -1.45429247E+02     -2.28240677E+03
      1.75273442E+03     -1.77610924E+03      2.51155091E+03
     -7.94902586E+02     -1.37774522E+03      5.90451911E+01
     -4.37822856E+02      3.93725357E+01     -5.21194721E+02
      1.69125311E+03     -1.31309195E+03     -9.17247296E+02
     -1.08824101E+03      1.75672296E+03      1.28707547E+03
     -2.03656419E+02      8.27266970E+01     -6.67004372E+02
     -1.08785771E+03     -1.14755362E+03      4.15886780E+03
      1.13571588E+03      1.35441186E+01      5.53795507E+01
     -9.66190708E+01      8.18297833E+02      7.63713246E+02
     -1.91712732E+03      1.30525603E+03      1.21558069E+03
     -9.18519100E+02     -1.57599579E+03      3.22611477E+02
     -1.33828979E+00      6.76534908E+02     -7.51947021E-01
     -1.32566300E+02     -8.99151080E+02     -6.23852958E+02
      1.55844008E+03     -1.52628897E+03      2.27135513E+03
     -6.00834791E+02     -4.13885772E+02      8.27430536E+02
      2.90072637E+02     -1.16011185E+03      6.51082232E+02
     -5.53708184E+01      3.90758172E+01     -6.92441573E+02
      7.70943765E+02      1.47459922E+02      3.91917794E+01
      9.26026984E+02      2.53379042E+03      2.40555453E+03
     -1.05585455E+03     -2.03420683E+02      1.79736988E+03
      7.69249215E+00      6.91653748E+01      3.60224385E+01
      4.34249609E+02     -1.88982368E+03      7.83239278E+02
      2.24748936E+03     -2.38286189E+03      1.40575452E+03
     -4.53187873E+02      2.85946100E+02     -8.47177073E+02
     -5.85761127E+02     -2.25747497E+03      1.98308038E+03
      1.22550254E+02      7.53936468E+01      3.65853709E+02
      5.11133828E+02      5.70899476E+01      3.57961471E+01
     -8.12930009E+02      1.24725358E+03      3.64033532E+02
     -1.82021460E+03      6.54584116E+02     -8.37082965E+02
     -1.34573819E+03     -7.09562320E+01      1.40533158E+03
      2.67707371E+02     -5.11270948E+02     -1.25439667E+02
     -1.61105748E+03     -5.76218995E+02     -5.69774376E+02
     -1.80715768E+03      3.94078561E+02      3.77779833E+02
     -2.21715704E+02     -1.82354092E+03      2.42486042E+03
     -4.32173607E+02      1.11691085E+03     -5.90032208E+02
      1.28530355E+03      7.89793733E+02     -1.34139945E+03
      5.75037914E+02     -3.38253132E+02     -2.29980197E+03
      9.54273516E+02      2.46016848E+02      3.93764527E+02
      8.68820167E+02      1.69555215E+03      2.48534688E+03
     -8.60942537E+02      8.23885131E+02     -7.59558480E+02
      6.18866429E+02      3.66101532E+02      2.17991187E+01
     -8.44608923E+02      1.52277084E+03     -2.65054739E+03
     -4.31978015E+02     -1.62588115E+03      1.42583159E+03
     -4.99469943E+02     -8.76273679E+02      3.98599573E+02
      1.08068505E+03      9.74348248E+02      7.04162825E+02
      1.43943436E+03      9.44862647E+02     -7.24775340E+02
      2.18482970E+02     -1.19175416E+02      1.26420910E+02
     -1.32714134E+03     -3.08456895E+02      4.75302776E+02
     -2.46238216E+03      3.03777117E+03     -8.67957482E+02
     -1.07277727E+02     -1.57888097E+02     -6.00476625E+02
     -2.32001674E+03      1.26420981E+03     -3.10791704E+03
      7.60495182E+01     -2.02205871E+03      3.58211499E+02
     -2.37427813E+02      3.47485810E+02     -2.06612791E+02
     -1.94850811E+03     -2.29912540E+02      7.74146472E+02
      3.02020837E+01      2.57141987E+02      1.08617248E+03
     -5.27453104E+02      5.77845656E+01     -6.79982075E+02
     -1.92998982E+03      1.10214309E+03      4.32888942E+02
      9.91922741E+02     -1.96995337E+03     -3.08223241E+03
     -2.47595364E+02      8.59945816E+01     -3.49808745E+02
      1.57408550E+03      3.28994937E+02     -1.76239206E+03
      1.00951244E+03      1.75807628E+02     -1.59842569E+02
      8.17271890E+02     -6.57218078E+02     -5.15923348E+02
      2.92553223E+01     -5.05826245E+02      3.09373598E+01
      3.99041351E+03     -3.09788417E+02      1.29073246E+03
      1.77284572E+03      1.30171108E+03      9.04023404E+01
     -4.10905973E+02     -2.58482388E+03      1.70847206E+03
      5.24967497E+02      2.92439523E+02     -3.53088560E+01
      4.45530715E+03     -1.46726043E+03     -1.41132852E+03
     -3.61656074E+02      8.21949204E+02     -1.89587270E+03
      7.92774455E+01      7.55813585E+01     -1.13726753E+02
     -1.97962277E+03      1.92977664E+03      1.86415618E+03
     -8.87859147E+02      5.77618217E+02      1.99327753E+03
      4.52150296E+02      6.37013136E+02      1.72224289E+02
     -7.08937226E+01     -3.09084415E+03     -1.72806520E+03
      2.02843662E+03      1.16942005E+03     -2.08674480E+03
      5.49044509E+02     -6.85284142E+01     -4.67933591E+02
     -1.47385368E+03     -2.13751179E+03     -2.03807326E+03
     -2.58851923E+03      1.54611854E+03      5.48125517E+02
      5.38458035E+02      6.39375727E+01     -1.52815510E+02
     -1.45860544E+03     -1.10765530E+03      1.31192750E+03
     -1.60043615E+03      4.20633088E+02      1.62384274E+03
     -1.69431710E+02     -2.43391538E+02     -5.96818547E+01
     -1.09625083E+03     -1.17643005E+03     -1.13438703E+03
      8.30780370E+02     -1.46704933E+03     -1.03262306E+03
     -3.33772933E+02      5.29122841E+02     -6.94773148E+02
     -1.89578383E+01      6.23794342E+01     -3.97234523E+03
      3.32151919E+02      6.79353878E+02      6.81969782E+02
     -6.09519170E+02      4.08585007E+02     -3.05152526E+02
     -8.04246474E+02      3.98139290E+02     -1.43205181E+03
     -1.31807500E+03     -1.28027250E+03      2.98157138E+02
      6.67143153E+02      4.48160844E+02      2.39820392E+02
     -2.43134737E+03      1.42205133E+03      9.97634950E+02
     -6.21231812E+02      2.02973889E+03     -1.08649143E+03
     -1.97946841E+03     -6.96012421E+02     -1.13248170E+03
      1.86369777E+02      3.48764773E+02     -3.18866610E+02
     -1.58804185E+02      3.30974525E+03      2.20832380E+03
     -1.18511963E+03      5.12302249E+02      1.95329920E+03
      1.92304707E+03     -1.14041591E+03      6.45936539E+02
     -3.43837941E+02      2.18997605E+02      8.51431388E+01
      3.67108514E+03      1.78082716E+03      8.52115042E+02
      2.46591968E+03     -2.22390496E+02     -1.39848593E+03
     -4.37866074E+02      1.13931087E+02      1.94667429E+02
      2.08827008E+03     -1.78976350E+02     -7.84810354E+01
     -1.96973839E+03     -2.08774892E+03     -5.72316874E+02
     -5.32418459E+02     -2.50697873E+02      2.88188369E+01
      1.98448619E+03     -3.67614292E+02     -1.60242474E+03
      2.19731547E+03      1.52133366E+03      2.79055694E+03
      2.74460763E+02      3.64483615E+02      8.86354624E+02
     -4.11482884E+03      1.26662942E+03     -1.55945333E+03
     -4.90388267E+02     -1.21999159E+03     -4.64680963E+02
     -4.42564538E+02      7.48069733E+02      3.57033770E+02
      2.46781589E+03     -6.26492637E+01      1.04032243E+03
     -1.22086523E+03      5.41134238E+02      2.33007973E+03
      7.77367835E+01      2.28024044E+02      3.13308189E+02
      2.65829580E+03     -1.69362151E+03      1.81895972E+03
     -1.03691993E+03      1.91099348E+03     -2.66983143E+03
      7.00377166E+01      9.46856180E+01     -5.06964257E+02
      8.87700985E+01     -1.03040524E+03      1.04447064E+03
     -6.12089492E+02      1.70801205E+03     -1.14387693E+03
     -1.52057874E+02      4.02041611E+01     -3.70752177E+02
      2.14847158E+02     -1.25863692E+03      1.21835674E+03
      1.93300870E+03      2.55206991E+03     -4.54191268E+02
     -2.09768210E+02      8.85747630E+02     -3.01528341E+02
      1.72165544E+03      7.40156130E+02     -1.23685889E+03
     -4.55023916E+02     -2.44235016E+03      1.23437649E+03
      1.59082662E+03     -4.56255100E+02      1.84430070E+03
      9.20938597E+02     -2.92051668E+01      2.29933138E+02
     -3.94943118E+02     -7.62336483E+02     -1.40187328E+03
     -8.80040546E+02     -2.84290648E+03     -4.96882313E+02
      2.08006793E+02      5.28359609E+01     -2.11446422E+03
     -4.26375698E+02      2.48868739E+02      4.71659294E+02
      7.87043152E+02      1.95630924E+03     -2.15925821E+03
      2.13027103E+02      1.75412468E+03     -8.66419458E+02
     -2.31837949E+02      7.42202781E+02      2.38319201E+00
      4.75676883E+02      3.22014915E+03     -5.85873553E+02
      1.40424958E+03     -7.78102941E+02      4.33961103E+02
     -6.23542481E+02     -1.40919656E+02     -2.17068632E+01
      2.07768606E+03     -2.70535140E+03      2.10494938E+03
     -1.21446541E+03     -1.10707318E+03     -3.34819954E+03
      7.13750144E+02     -3.08140179E+02      1.77998659E+02
      7.79830219E+01      5.29962659E+02      1.83000124E+03
     -1.78454349E+03      1.78710279E+03     -3.25387103E+03
      5.15120830E+02     -1.26583459E+03     -5.80341215E+01
     -1.16889311E+03     -3.01849057E+03     -2.91771170E+03
      3.49010888E+03      1.06526644E+03     -1.39048143E+02
     -2.54302169E+01     -3.04734992E+02     -1.93354540E+01
     -4.66915461E+02      1.12485726E+03      8.00682787E+02
     -2.19282349E+03     -3.91904950E+02      2.11057899E+02
      3.84049139E+02      8.80938715E+01      6.68905667E+02
      4.26481730E+02      9.68658693E+02     -8.88200412E+02
      4.52996629E+02      1.53726871E+03     -2.97108635E+03
     -3.79763720E+02      3.41266877E+02      1.83984572E+02
      2.36201878E+03     -1.30785984E+03     -3.67467238E+02
      1.31217411E+02      7.78356833E+01     -6.95087268E+02
      1.32101232E+02      5.39111414E+02      3.22389759E+02
     -1.72522401E+03      2.24470805E+03     -1.89885704E+03
     -2.70645409E+03      1.01623417E+03     -1.20856442E+03
      1.94251857E+02      7.16942240E+02      6.29303156E+02
     -1.68630466E+02      1.43457132E+03      2.54013980E+02
     -8.35341751E+02      1.83961675E+03     -2.19661960E+03
      4.00585294E+03     -1.12490890E+03     -1.35409278E+02
     -4.00307240E+03      3.39857639E+03      2.36648606E+02
     -7.04334119E+02      9.58698184E+01      3.37636304E+02
     -4.34884618E+03      1.53814345E+03      2.49101017E+02
      7.10625722E+02     -1.30061446E+03      1.47476238E+03
      2.12943630E+02      7.77391501E+01     -1.79150811E+02
     -3.99194533E+03     -2.09674773E+03     -2.76018674E+02
     -7.91835687E+02     -1.20922657E+03      1.84065823E+03
      7.67781717E+01     -1.23591889E+02     -2.79330818E+02
     -1.27189024E+03     -1.90035955E+02     -8.55461920E+02
     -1.01001230E+03      1.38748370E+03      4.09854523E+03
      5.04841264E+01      5.25453127E+02      4.60858342E+02
      3.36769597E+03     -2.34149369E+03     -2.31892475E+03
      1.46495725E+03     -1.05583905E+03      1.75637011E+03
     -3.20150517E+01      8.24900167E+02      6.75475719E+02
     -5.92975372E+01      1.56805410E+03      8.56975693E+01
     -3.24318209E+02      2.00279060E+03     -9.87728667E+02
     -6.54646083E+01      3.37685277E+02     -4.55572695E+02
     -1.47106969E+03     -2.67006307E+02     -1.65052945E+03
      5.54338116E+02      3.32186610E+02      6.23642688E+02
     -6.35347876E+02     -3.90838904E+02     -6.45389890E+01
     -5.25670721E+02     -1.10124609E+03      1.64930682E+03
     -1.34044586E+03      2.12480589E+03     -1.15077357E+02
      9.35978844E+03     -1.90829982E+04      4.65249029E+03
      1.47540459E+03     -1.22574088E+03     -1.65019055E+02
      5.91245444E+02      3.51091489E+02     -3.93036712E+02
      4.34214931E+02      1.62753536E+02     -7.76869236E+02
     -2.05003233E+03     -1.72111680E+03     -1.44554134E+03
      1.08268077E+03     -8.11918900E+02     -7.50330198E+02
      2.74190409E+03      5.09818956E+01     -2.64891504E+02
     -2.77243752E+02      1.41367535E+01     -3.25955953E+02
     -4.09589598E+02      2.47240622E+03     -9.45108465E+02
     -2.80297918E+03      7.99043293E+02     -2.58171625E+03
     -1.02482887E+03     -1.34829196E+03      1.00093444E+03
  }
}

Hamiltonian = DFTB {
  SCC = Yes
  SCCTolerance = 1e-6
  MaxSCCIterations = 200
  ForceEvaluation = Dynamics
  MaxAngularMomentum = {
    C = "p"
    H = "s"
  }
  Charge = 0.0
  SpinPolarisation = {}
  Eigensolver = Standard {}
  Filling = Fermi {
    Temperature [Kelvin] = 300.0
  }
  SlaterKosterFiles = Type2FileNames {
    Prefix = "../../pbc-0-3/"
    Separator = "-"
    Suffix = ".skf"
    LowerCaseTypeName = No
  }
  KPointsAndWeights = {
    0.0000000000000 0.0000000000000 0.0000000000000 1.00000000000000
  }
  Dispersion = LennardJones { 
    Parameters = UFFParameters {}
  }
}

ParserOptions = {
  ParserVersion = 3
}
