Geometry = GenFormat {
352  S
C  H
1 1    0.4243508736E+02    0.2890726794E+02    0.3538807206E+02
2 2    0.4347786037E+02    0.2860265227E+02    0.3552088663E+02
3 2    0.4215287308E+02    0.2846049725E+02    0.3438041078E+02
4 1    0.4152446822E+02    0.4370008865E+02    0.3650427324E+02
5 2    0.4062409427E+02    0.4435058349E+02    0.3649876405E+02
6 2    0.2657873413E+02    0.4411202723E+02    0.3746035055E+02
7 1    0.4134939668E+02    0.4214188447E+02    0.3658389702E+02
8 2    0.2527640912E+02    0.4189308992E+02    0.3582910374E+02
9 2    0.4092871618E+02    0.4192748602E+02    0.3762680129E+02
10 1    0.2721573266E+02    0.4131544779E+02    0.3612088806E+02
11 2    0.2796628881E+02    0.4144991893E+02    0.3692258150E+02
12 2    0.2768152033E+02    0.4175944261E+02    0.3525532620E+02
13 1    0.4219712969E+02    0.3987564754E+02    0.3568078425E+02
14 2    0.4105826412E+02    0.3968968919E+02    0.3574975239E+02
15 2    0.4259590747E+02    0.3905349018E+02    0.3625455058E+02
16 1    0.2732244238E+02    0.3990063023E+02    0.3426213045E+02
17 2    0.2692742869E+02    0.4081659427E+02    0.3372462175E+02
18 2    0.2685109517E+02    0.3910938823E+02    0.3368172092E+02
19 1    0.4416438913E+02    0.3973392670E+02    0.3399260866E+02
20 2    0.4481322863E+02    0.4045602074E+02    0.3456116565E+02
21 2    0.4443414738E+02    0.4001030400E+02    0.3295755732E+02
22 1    0.4476921614E+02    0.3834291994E+02    0.3435316081E+02
23 2    0.2923122848E+02    0.3830648993E+02    0.3548849100E+02
24 2    0.3048497187E+02    0.3850670273E+02    0.3426098164E+02
25 1    0.4232379357E+02    0.3045758692E+02    0.3525258562E+02
26 2    0.4308493852E+02    0.3093984821E+02    0.3586150404E+02
27 2    0.4256334422E+02    0.3070725955E+02    0.3419131983E+02
28 2    0.4134681254E+02    0.3082245992E+02    0.3560836184E+02
29 1    0.4442533884E+02    0.3722394002E+02    0.3339345691E+02
30 2    0.4457875703E+02    0.3745903881E+02    0.3231306011E+02
31 2    0.4518354441E+02    0.3636076752E+02    0.3352132221E+02
32 2    0.4347237803E+02    0.3671861941E+02    0.3359047645E+02
33 1    0.2647056974E+02    0.3300344975E+02    0.3140954758E+02
34 2    0.2601013001E+02    0.3264683254E+02    0.3046147707E+02
35 2    0.2596451771E+02    0.3259481905E+02    0.3227936545E+02
36 1    0.2800874344E+02    0.3273620341E+02    0.3146982065E+02
37 2    0.2849878534E+02    0.3314138239E+02    0.3242401181E+02
38 2    0.2853271074E+02    0.3339917863E+02    0.3075658418E+02
39 1    0.2833853027E+02    0.3127038682E+02    0.3125114063E+02
40 2    0.2817086190E+02    0.3090489077E+02    0.3221983659E+02
41 2    0.2943738690E+02    0.3130837127E+02    0.3103098706E+02
42 1    0.2767262666E+02    0.3038630769E+02    0.3013747515E+02
43 2    0.4196464670E+02    0.3009159270E+02    0.3039620478E+02
44 2    0.2816499152E+02    0.2942787107E+02    0.3027078828E+02
45 1    0.2773992307E+02    0.3093773310E+02    0.2870266921E+02
46 2    0.2874001194E+02    0.3109768216E+02    0.2839068178E+02
47 2    0.4253457905E+02    0.3190202010E+02    0.2858447116E+02
48 1    0.4254480189E+02    0.2971298960E+02    0.2786041003E+02
49 2    0.4149727384E+02    0.2943930809E+02    0.2813254241E+02
50 2    0.4311296957E+02    0.2873314295E+02    0.2810505669E+02
51 1    0.2720991738E+02    0.2982375351E+02    0.2631603304E+02
52 2    0.2661749866E+02    0.2895679177E+02    0.2591864008E+02
53 2    0.2821141193E+02    0.2969470508E+02    0.2592234300E+02
54 1    0.4189375541E+02    0.3114178265E+02    0.4111016577E+02
55 2    0.4223461889E+02    0.3207017343E+02    0.4154527080E+02
56 2    0.4080841795E+02    0.3121070692E+02    0.4136425927E+02
57 1    0.2642206903E+02    0.3450213260E+02    0.3137294620E+02
58 2    0.2687311259E+02    0.3490787023E+02    0.3045543107E+02
59 2    0.2535844729E+02    0.3484080990E+02    0.3121665972E+02
60 2    0.2675928394E+02    0.3514621240E+02    0.3229012622E+02
61 1    0.2673767250E+02    0.3118767480E+02    0.3957841607E+02
62 2    0.2665307529E+02    0.3009101341E+02    0.3930090227E+02
63 2    0.2594116462E+02    0.3172551440E+02    0.3916574314E+02
64 2    0.2768216419E+02    0.3164368006E+02    0.3921567545E+02
65 1    0.3548235532E+02    0.4028228838E+02    0.3499659921E+02
66 2    0.3464056242E+02    0.3954534973E+02    0.3505960620E+02
67 2    0.3552262240E+02    0.4064724841E+02    0.3387676449E+02
68 1    0.3522290161E+02    0.4161257978E+02    0.3576567936E+02
69 2    0.3532678353E+02    0.4149602823E+02    0.3695156575E+02
70 2    0.3414532022E+02    0.4195477628E+02    0.3565644589E+02
71 1    0.3599821964E+02    0.4267725414E+02    0.3502503982E+02
72 2    0.3568984957E+02    0.4252406033E+02    0.3398507583E+02
73 2    0.3712550498E+02    0.4261600069E+02    0.3503616526E+02
74 1    0.3581363400E+02    0.2880264774E+02    0.3559091323E+02
75 2    0.3654003719E+02    0.2896045521E+02    0.3642002428E+02
76 2    0.3486184796E+02    0.2895963544E+02    0.3588104083E+02
77 1    0.3596802964E+02    0.2976723853E+02    0.3438959848E+02
78 2    0.3579503008E+02    0.4610769631E+02    0.3470641925E+02
79 2    0.3515938028E+02    0.4477361342E+02    0.3369872294E+02
80 1    0.3732088255E+02    0.2981975594E+02    0.3366113266E+02
81 2    0.3711381791E+02    0.3034695629E+02    0.3268556816E+02
82 2    0.3767690395E+02    0.2883378613E+02    0.3319849839E+02
83 1    0.3844297477E+02    0.3061308409E+02    0.3447300160E+02
84 2    0.3937065952E+02    0.3008012691E+02    0.3417929360E+02
85 2    0.3828667368E+02    0.3039263211E+02    0.3563020487E+02
86 1    0.3868834906E+02    0.3219063244E+02    0.3420321841E+02
87 2    0.3941998892E+02    0.3227809929E+02    0.3341642551E+02
88 2    0.3928197910E+02    0.3245923543E+02    0.3510972080E+02
89 1    0.3676652892E+02    0.3953867036E+02    0.3525063425E+02
90 2    0.3752500270E+02    0.4011834105E+02    0.3572991042E+02
91 2    0.3673114161E+02    0.3868501428E+02    0.3587039497E+02
92 2    0.3716166881E+02    0.3929780805E+02    0.3424127644E+02
93 1    0.3764140071E+02    0.3316382726E+02    0.3390112835E+02
94 2    0.3699581913E+02    0.3281989910E+02    0.3306044283E+02
95 2    0.3679075088E+02    0.3306497232E+02    0.3462649774E+02
96 2    0.3795748231E+02    0.3410315449E+02    0.3356554947E+02
97 1    0.3308814535E+02    0.3746944663E+02    0.4238493334E+02
98 2    0.3209877226E+02    0.3798719363E+02    0.4240305272E+02
99 2    0.3371398850E+02    0.3793834320E+02    0.4317477167E+02
100 1    0.3251076458E+02    0.3622332699E+02    0.4310965263E+02
101 2    0.3329452597E+02    0.3534662988E+02    0.4304562019E+02
102 2    0.3144422850E+02    0.3593199802E+02    0.4251986885E+02
103 1    0.3208448572E+02    0.3647683953E+02    0.4457818651E+02
104 2    0.3184550178E+02    0.3747307018E+02    0.4481880745E+02
105 2    0.3299826366E+02    0.3617337036E+02    0.4501945380E+02
106 1    0.3092254285E+02    0.3562769991E+02    0.2949370576E+02
107 2    0.3083411353E+02    0.3468715322E+02    0.2883476848E+02
108 2    0.3006567931E+02    0.3608529823E+02    0.2899158079E+02
109 1    0.3073409275E+02    0.3536064542E+02    0.3099180572E+02
110 2    0.2971097569E+02    0.3555029060E+02    0.3153713311E+02
111 2    0.3122907458E+02    0.3624035482E+02    0.3142454577E+02
112 1    0.3158640591E+02    0.3403959127E+02    0.3151756179E+02
113 2    0.3075339115E+02    0.3315608527E+02    0.3137366272E+02
114 2    0.3177067346E+02    0.3407092554E+02    0.3252251244E+02
115 1    0.3294985137E+02    0.3370927309E+02    0.3086828919E+02
116 2    0.3332384057E+02    0.3449264940E+02    0.3019406331E+02
117 2    0.3304596990E+02    0.3264770429E+02    0.3059837141E+02
118 1    0.3402258718E+02    0.3406134227E+02    0.3200478846E+02
119 2    0.3357544729E+02    0.3421715388E+02    0.3304082312E+02
120 2    0.3449641460E+02    0.3510979451E+02    0.3168306448E+02
121 1    0.3374048810E+02    0.3744049563E+02    0.4102858073E+02
122 2    0.3481185112E+02    0.3738754025E+02    0.4117513755E+02
123 2    0.3356199277E+02    0.3652306535E+02    0.4054344706E+02
124 2    0.3342087956E+02    0.3829405558E+02    0.4026686014E+02
125 1    0.1859478276E+02    0.3813697475E+02    0.3217393334E+02
126 2    0.1750595522E+02    0.3809274561E+02    0.3242092574E+02
127 2    0.1871516185E+02    0.3830806649E+02    0.3309189444E+02
128 2    0.1868369345E+02    0.3725087501E+02    0.3214879271E+02
129 1    0.3280798851E+02    0.4361258880E+02    0.3175640982E+02
130 2    0.3334342793E+02    0.4302678047E+02    0.3258924967E+02
131 2    0.3295040398E+02    0.4308498114E+02    0.3076105237E+02
132 1    0.3115330956E+02    0.4373309469E+02    0.3184250591E+02
133 2    0.3081035092E+02    0.4362192199E+02    0.3075545335E+02
134 2    0.3067980038E+02    0.4457565218E+02    0.3229614776E+02
135 1    0.3055287314E+02    0.4257317375E+02    0.3244950190E+02
136 2    0.3065964153E+02    0.4240199898E+02    0.3354062145E+02
137 2    0.3100736214E+02    0.4161642069E+02    0.3213710380E+02
138 1    0.2904649117E+02    0.4247590328E+02    0.3212690902E+02
139 2    0.3468319394E+02    0.3324842604E+02    0.3208969638E+02
140 2    0.2831084929E+02    0.4301095737E+02    0.3283998546E+02
141 1    0.2845316787E+02    0.4173176920E+02    0.3116504355E+02
142 2    0.3427379988E+02    0.3901241173E+02    0.3159136661E+02
143 2    0.2922223535E+02    0.4117758053E+02    0.3055921957E+02
144 1    0.2701871679E+02    0.4142341066E+02    0.3094216024E+02
145 2    0.2636193928E+02    0.4232243481E+02    0.3094470246E+02
146 2    0.2662343151E+02    0.4079939299E+02    0.3178166658E+02
147 1    0.2683667261E+02    0.4067874640E+02    0.2955891897E+02
148 2    0.2735745311E+02    0.4127097405E+02    0.2876420091E+02
149 2    0.2572580176E+02    0.4068165288E+02    0.2939700955E+02
150 1    0.2748114275E+02    0.3919018004E+02    0.2944453799E+02
151 2    0.2860004589E+02    0.3923747679E+02    0.2982077717E+02
152 2    0.2771795428E+02    0.3894867667E+02    0.2844775596E+02
153 1    0.3353462972E+02    0.4496511505E+02    0.3160464740E+02
154 2    0.3466382731E+02    0.2933658502E+02    0.3155982213E+02
155 2    0.3306777814E+02    0.4548274157E+02    0.3067868625E+02
156 2    0.3344052679E+02    0.4577754619E+02    0.3234046555E+02
157 1    0.2673741398E+02    0.3809136801E+02    0.3013705610E+02
158 2    0.2663010426E+02    0.3819841443E+02    0.3121511859E+02
159 2    0.2569693132E+02    0.3804630298E+02    0.2991331012E+02
160 2    0.2722101975E+02    0.3716252612E+02    0.2997317338E+02
161 1    0.3622091375E+02    0.2676249417E+02    0.2987549948E+02
162 2    0.3634852078E+02    0.2588806522E+02    0.2916683171E+02
163 2    0.3519435585E+02    0.2711006812E+02    0.3007449767E+02
164 1    0.3698334864E+02    0.2652326826E+02    0.3111782510E+02
165 2    0.3654305604E+02    0.2560877173E+02    0.3155589275E+02
166 2    0.3657767369E+02    0.2723873761E+02    0.3195290283E+02
167 1    0.3857083405E+02    0.2658066530E+02    0.3112953818E+02
168 2    0.3882571368E+02    0.2764435911E+02    0.3155719674E+02
169 2    0.3892427217E+02    0.2655319855E+02    0.3007581727E+02
170 1    0.3922531661E+02    0.2554660900E+02    0.3204779838E+02
171 2    0.3868066514E+02    0.2561658067E+02    0.3300907761E+02
172 2    0.4032250272E+02    0.2573187200E+02    0.3209305497E+02
173 1    0.3910552966E+02    0.3935936752E+02    0.3153385273E+02
174 2    0.3966190816E+02    0.3867194529E+02    0.3217008458E+02
175 2    0.3967351999E+02    0.2381364855E+02    0.3057655747E+02
176 1    0.3758906210E+02    0.3877028054E+02    0.3136939532E+02
177 2    0.3744230393E+02    0.3910840445E+02    0.3026070467E+02
178 2    0.3685544171E+02    0.3934543037E+02    0.3191334581E+02
179 1    0.3752127696E+02    0.3724115666E+02    0.3148557630E+02
180 2    0.3650829361E+02    0.3707430842E+02    0.3187421955E+02
181 2    0.3841940062E+02    0.3686507548E+02    0.3196614516E+02
182 1    0.3737855237E+02    0.3641159025E+02    0.3002492916E+02
183 2    0.3717229456E+02    0.3541313018E+02    0.3022045861E+02
184 2    0.3834036348E+02    0.3666014716E+02    0.2943271525E+02
185 1    0.3686240324E+02    0.2793649497E+02    0.2896473667E+02
186 2    0.3634073675E+02    0.2829952691E+02    0.2800164422E+02
187 2    0.3715552725E+02    0.2888458138E+02    0.2959219403E+02
188 2    0.3783565056E+02    0.2761812808E+02    0.4384053925E+02
189 1    0.3622824555E+02    0.3684986886E+02    0.2906862785E+02
190 2    0.3591644403E+02    0.3787562858E+02    0.2919978817E+02
191 2    0.3642872632E+02    0.3675157129E+02    0.2796160908E+02
192 2    0.3545217243E+02    0.3606296424E+02    0.2921276762E+02
193 1    0.3938761109E+02    0.2429830899E+02    0.4206165853E+02
194 2    0.4010436977E+02    0.2344724388E+02    0.4170877998E+02
195 2    0.3978601835E+02    0.3996158662E+02    0.4310960062E+02
196 1    0.3971605427E+02    0.2551510363E+02    0.4113591265E+02
197 2    0.3934701231E+02    0.2647783434E+02    0.4148638830E+02
198 2    0.3922395215E+02    0.4076495969E+02    0.4013686685E+02
199 1    0.4108573594E+02    0.2570690192E+02    0.4047211361E+02
200 2    0.4169840289E+02    0.2608091551E+02    0.4127113150E+02
201 2    0.4093664707E+02    0.2660821633E+02    0.3986175181E+02
202 1    0.4152404306E+02    0.2444175690E+02    0.3973644944E+02
203 2    0.4106700143E+02    0.2437935861E+02    0.3873719937E+02
204 2    0.4115447858E+02    0.2363250444E+02    0.4035271916E+02
205 1    0.4304210761E+02    0.2412735877E+02    0.3954410559E+02
206 2    0.4336774240E+02    0.2497797081E+02    0.3885820382E+02
207 2    0.4313574730E+02    0.2314223807E+02    0.3903283271E+02
208 1    0.4393068933E+02    0.2394922176E+02    0.4083085800E+02
209 2    0.4343176756E+02    0.2452359694E+02    0.4170811114E+02
210 2    0.4479981124E+02    0.2460582098E+02    0.4067927930E+02
211 1    0.4458762160E+02    0.3789896626E+02    0.4105743552E+02
212 2    0.4506835771E+02    0.3796748851E+02    0.4213873477E+02
213 2    0.4535551224E+02    0.3782952479E+02    0.4032637526E+02
214 1    0.4353445391E+02    0.3671336250E+02    0.4108380580E+02
215 2    0.4355989517E+02    0.3633827588E+02    0.4000384671E+02
216 2    0.4255010949E+02    0.3717193037E+02    0.4120195894E+02
217 1    0.3776840839E+02    0.2407840617E+02    0.4201961284E+02
218 2    0.3759192728E+02    0.2299929450E+02    0.2647205897E+02
219 2    0.3733498929E+02    0.2460400302E+02    0.2759970658E+02
220 2    0.3725431835E+02    0.2460372133E+02    0.4123795464E+02
221 1    0.4373221721E+02    0.3555245794E+02    0.4213670849E+02
222 2    0.4448293232E+02    0.3480197631E+02    0.4195019386E+02
223 2    0.4390961424E+02    0.3603608544E+02    0.4310706086E+02
224 2    0.4281223298E+02    0.3487044857E+02    0.4230036984E+02
225 1    0.3295365470E+02    0.4217092580E+02    0.4166113922E+02
226 2    0.3309301767E+02    0.4297367971E+02    0.4239470298E+02
227 2    0.3256170194E+02    0.4134589451E+02    0.4227692038E+02
228 1    0.3198789770E+02    0.2719511114E+02    0.4054597131E+02
229 2    0.3092626155E+02    0.2733633171E+02    0.4096569123E+02
230 2    0.3200613531E+02    0.2643673731E+02    0.3974413129E+02
231 1    0.3236458642E+02    0.4399575300E+02    0.3985678558E+02
232 2    0.3271099578E+02    0.4455047735E+02    0.4074397506E+02
233 2    0.3140033360E+02    0.4451682397E+02    0.3960512115E+02
234 1    0.3345925911E+02    0.4406933999E+02    0.3882113387E+02
235 2    0.3359593133E+02    0.4314672641E+02    0.3809163704E+02
236 2    0.3442366817E+02    0.4407167584E+02    0.3945804208E+02
237 1    0.3350147122E+02    0.4542619265E+02    0.3812700995E+02
238 2    0.3456380300E+02    0.4538457931E+02    0.3781351666E+02
239 2    0.3328960140E+02    0.3091665990E+02    0.3880111596E+02
240 1    0.3255947269E+02    0.4537955617E+02    0.3697955002E+02
241 2    0.3158121907E+02    0.2990736932E+02    0.3743224193E+02
242 2    0.3266630383E+02    0.2916382275E+02    0.3640234695E+02
243 1    0.3263569447E+02    0.4659310952E+02    0.3618778961E+02
244 2    0.3375209981E+02    0.4675952985E+02    0.3604304424E+02
245 2    0.3209939715E+02    0.4755479971E+02    0.3667241452E+02
246 1    0.3180151995E+02    0.4648832287E+02    0.3477984819E+02
247 2    0.3242256429E+02    0.4578416960E+02    0.3413576505E+02
248 2    0.3176850863E+02    0.4745864089E+02    0.3420451473E+02
249 1    0.3426034105E+02    0.2644392168E+02    0.4108287155E+02
250 2    0.3430552634E+02    0.2578162044E+02    0.4019502407E+02
251 2    0.3475950618E+02    0.2732081269E+02    0.4066901375E+02
252 2    0.3496584543E+02    0.2591284369E+02    0.4168135629E+02
253 1    0.3033066189E+02    0.4609345184E+02    0.3482662287E+02
254 2    0.3020027462E+02    0.4502576575E+02    0.3451535513E+02
255 2    0.3002117962E+02    0.4628801223E+02    0.3585403539E+02
256 2    0.2962034663E+02    0.4654621472E+02    0.4958910740E+02
257 1    0.3873425268E+02    0.3357510977E+02    0.4350248322E+02
258 2    0.3923921458E+02    0.3443767250E+02    0.4415739774E+02
259 2    0.3759337962E+02    0.3365001602E+02    0.4362852311E+02
260 1    0.3917551510E+02    0.3379476177E+02    0.4212553879E+02
261 2    0.3888028180E+02    0.3299764193E+02    0.4144022675E+02
262 2    0.4025033875E+02    0.3359649090E+02    0.4196865684E+02
263 1    0.3890208715E+02    0.3517531223E+02    0.4148450610E+02
264 2    0.3911423610E+02    0.3598661772E+02    0.4216406853E+02
265 2    0.3774802137E+02    0.3525967054E+02    0.4145402900E+02
266 1    0.3951949222E+02    0.3530890842E+02    0.4008096791E+02
267 2    0.3892081362E+02    0.3464526267E+02    0.3940418366E+02
268 2    0.4056930672E+02    0.3512706393E+02    0.4001981389E+02
269 1    0.3934838453E+02    0.3683233059E+02    0.3955417784E+02
270 2    0.3967431697E+02    0.3737486750E+02    0.4050195762E+02
271 2    0.3825100090E+02    0.3693404537E+02    0.3948406721E+02
272 1    0.4000222696E+02    0.3719721991E+02    0.3823280702E+02
273 2    0.4094159467E+02    0.3677258898E+02    0.3810426204E+02
274 2    0.4001488468E+02    0.3832935718E+02    0.3802415717E+02
275 1    0.3917334671E+02    0.3662249570E+02    0.3713398743E+02
276 2    0.3818000153E+02    0.3681756749E+02    0.3741104411E+02
277 2    0.3935867285E+02    0.3550953035E+02    0.3710694224E+02
278 1    0.3948153382E+02    0.3719325272E+02    0.3573006683E+02
279 2    0.3938229794E+02    0.3827988758E+02    0.3577860213E+02
280 2    0.3858272492E+02    0.3675318319E+02    0.3514429527E+02
281 1    0.3901736458E+02    0.3211143452E+02    0.4387199374E+02
282 2    0.3888231437E+02    0.3202240167E+02    0.4494926377E+02
283 2    0.3842589352E+02    0.3144403079E+02    0.4334879580E+02
284 2    0.4003133459E+02    0.3191944734E+02    0.4367022936E+02
285 1    0.4078497017E+02    0.3670515780E+02    0.3519266441E+02
286 2    0.4166814545E+02    0.3700692245E+02    0.3582592929E+02
287 2    0.4067053006E+02    0.3560099903E+02    0.3501568492E+02
288 2    0.4097187941E+02    0.3710648123E+02    0.3417830255E+02
289 1    0.2997342712E+02    0.3470749937E+02    0.3749790137E+02
290 2    0.3018437428E+02    0.3362976439E+02    0.3708259363E+02
291 2    0.2904810708E+02    0.3479435717E+02    0.3817882503E+02
292 1    0.3137769191E+02    0.3498685763E+02    0.3823007867E+02
293 2    0.3148075450E+02    0.3600104801E+02    0.3865586773E+02
294 2    0.3220112334E+02    0.3492789587E+02    0.3739986746E+02
295 1    0.3182247156E+02    0.3396039313E+02    0.3926710682E+02
296 2    0.3269582652E+02    0.3439071587E+02    0.3991458808E+02
297 2    0.3214882803E+02    0.3299968005E+02    0.2334767378E+02
298 1    0.3058220545E+02    0.3337754580E+02    0.2471664942E+02
299 2    0.2994482142E+02    0.3299088193E+02    0.3924091558E+02
300 2    0.2987023323E+02    0.3411429351E+02    0.2526295007E+02
301 1    0.3103351538E+02    0.3229955636E+02    0.2583041479E+02
302 2    0.3147019681E+02    0.3139584531E+02    0.2529704339E+02
303 2    0.3003733932E+02    0.3185007473E+02    0.4141728371E+02
304 1    0.3180602322E+02    0.3280612387E+02    0.2706844242E+02
305 2    0.3120300717E+02    0.3348886493E+02    0.2769265607E+02
306 2    0.3266113905E+02    0.3350018804E+02    0.2691088691E+02
307 1    0.3238264819E+02    0.3164949453E+02    0.2806038315E+02
308 2    0.3171539972E+02    0.3079117171E+02    0.2800310415E+02
309 2    0.3221237915E+02    0.3196224289E+02    0.2918238531E+02
310 1    0.3384482010E+02    0.3115752104E+02    0.2768637241E+02
311 2    0.3407423313E+02    0.3107666604E+02    0.2658449939E+02
312 2    0.3416647631E+02    0.3011682604E+02    0.2812939906E+02
313 1    0.2985667208E+02    0.3574943984E+02    0.3641428570E+02
314 2    0.2881198744E+02    0.3565292724E+02    0.3593880960E+02
315 2    0.2986536950E+02    0.3675065633E+02    0.3690662895E+02
316 2    0.3062132184E+02    0.3567483129E+02    0.3562334060E+02
317 1    0.3486706246E+02    0.3203875725E+02    0.2827835132E+02
318 2    0.3470134794E+02    0.3205613326E+02    0.2942624758E+02
319 2    0.3592154861E+02    0.3171906867E+02    0.2813147637E+02
320 2    0.3493952223E+02    0.3310741247E+02    0.2786105072E+02
321 1    0.3757907864E+02    0.2951714070E+02    0.2384251046E+02
322 2    0.3663264913E+02    0.2905405202E+02    0.2403079864E+02
323 2    0.3748357099E+02    0.3016760673E+02    0.2282435063E+02
324 1    0.3786992824E+02    0.3055417606E+02    0.4022123153E+02
325 2    0.3885599502E+02    0.3119313087E+02    0.4008524276E+02
326 2    0.3798684651E+02    0.3000864668E+02    0.4123883546E+02
327 1    0.3664206251E+02    0.3145547642E+02    0.4055766832E+02
328 2    0.3693218044E+02    0.3180645615E+02    0.4155802769E+02
329 2    0.3570339426E+02    0.3091604873E+02    0.4078804363E+02
330 1    0.3649519542E+02    0.3259912846E+02    0.3951274418E+02
331 2    0.3630135576E+02    0.3212585598E+02    0.3845978680E+02
332 2    0.3750460765E+02    0.3303198799E+02    0.3952503683E+02
333 1    0.3548562381E+02    0.3366197296E+02    0.3975918962E+02
334 2    0.3552429640E+02    0.3393877529E+02    0.4090391674E+02
335 2    0.3445853030E+02    0.3325504816E+02    0.3974724122E+02
336 1    0.3581887222E+02    0.3502723554E+02    0.3903050549E+02
337 2    0.3681148835E+02    0.3502770815E+02    0.3875811215E+02
338 2    0.3575894194E+02    0.3586870419E+02    0.3964751435E+02
339 1    0.3484365195E+02    0.3540536237E+02    0.3789194720E+02
340 2    0.3511752369E+02    0.3638482642E+02    0.3743839969E+02
341 2    0.3384327134E+02    0.3551240985E+02    0.3839950576E+02
342 1    0.3488169428E+02    0.3430264728E+02    0.3683998865E+02
343 2    0.3444933768E+02    0.3331796838E+02    0.3721584845E+02
344 2    0.3595929586E+02    0.3417077685E+02    0.3655118880E+02
345 1    0.3846129899E+02    0.2827080555E+02    0.2335831555E+02
346 2    0.3786921632E+02    0.2769714325E+02    0.2273719117E+02
347 2    0.3939490961E+02    0.2863699931E+02    0.2290662646E+02
348 2    0.3855011869E+02    0.2760971192E+02    0.2424655421E+02
349 1    0.3423459197E+02    0.3472558630E+02    0.3549784961E+02
350 2    0.3325281617E+02    0.3498896979E+02    0.3573757928E+02
351 2    0.3473812354E+02    0.3557798104E+02    0.3509685727E+02
352 2    0.3431280223E+02    0.3387830600E+02    0.3476605087E+02
0.0000000000E+00    0.0000000000E+00    0.0000000000E+00
0.1532620600E+02    0.0000000000E+00    0.0000000000E+00
0.0000000000E+00    0.1532620600E+02    0.0000000000E+00
0.0000000000E+00    0.0000000000E+00    0.1532620600E+02
}
Driver = VelocityVerlet {
  Steps = 50000
  TimeStep [fs] = 0.2
  MDRestartFrequency = 5
  Thermostat = None {}
  Xlbomd = {
    IntegrationSteps = 6
    MinSccIterations = 2
    MaxSccIterations = 200
    SccTolerance = 1e-6
    PreSteps = 0
  }
  Velocities [AA/Ps] = {
-0.26647153 -0.21896465 10.05396574
6.74167834 6.48675062 -23.78736212
-44.65874141 -1.51849560 -1.86650160
-0.87779566 -5.04179738 2.71981266
-31.47645805 -15.39571441 -22.02125524
44.78325566 7.94684959 -13.02131298
5.49586819 4.86373690 -0.47976610
18.63564448 -5.96682786 9.60520870
15.34980088 -4.22638473 -16.23112284
-5.80089848 3.24722351 -4.01759030
0.76879181 3.68480201 11.37080225
10.07320025 -12.49691883 -30.36640740
5.47388285 -2.92919337 -3.25184156
25.77103303 14.31030852 13.73773899
-0.10235553 -29.99203441 0.84129360
1.29782344 4.82353691 -4.06570679
-6.98788712 29.64292949 2.36263399
-35.93588149 5.18258844 -23.70704022
-6.38132419 -13.44001632 -1.73829138
-5.25449405 30.82028022 -16.52111782
-3.53306198 29.82741441 -11.90279872
-7.39121637 12.09637505 -8.22461884
29.65321537 -8.67299649 35.03115664
14.66047210 -3.88463177 -17.00336410
4.91873029 -5.79714901 4.16546640
-45.34341937 -77.97317563 -37.03260592
-34.60474329 31.25775684 -40.70357565
12.37547417 -0.80703944 31.31851309
1.74088291 1.15131683 -3.35566223
-22.63104593 22.62108855 -25.25530701
20.96301379 -8.10287798 -32.07836522
8.84806206 -15.59296871 16.18584425
-3.09620598 -5.81046646 -0.20460647
16.10732402 13.94534172 14.47393286
17.71573549 -21.48189829 -31.09768515
-5.21782361 -5.20012682 4.64916438
5.81035729 -22.97748597 52.51634788
-0.74521268 0.41813224 -33.67961953
-6.80305349 -3.59769504 3.41892003
39.75013658 -18.10762530 15.53363848
8.04431771 -9.53879055 -28.42862780
-1.87580275 0.06338713 -7.49589640
-20.21174248 -18.14688844 46.35584183
-22.83745074 23.61741390 -3.13420825
4.91963473 -0.60104581 0.90465698
-19.14262069 1.32115255 12.09552157
4.40067395 1.92638620 -12.19147952
2.26320759 4.34081312 4.39376525
-11.20730144 28.50501196 20.80373165
-9.97142674 -3.87225889 -5.64841430
1.08416261 11.15995386 -6.65350329
-16.39501643 6.47775488 7.60866787
-32.35782352 -8.92438559 3.87239448
4.26201831 1.85614002 0.67679667
59.80266352 -17.64018718 -26.69486220
12.73960843 -8.21516938 31.58918856
2.08038449 -9.97766262 3.54961106
-9.99200751 -28.44636761 -13.30021469
-14.43785511 10.14343312 -26.66859985
-14.82231207 13.79461454 -38.19396526
1.13885527 8.90310471 9.76606308
-7.18780790 -29.32156751 9.72054341
-8.28321544 21.25565954 26.32257190
-10.12488132 18.48006670 33.23069809
-3.45553008 1.32454267 1.71776934
-11.04965829 28.54769380 -39.58007373
1.56608687 8.38228407 4.86853432
-4.56720005 -10.16027414 -7.95360555
4.94741424 27.69280932 -9.95591547
7.02298075 -40.90070770 5.66224295
0.54885926 -5.94295161 0.04886921
-21.57596390 21.30305255 11.51794464
13.86136217 20.66145024 -19.20321385
-7.40083004 -5.26184973 -8.02127194
-41.15655081 15.76014165 -5.27025194
-28.04498658 -32.95524863 40.85655867
4.99754403 0.04940762 9.51770018
11.14916412 16.53003486 -38.30796717
-1.00409571 -16.50223028 -20.42334925
-4.43302179 -7.91757618 2.68636981
-29.61318590 -3.01020063 -1.69641952
23.08357601 6.26614806 -15.84416076
-0.34474490 9.11373117 0.52334031
-4.93281581 -5.24126487 -25.44403923
-18.48370582 23.33226821 -25.87469158
-3.73578853 -7.10456362 11.66457911
0.66747910 -3.54950564 21.68471789
-5.77257578 -12.56388800 36.34937716
2.84613633 2.30735152 11.33389177
35.46687312 30.16865182 19.60576343
-15.84501119 11.76386071 -34.28161260
-7.05960822 9.09181330 37.65272858
-9.89450584 8.04154224 -0.08322044
0.79131603 -25.27602540 19.34054475
-10.39930760 26.46034912 9.08041643
37.11674910 3.24779742 -24.58162240
1.01501417 5.46040123 1.23435747
7.79275565 14.59586643 -15.89252636
5.70298732 -31.00265438 14.73614853
10.87419743 -9.96422718 2.03705289
4.96272397 -35.64743640 35.98950401
-5.48420134 -3.28079505 -6.39968100
6.03973109 -5.36605388 0.50594139
-0.58998224 49.88900845 38.19927667
-13.14317154 -28.72324559 -11.59896726
4.94706125 -11.46890882 -3.40294034
-41.83854277 -66.40859005 -11.78701125
-14.84902827 13.10254232 34.10874105
-13.63537718 4.33732868 -18.64575341
17.48979777 -15.05657234 9.85100395
4.43885465 -16.15975595 23.57382956
-7.59976744 3.02110781 0.33654071
-10.80982445 17.73142872 -1.97120675
6.46113530 -16.18270235 6.38133935
8.64533010 3.84826980 -1.59571903
21.42224817 11.86832573 19.66775137
-8.18199065 7.53006401 19.24276483
17.94133169 1.83579288 10.03147193
41.48496975 49.38552238 -5.46043392
-17.10567645 42.44807469 22.58709966
4.01695535 2.89611993 -3.74475855
40.42131363 21.87475961 -13.27742940
-11.78674258 -1.86615050 7.11210823
32.16252436 16.24643849 7.63366965
-8.24659760 -8.02619304 -6.16425934
55.09300450 78.86221291 -10.79300468
74.04485420 58.43519103 -22.96271507
6.80163352 -127.62964190 -3.51408720
1.92952830 -0.67186392 -6.12959530
7.83616214 18.20918830 24.19490843
44.52830410 4.11250471 -1.77091912
-3.75919778 -13.78055161 -1.18173466
-18.00201771 35.49535892 4.44029902
-12.55362755 16.00061860 3.88243723
-3.51167235 -1.99851871 5.32927511
-26.68259532 12.78177262 -2.69233404
31.29249730 -10.00567657 8.37547756
-3.80343448 -0.37737605 1.48590264
16.19073934 -3.35867091 -5.39066352
10.60990464 4.99628673 -3.50709321
2.28979456 -1.65357373 -6.43399574
-11.06410595 17.41328562 56.40772586
-2.90545295 13.07653884 23.85540804
1.26310485 -0.50044569 -1.57772916
16.75803546 -16.27771505 10.89686709
-15.47402964 -29.11040622 20.18750656
-6.58084653 -10.93697061 12.16455155
3.45634081 -11.16245050 29.69001273
-19.75273314 11.94523846 -12.42729407
-7.93927644 14.10008838 -2.45186923
12.76630656 -25.65226476 26.79388243
-13.82854521 15.67227454 -6.07651148
9.89365444 -4.49879813 -0.48382305
-13.14874044 -29.47511328 -12.73315310
27.87468946 -14.51845048 -21.64384314
-31.36071332 -3.76471898 -5.07239516
-1.58762164 6.87750339 -4.11793973
11.81980607 -14.95852915 -15.65000736
-5.32800401 30.33370450 13.31326031
-35.80182657 6.90259377 32.25420274
3.87133326 4.76807306 -1.88850385
3.39618019 42.21801872 8.02727980
36.88300648 -30.34220991 -7.61923023
-2.28127804 -4.03962727 -2.56903455
22.26886361 1.67852592 21.01473067
-11.55134914 17.74748682 -8.71550069
-1.54204658 -2.17676253 -5.75319899
31.23780516 -20.69699578 11.53745645
-42.15343874 -10.51124475 11.58724805
-4.91485715 4.22031699 1.18931803
-0.15810235 -18.63298687 -17.25036358
-21.53725596 -30.08595134 26.34752211
1.73663948 -16.85521581 1.54625492
7.10044173 -10.19104858 27.45462373
1.15127472 29.87735109 12.77609792