Geometry = GenFormat {
<<< "system.gen"
}

Driver = VelocityVerlet{
  Steps = 100000
  TimeStep [fs] = 0.2
  MDRestartFrequency = 5
  Thermostat = None {
    #InitialTemperature [Kelvin] = 300.0
  }
  Xlbomd{ 
    IntegrationSteps = 6 
    MinSccIterations = 2
    MaxSccIterations = 200
    SccTolerance = 1e-6 
  }
  Velocities [m/s] {
      8.80821444E+02     -2.80858388E+02      1.00801130E+03
     -8.01541318E+02      6.73785378E+02     -2.13180392E+03
      1.62314886E+03      1.66664047E+03      1.52713828E+03
      3.86347946E+02     -6.29666872E+02      6.27332329E+02
     -2.90330028E+03     -8.08518123E+02     -6.87174816E+00
     -2.86437104E+02      9.94509497E+02     -8.06726083E+02
     -4.55128386E+01     -6.61992614E+01      3.57115552E+02
      1.60966281E+03     -2.46121302E+02      2.25345740E+02
      5.15528729E+02     -1.46403778E+03     -1.64622423E+03
     -7.69062779E+01      7.38016469E+02      2.32599683E+02
     -7.79608210E+02     -8.55531191E+02     -1.82995167E+03
     -2.14903284E+03      1.43629442E+02     -1.63399913E+02
     -4.50685794E+01     -7.37867836E+02      5.78716168E+02
      2.44104375E+02      1.91460167E+03      1.03120601E+03
     -3.17589942E+02     -2.81643602E+03     -5.60250519E+02
     -4.74863342E+02      9.01017803E+02     -3.84284734E+02
     -1.03071977E+03      3.96904039E+02     -4.34564038E+02
     -3.72461679E+02     -1.47266153E+03      1.14853812E+03
      2.79828680E+02      3.23748470E+01     -3.15880166E+02
     -4.70823734E+03     -3.99366377E+02      4.04715559E+03
     -2.89425449E+03      1.40615761E+03      2.85997632E+03
     -5.28756687E+02      3.08855193E+02     -3.63791426E+01
      2.05083735E+03      3.01497165E+03     -8.29334885E+02
     -1.14255408E+03     -1.03675721E+03      3.15379411E+02
     -7.04578729E+02      4.46087540E+02      7.54875227E+01
     -1.97276594E+03     -1.21569794E+03     -7.96065019E+02
     -1.53358484E+03     -8.34453247E+02     -8.70329983E+02
      1.30168211E+03     -1.20669452E+03     -1.12589480E+03
     -4.30419504E+02     -6.17186221E+02      2.49975712E+01
     -6.08547881E+01      1.24770998E+03     -2.91801249E+02
     -1.15473840E+03     -1.13823479E+03     -1.49935896E+03
      9.64616926E+02      2.25496747E+03     -1.57578500E+02
      4.43401132E+00     -1.36456791E+02      2.54497672E+02
     -1.17667770E+03      1.22056468E+01     -2.48015811E+03
     -1.10912476E+03     -2.14299765E+03     -3.01221276E+02
      4.28334281E+02     -2.17584198E+02      8.95032769E+01
     -3.24306453E+03     -1.12180236E+02     -1.74458834E+03
      7.23801842E+02      2.18329490E+03      2.46126777E+03
      3.29991708E+02     -4.91367992E+02     -5.86846202E+02
      1.42625745E+03      6.91195688E+02     -3.04340809E+03
     -6.42535946E+02     -8.71402464E+02     -1.66675095E+03
     -8.16443169E+02      3.50316762E+00     -4.84147922E+01
     -2.71119226E+03      3.06223093E+01     -1.09214207E+03
      5.15015819E+02      3.36352408E+02      2.45838522E+03
     -1.00816863E+03     -5.22572895E+02      2.91325707E+02
      5.53844858E+02     -5.48926585E+02     -8.64828821E+02
      4.99186507E+02      1.75620482E+03     -1.51610286E+03
     -2.98586357E+02     -7.34082915E+02     -1.17205879E+02
      3.14621012E+02      1.16730900E+02     -1.45852805E+03
      1.40451537E+03     -9.41249203E+02     -1.29208371E+03
      1.71774172E+01     -5.04582192E+02     -3.87408791E+02
      1.32149611E+03      1.90716827E+03     -3.87501581E+02
     -1.63822292E+03     -1.89834520E+03      1.91449852E+02
      1.97367863E+02     -3.42973054E+02      3.35804179E+02
     -2.31511873E+03      3.78641910E+02      1.38330209E+03
     -2.72641238E+03      2.38808523E+03      2.38243085E+03
     -2.48477895E+02     -2.88674777E+02     -3.06727754E+01
      1.72157534E+03     -1.87182058E+02      1.98775189E+03
      1.07655969E+03      3.62851219E+03     -2.74042247E+03
      3.67520896E+02      2.76634857E+03      1.99339057E+03
     -7.30853754E+02     -4.39647343E+01      2.72550761E+02
      8.46875276E+02     -9.83674185E+02     -8.04910404E+02
     -1.67967905E+02     -3.72026368E+02     -2.26343510E+01
      7.81663215E+02     -1.53624326E+03      3.00588776E+02
      1.43467638E+02      4.26087280E+02     -1.60060580E+01
     -2.20155193E+02     -3.07175510E+03      1.89323666E+03
      2.75559457E+03      1.04910825E+03      8.96173776E+02
      4.60047322E+02     -5.81099393E+02      1.05321532E+03
     -1.65472863E+02     -2.87341704E+03      6.76174456E+02
      3.29836355E+02     -7.11583453E+02     -1.48412104E+03
     -2.98425985E+01      2.88084499E+02      6.37974265E+02
      1.57196529E+03      9.46727565E+01     -1.80628295E+03
     -7.81267412E+02     -1.68292246E+02     -3.44645916E+03
      2.93154835E+02      6.17839054E+02     -6.00320611E+02
      5.23237180E+02     -2.10176445E+03     -8.58291657E+02
     -1.37170083E+03     -5.91813678E+02     -9.64468918E+02
      5.50959010E+02      9.29554135E+02     -3.12303022E+02
     -7.19599721E+02     -1.44724757E+02      1.68621424E+03
     -5.84149912E+02      3.38976117E+02      4.97858020E+02
     -4.19837313E+02      3.42239905E+02      5.65639156E+02
      1.15659796E+03     -6.45306868E+02     -1.42815526E+03
     -1.83453618E+03     -2.74130030E+03     -1.15604722E+03
     -1.03921128E+02     -3.90824203E+02     -3.00657954E+02
      1.43169713E+03     -7.36678128E+02      6.31772775E+02
      1.16679088E+03      1.08089250E+02      2.43229752E+01
     -1.72568558E+02     -1.37311214E+03      7.30595632E+02
     -1.39380792E+03     -2.28692993E+03      1.78286021E+03
     -2.01767417E+03      5.76500930E+02     -5.26675370E+02
     -2.23730913E+02      3.20649327E+01     -3.28566029E+02
      1.36717072E+03      9.95098242E+02     -1.11203424E+03
      1.03228056E+03      4.53063876E+02     -1.57708329E+03
      1.54518253E+03     -4.61321633E+02      8.93264753E+02
     -1.03055492E+03      3.77063892E+02      5.95084967E+02
     -1.81676293E+02      1.68342423E+02      1.23358217E+03
     -2.54680930E+02     -7.69093889E+02     -1.58844363E+03
      2.04370407E+03     -1.03206232E+03     -1.54474308E+01
      3.46453447E+02      1.24165015E+02      1.55177991E+02
      1.70013128E+03     -6.81238582E+02      3.21076454E+03
      6.30526812E+02     -4.70511360E+02      2.26820376E+02
     -4.29511591E+02     -3.25024423E+01      2.67754373E+02
     -3.22055436E+03     -1.90386088E+02     -6.01333233E+02
     -5.52688158E+02     -3.09852692E+02     -5.37332410E+01
      5.84712229E+02     -4.57579801E+02     -5.81325647E+02
     -1.44567726E+02     -2.28066928E+03     -2.22644013E+02
      1.96530796E+03      2.19682282E+03     -7.14859130E+02
      2.28098020E+02     -1.73133070E+02     -9.14431399E+01
     -1.10861304E+03      1.31424358E+03     -6.62779934E+02
     -1.30633233E+03      3.67952642E+03      1.30202654E+03
     -3.85440801E+00     -5.79337820E+02      1.06472211E+02
      6.00982273E+02      2.76811214E+03      8.83070183E+02
      3.82084454E+02      6.31742059E+02      1.08045385E+03
     -1.53204944E+02     -4.63513707E+02     -7.05259133E+02
      3.25895626E+02     -4.28779835E+02     -3.75172170E+02
     -3.65063614E+03     -1.83824194E+03      3.93384838E+02
     -2.15551396E+01      1.50696220E+02     -5.86898163E+02
     -1.75057971E+03      5.60827071E+02      1.88769288E+03
      7.41729835E+02     -1.42199519E+03      5.97728577E+02
     -6.65915102E+01     -4.35738539E+02      5.06723892E+01
      1.63454655E+03     -6.22878375E+02     -6.10158375E+02
      9.11470110E+02      3.43277319E+03     -3.27637416E+03
     -2.93488451E+01     -2.86980480E+02     -4.66476807E+02
     -1.34308881E+03      1.30117005E+03     -1.21127205E+02
      5.72265995E+02     -1.99648787E+03      2.68284667E+03
      2.72713040E+03     -8.97286024E+02      7.36082814E+02
     -8.14442556E+02     -1.60075410E+02      1.22262239E+03
     -1.02100376E+03     -3.75397950E+02      2.69719849E+03
     -6.90840138E+02     -1.44086934E+03     -2.77708551E+02
     -9.84471275E+02     -8.99030489E+02      2.42203662E+03
     -1.87513494E+02     -7.27561104E+02     -1.09942040E+02
      1.03298381E+03     -3.76407515E+03     -1.59952868E+03
     -2.38032218E+03     -2.35423141E+03      6.37229904E+02
      5.33079221E+02     -6.48372546E+01      1.03181833E+03
      2.33808309E+03      2.76389866E+03      1.43894936E+03
     -1.71316430E+03      2.56764449E+03      8.15922850E+02
     -8.99098463E+02     -2.81354984E+02      7.17593220E+02
     -1.67611446E+03     -1.73167670E+03      1.79290154E+03
     -2.73772339E+03     -1.84922444E+03     -1.17911661E+03
      4.03640179E+02     -3.60728745E+02     -2.38652329E+02
     -1.55462508E+03      1.99161327E+02     -4.01733103E+02
     -2.58142963E+03      7.13453263E+02     -1.43157774E+03
     -7.62633479E+02     -2.24991441E+02      3.49422543E+02
      1.15006591E+02     -1.17779299E+03     -5.84114662E+01
     -9.33012023E+02      4.65239633E+02      1.92518483E+03
     -6.75212044E+02      2.26833432E+01     -7.42196041E+02
      9.67472280E+02     -1.15866595E+03      1.48485472E+02
      3.33555395E+03     -1.23818458E+03      4.95098855E+02
     -1.11688027E+02     -9.45906058E+02     -7.91622749E+01
      1.40375225E+03     -1.93181122E+03      6.46332769E+02
     -8.82949034E+02      8.77726869E+02     -8.44853694E+02
     -1.01640840E+03     -4.83485534E+02     -1.10568042E+02
     -2.98022238E+02     -5.06347259E+02      6.54266033E+02
      3.49763827E+03      1.04274040E+03     -2.37827357E+03
      9.13246252E+02     -5.13692954E+02      1.70277155E+02
     -1.19952660E+03     -1.59111495E+03      1.82067749E+03
     -1.35157773E+03     -1.43056497E+03      1.11115994E+03
      1.65644952E+02      4.97398945E+02     -1.63490980E+03
     -1.72512146E+02      2.10385561E+02     -7.50030016E+02
     -7.77075517E+02     -5.22540967E+02      5.40880862E+02
     -1.20940844E+03     -2.70648556E+01     -5.44958889E+02
     -1.48022988E+02      1.39682413E+03     -1.94564241E+02
      5.77902863E+00      3.28809344E+01      1.16859764E+01
     -1.04969837E+03     -1.33565494E+03     -1.11878329E+03
      1.53504097E+02     -5.39826806E+02     -3.67464223E+03
     -8.80896560E+01      3.79271750E+02      6.14658318E+02
      2.59104083E+02      2.73042762E+03      2.49741190E+03
     -6.21104265E+02     -8.34572323E+02     -2.93045749E+03
     -2.28686399E+02      3.14338151E+00     -1.26656653E+02
      5.97942031E+02     -1.39204438E+03      1.11397430E+03
      4.83063506E+02     -2.20789863E+03      8.49406675E+02
      6.95791486E+02      5.23897019E+02      3.43940458E+02
      1.59763390E+03      8.48977548E+02     -1.04385888E+03
      3.33561198E+02      5.49287428E+02     -2.47403529E+03
      3.15717277E+02     -7.29117580E+02     -4.46308428E+02
     -3.69967204E+02      2.05134075E+02      1.17967393E+03
     -3.86730274E+02      3.92433089E+02     -4.56387161E+01
     -5.66283159E+01     -3.57823529E+02      3.79540486E+02
      3.87442747E+02     -1.73180966E+02     -7.22951435E+02
     -2.95423818E+02      2.71066462E+03     -6.68873233E+02
     -8.52432035E+02     -6.47221067E+01     -6.27303276E+02
     -2.43724722E+01      3.22915569E+03      1.60133169E+02
      1.07215358E+03      1.14381232E+03     -1.16823609E+03
     -5.34953479E+02     -5.69026229E+02     -1.08649744E+03
     -1.56331156E+03      1.90205042E+02     -1.25346324E+03
     -2.79571228E+03      3.86075568E+03     -3.33694532E+02
      1.74510683E+04      1.09869894E+04     -7.02177453E+03
      3.12243942E+03      1.83554820E+02     -1.01644473E+03
      2.27713289E+03     -1.48363915E+03      2.50135981E+03
      5.96779378E+02      3.27205318E+03     -6.18791359E+02
     -2.78272856E+02     -2.88247167E+02     -1.20031395E+02
     -2.22533169E+03      6.60742363E+02      5.13989449E+01
     -1.59407025E+03     -1.69001360E+03     -2.04875793E+03
     -1.20459301E+03     -1.20328503E+03      1.32012630E+03
      8.57442767E+02      1.96862755E+02     -2.54524701E+02
      1.36609471E+03      1.12758058E+03      4.11284271E+01
      5.75754669E+02     -4.71832097E+02     -4.10234002E+03
     -3.52192253E+02     -7.54078970E+02      6.32342393E+02
      2.00752633E+03     -2.24724664E+03     -2.72325901E+02
     -3.31720304E+02      4.10074075E+02      1.35802135E+03
      2.68704654E+02     -2.30005643E+02      1.04363777E+02
      2.26366471E+03     -1.25476025E+02      4.42544614E+02
      3.53983931E+03      1.66972467E+03      2.52421707E+03
     -1.38123500E+02     -3.35841081E+02      2.65581479E+02
     -4.84125120E+01      5.01667965E+02      4.23932504E+02
     -4.60189583E+03     -3.17702851E+02     -1.63374494E+03
     -7.77668491E+02      3.57081219E+02      1.78782146E+02
     -1.14013951E+03     -6.92722895E+02     -1.09723928E+03
     -5.38354020E+02     -2.35487837E+03      8.19057893E+02
      3.64360713E+02      4.91249175E+02      1.38113329E+02
      1.56520900E+03      7.93983358E+02      1.31100025E+02
      1.49905912E+02      1.25885119E+03      6.15206483E+02
     -5.85870438E+02      7.35294417E+02     -5.31007368E+02
     -1.42228090E+03     -1.26483749E+03     -1.87594162E+03
      1.01890945E+02      4.09452499E+01      1.07583011E+03
     -1.11639205E+03      6.98746196E+01     -2.53273976E+02
      9.57483457E+02      2.91962845E+03      4.27079376E+02
      3.63082583E+01     -7.59450385E+02      1.53250250E+03
      1.49160695E+02      7.88817921E+02     -2.11365379E+02
      1.56319995E+03     -9.48731712E+02      6.75379468E+02
     -1.53397763E+02     -4.67319446E+01      1.50955838E+03
      1.32846500E+03     -9.16894111E+01      1.33815133E+03
     -3.38970267E+02      5.07251594E+02      1.68738161E+01
      1.28532757E+03     -3.30431917E+03      1.64614179E+02
      6.98364156E+02      1.67478306E+02      1.19077267E+02
     -1.42620835E+03     -2.58628169E+03      2.67286231E+02
     -5.13013177E+01     -2.03563060E+02      2.10260775E+02
      7.62915816E+02      2.22305940E+03      1.00904047E+03
     -1.17600675E+03     -7.37428490E+01      3.21762773E+03
      2.73377890E+02      3.28026676E+02      3.36467396E+02
      8.03697352E+02      4.30233540E+02      6.85584762E+02
      3.44505741E+01     -2.62517575E+03      1.28616522E+03
     -1.29281505E+02      3.23377244E+02      7.02418389E+02
      1.04273699E+02     -6.06580554E+02     -2.88144319E+02
      1.73046836E+03     -1.28603416E+03      1.28515440E+03
      1.84691907E+02      3.25502453E+02      2.78693340E+02
      3.14625017E+03     -3.26837280E+03     -4.05871981E+02
      6.05277081E+02      8.53585016E+02      1.21289921E+02
     -1.00810447E+03     -4.40866661E+02     -4.88665654E+02
      3.41762263E+02     -2.48460025E+03     -2.65360850E+02
     -1.22023006E+03      1.31910020E+03      1.73698014E+03
      3.95999361E+01     -3.98591086E+02     -3.74054585E+02
     -4.18476277E+02      2.18976529E+02     -1.69019110E+03
      7.16512630E+02     -1.40354343E+03     -1.47815973E+03
     -2.43758080E+02      7.39043575E+02      3.59852442E+02
      1.41760905E+03     -1.58557883E+03      1.05794854E+03
      1.18999982E+03     -1.09418248E+03      3.00429927E+03
     -9.01643015E+02      5.46706017E+02     -4.22227614E+02
     -3.93765420E+02     -4.34977490E+03      8.35381076E+02
     -1.11398190E+03     -6.64522221E+02      8.07662068E+02
     -2.02449636E+02     -1.27274411E+02     -7.75599596E+02
     -1.35872300E+03     -1.76949370E+03     -1.01346512E+03
      3.60097266E+02     -4.73748995E+02     -5.80378897E+02
      1.21960389E+03     -1.13242440E+03      1.25735352E+03
     -1.02963653E+03      1.06971464E+02      4.25587959E+02
     -2.48690570E+03     -1.07523414E+03     -2.04252411E+03
      7.71705974E+02      3.65936215E+02      3.34227816E+02
      6.61119775E+02      2.01428576E+03      8.23941796E+02
     -6.22095018E+02     -1.37879058E+02      3.55400067E+02
     -1.19428874E+03     -1.84576906E+03      8.37358505E+02
      1.96813790E+03      1.87707851E+03      1.17390854E+03
      2.85585480E+02     -6.24914554E+02      1.64085770E+01
     -2.98378313E+03      1.10619321E+03     -2.10938136E+03
     -2.00908107E+03     -1.06448906E+03      2.14723835E+03
     -8.73454422E+01      1.68243068E+01     -1.00975534E+02
      9.36375453E+02      1.00953564E+03      8.70082138E+02
      6.40233142E+01      3.20192904E+03     -1.39613808E+03
     -6.99225942E+01     -2.25312153E+02     -7.12198929E+02
     -1.20774470E+03     -1.36529610E+03      2.47817569E+03
      8.48331940E+02     -1.04765871E+03      2.03370857E+03
     -3.10311169E+02     -5.41115395E+02      2.87229523E+02
     -2.61993820E+03     -8.23977648E+02     -9.26310013E+02
      1.66996198E+03     -1.77595350E+03      2.15109441E+02
     -3.84864155E+02     -1.14748372E+03      2.67191441E+02
      1.03732317E+01     -1.87488438E+03     -5.22260683E+02
     -2.93830597E+02      1.67691880E+03      1.36334943E+02
      2.94056784E+02      8.25389896E+01      3.70958725E+02
      3.61985345E+02      1.61608116E+03     -5.22676253E+02
      5.74777456E+02     -3.88538916E+03      7.77723127E+02
     -1.08471376E+03     -2.38937962E+02      6.11218192E+01
     -2.51119202E+03      1.73605158E+03      2.30340443E+03
      4.94043121E+02     -1.17581230E+03     -1.34656854E+03
     -4.81704153E+02      1.13516607E+02      3.01152648E+02
     -6.49954809E+02      1.99086392E+03      1.67223204E+03
     -2.87623219E+03     -4.99740206E+02     -1.17380712E+03
     -2.30620621E+03      2.37607325E+03      3.72400809E+02
     -8.86215907E+00      7.01694833E+02      2.22974292E+02
     -3.24683725E+02      1.98563124E+03      2.74738606E+02
     -1.21093712E+03     -1.39734921E+03     -1.20137024E+03
     -3.61642977E+02      1.73628629E+03     -1.17980428E+03
      8.51148551E+02     -8.57934425E+01     -4.36638647E+02
      2.21821646E+02     -1.43973018E+03      2.14484767E+02
     -4.20167033E+02      1.92105819E+03     -1.02786124E+03
      3.54083761E+02      5.09122851E+02     -2.65220949E+01
      1.55578831E+03      3.51525742E+02      8.26595748E+01
     -7.66287654E+02     -4.75222264E+02     -2.72817167E+03
     -7.64751365E+02      4.87153988E+01      1.21946875E+02
      2.98435084E+02      1.33975337E+03      2.28968023E+03
     -5.34707408E+02     -4.42279437E+02     -1.74761237E+03
     -7.02460213E+02      1.93077110E+01     -1.28871767E+02
     -8.02919407E+02     -2.25376001E+03     -8.38579654E+02
      1.03711546E+02     -9.40436935E+02      2.41587471E+02
      6.91271050E+02     -1.39331830E+02     -7.21366808E+01
      2.25333085E+03     -3.08583090E+02     -1.61412536E+03
     -1.85818099E+03     -4.58917753E+03     -6.64279963E+02
      2.31157980E+02      6.09481791E+02      9.97260823E+01
      6.01643054E+01      1.25533675E+02     -2.25324748E+03
     -6.13192870E+02      8.41532098E+02      2.38369318E+03
      2.86793224E+02     -1.06236001E+02      1.11400412E+02
      6.36598008E+02     -2.32879444E+02     -6.98709500E+02
      4.94926149E+02      7.62764248E+02      1.14960413E+03
      5.12397386E+02      7.09527280E+02     -1.97918497E+01
      5.13514117E+02     -6.93505424E+02      3.69879682E+03
      1.68257844E+03     -2.10063364E+03      8.58953783E+02
     -3.14861402E+02     -4.73642939E+02      5.72555004E+02
      2.38273827E+03      1.76167860E+02      3.06225325E+03
      2.35813772E+03      1.04801354E+03     -1.62578306E+03
     -3.77486186E+03     -1.75145290E+03      1.16259765E+03
      2.97668309E+02     -1.18119949E+03      2.06559501E+02
      6.89935709E+01      2.75823060E+02     -3.37198975E+03
      2.54150584E+03      1.52270534E+03     -9.22619396E+01
      8.30758132E+02     -8.69371081E+02      2.35705005E+03
     -4.37419301E+02      1.45954490E+02      1.13435671E+02
      1.83386754E+02     -1.26507513E+03     -3.50602999E+01
     -2.77938189E+02      1.56613760E+03      1.05533213E+03
      4.64980213E+02     -2.47291954E+02      5.30559966E+02
     -3.39152275E+03      1.23279906E+03     -5.04905093E+02
     -2.95599019E+02      4.72909445E+02      2.39622498E+03
     -4.46907253E+02      1.94740783E+02     -2.75728737E+02
     -5.66368031E+02      4.06832725E+02      1.66867720E+03
     -3.51665641E+03      7.76131647E+02      9.53471316E+02
      2.21639354E+02     -2.83902942E+02      2.44729830E+02
     -3.09272529E+02      1.81777496E+03     -4.73132481E+02
      2.35408740E+02      7.73556619E+02     -7.28469560E+02
      1.87844563E+02      2.36474618E+02     -3.39156810E+02
      1.08617221E+02      1.02207125E+03      6.36331082E+02
     -6.18303834E+02      8.66974041E+02     -1.16808163E+03
     -3.67175214E+02     -3.38194508E+02     -2.72110470E+02
      6.51874257E+02     -1.22643688E+03      1.33477875E+03
      5.41316198E+02      2.22066318E+03      2.59606722E+03
     -5.80296994E+02     -1.50667228E+02     -1.55377366E+01
      1.18170731E+03     -2.20653649E+03      4.33955727E+01
      1.31693066E+03     -1.50237586E+03      1.08614819E+03
     -8.00087563E+02      7.80969994E+01      7.65217780E+01
     -6.57363157E+02      2.04482319E+03      6.37254049E+02
     -1.29085079E+03      9.08806244E+02      3.19095794E+02
     -2.41482664E+02     -4.56896811E+02      1.25215802E+02
      8.10215694E+02      1.12029038E+03     -1.21929316E+03
      1.91769051E+03     -3.59981171E+02      7.23426066E+02
      5.42786398E+01     -2.69903110E+03      1.22006124E+02
     -9.01804925E+02     -5.69365756E+01      7.22091719E+02
     -1.22272124E+03      1.84075669E+03     -8.17511138E+02
     -1.56363455E+03      1.87300925E+03      4.69468332E+02
     -3.51142533E+02      1.48837108E+03     -1.18186349E+03
  }
}

Hamiltonian = DFTB {
  SCC = Yes
  SCCTolerance = 1e-6
  MaxSCCIterations = 200
  ForceEvaluation = Dynamics
  MaxAngularMomentum = {
    C = "p"
    H = "s"
  }
  Charge = 0.0
  SpinPolarisation = {}
  Eigensolver = Standard {}
  Filling = Fermi {
    Temperature [Kelvin] = 300.0
  }
  SlaterKosterFiles = Type2FileNames {
    Prefix = "../../pbc-0-3/"
    Separator = "-"
    Suffix = ".skf"
    LowerCaseTypeName = No
  }
  KPointsAndWeights = {
    0.0000000000000 0.0000000000000 0.0000000000000 1.00000000000000
  }
  Dispersion = LennardJones { 
    Parameters = UFFParameters {}
  }
}

ParserOptions = {
  ParserVersion = 3
}
