Geometry = GenFormat {
<<< "system.gen"
}

Driver = VelocityVerlet{
  Steps = 100000
  TimeStep [fs] = 0.2
  MDRestartFrequency = 5
  Thermostat = None {
    #InitialTemperature [Kelvin] = 300.0
  }
  Xlbomd{ 
    IntegrationSteps = 6 
    MinSccIterations = 2
    MaxSccIterations = 200
    SccTolerance = 1e-6 
  }
  Velocities [m/s] {
     -1.45882124E+02      3.63641300E+02      1.21928347E+02
      1.95809581E+03     -2.55315952E+02     -3.37688109E+03
      1.79887551E+03     -4.54363177E+02      1.06539527E+03
      5.78388903E+02      6.79725869E+02      2.06629877E+02
      4.91349448E+02     -6.83277731E+02     -1.54993215E+03
      7.88075408E+02      1.02447185E+03      1.35228583E+03
     -2.78888617E+02      4.77688661E+01     -1.22850758E+02
     -1.16284944E+03     -5.07324709E+02     -5.47876042E+02
     -7.74378201E+01      7.47850592E+02     -1.78038579E+03
      2.77443425E+01     -2.32398558E+02     -7.07718801E+02
      8.82270769E+01      3.12633621E+02     -9.16467587E+02
      1.70829995E+03      2.80979310E+02     -1.90252041E+03
     -3.04140341E+02      7.60313190E+02      4.55058120E+02
      7.91337156E+02     -4.99497682E+02     -9.48117887E+02
     -3.45080770E+01     -8.32899562E+02      1.54275434E+03
      3.26229879E+02     -2.46673368E+02     -6.12256154E+02
     -1.23099441E+03     -2.06515376E+03     -5.21946725E+02
      9.73806031E+02     -2.97022896E+03     -4.64486320E+02
      9.71938228E+02      5.27374256E+02      1.05283357E+02
      3.34198508E+02      1.70459944E+03      2.35840944E+02
     -1.27559418E+03     -2.82459525E+03     -9.97689827E+02
      4.11065500E+02      4.47457315E+02     -1.41957119E+02
      5.01938794E+03     -6.93568525E+02     -5.30801456E+02
      2.34482888E+03      3.18860763E+03     -2.48121637E+03
     -4.29862872E+02     -9.02421017E+02      4.74871980E+02
      1.47102140E+03      2.00427100E+02      3.27208092E+02
      2.85709482E+03      9.15531707E+02     -2.38187462E+03
     -1.94429687E+03      8.39765496E+02      3.56800067E+01
     -1.13004115E+02     -1.29171115E+02     -9.94736524E+01
      3.62457504E+02      8.21584728E+02      1.91524696E+02
     -4.07012736E+02      2.11608085E+03      1.25833237E+03
      2.42339108E+03     -8.43906045E+02      2.16079792E+03
      8.25150309E+01      2.91450004E+02     -9.44473798E+02
      2.02388517E+02      4.09962749E+02      9.96472939E+02
      8.48480121E+01     -6.11344623E+02     -6.58545465E+01
      4.05096670E+01     -1.16080479E+02      3.90645376E+02
      4.81580955E+02      3.79614807E+03      2.29481842E+03
      4.73328472E+01     -7.45340540E+02     -7.66791676E+01
     -1.86944342E+02     -4.27789219E+02     -3.30659345E+01
      5.72097361E+00      2.31319005E+03     -2.38259847E+03
      1.13987267E+03     -1.22338003E+03      4.90793811E+02
      1.01647818E+03     -1.70127078E+02      3.78832643E+02
      7.97023752E+02     -1.92535693E+03      4.90843585E+02
     -9.55846621E+02      8.66020193E+01      1.63424482E+02
      3.37563200E+01     -2.11667219E+02      5.20725527E+02
      2.20588181E+03     -1.05266789E+03     -9.84462867E+02
      7.33362477E+02     -2.75924103E+03     -1.52603722E+03
      3.10476222E+02      1.82513962E+02     -3.97077724E+02
      2.47931399E+02     -4.76683761E+02      2.18314823E+02
      7.65363567E+02     -5.69724160E+01      5.11251203E+02
      6.76966249E+02      6.76126225E+02     -8.84093015E+02
     -1.47715726E+02     -3.14888660E+03     -2.66276051E+02
     -1.16755253E+02      2.51001794E+03      1.19554147E+03
      4.95309335E+02     -3.89624330E+02      1.88965672E+02
     -7.92535426E+02      1.74299835E+02     -4.35511478E+02
      3.01798727E+03      1.20482501E+03     -1.07265013E+00
     -3.56925532E+02      3.51125475E+02     -4.82471712E+02
      1.45782607E+03     -2.09175199E+03     -2.51771063E+03
     -1.49198392E+03     -1.05421591E+03     -2.27986941E+02
      3.39799036E+03      4.58224609E+02     -5.51953936E+02
      1.19526376E+02     -3.70437074E+02      6.98265356E+01
     -1.28026326E+03      1.31133403E+03      1.15949836E+03
      1.45170216E+03     -8.24697563E+02     -1.04008282E+03
     -1.84735949E+03      2.62861604E+02     -1.31493740E+03
      3.09528772E+02     -3.11412467E+02     -2.99738545E+02
     -4.73318181E+02     -1.43878484E+03     -7.20141016E+02
      2.14317584E+03     -1.19987555E+03     -3.40571887E+02
     -9.82914193E+02     -4.93941769E+02     -5.39683438E+02
     -2.33801928E+02      4.28097766E+02     -2.27243744E+03
      1.93218705E+03     -1.19243549E+03      1.55202862E+03
     -2.79214492E+02     -7.09865686E+01     -4.15045608E+02
      6.47841295E+02      1.50752576E+03     -5.00126447E+02
      1.13395851E+03      1.26758742E+03     -2.59649350E+02
     -5.17837653E+02      1.78233192E+02      5.78723140E+02
      2.70995783E+03     -5.87804194E+02      1.95517614E+03
      2.26745056E+03      3.64010923E+02      1.43235017E+03
      2.50458974E+02      1.69843582E+02      9.17143033E+02
     -1.34531270E+03     -1.17807150E+03     -1.18034200E+03
     -9.12287063E+02     -2.01727524E+03     -4.88333835E+02
      6.08477308E+02     -6.45919685E+02      1.27029545E+02
     -3.79044263E+02      2.06710444E+02      1.95303044E+03
      1.20058899E+03      1.00645829E+03      3.35916646E+02
      1.75537110E+01     -2.12148352E+02      4.43442227E+02
      3.94392079E+02     -6.46026218E+03     -8.32897037E+02
      3.23549963E+02     -9.72680335E+02      2.15743729E+02
      7.19635259E+02      1.75186105E+02     -2.00029901E+02
     -2.27285079E+03     -1.17677390E+03      1.57611370E+03
      9.61513201E+02     -1.59852600E+03      1.96503022E+03
      2.99667283E+02     -5.63662432E+02     -1.54016557E+02
      7.06092434E+02     -1.32545987E+03      8.73304039E+02
      1.82789023E+03      9.48607081E+02      4.89493108E+02
      5.91787979E+02      1.91581243E+02     -3.09664205E+02
     -3.59289312E+02      9.34328604E+02     -4.35129658E+02
     -1.05645888E+03      4.89250701E+02      2.36723737E+03
     -2.84818465E+01     -7.33274706E+02     -1.08817874E+03
      1.97390013E+03     -3.89670607E+02     -1.10662970E+03
     -3.45684933E+02     -7.71766892E+02      5.44638310E+02
     -1.86265029E+03     -8.22258894E+02      1.33414569E+03
     -1.41638377E+02      5.85099558E+02      1.18387173E+03
      7.02888199E+02      8.84071949E+02      7.77288704E+02
     -1.64807293E+03      3.48560046E+02     -8.21811632E+02
     -1.24536852E+03     -2.49728552E+03      1.39824992E+03
      4.40171914E+02      1.04606747E+02      7.80493427E+02
      7.57233537E+01     -1.91890295E+03      8.75295728E+02
      1.17419926E+03      4.08141467E+02     -3.15848901E+03
     -2.62752540E+02      3.47536740E+02      3.00086488E+02
     -1.24623340E+03      8.65765952E+02      1.38081947E+03
     -1.77604576E+03      1.24882744E+03     -1.37913415E+03
     -4.89362173E+02     -4.51169118E+01      5.92320583E+02
     -1.52251456E+02      8.88275127E+02     -4.66415607E+02
     -1.35706414E+03     -1.44387303E+02     -5.30278196E+02
      3.03061376E+02      9.11798357E+02      7.74927698E+02
      9.75118184E+02      8.10606157E+02      7.98441630E+02
     -1.50355218E+03     -1.21552276E+03     -1.83162870E+03
     -1.16546366E+02     -6.03402758E+02      3.30141543E+02
     -8.39912231E+02     -2.06544285E+03     -1.81195738E+03
     -3.41645981E+03     -3.51522257E+02      6.69831225E+02
      1.80662929E+02     -1.56572827E+01      7.04766088E-01
      4.24143088E+02     -9.53030921E+01     -1.52454892E+02
      1.79813283E+03      4.14820047E+02     -1.10356183E+03
      2.86449505E+02      1.39584148E+02      2.33442713E+02
      1.03595318E+03      3.10528244E+03      1.01645664E+03
     -2.61597952E+02     -2.12589778E+02     -3.23980053E+03
      1.37736538E+03     -5.90392066E+02      1.16854488E+03
     -4.82097960E+01      2.09620387E+02      1.83136059E+02
      2.01483087E+03     -2.03056410E+03     -6.45318789E+02
      1.09597078E+03     -3.68104179E+01      7.99739377E+02
      2.49246587E+03     -3.35592508E+02     -8.02635216E+02
      1.00673981E+02     -5.96431628E+00     -3.41607039E+02
     -5.19372293E+02      3.29569315E+03      3.77236297E+02
      1.60441964E+03     -2.45844248E+03      1.08059525E+02
     -5.10157044E+02      2.03219251E+02      7.10378169E+02
     -2.70907458E+02     -1.58132392E+02      1.32305161E+03
     -1.08987866E+03      1.87455070E+03      1.23498599E+03
     -3.63799306E+02     -4.80580447E+02     -5.10872042E+01
      1.43829072E+03     -2.15132233E+03     -5.48335909E+02
      1.81044605E+03      3.26298861E+03      1.24440758E+02
      9.55970378E+02     -3.11348011E+01      6.40963591E+01
      1.22606411E+03     -1.11691116E+03      2.75488298E+03
      1.73020996E+03     -3.92757870E+02     -2.77115191E+03
     -6.24720921E+02     -2.52026168E+02      4.65324014E+00
      4.98013246E+02     -5.40938205E+02     -5.10500777E+02
      1.72792771E+03     -3.97361523E+03      1.28653003E+03
     -2.85824804E+02     -1.46763651E+02      4.59004291E+02
     -1.16022009E+03      1.60368641E+03      4.90171525E+02
      1.80541732E+03      2.05277355E+03      1.19826855E+02
      1.33495822E+02     -6.95413773E+02      2.66623014E+02
      8.75434246E+02      1.30021073E+03     -4.86854809E+02
     -1.96294074E+03      3.07386342E+02      1.55427925E+03
      3.40174838E+02      6.60437891E+02      4.10754919E+02
      1.83332494E+03     -3.89863952E+02      1.13695347E+03
     -4.82209814E+02     -3.41085816E+03      2.06732581E+02
     -1.16118214E+02     -3.47739918E+02     -6.42161674E+02
     -3.21226906E+03     -3.47359832E+02      2.47383139E+03
      1.13459809E+03      1.48804430E+03      1.38397996E+03
     -1.70302021E+03     -8.36859530E+02      2.60409392E+03
     -1.40178728E+02     -2.73741857E+02     -5.83326681E+01
      8.43194321E+02      1.29751872E+03     -9.80969810E+02
     -2.59969912E+03      8.21778251E+02      1.09091128E+03
     -6.47964738E+02      3.18600664E+02      1.39469002E+03
      1.21634642E+02     -6.96553375E+02      1.55501727E+02
      1.76449242E+03     -1.08819864E+03     -1.30841565E+03
      8.60506428E+02     -2.05442290E+03      1.42882056E+03
     -5.13559834E+02      3.98051228E+02     -3.20587421E+02
      9.51793324E+02      3.96997276E+02      2.26633123E+03
      7.58408985E+02      6.29324379E+02     -6.08473199E+02
      3.82224602E+02      3.02631411E+02     -3.91435275E+02
     -9.35928262E+02     -1.14522784E+03      3.19553852E+03
      1.71041129E+03     -7.25336304E+02     -2.60873216E+02
     -2.37362407E+01     -4.38182881E+02      6.80625758E+02
      8.95809945E+02      9.80275739E+02      3.02061061E+03
     -5.27048144E+02     -2.96572726E+02     -1.50648328E+03
      8.14670696E+02     -7.71861356E+01      2.70499950E+02
     -8.95308063E+02      1.68569782E+02     -6.20230338E+01
      2.05763980E+03      1.15454697E+02      2.41034951E+03
      2.86017625E+02     -7.10486181E+01     -9.71790413E+01
      1.09384234E+03      1.50563534E+03      5.96244749E+02
      1.94413299E+03      7.07991869E+02      5.47732818E+02
      1.61464812E+02      2.07856935E+02     -3.60641291E+02
      1.19152998E+03     -7.80914963E+02     -1.47111898E+03
      7.25223997E+02      1.28937131E+02      6.15178905E+02
      5.52748834E+02     -7.83514260E+01      6.50607198E+01
     -3.86956862E+02      1.85675186E+03      3.30048548E+02
     -2.29276502E+03     -2.51074412E+02     -2.52879111E+03
     -1.85140489E+02     -3.85609748E+02      5.89722524E+02
      2.99958517E+02      3.09601126E+02     -6.49483329E+02
     -6.86434938E+02     -1.53435209E+03      3.30027408E+03
      2.18863189E+03      1.90203959E+02     -2.72528778E+02
      1.50112054E+02      5.40331143E+02     -1.63722237E+02
     -4.86693516E+02      3.77428148E+02      3.14466932E+03
      1.12612929E+03     -1.55394836E+03     -1.36959143E+03
     -1.41293981E+03      4.79677465E+02     -3.61001211E+01
     -5.04391932E+02      2.87718951E+02      1.75020035E+02
      3.85377459E+02     -9.65190582E+01     -1.43822097E+03
     -3.01379511E+03     -9.40715979E+02      4.00305667E+02
      1.99666728E+02      1.79968173E+02      3.15106205E+01
      2.19510415E+03      4.52137793E+02      2.98439713E+03
      1.11158464E+02      8.58927865E+01      2.49200193E+03
     -7.56208288E+01      2.59923117E+02     -9.80061841E+01
      2.49021085E+03     -2.00669325E+03      1.09915495E+03
     -1.59431259E+03     -1.56296218E+03      6.05999637E+02
      5.38471944E+02      5.05249359E+01     -2.61461426E+02
     -1.07673210E+03     -1.84329956E+03     -4.11217487E+02
      7.50102498E+02     -3.29803758E+02     -9.83948059E+02
      1.39219319E+02     -2.22328470E+02      6.04521714E+02
      1.30590347E+03     -9.18874039E+02      1.99015138E+03
      3.00390196E+03     -6.77601549E+02      1.05078605E+02
      6.44229475E+01      2.67485022E+02     -6.25176516E+02
     -3.14865830E+03      8.07033169E+02     -2.70315753E+02
     -6.95140516E+02      6.84272859E+02      2.10081820E+03
     -4.00645165E+01     -2.96506453E+02      8.69667445E+02
     -4.90802612E+02      8.45614130E+02     -1.39557542E+03
     -2.53531018E+03      2.06193081E+03     -4.21150998E+02
      3.60246910E+02      1.41679579E+02      8.89265843E+01
     -3.02393550E+02      2.60770686E+03      1.64632503E+03
      2.36911493E+03      4.20361753E+03      3.09172053E+03
     -9.06728541E+01      1.03116516E+02      6.89303727E+02
     -5.40759270E+02     -1.53793912E+03     -2.70676212E+03
      7.02069401E+02     -1.37813428E+02     -1.81129056E+03
     -1.32340820E+03     -3.60834753E+03      5.23203765E+02
      4.14137804E+02     -1.16946721E+02     -1.94592760E+02
      5.35168158E+02     -1.24720323E+02      2.27666973E+03
     -7.18606212E+01      4.34016329E+02     -1.19639075E+03
     -4.91127423E+02     -2.33429845E+03     -7.97323960E+02
      6.79440975E+02     -6.54841783E+02      3.45346443E+02
      2.22397736E+03     -1.02874951E+03      1.00166584E+03
      2.21886621E+03     -2.76529269E+02      4.17551978E+02
     -3.91758494E+02     -5.25956690E+02      1.80896856E+02
     -8.31285326E+02     -1.35856114E+02     -5.24985471E+02
     -1.06100402E+03     -1.35513943E+03     -1.78335963E+03
     -4.50022690E+02      4.26316787E+02      2.13522368E+01
     -1.81562272E+03     -4.35569170E+02     -8.79917979E+02
      1.31854865E+03     -9.60166960E+02      1.58720993E+03
     -9.21549045E+01     -3.33413459E+02      2.15917549E+02
     -7.86042897E+02      6.60049427E+02      9.11341510E+02
     -1.56348416E+03     -2.74225447E+03      1.51009966E+03
      1.15023758E+02      1.68499499E+02      7.39257488E+01
     -5.06099947E+02     -2.20195635E+03     -6.10659638E+02
     -2.26161400E+03     -1.06882618E+03     -1.00489459E+03
     -8.74616502E+01     -1.53383195E+02     -2.81674508E+02
     -1.69995237E+03     -6.82531553E+02      9.45282223E+02
      2.34889089E+03      1.00444110E+03      6.79585148E+02
     -6.35304196E+01     -1.09401944E+02     -1.67777875E+02
      2.15222597E+02      3.70525626E+02     -8.96130549E+02
     -2.81650725E+02      2.19087641E+03      1.34221482E+03
     -8.94314927E+03      5.79402153E+03     -6.62673318E+03
      1.00891369E+03     -5.14152693E+02     -7.14204174E+02
      1.65904650E+03     -6.95039028E+02     -9.40295986E+02
     -4.41866374E+02      2.46102202E+01     -6.79849594E+02
      1.66826066E+03     -9.24590641E+02     -6.34922116E+02
     -5.19406991E+02     -1.63184786E+02      4.40523449E+02
     -2.42965383E+03      1.54905911E+03     -2.07414439E+03
      7.80429369E+02     -3.62967166E+02      3.04580134E+02
      2.57388888E+03      1.66941528E+03      4.42462442E+03
     -1.74375443E+03     -1.24208672E+03     -3.39545945E+01
      1.65765308E+03     -3.74696096E+02      3.02225196E+03
      2.28368869E+02      8.63996419E+01     -1.06320904E+02
      4.94263685E+02      3.03871051E+03      2.51800571E+03
      2.47511923E+03      2.11580162E+02     -1.66463403E+03
      3.18785433E+02      5.30394030E+02     -8.04925071E+02
     -2.85991996E+03      2.47552246E-01     -1.44889662E+03
     -6.27444298E+02      1.52179717E+03     -1.21635580E+03
     -6.50175055E+02     -1.32959968E+02      1.26678888E+02
     -2.33686755E+02     -3.64669312E+02     -2.96405791E+03
      5.52318960E+02     -8.47754854E+02     -1.24090835E+03
     -6.10148968E+02     -2.91052663E+02      5.13462206E+02
     -1.58852813E+03     -1.88742918E+03      3.43359189E+02
     -5.00667944E+02      2.50956809E+02     -1.37928980E+03
      8.27254153E+02      3.40928036E+00     -2.99781309E+02
      1.89798912E+03     -4.54192300E+02     -2.07976006E+03
      2.06607171E+03     -1.92098390E+03      3.78032847E+03
      3.42970628E+02     -1.46727597E+02     -5.10985998E+02
     -3.46270084E+01     -7.55167049E+02      1.76130822E+03
     -1.82532589E+03     -2.09308059E+03      1.06125859E+03
      1.09937065E+02      6.12545613E+02      2.90392946E+01
      3.70223242E+03      2.36446825E+02     -2.59543695E+02
      1.16517634E+02     -3.18441310E+03     -1.32674813E+03
      3.38973799E+02     -1.49977961E+02      8.76057822E+02
      1.87172652E+03     -2.01007282E+03      1.53378496E+03
      1.96137409E+03     -5.11315453E+02      1.56770629E+03
     -3.17922434E+02      1.01768691E+02      8.61662520E+02
      1.46917800E+03      1.17507523E+02     -1.58313643E+01
     -5.38575539E+02      4.12168524E+02     -9.62824506E+02
      2.63837897E+02     -2.13608659E+02     -3.50101471E+03
     -1.12967843E+02     -4.58243799E+02     -1.62996864E+02
     -4.90200222E+01      5.05449859E+02      9.49663103E+02
     -1.15715389E+03      1.83464973E+03      3.47036419E+02
      1.84088778E+03     -8.33396319E+02      9.53721551E+01
     -2.16869576E+02     -1.58989774E+02      6.42772258E+00
      8.98083294E+02      1.19757793E+03     -3.23527524E+03
     -3.24514607E+03      2.13815230E+03      1.69043616E+03
     -6.18372329E+02     -5.43165709E+02      2.27253873E+02
      3.29552596E+02     -8.70576981E+02      2.76104079E+03
     -9.64524984E+02      1.77314428E+03      3.20342430E+02
      1.23082295E+02      1.25738950E+02     -9.78995085E+02
      1.39547433E+03      6.12425610E+02      1.35701348E+02
     -1.89903019E+03     -2.45977384E+03     -1.79758884E+03
      1.31190776E+02     -4.31500478E+02     -2.92930278E+02
     -1.71578813E+03      3.11871166E+02     -7.68867371E+02
      2.27501061E+03      2.94855781E+03      1.45488744E+03
      2.76127058E-02      5.12486681E+00     -3.95484945E+02
     -1.71525059E+03      5.36404940E+02      4.23720160E+03
     -4.68818302E+02      2.19994195E+03     -6.75012166E+02
      3.74813318E+02      2.34571012E+02      4.68603856E+02
      9.24354532E+02     -8.38200159E+02     -3.09336420E+02
     -1.44173613E+03      3.55540630E+02      2.99273750E+02
      7.08814040E+01     -2.81290004E+02     -3.81092164E+01
      2.10579648E+02      6.68543560E+01     -9.09740911E+02
     -4.43126628E+03     -9.38305493E+02      1.96848912E+02
      3.43943644E+02     -2.90426097E+02     -6.51121861E+01
     -3.87480717E+03     -1.01223845E+03     -3.48882912E+02
     -5.53709616E+02      6.47572545E+02     -2.47675025E+03
     -2.06718918E+02     -2.98776159E+02     -4.74120273E+02
     -9.24770960E+02     -1.99341315E+02      6.57509082E+02
     -3.56868419E+02      1.59938822E+03      1.36892451E+03
     -9.18161478E+01     -3.14924711E+03     -2.20249479E+01
      7.21975205E+02     -3.57824342E+02      1.10491505E+02
      3.30825342E+02      3.80675339E+02      8.96546128E+00
      7.16540093E+02     -1.24689937E+03      4.86248273E+02
      8.32249763E+02      5.72000750E+02     -1.86530812E+03
      8.07679518E+01      2.94080848E+02     -1.85380037E+02
      1.15773574E+03      5.26707976E+02      1.78381941E+03
     -6.49494618E+02     -7.90837890E+02     -4.73104754E+02
     -1.17605964E+02     -2.51618455E+02      2.16850788E+01
     -4.55906302E+02      4.34384050E+02     -8.54761168E+02
     -2.52970199E+03     -4.14258955E+02     -4.54905634E+02
      3.16641528E+02     -6.49537933E+02      5.23785997E+02
      1.06889061E+03      3.29654205E+02     -1.33747820E+03
     -9.62433504E+02     -5.53238776E+02     -1.55380024E+03
     -7.00302862E+02      2.85049626E+02      1.48324742E+01
     -1.70965768E+02      1.93374004E+03      1.47572433E+03
     -1.32335789E+03     -1.78898591E+03     -3.05554992E+03
     -3.47384287E+02      2.14712507E+02      5.16940029E+02
      5.91510372E+02      1.26937488E+03      2.23958880E+03
      9.78257588E+02      6.25736175E+02      6.11664682E+02
      1.96784727E+02     -3.29225909E+02      7.22791100E+02
     -2.52784018E+02      1.65445372E+03      8.94504268E+02
     -5.13272455E+02      7.18676788E+02      2.84202548E+02
     -3.31936198E+02      3.62946642E+02     -5.14698202E+02
      1.78398845E+03      5.88370600E+02     -1.24224623E+03
     -1.92774729E+03     -1.63985686E+03     -1.60309445E+03
     -4.20013149E+02     -3.89338195E+02     -3.17099630E+02
     -8.60045791E+02     -5.58369720E+03      2.71891198E+02
     -9.87434715E+02      1.08524633E+02      1.84927426E+03
      1.86160429E+02      4.51386214E+02     -1.41412059E+02
      1.63011963E+03      3.83360725E+03     -3.17121694E+02
     -1.98000547E+03     -1.83325588E+03     -9.92256846E+02
     -1.23757138E+03     -1.47448096E+03      6.14802452E+02
     -4.10427533E+02     -2.79881959E-01     -2.82872484E+01
     -1.48787193E+03     -8.68690751E+02     -8.86624766E+02
     -2.16688244E+02      2.27814806E+03     -3.72365816E+03
      9.97331177E+01      1.34567576E+03      8.12783036E+01
  }
}

Hamiltonian = DFTB {
  SCC = Yes
  SCCTolerance = 1e-6
  MaxSCCIterations = 200
  ForceEvaluation = Dynamics
  MaxAngularMomentum = {
    C = "p"
    H = "s"
  }
  Charge = 0.0
  SpinPolarisation = {}
  Eigensolver = Standard {}
  Filling = Fermi {
    Temperature [Kelvin] = 300.0
  }
  SlaterKosterFiles = Type2FileNames {
    Prefix = "../../pbc-0-3/"
    Separator = "-"
    Suffix = ".skf"
    LowerCaseTypeName = No
  }
  KPointsAndWeights = {
    0.0000000000000 0.0000000000000 0.0000000000000 1.00000000000000
  }
  Dispersion = LennardJones { 
    Parameters = UFFParameters {}
  }
}

ParserOptions = {
  ParserVersion = 3
}
