Geometry = GenFormat {
<<< "system.gen"
}

Driver = VelocityVerlet{
  Steps = 100000
  TimeStep [fs] = 0.2
  MDRestartFrequency = 5
  Thermostat = None {
    #InitialTemperature [Kelvin] = 300.0
  }
  Xlbomd{ 
    IntegrationSteps = 6 
    MinSccIterations = 2
    MaxSccIterations = 200
    SccTolerance = 1e-6 
  }
  Velocities [m/s] {
     -9.10969841E+02     -2.01294160E+02      4.29149867E+02
     -1.04781832E+03      1.09481944E+03      2.03687360E+03
      4.61328835E+02     -1.17364137E+03      3.17691776E+03
      2.14904218E+02     -3.66081004E+02      1.75343781E+02
      8.41214763E+02      5.33479432E+02     -8.26361203E+01
     -1.42865141E+03     -4.43700488E+02     -1.93699506E+03
      5.40874317E+02      1.01586575E+02     -5.24175082E+01
     -2.13312116E+02      1.28397397E+03     -2.44709908E+03
      2.44115956E+03     -4.47544126E+02     -1.42109529E+03
      4.32999894E+02     -1.24429312E+02     -1.43535162E+02
      2.43131507E+03      6.45562648E+02     -7.80564883E+02
     -2.25019917E+02      3.22875523E+02      1.20969844E+03
     -1.23777320E+03      3.50575451E+02     -2.25469895E+02
      1.07254841E+03      6.55943917E+02      3.01358057E+03
     -2.42154120E+03     -1.03873930E+03      1.93652587E+03
     -9.32665158E+02      2.82851699E+02     -2.37383005E+02
     -3.08786081E+03      1.12475240E+03      7.67378231E+02
     -1.30124002E+03      1.83162909E+01     -7.48894364E+02
      4.75237505E+02     -2.00887674E+02     -1.68182352E+02
      2.32912509E+03      1.52598137E+03      1.08003732E+03
     -4.23565417E+02      6.25382842E+02     -2.27858169E+03
      2.46580619E+02     -9.44653108E+01      3.70452873E+02
      7.27310834E+02      1.87552112E+03      9.00984312E+02
     -5.10697276E+02      1.00110621E+03      4.42031977E+01
      5.62109348E+02     -4.32869598E+02     -3.18304415E+02
      4.97829202E+01     -4.30422503E+02     -4.65024579E+00
     -2.12444103E+02     -2.22660164E+03     -7.17916574E+02
     -2.18237163E+03     -5.96408060E+02     -1.18846458E+02
      6.42192572E+02      1.02996865E+02     -7.14223190E+02
      1.90224812E+03      3.13275510E+00     -5.00817204E+00
     -1.61773857E+03      6.51792681E+02     -4.88397948E+02
      5.36978763E+02     -2.04423967E+03     -7.58871262E+02
     -1.00286283E+03     -6.72220482E+02     -4.03199723E+02
      3.79209918E+02      1.14482388E+03     -3.45172096E+02
     -1.12410872E+02      1.53824112E+03      8.27658617E+02
     -1.70397677E+01      3.20083923E+02      2.03701974E+02
     -1.16716946E+03      1.42997889E+03      1.52458914E+02
      1.05578206E+03      1.59688397E+03      2.14015787E+03
     -4.49215938E+02      1.23793137E+02      2.82883580E+02
     -6.77852492E+02      1.22733990E+03      2.29374355E+03
      8.99622367E+02     -3.78856209E+02      9.92763298E+01
      1.98091601E+01      7.20440878E+02      1.07243852E+03
     -1.85663306E+03      1.29764379E+03      3.73132383E+02
      8.77635038E+02      2.95576002E+03      1.28511189E+03
      5.85242783E+02      2.15871750E+02      2.55288691E+02
      2.04892706E+03      4.82955418E+02     -3.78294792E+03
      5.96476935E+02      6.30773472E+02     -5.45578140E+02
     -1.22062859E+04     -4.74646501E+03     -1.20447799E+04
     -2.00529953E+03     -8.93846398E+02     -3.05434814E+03
     -1.14657569E+03     -3.74667909E+02      2.32285646E+01
     -1.48327232E+02     -7.02985610E+02      6.24921315E+01
     -1.66214630E+03     -5.59621355E+02      1.95059234E+03
     -1.66968899E+03      4.78823384E+02     -4.43960637E+02
      2.17050511E+02     -7.20148797E+02      9.62072416E+02
      9.36858094E+02      7.99606264E+02      2.48131162E+03
      1.45585818E+03     -2.50247085E+03      1.06861046E+03
      2.62096129E+02      9.08888478E+02     -9.80216257E+01
     -1.21502369E+03     -4.09036481E+02      7.78161679E+02
      4.10441468E+03     -1.28977949E+03      1.04195647E+03
     -6.38448121E+02     -4.16832528E+02      2.24919125E+03
     -3.79723263E+02     -4.34736959E+02      5.14050647E+02
     -1.19778730E+03      1.63799726E+03      2.11535007E+03
      1.14596416E+03      1.11610752E+03     -4.99713139E+02
      1.01123158E+03      4.41477029E+03      4.11052048E+02
     -2.22765293E+00      4.57802995E+02     -2.23389773E+02
      1.89357309E+03      1.32488125E+03     -7.62284589E+02
      4.56077762E+02     -1.45961009E+03      1.24795282E+03
      3.71274176E+01      3.22944292E+02     -1.23771774E+02
      1.39910766E+03     -3.90449432E+03      5.48522248E+02
      1.80349880E+03      4.24720052E+02      1.28689664E+03
     -8.60999326E+01      4.73666893E+02     -2.39469986E+02
      3.30443176E+03     -8.52717773E+02      3.27100340E+02
      3.50343566E+02      3.37424954E+03     -1.38246808E+03
      3.82635566E+02      2.46497837E+02      7.14782963E+02
      1.35093769E+02     -2.65965381E+03      8.12817310E+02
      2.76020579E+03     -9.17197736E+02     -1.97460304E+03
     -3.39823758E+02      5.29273846E+02      1.10034261E+03
     -1.70941812E+03      1.75554914E+02      1.41532176E+03
      4.12156283E+01      2.22254535E+03      1.42350417E+03
      4.37793797E+02      1.17836787E+02      8.31375168E+02
      1.54813014E+03     -1.30083085E+03      2.33745947E+03
     -1.62989600E+03     -1.16315838E+03     -3.55166187E+03
      2.82566931E+02     -1.49312533E+02     -4.85971670E+02
     -3.91162487E+02      5.00498244E+02      5.46736576E+02
      1.17438373E+03     -1.42263338E+03      2.01937813E+03
     -1.90255550E+02     -1.48470544E+01     -1.90318782E+02
      2.24123429E+02     -5.66098802E+02     -9.71090796E+02
     -1.16647214E+03     -1.40659336E+03      3.89069758E+03
      1.71856987E+02      1.81825755E+02     -4.50821094E+01
     -2.83755676E+02     -1.30797931E+03      2.11391264E+03
      3.65373358E+02      2.79715200E+03     -1.67955580E+01
     -8.77880714E+02      1.52392809E+03     -2.25146667E+03
     -3.02588036E+02     -4.29332614E+02      5.54644715E+02
     -2.07807672E+03     -2.61147897E+02     -6.35964858E+02
     -1.08464345E+03     -1.14149101E+03      3.01573458E+03
     -7.35805005E+02     -3.15417871E+03      2.30105290E+03
      6.51376485E+01      2.03968257E+02     -1.38513539E+02
     -6.02645920E+02     -3.79591805E+01     -1.47835154E+03
     -7.36255696E+02     -1.63917082E+03     -1.01941768E+02
      3.22986625E+02      7.31314849E+02     -2.64514305E+02
     -6.09307214E+02     -2.02036990E+03      1.47522613E+03
      1.40014311E+03     -6.51059594E+02      1.95530438E+03
      1.63346847E+02     -1.64610928E+02      5.69094884E+02
      6.86651482E+02      9.24781998E+02      1.31271482E+03
      1.06283931E+03     -8.03244400E+02     -2.33538110E+03
      2.76450366E+02      1.09306333E+02      4.77815180E+02
     -6.62059839E+02     -3.10818967E+02      2.03184086E+03
     -1.66046295E+03     -4.76671889E+02     -2.03761241E+03
     -8.33472709E+01      5.64001297E+02     -6.53516343E+02
      1.86439158E+03      4.89649954E+02     -2.01258685E+03
     -8.11379654E+01     -8.41867950E+02     -1.57588471E+03
      3.51586650E+02      2.64165276E+02     -4.04353424E+02
     -4.68263771E+02     -2.00757275E+03      2.18539982E+03
     -2.67626645E+03     -2.39923556E+03      8.73532353E+02
      2.12738409E+02      3.90669840E+02      3.83911380E+02
     -2.60670326E+03     -1.55729235E+03     -1.10573324E+03
      1.30377767E+03     -3.32017497E+02     -1.17444026E+03
      6.65212795E+02     -3.02918398E+02      3.80747156E+02
     -9.18572811E+01      6.44974977E+02      2.77064031E+02
     -1.13972588E+02      5.40636655E+03      5.11441886E+02
     -2.28572487E+02     -2.93291750E+02     -5.86325312E+02
     -1.37733525E+03      7.83308885E+02     -5.80331326E+02
      7.05141001E+02      5.92678636E+02      2.79162180E+02
      1.38095392E+03     -1.92369769E+03     -1.80164039E+03
      9.12555910E+02     -5.96199655E+02     -1.04465078E+02
     -3.76541641E+01      1.08938902E+03      1.70865299E+02
     -5.36037654E+02      1.93425612E+03      6.57280283E+02
      1.52529911E+03     -6.55037798E+03     -2.03791149E+03
     -7.46124178E+02     -6.50597459E+02     -5.51840754E+02
     -2.35041419E+03     -4.61793948E+02     -1.55363431E+02
     -5.46832959E+02     -3.15331207E+03      1.43839421E+02
      1.10869512E+03      2.27946687E+02      1.17984159E+03
     -2.77145399E+03      1.08482332E+03      2.60164455E+03
     -3.66269681E+02      3.71385664E+01      8.65732319E+02
      1.16921078E+03      3.49210129E+01      4.61425544E+02
      7.05049409E+02      1.80453875E+03     -6.14339281E+02
      1.29008372E+03     -2.98538176E+02     -9.75850624E+02
      8.67588861E+01     -4.36825310E+02     -1.54172918E+02
      9.49507857E+02      9.19424371E+02      4.01959784E+02
     -1.28161620E+03     -6.17787554E+02      1.49816578E+03
     -7.05959531E+01      1.34053671E+01     -6.79374415E+01
      1.37385134E+03     -7.02912154E+02     -4.20031509E+02
      6.36200316E+02     -6.56150027E+02      6.92563104E+02
      7.61633919E+02      6.74850383E+02      3.26212953E+02
     -6.69163585E+02      2.80112262E+03     -1.25180258E+03
     -9.69855146E+00      1.90395810E+03      1.72346188E+03
      1.79336676E+02     -7.94030297E+01     -3.15371507E+02
      3.01723965E+02     -1.59487906E+02      1.00839389E+03
     -1.40387301E+03     -4.77564962E+03     -5.58526749E+01
      9.73489719E+00      5.73074420E+02      6.75349015E+02
      3.31737577E+03      6.42428746E+02      2.09902434E+03
     -1.49508431E+03      2.78625311E+03     -1.91162436E+03
     -2.41290187E+02      6.94540323E+02      2.14795007E+01
     -6.61777970E+02     -1.98224490E+03     -7.54982055E+02
      1.52849940E+03     -1.56736617E+03      2.04799984E+03
     -9.44415441E+01     -9.08658099E+02     -7.79015605E+02
      4.46187427E+01      2.94525528E+02     -7.08489495E+02
     -3.98886146E+01      2.20310717E+03     -8.25069682E+02
     -6.55488733E-01      6.61032835E+02      1.56577360E+02
     -5.64153208E+02      5.26067310E+02     -3.36681173E+02
     -6.44473040E+02      1.09115734E+03      5.05340469E+02
     -1.35003504E+03     -1.45892471E+03     -1.90875770E+03
      1.24035148E+03      4.17003252E+02     -9.66052346E+02
      5.92844638E+02      3.45788130E+02      2.50497787E+02
     -3.66798653E+02      1.69650554E+02     -1.74322880E+03
      1.56417248E+02      2.00081841E+03      1.86473121E+03
     -7.41440887E+02      3.46082528E+02     -2.64997336E+02
     -2.46530489E+01     -4.69439260E+02      1.60830745E+03
      5.96182053E+02      7.94623724E+02     -2.36874022E+03
      7.09798026E+01     -5.67483680E+02     -4.34337132E+02
     -1.86646977E+03      1.65138308E+03      1.52457131E+03
      9.10241657E+02      5.37281694E+02      4.45647740E+01
      3.39438046E+02      9.33011484E+02     -2.75872794E+02
      3.35473002E+03     -1.69277702E+03     -2.16945276E+03
     -7.60789798E+02      5.57140093E+02     -3.53154708E+02
      7.17755926E+01      5.31536190E+02      1.43398497E+03
     -9.32428435E+02     -1.27344995E+03      1.43802688E+03
     -3.75800678E+03     -2.63475551E+03     -2.18990897E+03
      2.64587198E+02     -7.38437253E+02     -3.18934992E+02
     -6.58900673E+02      2.22861406E+03     -8.93612575E+02
     -5.88661739E+02      1.74623954E+03      2.39876367E+02
     -1.51518296E+02      2.56522274E+01     -4.87303636E+02
      1.29813410E+03      3.27999749E+02     -3.73591150E+02
      4.42089968E+02     -1.91572887E+03      1.16497452E+03
     -2.98109248E+02      1.09664626E+03      1.54165355E+03
     -6.08151111E+00     -2.21494945E+02     -1.45026232E+03
      2.07492549E+02      1.30040545E+03      1.71194078E+03
      3.73173577E+03      2.22394751E+03     -1.26073390E+03
      1.95337595E+02     -1.31932118E+02     -6.76636088E+02
      2.02002050E+03     -1.52814390E+03      6.74093080E+02
     -3.81700283E+02     -1.16942442E+03      1.64021781E+03
      8.77194988E+02     -3.60711620E+02      7.78723748E+02
      1.46104382E+00      1.47032351E+01     -3.19215355E+02
      5.70439984E+02      9.52081626E+02      1.55284240E+03
     -3.32895062E+03     -3.54621330E+03      9.19607396E+02
     -2.84947396E+02     -1.51283766E+02      3.52382235E+02
     -3.19474445E+03      6.54586843E+02     -1.72333374E+03
      1.52014074E+03     -3.41540095E+02     -2.31828322E+03
     -1.27978136E+02     -5.37142300E+02      5.98996859E+01
      7.13316517E+02     -1.07493434E+03      5.65547954E+02
     -1.52181539E+03     -7.49862000E+01      2.66832720E+01
      7.96651704E+02     -2.26922673E+02      4.69937386E+02
     -1.61776377E+03     -8.24117369E+02     -1.14960524E+03
      6.26220865E+01     -1.00397280E+02     -5.73897221E+02
     -3.92905555E+02      7.27604737E+01     -3.46742341E+02
     -8.37654233E+02     -1.45838631E+03      1.50965730E+03
      1.18882968E+03     -6.53440736E+02     -2.45992921E+02
      1.09869113E+02      4.54127831E+02      3.36749577E+02
      2.09797340E+03     -1.36983553E+03     -6.54028238E+02
      2.62108281E+03      1.95721964E+02      1.42427645E+03
     -1.05778378E+02      4.13650570E+02      2.45798896E+02
      1.66641088E+03     -1.81950021E+03     -3.49671054E+02
      2.85831528E+03     -1.25802585E+03      6.00515192E+02
     -5.49126056E+01      1.66354093E+02     -4.89292446E+01
     -2.26920741E+02     -1.32982834E+02     -1.27669428E+03
     -2.28613521E+03      7.73366758E+02     -1.26102514E+03
     -5.58881039E+02      2.01415296E+02      9.77949548E+02
     -2.75933446E+03      6.61217122E+02      1.22275165E+03
     -1.51316035E+02     -4.49181310E+01      3.42715855E+03
     -2.73338548E+01     -1.73489570E+03     -2.19597307E+03
      4.17110463E+02     -3.83280393E+02      6.15330606E+02
      2.26348416E+03      1.31220454E+03     -1.06082326E+03
     -4.47376435E+01     -5.15467472E+02      1.68860913E+03
     -9.70461714E+01     -4.98543725E+02     -3.67103396E+02
      1.19094413E+03      3.50926568E+02     -5.04926859E+02
     -4.99140309E+02      2.15747799E+03      3.04701451E+03
     -1.11484349E+03      1.63597311E+03      1.99689007E+03
     -2.43822579E+02      4.38015044E+02      1.10154475E+03
      1.32298390E+03      2.15557472E+03     -2.18953503E+03
     -9.56511113E+01     -1.87556481E+03      6.33055717E+02
      1.85844595E+02      1.08888447E+01      1.95372704E+02
      4.42273990E+03      4.01394830E+02     -2.48074654E+03
     -1.04983992E+03      1.07220618E+02      2.96302275E+03
      3.92178033E+02      2.98494786E+02      1.38398209E+03
     -5.89777347E+02      1.46722236E+03      5.90883152E+01
     -2.28746807E+03     -2.23442869E+03      1.64167050E+03
     -2.69313761E+02      5.65651346E+01     -3.58568477E+02
     -1.68725429E+02      7.69359908E+01      3.66056243E+02
      7.78531613E+02     -9.08525841E+02      4.89254335E+02
      2.09282943E+02      2.92499329E+02      4.90997282E+02
      7.91844271E+02     -1.65283745E+03     -1.77199092E+03
     -1.47109105E+03     -2.01790917E+02     -1.97354060E+03
     -6.28254891E+02     -5.17427885E+02      2.37673970E+02
     -2.44668746E+03      1.80298659E+03      1.11972944E+03
     -7.75725253E+02      5.77925445E+02     -1.03038269E+03
     -5.35473563E+02     -1.77274466E+02      1.24736160E+01
     -1.74737312E+02     -3.18419738E+03     -4.33258812E+02
      5.67596842E+01     -9.17464097E+02      2.02918512E+03
     -6.11416548E+00      3.38349827E+02      7.02163130E+02
      2.34488557E+03      1.21715772E+03     -1.57644904E+03
     -2.66210987E+03     -8.48205578E+02      1.75056600E+03
      1.88938771E+03      4.19006022E+02     -1.56304696E+03
      2.20134153E+01     -1.16352362E+02      6.92144736E+01
      1.96776732E+03     -1.85205664E+03      2.23762727E+03
     -1.09902924E+03     -6.91060705E+02      1.10799023E+03
     -1.09109776E+03     -1.24110579E+03      2.04112850E+03
     -1.25249337E+02     -1.57458499E+02     -8.79772546E+02
      1.28888449E+03      1.45167355E+03     -7.09793412E+02
     -1.28897151E+03      1.04957994E+02      2.43960144E+03
      1.57053142E+02      2.95305158E+02      4.22554585E+02
      6.79643100E+01     -2.88457692E+02      3.64712895E+02
      2.43946771E+03     -1.97427460E+03     -2.91418117E+03
      4.93231133E+01     -1.37066178E+02     -4.33342825E+02
     -1.03943344E+03      1.24839509E+03     -3.82697021E+03
      1.98216453E+02     -1.05794838E+03      2.42673446E+03
      3.60771885E+02      3.88797397E+02      1.09504955E+02
     -1.16716129E+03      1.64402828E+03      2.61364526E+03
      2.20109564E+03      9.77877931E+02     -1.86523011E+03
      6.28050836E+02      6.83245472E+01     -2.50517285E+02
     -4.62673148E+02     -1.63298906E+03     -5.74365940E+02
      6.91691253E+02      1.27338688E+03     -2.96388083E+03
     -5.29286230E+01      5.11888042E+02      9.87275850E+01
      1.96683910E+03     -8.87080616E+02     -1.20325541E+03
      5.26073061E+02     -7.61878582E+02     -8.68836172E+02
     -7.94955517E+01     -1.03633204E+02     -8.77482533E+02
     -3.97837182E+03      1.89492820E+02      8.31087948E+02
      1.87632125E+03     -1.64308035E+03     -1.68535616E+03
     -3.42048875E+02     -1.16427023E+03      3.30306805E+01
     -4.64424347E+02     -1.43673703E+03     -1.67834302E+03
      4.92444092E+02     -2.12857043E+03      2.59609070E+02
      1.80123334E+02      3.39878174E+02     -2.66727620E+02
      1.17870482E+03     -2.17346505E+02      3.58466982E+02
      4.31908692E+03      7.76755167E+01      5.56539511E+02
     -1.29615075E+03      1.06715910E+03      4.15507824E+02
      5.01208733E+02      2.09251423E+01      6.03368463E+02
     -2.70878330E+03     -3.21964896E+02     -9.37152102E+02
     -1.37635528E+03     -9.08468212E+02     -4.12903254E+02
     -1.49880490E+03     -1.87839256E+03     -6.75762608E+02
      5.84326931E+02      5.34781033E+01      3.75016554E+01
      1.19337711E+03     -1.92939800E+02      6.75982854E+02
      1.02706305E+03      2.48124447E+02     -2.20918575E+03
      5.74454517E+02     -4.00014424E+02     -7.21029561E+02
      3.33724033E+03      1.46184934E+03     -3.31777066E+03
      1.38281607E+03      8.13997833E+02     -9.19700290E+02
      4.91110354E+02     -2.85843565E+02      1.38499442E+02
      3.27408236E+03     -1.80882512E+03     -1.62162990E+03
      1.83658694E+03      1.98450120E+03      1.47869166E+03
      4.51450921E+02     -4.84539035E+02     -3.60540015E+02
      1.35879500E+03     -1.62285932E+03     -3.39971803E+02
      1.50170421E+03      1.40307076E+03      4.43631513E+02
      6.85818495E+01     -2.02610420E+01     -2.05429643E+02
     -1.33403228E+03     -9.46776753E+02      7.14522051E+02
     -2.67110545E+02     -3.33596432E+03      3.28947304E+02
     -2.29874932E+02      7.20544465E+01     -1.78379448E+01
     -9.04819721E+02      5.35685085E+02      2.56045805E+03
      1.23459717E+03      1.67559744E+02      4.12471716E+02
      2.37594645E+02      4.12247581E+02      2.91294621E+01
     -8.79568403E+01      6.71739382E+02     -2.69336452E+03
      1.38174912E+03      7.42880231E+01     -2.70862391E+03
      3.56659992E+02      3.69088075E+02      2.41340170E+02
      8.59120282E+02      1.85737188E+02     -5.96047971E+02
     -1.22305388E+03      2.27988572E+03      2.29346596E+02
     -2.71520597E+02     -1.37537182E+02      7.93360660E+02
      2.32730584E+03      2.79046805E+03      1.42693295E+03
     -3.75167022E+03      6.43546051E+02      1.34896674E+03
     -1.31641185E+03     -3.29013760E+02     -1.42653862E+03
     -1.59311277E+02      4.72724637E+02     -9.28578489E+02
     -1.01398632E+03     -2.18732659E+03     -3.14276655E+01
     -1.34498270E+03     -1.85515478E+03      8.00782374E+01
     -1.82800541E+03     -1.25617614E+03     -1.54769330E+03
     -9.55144440E+01     -2.74779493E+02      3.95812131E+02
      5.74151956E+02      1.53521876E+02     -2.67664995E+02
     -1.31148809E+03     -1.44106364E+03      6.72738547E+02
      6.01559812E+02      9.27388869E+01      2.61192846E+02
     -7.68374480E+02     -1.79652002E+03      3.20545127E+02
      1.92786222E+02     -3.04087756E+02      8.36637291E+02
      3.07821165E+02     -9.70817214E+01     -4.13524054E+02
      2.88398891E+03      1.49686651E+03      2.87307594E+03
     -1.85247764E+03      2.72338992E+02      1.59089241E+02
      2.32287426E+02      1.81606005E+02     -2.69917944E+02
      2.77486625E+03     -1.23187006E+03      8.70318201E+02
     -8.40968786E+02     -2.30502930E+03      8.48930672E+01
      8.85403610E+01      2.40496153E+02      1.20481105E+02
     -1.51869072E+03      3.28039218E+02      1.85906465E+03
      3.72909030E+02     -1.03949402E+03      4.29679907E+02
      1.84098488E+02      1.93887989E+01     -7.57046935E+01
     -8.85794694E+02     -1.18624405E+03      1.77844308E+03
     -1.55135083E+03      9.89252723E+02      9.54695427E+02
      3.87709359E+02     -9.70955019E+01     -2.47721408E+02
     -3.37152023E+00      7.96419540E+01      1.59928994E+03
     -1.05255550E+03      1.78782226E+03      2.22840735E+03
      6.06245172E+02      4.50395944E+01     -8.74350119E+02
     -1.23619435E+02     -1.17752835E+03      1.35445785E+03
      1.15995839E+03     -1.79137593E+02     -2.22736481E+01
      2.71326838E+02     -1.65657364E+02      9.13913130E+02
      1.60917285E+03     -1.38643880E+02      3.02625024E+03
      7.20440788E+02     -1.94227027E+03      3.35968202E+03
     -2.21748296E+03     -7.92884190E+01      1.17830547E+03
      1.10823125E+03     -3.78277793E+01      4.06117030E+02
      2.25081004E+03     -3.80948749E+02     -1.15173574E+03
     -3.34371056E+02      2.82019412E+03     -1.02596129E+03
     -1.56447804E+03     -4.68342982E+02      9.35033851E+02
  }
}

Hamiltonian = DFTB {
  SCC = Yes
  SCCTolerance = 1e-6
  MaxSCCIterations = 200
  ForceEvaluation = Dynamics
  MaxAngularMomentum = {
    C = "p"
    H = "s"
  }
  Charge = 0.0
  SpinPolarisation = {}
  Eigensolver = Standard {}
  Filling = Fermi {
    Temperature [Kelvin] = 300.0
  }
  SlaterKosterFiles = Type2FileNames {
    Prefix = "../../pbc-0-3/"
    Separator = "-"
    Suffix = ".skf"
    LowerCaseTypeName = No
  }
  KPointsAndWeights = {
    0.0000000000000 0.0000000000000 0.0000000000000 1.00000000000000
  }
  Dispersion = LennardJones { 
    Parameters = UFFParameters {}
  }
}

ParserOptions = {
  ParserVersion = 3
}
