Geometry = GenFormat {
<<< "system.gen"
}

Driver = VelocityVerlet{
  Steps = 50000
  TimeStep [fs] = 0.2
  MDRestartFrequency = 5
  Thermostat = None {
    #InitialTemperature [Kelvin] = 300.0
  }
  Xlbomd{ 
    IntegrationSteps = 6 
    MinSccIterations = 2
    MaxSccIterations = 200
    SccTolerance = 1e-6 
  }
  Velocities [m/s] {
     -3.81663622E+02     -2.92198867E+01     -5.07572774E+02
      1.90629125E+03     -1.20099207E+03      2.61548148E+03
     -8.30969591E+02     -4.57417327E+02     -9.73382088E+02
     -6.49342840E+02      6.62360958E+01      2.99019884E+02
      5.66523684E+02      2.35605224E+03     -1.12431535E+03
     -7.10972359E+02     -1.50627369E+03      1.78033969E+03
     -5.10928999E+02      9.20713529E+02     -4.75111376E+02
      1.43025458E+02     -1.23564326E+02     -4.26531077E+02
     -3.33507900E+03     -2.16331247E+03     -2.78624672E+03
     -1.02629180E+02      4.45947144E+02     -5.97592632E+02
     -6.71481277E+02     -1.39559814E+03      2.06565346E+03
     -1.55751932E+03     -2.52790264E+03     -1.06387318E+03
      7.31678467E+01     -8.42085456E+02      6.97151460E+02
     -9.60393304E+01     -2.05031464E+03      4.03011204E+02
     -1.52853096E+03     -7.01788450E+02      5.27058659E+02
      2.91036721E+01     -1.25062002E-01     -4.13061625E+02
      9.15466211E+02     -2.52389559E+03      6.12939571E+02
     -3.78039622E+02      2.38398724E+02     -1.89352934E+02
      1.16532981E+01     -4.16727964E+01      4.57925075E+02
     -2.42744755E+02     -1.22198901E+03     -9.00134457E+02
     -3.72970804E+02      2.59710468E+03     -7.71053324E+02
      3.74026277E+02      7.24314743E+02      5.33008686E+02
      1.06739770E+03      1.43455028E+03     -2.17685177E+02
     -1.39419784E+03     -4.24097585E+02     -2.44505464E+03
     -1.09403390E+02      3.02151962E+02      6.25780951E+02
     -1.87617925E+03      8.74646139E+01      4.49545146E+02
      1.41918035E+03      3.20694530E+02      4.57326876E+02
      1.17826344E+03      2.24110773E+03      2.41679007E+03
     -5.53026938E+01     -1.15263246E+02      2.82868969E+02
      1.33341554E+03      2.09545731E+03      3.62030531E+02
     -9.90930474E+02      2.85171007E+03     -5.64080534E+02
     -4.11170902E+02      4.09141118E+02     -3.22801111E+02
      1.41349918E+02      1.33615244E+02     -8.83290199E+02
      9.61881903E+02     -2.84018467E+03     -9.32302739E+02
      8.38852807E+01     -1.32099128E+03     -6.07665751E+02
     -8.74944109E+01      3.74521432E+01      4.38214198E+02
     -2.14654874E+03      3.88109420E+01      2.91420674E+03
     -1.35810587E+03      5.57143266E+02      1.69494193E+03
      5.98240670E+02      3.04627631E+02     -1.00347742E+02
      2.78513413E+02      2.89859268E+02     -6.63865593E+01
     -1.46994285E+03      1.79747748E+03     -2.12439159E+03
     -5.20847000E+02     -3.58578134E+02     -2.87420636E+02
     -4.56793146E+02      2.03807602E+02     -2.61554038E+03
      2.95553205E+02      1.43858260E+03      1.73985628E+03
     -7.59578640E+01      1.42428022E+03      3.96744661E+01
      1.02360601E+03      4.93068104E+02      3.29735806E+03
      3.42479236E+02      2.29150748E+02      1.19534135E+03
     -3.78681548E+02      4.08099012E+02      5.09374502E+02
     -1.94841255E+02     -1.68467067E+03     -1.39338851E+02
      6.02064591E+02     -2.25421951E+02     -1.27299130E+03
      8.85283911E+01      3.70564098E+02     -3.93932685E+02
      1.16553369E+03     -1.80856219E+03      2.72021481E+03
     -5.77557293E+01      9.88195238E+02      2.80595699E+02
      1.25746970E+02      9.91885833E+02      1.39204911E+02
     -3.17969814E+03     -3.29783267E+03     -3.83855246E+02
     -5.80943121E+02      1.90762929E+03      1.11036839E+03
     -6.27754802E+01      2.19706565E+02     -6.43019684E+02
     -4.80969318E+02      1.49906566E+03     -2.49281885E+03
     -2.82722326E+03      6.37273773E+02     -2.40138188E+02
     -5.51726903E+02      4.47542558E+02      9.40955305E+02
      8.96736119E+02      2.45191441E+02      6.52401294E+02
      9.43373241E+00      3.25123709E+03      1.83792504E+03
     -4.03454387E+02     -1.11523960E+03     -1.13745202E+03
      1.48993161E+03      4.73037551E+02     -3.82466920E+02
     -1.75416117E+01     -3.00871188E+02     -4.07943082E+01
      2.18661746E+03     -1.40022361E+03      8.52867491E+02
     -8.44354459E+02      9.72101799E+02     -2.94175220E+03
     -2.97249887E+02     -2.14076949E+02     -8.04161114E+00
     -2.38960545E+03      8.73253559E+02     -5.09676624E+02
     -1.64766428E+03      1.49441522E+03      1.41579743E+03
      2.96545794E+01     -1.95773043E+02     -6.74570009E+02
      3.79522140E+02      6.64565703E+02     -1.75519966E+03
     -2.03372500E+02      8.64235527E+02      8.04040240E+02
      5.46629549E+02      3.96684639E+02     -3.56661903E+02
     -9.61850927E+02      1.09432620E+03      6.13687895E+02
      1.30246133E+03      1.97331979E+03      2.17222412E+03
      1.94794395E+02     -1.76969876E+02     -1.41160221E+03
     -3.30013420E+02     -1.03608935E+03     -4.72372014E+02
     -2.56206017E+03      1.20085463E+01     -2.07212071E+02
      1.69480263E+02      5.44759073E+02     -6.86869122E+01
     -1.04041039E+03     -8.07533865E+02      8.89844697E+02
     -2.40864219E+01     -2.06014683E+02      3.68596423E+03
      1.66845718E+02      1.69963057E+02      4.38483363E+02
     -4.64651304E+02     -1.30783411E+02     -2.59716120E+03
      2.95868299E+03      2.77482113E+03     -1.14825060E+03
     -3.09359540E+02      1.60835139E+03      2.70946948E+02
     -1.25544801E+03      2.38318144E+03     -2.80263156E+03
      1.70720577E+03     -1.82521005E+03      9.47213829E+02
      2.58110011E+02      5.24571791E+02      3.08276083E+02
      3.03297392E+02     -4.91537541E+02     -8.34605406E+02
     -1.85541212E+03      6.09388623E+02      4.11332417E+03
     -1.66898842E+03      1.67814997E+01      1.67310381E+03
     -6.50568117E+02     -1.97849448E+02     -2.32987017E+02
      1.54538909E+03     -2.51304022E+03     -1.43141561E+03
     -1.49259653E+03      4.40151129E+01      1.53710835E+03
     -1.20895985E+03     -2.29911326E+03      1.48916756E+02
     -1.77687164E+02     -1.96787284E+02     -8.37330780E+02
      1.05995133E+02     -1.31909835E+03     -2.79573234E+03
      1.25993976E+03     -7.72737133E+02      2.59276462E+02
     -8.47808643E+02     -3.44485029E+02      4.75839146E+02
      4.55248006E+02      8.18741831E+02      1.30679949E+02
     -9.08333203E+02     -7.58518072E+02      9.46511618E+02
      6.03501393E+02     -8.99832444E+01      2.89443273E+02
     -1.92855921E+03      2.14476195E+03     -1.67100603E+02
      3.02783194E+03      1.71810166E+03      1.53196437E+03
      2.40653788E+02      7.35282422E+02      1.23930148E+03
     -1.32473971E+03      9.64861361E+02     -3.34182599E+02
     -8.41643899E+02      1.36181438E+03      1.73636640E+03
      2.61251645E+01      6.69361452E+02      4.70430704E+02
     -4.32552992E+02     -1.08761784E+03     -3.90434783E+02
      1.45753502E+03      6.04739762E+02      1.16726291E+03
      4.47131226E+02     -2.54539091E+02     -1.62924833E+01
      2.00667949E+03     -1.75387269E+03      8.16652826E+03
     -4.01939530E+01      4.15203707E+02     -6.11356238E+02
     -2.59187507E+02     -1.85954223E+02      4.83329974E+02
     -2.85118513E+01      2.66308186E+03     -2.06489082E+03
     -2.39352286E+03     -1.59446483E+03      4.56668288E+00
      7.53093637E+02      1.40881406E+02     -6.42163451E+02
      1.07331742E+03     -7.59758358E+02      1.21100930E+03
      1.53174480E+03     -3.78276541E+02     -1.82007140E+03
      3.54946687E+02     -5.30549914E+01      8.23729461E+02
      1.88606054E+03     -2.27476143E+03     -7.67360913E+02
      1.00586583E+03     -5.17009649E+02      6.41438636E+02
     -1.18801132E+03      5.52557689E+02      1.39611773E+03
     -1.86246337E+02      8.71283460E+02     -2.70969067E+02
     -9.45843646E+02     -8.80170246E+02     -1.81831894E+03
      1.39414014E+03      3.31977066E+03     -1.91293602E+03
      2.85395098E+03     -1.37047943E+03      7.05354688E+02
     -2.78516122E+02     -3.58550583E+02     -1.14871013E+02
      9.90140511E+02     -1.11868419E+03      9.09830358E+02
     -6.91610646E+02      1.41816608E+03      2.68474592E+02
     -3.11031096E+02     -1.08747320E+03     -3.20923494E+02
      2.44510791E+03     -8.95535965E+02      1.36298336E+02
     -5.09657102E+02      3.22454706E+03     -1.32374181E+03
     -1.61064401E+02      4.50618405E+02     -3.93895378E+02
     -1.25057604E+03      6.37755626E+01      7.80543444E+02
     -7.68796137E+02      1.80650044E+03     -2.63776429E+03
      6.14442928E+02      3.13091945E+02     -3.75527303E+02
      4.39478778E+03      2.80627676E+03      2.13742761E+03
      4.17999243E+02     -2.95814007E+02     -1.51144227E+03
     -6.21875878E+02     -4.84273255E+02     -5.59140223E+02
      1.70134138E+03     -2.38307337E+02     -2.87016985E+03
      3.90377794E+02     -3.20523062E+02      2.78508882E+03
      2.56761927E+02     -2.88074052E+02     -9.60945493E+02
     -1.20015963E+03     -4.86736493E+02     -2.33074994E+03
      2.78365563E+03      3.54754367E+02      8.00726687E+02
      6.39205696E+01     -3.29015748E+02      4.13566265E+02
     -1.17264838E+03     -3.93381777E+02      5.40336369E+02
      1.20725695E+03     -1.51415544E+03     -6.71938506E+02
      3.07837051E+02      6.24570538E+02     -4.53386895E+02
      4.26304955E+02      7.60566162E+02     -1.37121727E+03
     -6.89804639E+02     -1.03451180E+03      1.02130021E+03
      7.99865997E+02      6.31147108E+02      4.01358997E+02
     -9.51035711E+01     -1.53349225E+03     -2.36518470E+03
      3.38555316E+03     -5.12655740E+01      7.06725345E+02
      2.26792110E+03      3.59242171E+03      2.02231434E+03
     -2.81720593E+01     -3.81388981E+02     -2.77283294E+02
      2.49284981E+03     -2.47295961E+03      2.82853285E+03
      9.37050763E+02      1.03890184E+03      9.63523205E+02
      1.02704352E+03     -3.72849340E+02      8.36643564E+02
     -6.51297696E+01      5.50442885E+00     -3.69440903E+02
     -1.37648723E+03      3.81890487E+03     -6.58767254E+02
      1.49459027E+03      8.18487955E+02      3.63824816E+03
     -1.13419185E+02      5.11394258E+02      1.30778625E+02
     -5.18479053E+02     -3.98195906E+03     -7.66340270E+02
     -1.06240503E+03     -1.50541876E+03     -1.26914793E+03
     -1.56686726E+02      1.12256540E+03      4.29637782E+02
     -5.25382716E+02     -6.69255219E+02     -1.21324246E+03
     -1.38441469E+03      1.38957085E+03      2.38401853E+03
     -8.17610871E+01      4.59618284E+02     -2.72483215E+02
      6.23502620E+02      1.17467974E+03      1.02895571E+03
      8.44325382E+02      1.51835401E+03      4.03305251E+02
      3.48731393E+02      4.63553125E+02      6.34917729E+02
     -6.99884234E+02      2.81360025E+03      9.67800405E+01
     -3.15073782E+03     -6.05258325E+02      1.22994766E+03
      3.70238119E+02     -2.63573270E+01      1.68063990E+01
     -3.45204280E+02     -7.16366762E+02      2.21981526E+03
     -2.25507317E+03     -2.96868901E+03      1.07434490E+03
     -4.71511481E+02      1.63093634E+02      3.14046154E+02
      1.79244199E+02     -1.21300763E+02      1.66978960E+03
     -1.12604799E+02     -3.87668653E+02     -3.91528920E+03
      2.27178873E+02      4.59039073E+02      6.33156223E+02
      1.27091700E+03      8.02853763E+02      1.66392846E+03
     -1.41047985E+03     -3.00997069E+03     -1.28096102E+03
      9.20047598E+02      2.57438513E+02      3.35311127E+02
      5.38987949E+02     -6.94489459E+02     -2.15081469E+03
      1.44945657E+02      1.67181868E+02     -1.32435741E+03
     -8.18959814E+02      2.08874573E+02     -2.03648697E+03
     -3.70759559E+02     -4.78826384E+02      6.85284777E+01
     -2.68790566E+03      2.19057675E+03     -2.74811368E+02
      6.27099437E+02     -2.71258652E+03     -1.48423880E+03
      1.26543415E+03     -1.12075466E+03     -4.01981487E+03
     -6.00244297E+02      6.71184197E+02      6.75445626E+02
      1.48769452E+03     -4.62417417E+02     -1.74431186E+03
     -1.86745890E+03      1.31473142E+03      2.88667450E+02
     -2.56198175E+02     -3.37383215E+02      1.39272884E+02
     -1.79843508E+03      6.00052014E+02     -8.06835911E+02
      6.46506177E+02     -2.55619708E+02      1.13036665E+03
      6.18133681E+02     -1.90579292E+02     -4.95638423E+02
      2.14199796E+03     -5.48282496E+02     -1.73968614E+02
      7.02281738E+02     -4.78714142E+02      1.66589945E+03
     -2.04423020E+02      1.73804894E+02      1.46866251E+02
     -4.00787390E+01     -1.37842192E+03     -6.62893139E+02
      1.82249800E+03      2.46049110E+03      1.66931933E+03
      1.35051473E+02     -9.34734244E+01      4.35722336E+02
     -2.57220996E+02     -2.75788425E+02     -1.73150002E+03
     -5.07342302E+02      7.17044779E+02      9.53596742E+02
      5.88169774E+02      4.68609913E+01      7.96027963E+02
     -9.56814878E+02      1.38521223E+02      1.16012772E+02
      8.48437822E+02      8.67637111E+02      1.14448406E+02
      4.68719847E+02      4.44751133E+02      7.11276787E+02
     -2.09035973E+02     -1.46309551E+03      5.38663617E+02
     -5.38364794E+02      3.17031098E+01     -6.86247866E+02
      1.09864548E+02      2.17644873E+00      2.68545692E+01
      2.09265155E+03      1.71996565E+03     -1.37846606E+03
     -2.29055577E+03     -4.72296190E+02     -1.62641473E+03
      4.62390123E+02      2.13368798E+02      6.03427649E+02
      1.72476314E+02     -1.11016667E+02      3.29531620E+03
     -3.52870401E+03      7.60516346E+01      6.86208742E+02
      2.10517936E+03      6.67150785E+02     -6.78203436E+02
      7.32806559E+02     -6.02731436E+01     -3.53893529E+02
      2.85036989E+03     -4.02647217E+02     -8.52438093E+02
     -2.26818301E+03     -3.45718269E+03      1.82323406E+03
      4.29591857E+01      6.42780049E+02     -1.64568845E+03
     -6.00448370E+02      4.52695672E+02      2.69756283E+02
      7.76990247E+02      1.89939901E+03     -7.84699401E+02
      6.02401473E+02      8.42452208E+02     -2.30214453E+03
     -1.07778288E+02      9.28800354E+02     -4.03822161E+02
     -7.35314213E+02     -4.80145556E+02     -1.91201353E+03
      3.10251499E+03     -1.48354275E+03      6.64370277E+02
      1.65894953E+02      3.77961048E+02      3.67257520E+02
      4.77465976E+02      2.26361999E+03      8.27397487E+02
      1.66342261E+03      8.59228974E+02      1.42989429E+03
      4.71853716E+01      7.32217203E+02     -9.99644068E+02
     -2.43355712E+02     -1.12790432E+03     -2.13385705E+03
     -1.77494504E+03     -5.86779719E+02      3.96562079E+02
      5.61115853E+02      6.33861649E+02     -2.67586640E+02
     -6.64764961E+01      1.96434443E+03      1.27262430E+02
     -3.19191533E+02      9.32773717E+02      3.27667882E+02
     -1.05660559E+03     -3.14370555E+01      2.66892560E+02
     -4.37907487E+03     -6.10307789E+02      3.13747645E+03
     -1.77325309E+03     -1.74198315E+02     -4.46417712E+03
      2.50576380E+02      6.60724457E+02      5.79569081E+02
     -1.43739078E+03     -1.31617188E+03     -4.06586055E+02
      6.81750263E+02     -1.61178181E+03      1.36326159E+03
      9.29060140E+01      2.56351220E+02     -5.52404115E+00
     -1.04259503E+03      1.13190523E+03      3.20303116E+02
      1.48247007E+03     -1.10066156E+03      5.80241942E+02
     -1.77902116E+02      1.48742880E+02      5.93948445E+02
      1.04840646E+03      8.10220835E+02     -6.66388629E+02
     -3.97237239E+02      2.22086679E+03      1.11705975E+03
     -4.05705618E+02     -1.73036595E+03      1.59232536E+03
     -2.28222804E+02      6.14253084E+02     -3.23669174E+02
      2.04819100E+03     -1.83105392E+02     -1.83628416E+03
      4.33628037E+02      1.52782559E+03      1.21667142E+03
     -1.54155797E+03      1.95468905E+03      2.75778922E+03
      7.74991987E+02     -3.43193831E+01     -4.62654747E+02
      2.35172508E+03     -1.21317598E+03     -3.73070416E+03
      2.71579588E+03      1.20220695E+03     -1.06403932E+03
      2.77733364E+02      6.57017501E+01      1.52310555E+02
     -1.88115098E+01      6.44757252E+02     -5.33445386E+02
      6.97029027E+02      8.63557697E+02      1.16667109E+03
      1.31322430E+02      4.67894649E+02      3.43755204E+02
      4.10943224E+02     -8.74598221E+02      1.55793322E+03
     -6.49427031E+02      1.38350738E+02      1.16238971E+03
     -4.25228173E+02      1.10907824E+03      5.70947266E+01
     -4.95308571E+02     -4.14620631E+02      1.48038367E+03
     -2.55165193E+02      1.90342967E+03      6.32964532E+02
     -7.45549931E+02     -1.10083231E+02     -4.02640723E+02
     -1.20945888E+03      1.72863185E+03     -4.74137070E+01
      3.27756961E+03      9.12638323E+01     -1.41688548E+03
     -1.34601548E+02      1.28054056E+02     -2.89636002E+02
      8.99797622E+02      1.42960656E+03     -1.67295820E+03
      1.26093385E+03      3.07215821E+03      7.80517759E+02
      1.70991589E+02     -1.73533785E+01     -1.10036596E+03
     -8.88276725E+02      7.85364560E+02      4.59009611E+02
      2.24024783E+03     -9.57155919E+02      1.95639675E+03
      7.87151339E+01      5.09399123E+02      5.22518322E+02
      2.82445515E+02      1.01766587E+03      4.70624239E+02
      2.06192761E+03      2.01838850E+03      8.14673413E+02
     -4.39775381E+03     -2.14503206E+04      1.18881183E+01
     -7.21420070E+02      1.77852552E+03      2.79432677E+03
      9.49948254E+02      2.04318515E+03      4.18892841E+03
     -1.21545779E+03      2.61631507E+03      1.09623050E+03
      8.64475094E+02     -2.50210623E+02     -5.44780557E+02
      1.59357984E+03      1.16555770E+03      1.30364068E+03
      9.25077077E+02     -4.08932405E+02      3.58680751E+02
     -2.70235148E+03     -2.33097368E+02      3.40706687E+03
      5.88409593E+02     -3.29765433E+02     -3.49880997E+02
     -5.36087933E+01      2.28458608E+03     -2.24076580E+02
     -6.93456528E+02      6.59575645E+02     -9.28752566E+02
      4.21488171E+02      7.86521445E+01     -2.05589500E+02
      1.90600349E+03     -2.31146655E+03     -1.52677929E+03
      1.32943007E+03      1.87520987E+03      1.24188422E+03
      3.15793661E+02      1.31462778E+02     -7.08088152E+02
     -1.45234952E+03     -1.95616743E+03      3.30630993E+00
      6.15822391E+01     -1.72508599E+02     -1.44936316E+03
     -3.41707640E+02     -1.86703340E+02      5.20491638E+02
     -1.11840398E+02      7.22473065E+02      3.02684575E+03
      1.14025518E+03      1.73010353E+03      1.62481028E+03
     -1.28747144E+02     -4.56637941E+02      3.46632691E+02
     -2.98122141E+02     -7.64937287E+02     -8.44670747E+02
     -1.87267546E+03      4.60865665E+03      1.62067628E+03
     -1.11547130E+03     -4.57876595E+02     -5.93604126E+02
      2.36345965E+03      1.19298890E+03      7.39725951E+02
     -7.40808401E+02      4.36519672E+02      4.05449675E+02
     -1.92154124E+02     -4.23686623E+02     -5.12340238E+02
      1.70220031E+03     -3.32020460E+02     -1.81560362E+03
     -2.57313534E+03     -5.02821678E+02      2.61786930E+02
      4.00143287E+02      3.61052215E+02     -9.29493775E+02
      1.77809937E+02      1.79182615E+03     -4.64203326E+01
     -1.54730300E+03      1.42856791E+03      1.30951404E+03
     -1.18401049E+01      1.17895356E+02     -1.57165762E+03
     -2.24963359E+02     -5.82206882E+02     -6.81410574E+02
     -3.49328107E+03      6.23483557E+02      3.21593251E+02
      6.77544730E+02      1.06255599E+03      1.13238551E+03
     -1.30080855E+01     -4.84501355E+02      5.89794411E+02
      2.71994553E+02     -1.74100858E+03     -3.63453303E+03
     -6.84264881E+02      1.95225806E+03     -2.36840668E+03
     -1.24209677E+03     -8.71493067E+02     -2.14429268E+03
      1.55357797E+02      1.49939166E+02     -2.37443837E+02
      1.30903937E+03      5.69788988E+01      2.30627785E+02
     -6.93105869E+02      1.72520566E+02      5.02780136E+02
     -6.18594584E+02      9.07416168E+02     -1.19012800E+02
     -2.47181300E+03      1.18238692E+03     -2.76436866E+03
      1.57083496E+03     -8.06052683E+02     -1.36475127E+02
      4.25795053E+01     -1.85960330E+02     -5.45381786E+02
     -1.96804000E+03      9.29119687E+02      3.58723392E+02
      2.74211231E+03      8.42542536E+02     -5.05545107E+02
      6.45520992E+02     -8.46897097E+02      2.95697166E+02
      1.52624829E+03      8.15374977E+02     -2.73558138E+03
      2.08548172E+03     -1.20563158E+03     -1.93927375E+02
     -2.01424119E+02      6.18575418E+02     -3.77420290E+02
     -2.02937873E+02      1.15754922E+03      1.22154368E+03
      3.62048643E+01     -9.04416729E+01      5.18351750E+03
     -9.45698680E+01     -8.20400727E+01      6.44428029E+01
      7.32513329E+02      1.25781211E+03      3.53129942E+03
     -4.94447589E+02     -8.40392493E+02     -2.70388586E+03
      2.35872092E+02     -2.95044703E+02      2.16386365E+01
      5.45107841E+03     -1.91647452E+02     -1.20052690E+03
      4.61585520E+02     -2.75099320E+02      9.09400111E+02
      4.91278602E+02     -7.10549515E+01     -3.22271306E+01
      1.05131465E+03     -1.07467788E+03     -1.89567400E+03
     -5.45580820E+02      1.08961242E+03      2.62618040E+03
     -3.55652440E+02      3.57273340E+02      8.02391349E+02
      4.28600013E+02     -9.94554149E+02      7.79050161E+02
      1.53879395E+03      1.22460522E+03     -1.41649978E+03
     -3.58232096E+02     -5.67458924E+02     -1.27621890E+03
     -4.26822268E+02      2.77458011E+02      6.89829077E+02
     -1.55294810E+03      3.51703221E+03      1.43142522E+03
     -1.09076814E+03      6.20552183E+02     -1.62521314E+03
      9.17655817E+00      1.03267520E+03     -1.69950988E+03
  }
}

Hamiltonian = DFTB {
  SCC = Yes
  SCCTolerance = 1e-6
  MaxSCCIterations = 200
  ForceEvaluation = Dynamics
  MaxAngularMomentum = {
    C = "p"
    H = "s"
  }
  Charge = 0.0
  SpinPolarisation = {}
  Eigensolver = Standard {}
  Filling = Fermi {
    Temperature [Kelvin] = 300.0
  }
  SlaterKosterFiles = Type2FileNames {
    Prefix = "../../pbc-0-3/"
    Separator = "-"
    Suffix = ".skf"
    LowerCaseTypeName = No
  }
  KPointsAndWeights = {
    0.0000000000000 0.0000000000000 0.0000000000000 1.00000000000000
  }
  Dispersion = LennardJones { 
    Parameters = UFFParameters {}
  }
}

ParserOptions = {
  ParserVersion = 3
}
