Geometry = GenFormat {
<<< "system.gen"
}

Driver = VelocityVerlet{
  Steps = 50000
  TimeStep [fs] = 0.2
  MDRestartFrequency = 25
  Thermostat = None {
    #InitialTemperature [Kelvin] = 300.0
  }
  Xlbomd{ 
    IntegrationSteps = 6 
    MinSccIterations = 2
    MaxSccIterations = 200
    SccTolerance = 1e-6 
  }
  Velocities [m/s] {
      6.06440219E+02      4.54662536E+02     -1.50770336E+02
      6.58137713E+02      3.59217580E+03     -3.78309419E+03
     -1.89891043E+02     -2.66746237E+03      1.01193648E+03
      6.05650774E+02     -2.46328817E+02     -4.33862393E+01
     -1.21769501E+03     -2.01751260E+03      6.03797389E+02
     -3.03824614E+03      2.69678589E+02      1.63226524E+03
     -2.86201007E+02      4.70945801E+02      6.66225722E+01
     -5.88895853E+02     -8.27604802E+02      4.93518348E+02
      9.38479991E+02     -2.84462286E+03     -2.98076393E+03
      2.30350560E+02     -4.23992889E+02      7.43373905E+01
     -3.60203809E+02     -1.34756277E+03     -1.02350010E+03
      2.89995560E+03     -1.62956912E+03     -2.75012043E+03
     -3.45534615E+02      7.11894865E-01      4.58416126E+02
      1.27107528E+03     -2.82960176E+03      1.76327775E+03
      3.42461205E+02      4.72875324E+02     -5.35537015E+02
     -2.15227525E+02     -7.17119553E+02      9.00401548E+01
     -1.76074729E+03      9.82694556E+01      2.28940827E+03
      6.13535120E+02     -2.51347704E+03      1.08344390E+03
     -5.54758281E+02     -1.27931489E+02     -2.13490191E+02
     -8.90558966E+02      1.19791115E+03      1.96491561E+03
      1.05985058E+03      1.14347164E+03      1.15833486E+03
      1.38618929E+02     -5.48642497E+02      5.52575778E+02
     -3.89980216E+02      6.48051640E+02      8.88981100E+02
     -3.59970666E+03     -1.01096748E+03      2.75395748E+03
      1.27950063E+02     -3.74540744E+02      3.30452715E+02
      1.41117461E+03     -2.62209151E+03     -2.25238485E+03
      1.17878033E+03      1.45630258E+03     -1.67905544E+03
      2.66962648E+03      1.98741542E+03      2.91516369E+03
      3.30691421E+02      6.05995287E+01     -1.50949375E+02
      1.49318580E+03      4.55006705E+02     -3.06528104E+01
     -2.75716914E+03      4.30556407E+03     -6.46946557E+02
      1.98830651E+03     -1.77135184E+02      8.47509944E+02
     -1.37521764E+02     -1.20190557E+03     -9.46403604E+00
      1.09194369E+03     -4.31883581E+01      2.11982892E+03
      2.02838847E+03      8.66449772E+02      7.60087275E+02
      8.99339299E+01     -3.41938659E+02      2.49216611E+01
      6.61810289E+02     -1.70901758E+02      2.08661039E+03
      1.48034260E+02      7.18735168E+02      8.35212615E+02
      6.19650360E+02     -6.76543805E+02     -5.90711332E+02
      7.25220334E+02      1.32457821E+02     -1.80535572E+03
      4.63462126E+02     -1.71968185E+03     -3.53382815E+02
      3.83410601E+02     -1.24881872E+02      1.69678488E+02
     -1.68948023E+03     -5.56807651E+02     -2.74056641E-01
     -9.61714259E+02     -1.87223580E+03      2.84983603E+03
      5.32603763E+02      3.42150401E+02     -6.53168238E+02
     -7.54071331E+02     -1.14424019E+03      9.18401924E+02
      3.14012535E+03     -5.73062665E+02      8.15729996E+02
      1.85786419E+02     -3.00462254E+02     -1.54178939E+02
      7.44450328E+02     -9.11472255E+02     -1.27718756E+03
      6.25761849E+02     -9.17973330E+02      1.89600875E+03
     -5.95172116E+01     -1.48294641E+02     -3.74503069E+02
     -2.84116962E+02      5.07972599E+02      9.45056906E+02
     -1.03917977E+03      1.39980878E+03     -6.46238613E+02
      6.85022718E+02     -7.86239686E+01     -2.73296382E+02
      1.22891910E+03      4.36789673E+02     -3.36603972E+03
     -1.07388694E+03     -2.00997369E+03      1.95081853E+03
      6.77922241E+02     -6.28664725E+01     -4.50164044E+02
      1.59762005E+03      6.03949135E+01      8.73395710E+02
     -7.06520633E+02     -2.38452200E+03     -1.15422737E+02
      3.97104898E+02      1.30081855E+02     -7.12685292E+02
      3.34393925E+02      2.95103112E+02      3.80985805E+02
      1.09608851E+03      1.06414112E+03     -1.92039964E+03
     -1.08617986E+03     -8.66891393E+01     -6.08038483E+02
      4.09494870E+00     -3.26559449E+03      7.33260289E+02
      4.17560728E+02      7.01820341E+02      5.43359183E+02
      4.56169924E+02     -3.55307181E+02     -1.39627594E+03
      7.25427307E+02     -2.73879332E+03      3.89206508E+02
      1.29205961E+02     -6.36750101E+02      3.45362668E+02
      6.78979399E+02      2.69078824E+03     -2.63240833E+02
      1.20195122E+03      1.03738780E+03      1.51617100E+03
     -6.70137580E+02      1.55990659E+02      6.17123037E+02
      3.66309225E+03     -1.30630216E+02      1.51855273E+03
     -8.89950811E+02      1.45148932E+03     -1.99782204E+03
     -3.93986971E+02      6.11637534E+01     -1.87093761E+02
     -1.66122842E+03      1.74056211E+02     -4.63961794E+02
      2.80912196E+03     -2.97077561E+03      8.28922772E+02
     -5.07603974E+01      2.70373453E+02     -1.77287351E+02
      4.02658779E+01     -3.41084633E+02     -2.70131478E+02
      1.10437529E+03      1.56223961E+03     -1.81414858E+03
      2.02690495E+01     -2.13119061E+01      1.75155880E+02
      9.57688682E+02      1.28403968E+03      2.35553565E+02
     -6.52360106E+02     -2.37843690E+03      1.13716769E+03
     -3.65973204E+02     -4.63718584E+02      2.56915346E+02
     -7.07373972E+02      1.84494025E+03      2.89958788E+03
     -3.03389009E+03      1.57353045E+03      1.08800894E+03
      3.25195619E+02     -1.11450225E+03     -8.37242285E+01
     -2.36979113E+02      6.09054395E+02     -8.90949320E+02
     -1.55319578E+03      8.13818294E+02     -4.02723291E+03
      4.38595199E+01     -1.01737833E+03      8.72049833E+02
      7.22898257E+02      2.41707609E+03      1.37669016E+03
      8.22189474E+02     -1.11484472E+03     -3.55201233E+03
     -1.68537528E+03      5.17102351E+02      1.25366665E+03
      1.33741795E+01     -2.25638437E+02     -2.78530775E+02
      2.27270222E+03     -5.34737645E+02     -2.19161562E+02
      9.73421067E+02     -1.44524916E+02     -6.14182394E+02
      2.13570865E+03      6.55947668E+02      3.25928102E+02
      4.80616153E+02     -2.39111512E+02      2.12149895E+02
      3.47587908E+03     -5.45459938E+01      7.31310556E+02
     -5.55560731E+02     -5.65058116E+02     -8.38863045E+02
     -4.24896011E+02      6.54843903E+02     -3.14386327E+02
      2.28634696E+03      3.77505493E+02      5.45202643E+02
     -7.03475259E+02      2.62496071E+03      8.14520309E+02
     -2.80471361E+00     -5.44018005E+02     -1.67186516E+02
     -1.61163608E+03      1.70817991E+03      1.59394485E+03
      3.91124812E+02      2.52021161E+03     -2.10364015E+03
     -3.13594960E+02     -5.84191652E+01     -4.36162032E+02
      3.66900319E+02     -5.51508943E+02      1.36367963E+03
      3.08186339E+02     -2.79408212E+02      7.10543423E+02
      3.23775514E+02      4.49875798E+02      1.76468007E+02
      1.84110691E+03      3.46490265E+03      2.93166009E+02
      1.22043738E+03     -2.38603591E+03     -2.80853618E+02
      9.97258105E+01      3.13554558E+02      8.36039004E+01
     -7.02844176E+02     -2.01404151E+03      2.44422588E+02
      1.26437736E+03     -1.24800332E+03      1.26350114E+03
      1.33273616E+03      3.94401323E+02      1.85233158E+01
     -4.03439004E+02     -1.21523174E+02     -1.47165913E+03
     -1.03767042E+03     -1.94958371E+03      2.32064107E+03
     -2.07075655E+02     -4.98760566E+02     -1.50412849E+02
      4.25527256E+03      7.35133432E+02     -1.55698679E+03
      4.90733043E+02     -1.50848085E+02     -9.93731742E+02
      2.13259966E+02      1.10963021E+03     -1.15245857E+02
      5.47802031E+02      2.90763666E+02     -1.72074697E+03
     -2.43147535E+03     -2.37903719E+03     -4.60210105E+02
      1.05404240E+03      3.33186401E+03     -1.98411147E+03
     -3.49753657E+01     -2.02180449E+02      1.08541586E+02
     -2.84515283E+02      1.28660175E+03      4.23791589E+02
     -7.82369594E+02      2.30463214E+03     -5.31476456E+02
     -1.03184968E+03      5.46822261E+02     -1.02993640E+03
      1.07656306E+02     -2.30041505E+01      2.41495522E+02
     -1.36960965E+03     -9.50682476E+02     -7.42539741E+02
      2.04195647E+03     -1.46512757E+03     -2.34495673E+03
      3.78060803E+02     -2.10986330E+02     -1.03212538E+02
     -5.64007557E+02      2.05607738E+03     -1.10985159E+01
      1.46971721E+03      1.09293645E+03      3.58185554E+03
     -2.25823477E+02      1.61453048E+02      1.33254885E+02
     -1.23534186E+03     -1.23468396E+03     -4.84108227E+02
      2.68473278E+03     -9.72854024E+02     -8.04323717E+02
      7.30586490E+02      1.46230424E+02      1.10452626E+02
     -5.54766066E+02     -9.30761236E+02     -1.98307193E+03
     -2.40861709E+03     -2.48302768E+03      1.94970332E+02
      1.85456011E+02     -3.92172646E+02      4.36046649E+02
      1.57838560E+03      8.99895644E+02      2.31679334E+03
     -2.47497051E+03      1.23371554E+03     -2.84540059E+03
      6.74580614E+02     -5.51692909E+02     -5.06407286E+02
     -1.59470282E+03     -7.96384833E+02      1.77762500E+03
      5.39595611E+02     -1.13063264E+03      7.88092457E+02
     -2.00965254E+04      8.52141419E+03     -3.69256856E+02
     -2.45503696E+02      2.98743317E+02     -3.84320239E+03
     -1.51183708E+03      3.00643523E+03      1.12021562E+03
      1.25908301E+02     -7.90683307E+02     -7.76230500E+02
      9.54760979E+00     -9.91947101E+02      5.93247755E+02
     -2.75524353E+03      2.94772279E+02     -1.01201238E+03
      6.38038016E+02      2.51962155E+02     -2.73114760E+02
     -2.67723508E+03      3.43007574E+03      3.98327160E+02
      2.86298241E+03     -2.16622139E+03     -2.13296151E+03
      1.16905725E+03      7.97741449E+02      6.46645634E+02
      1.87077392E+02      1.47122861E+02      1.56126106E+02
     -3.28198195E+03      2.81219701E+02     -1.35737259E+01
      1.99546495E+03      5.40565618E+02      6.04861356E+01
     -5.76430164E+02      1.59608885E+03     -3.01861901E+02
      2.05686188E+02     -8.53513303E+02     -1.06667735E+02
     -6.19066991E+02      2.46062773E+03      1.36660617E+02
     -1.43916148E+02     -5.65946702E+02     -9.12162372E+02
     -1.94074917E+02     -8.75171889E+01     -1.88653475E+02
     -6.03684326E+02      7.05580942E+02     -2.90437182E+03
      4.44814774E+02     -5.29292401E+02     -1.35463157E+02
     -3.21260555E+01      2.62375389E+01     -6.71370980E+01
     -2.74255659E+03      4.54532360E+02      1.00791757E+03
      4.49481348E+03     -9.99300239E+02      6.78397846E+02
     -7.38141584E+01     -4.24287779E+02     -3.72054425E+02
      1.39252084E+03     -1.16212097E+03     -1.19599040E+03
      2.62046740E+01     -1.88025082E+03      2.30970655E+02
      6.49114953E+02     -4.64643075E+02     -3.96420049E+02
     -7.38363192E+02     -5.42805672E+02      1.59154716E+03
      1.52566784E+03     -1.43455311E+03     -1.48892642E+03
      5.16804357E+02     -3.49726476E+02      1.26205437E+03
      9.05313533E+02     -1.10113685E+03      3.63679558E+03
     -2.05311538E+03     -2.34561282E+03      7.62448285E+02
      7.07194391E+02      3.00279334E+02      4.16479439E+02
     -6.16450270E+01      1.18093290E+03     -1.40183635E+03
     -9.83972950E+02     -2.23621937E+03     -1.90091331E+03
      3.38009611E+02      6.04586941E+02      8.16312862E+01
      1.16964543E+03      2.28110969E+02     -1.47921513E+03
      3.86466199E+02      1.25539300E+02      6.78531230E+02
      1.16108064E+03      8.52631249E+01     -5.75429763E+02
      2.70620990E+03      2.22734503E+02      2.28488647E+03
      8.72062131E+02      1.14705984E+03      1.45956540E+03
     -4.37734201E+02      2.15536594E+02     -1.49910795E+03
     -2.14281278E+02      1.14414365E+03      4.07646747E+02
      1.29437088E+03      2.86788865E+03      1.73991369E+03
      7.62210058E+02     -2.92943660E+03     -1.62314365E+03
      1.41369965E+03      1.24450195E+03     -2.79715339E+03
     -9.02243422E+02     -3.62117875E+01     -3.62771778E+02
      5.43809895E+02     -9.33089219E+02      8.18840872E+02
      9.63118494E+02      1.73478772E+03      1.65182915E+03
      3.15717489E+02      3.74125404E+02     -6.86340440E+02
     -5.64682893E+02      6.62661344E+02      1.67918401E+03
      7.64974326E+02     -4.71959633E+02      2.33535785E+03
     -4.81918056E+02     -5.99396498E+01     -2.43625901E+02
     -5.27720717E+02     -2.93870396E+01      1.04120364E+02
     -9.79368774E+02      4.45456499E+02      9.93519856E+02
      2.72521121E+02      3.27787132E+02      2.72924695E+02
      6.77280147E+02      1.35269718E+03      9.48606655E+00
      8.22336309E+02     -3.97530297E+03     -1.95935926E+03
     -2.44323595E+02      2.00205916E+02     -4.58529863E+02
     -4.95545277E+02     -1.85818751E+02     -3.19055152E+03
     -3.32289989E+02      2.79644718E+03     -1.61022161E+03
     -7.94322679E+02     -1.94805317E+02     -1.16694976E+03
      1.49437233E+03     -8.07113783E+02     -1.64205350E+03
      1.58686002E+03     -1.68534823E+03      3.14698591E+03
      3.65090346E+02     -4.73780853E+01     -2.22186884E+02
      2.46009247E+02      1.77411096E+03     -1.48403745E+03
     -1.05955774E+03      1.84065606E+03      1.08488439E+02
      1.64217044E+02     -8.31807366E+02     -7.28168365E+02
      3.40855893E+03     -1.29270937E+03      2.72860993E+03
      5.22244969E+02      7.63262767E+02     -1.51567987E+03
      4.44474651E+02      3.74405696E+02     -5.52422192E+02
     -7.04248425E+02      1.68442428E+03      1.83830242E+03
     -7.25493695E+01     -1.97396419E+02      6.94900449E+02
      1.89212550E+03      7.39324514E+02      3.03113444E+03
      6.34923195E+02      2.73914975E+01     -3.06654905E+02
      9.95138713E+02      2.46111133E+03      7.84099329E+02
      1.14503293E+02     -5.43050028E+02     -2.00700192E+03
      3.31115239E+03      9.49893192E+02      2.19007863E+03
      1.40971168E+02     -9.03317584E+01     -5.48429565E+02
     -1.11009857E+03     -1.34684304E+03     -2.85894473E+03
     -2.22030695E+03     -8.62233408E+02     -8.82545828E+02
      1.18219169E+02     -5.03247062E+02      9.11397821E+01
     -1.05325211E+03     -1.70711121E+03     -2.99102683E+02
     -1.59037662E+03      1.39924716E+03      6.01083860E+02
     -3.26583169E+02      2.05889887E+02      6.89115856E+02
      1.51347769E+02      4.57358968E+02      9.62565991E+02
     -2.23185760E+02      1.88378687E+03     -1.85902327E+03
      7.34666148E+02      7.22092302E+02      2.98403521E+02
      8.13262966E+02     -2.37039687E+03      7.29778383E+02
      1.06745507E+03      2.22214873E+02      2.45655741E+03
      6.38760595E+02      1.45930369E+02      1.98297956E+02
     -6.17629033E+02      2.97328715E+03      2.51850191E+03
     -4.93393867E+02     -1.73882627E+02      1.65598560E+03
     -1.28689120E+01     -4.04883391E+02      3.54370399E+02
      4.13440173E+02      1.28957005E+03     -5.21118371E+02
     -2.90698584E+02      5.16242479E+02      1.33001021E+03
      7.99627179E+01      4.88800098E+02     -5.60675772E+02
      1.91230967E+03      2.64449644E+03     -7.23095441E+02
      2.12718255E+03     -1.47366015E+03     -1.12327545E+03
     -6.44697720E+01      3.85519630E+02     -6.17869713E+02
      1.19092497E+03     -8.00894674E+02      2.06467011E+03
     -1.76231317E+03      1.05188048E+03     -2.69180833E+03
      1.28921489E+02      3.82892638E+02      4.86210161E+02
     -1.11429764E+03      7.81646576E+02     -2.45937311E+03
     -5.91383480E+01     -8.99527238E+02     -1.01383642E+03
     -9.92705697E+02     -3.86931297E+02     -6.83009764E+02
     -5.78591748E+02      4.43008308E+02      5.22522149E+02
      1.70345212E+02     -2.38286490E+02     -1.68899779E+03
     -2.29369698E+03     -1.03260362E+03     -2.22796631E+03
      1.24799913E+03     -2.59704767E+02     -6.22818072E+02
      3.57436530E+02     -3.72259216E+01      1.69427730E+02
      2.77356149E+03     -9.42614851E+02      1.25350997E+02
      1.86599927E+02     -2.65111142E+02      1.25559093E+03
      5.00197033E+02     -1.89359232E+02      1.42680250E+02
      9.77022729E+02     -3.48244391E+03     -2.80614079E+03
      8.96603175E+02     -1.23006311E+03     -1.26921099E+03
      4.93116197E+02      1.35729494E+02      3.93839906E+02
      1.08779410E+03      1.82696089E+03     -3.04364873E+03
     -2.23339337E+03      1.54532390E+02     -3.08471787E+02
     -1.56363688E+02     -4.14841272E+02     -1.01205158E+03
     -1.32882087E+01      6.54405894E+02     -3.17426914E+02
      9.10802042E+02     -1.48129097E+03      4.24595771E+02
     -9.42260842E+02     -3.89821317E+02     -3.85731725E+01
      1.48543431E+02      1.25774998E+03     -8.16140616E+02
      9.05120301E+01     -1.51639350E+03      3.73260685E+02
      4.99525536E+02     -1.25881813E+02     -7.78535096E+02
     -1.23069877E+03     -2.02279637E+03     -2.40289105E+03
     -2.06861518E+03      9.68344854E+02      1.79264592E+03
      9.95863483E+01     -3.32835708E+02      1.40286481E+03
     -1.83404306E+03     -1.31838083E+03      2.46295815E+03
     -3.04351869E+03      3.75046060E+02      1.20181365E+03
      6.96834290E+02     -3.77574678E+02     -9.16779406E+01
     -7.60870116E+02     -9.57335172E+02      1.73321800E+03
      9.02542299E+02     -3.12769553E+02     -1.75158815E+03
      1.44781057E+02     -8.60575994E+01      3.47253840E+02
      2.22263911E+03     -5.11923994E+03      1.01302187E+03
      1.23952733E+03      7.33511366E+02      1.21407903E+03
      3.34963690E+03     -1.16705051E+03     -4.55152492E+02
      4.83768188E+02     -2.96147643E+02     -5.34551866E+02
      2.93681261E+03      1.49318894E+03      2.24378315E+02
     -3.55935204E+02      1.16304539E+03      3.60800056E+02
     -5.94671486E+02      8.86735840E+02      1.62677302E+03
      2.17971560E+02      4.87414780E+01      3.42185705E+02
      9.13022630E+01     -1.54186704E+03     -1.09326480E+03
     -9.00001485E+02     -8.81482970E+02     -1.17622436E+03
     -2.89247533E+02     -4.99373078E+02     -9.60322020E+02
      1.71536891E+03      2.13616550E+03      4.33431619E+02
      3.83997293E+03     -8.78702700E+02     -8.68221231E+01
      4.72486425E+02     -4.35194268E+02      2.97435680E+02
     -3.16165144E+03      1.21840147E+03      2.09792792E+03
     -7.38873349E+02      1.82209115E+03      1.09123663E+03
     -2.20474646E+02      1.62378614E+02      8.62380475E+02
      1.79700033E+03     -2.05058653E+03     -5.94559254E+02
      3.27709962E+03      2.49192055E+02      4.07159567E+02
      6.05908947E+02     -4.77993938E+02      5.95227765E+02
      2.05115716E+03     -1.25772314E+03      1.35520798E+03
     -2.94693812E+03      7.24296902E+02     -1.50093934E+03
     -6.81636212E+02      1.98512685E+02      1.24420083E+03
      1.76649602E+03     -3.26312043E+02      6.68494125E+02
      1.43401454E+03     -5.60042929E+02      8.79945553E+02
      4.32395459E+02     -5.67554318E+02      1.85387604E+02
     -2.00502851E+03      3.58632691E+01      3.65249829E+03
      3.72817175E+03      6.18074138E+01      5.83910209E+02
     -5.37408346E+02      9.74227626E+02      2.08068872E+02
     -3.27818289E+02     -1.24652169E+03     -5.35943872E+02
     -1.33886215E+03     -1.02865614E+03      2.42689696E+03
      3.48981484E+02     -6.27451356E+01      4.89995152E+02
     -6.14319436E+02      2.44763584E+03     -1.47718059E+03
      8.92882397E+02     -5.82126893E+02     -1.68356511E+03
      1.29889927E+03      1.03780687E+03     -1.93788882E+02
      8.86039189E+01      3.21611719E+02      2.17942367E+02
      4.28521356E+01     -1.08027670E+03     -1.45484874E+02
      1.68419670E+03     -2.54389419E+03      2.71213146E+03
     -1.10607005E+03     -2.69360948E+02      1.40644301E+03
      4.03626058E+02      1.66226906E+02     -6.41117159E+01
      1.37707669E+03      2.71752403E+02     -6.33045111E+02
     -8.37126196E+02     -2.14686923E+03     -1.52006688E+03
      3.66186039E+02     -2.60309507E+02      5.14823343E+02
      2.50717506E+03      5.74869399E+02     -5.99374198E+02
      7.21382786E+01      1.57027282E+03     -4.56057944E+02
      1.79902198E+02     -5.47446879E+02      1.39174696E+02
      1.89094316E+03      6.85538816E+02     -1.32007603E+03
     -1.64568362E+03      1.42498604E+03      9.27201647E+02
     -3.51820818E+02     -1.16464067E+02      5.15154563E+02
     -2.21662924E+03     -1.92366653E+03     -1.90219731E+03
     -2.33739879E+02     -1.99190376E+03     -2.39354607E+03
      1.55733312E+02     -7.28501439E+02      6.18511099E+02
     -9.91170858E+02      3.28962276E+02     -1.24321002E+03
      5.31401520E+02     -4.58857711E+02      2.61127534E+01
     -6.40042582E+02      4.63390188E+02      1.34452990E+02
      2.03261766E+03     -1.07034730E+03      1.69660349E+03
      1.12949992E+03      1.63508758E+03     -7.71809732E+02
     -1.50308742E+02      1.73316024E+02     -4.73777003E+02
      2.24768884E+03     -6.55095797E+02      2.16248561E+03
      3.62670244E+03      2.19279286E+03     -3.18555709E+03
      1.87986348E+02      5.89533159E+01     -3.57574374E+02
     -6.17483417E+02      1.32201857E+03      3.76951292E+03
     -8.70798716E+02     -5.09760142E+02     -1.01855370E+03
      1.85861916E+02      3.70972600E+02     -2.73653482E+02
     -5.09168213E+03     -1.80379511E+03     -2.87460605E+03
      1.00555410E+03     -1.17924387E+03     -1.50282703E+03
      1.18526724E+02     -9.78843217E+02     -1.06445559E+03
      9.94690060E+02     -2.54042099E+02     -2.08409491E+02
      2.07137789E+03     -2.30312645E+03     -1.01256124E+03
     -4.18698709E+02      1.18180110E+03      6.07631609E+01
      8.73892741E+02     -2.10919897E+03     -1.21598338E+03
  }
}

Hamiltonian = DFTB {
  SCC = Yes
  SCCTolerance = 1e-6
  MaxSCCIterations = 200
  ForceEvaluation = Dynamics
  MaxAngularMomentum = {
    C = "p"
    H = "s"
  }
  Charge = 0.0
  SpinPolarisation = {}
  Eigensolver = Standard {}
  Filling = Fermi {
    Temperature [Kelvin] = 300.0
  }
  SlaterKosterFiles = Type2FileNames {
    Prefix = "../../pbc-0-3/"
    Separator = "-"
    Suffix = ".skf"
    LowerCaseTypeName = No
  }
  KPointsAndWeights = {
    0.0000000000000 0.0000000000000 0.0000000000000 1.00000000000000
  }
  Dispersion = LennardJones { 
    Parameters = UFFParameters {}
  }
}

ParserOptions = {
  ParserVersion = 3
}
