Geometry = GenFormat {
<<< "system.gen"
}

Driver = VelocityVerlet{
  Steps = 50000
  TimeStep [fs] = 0.2
  MDRestartFrequency = 25
  Thermostat = None {
    #InitialTemperature [Kelvin] = 300.0
  }
  Xlbomd{ 
    IntegrationSteps = 6 
    MinSccIterations = 2
    MaxSccIterations = 200
    SccTolerance = 1e-6 
  }
  Velocities [m/s] {
     -1.58605963E+04     -1.40270636E+04      5.07836533E+03
      4.90227880E+02     -1.50856138E+03      1.40610090E+02
      4.92178347E+03     -8.72101149E+02     -2.34921625E+03
      5.97637126E+02     -3.28021143E+02      8.30682934E+02
     -1.06272059E+03      2.36799528E+03     -2.69892209E+03
      5.93714332E+02      2.37932165E+03      2.21872164E+03
     -2.39949630E+02      3.02108582E+02     -1.83110069E+02
     -6.67494982E+02     -1.49549916E+03      9.95997654E+02
     -2.35206580E+03     -3.16961599E+03      1.52258660E+03
     -1.68883112E+02      6.95760393E+01      8.80673003E+01
      2.14815560E+03      5.50880924E+02     -3.54010448E+03
      2.39424253E+03     -1.09417626E+03      1.65415897E+03
      1.89887105E+02     -5.28307266E+01     -1.27796189E+02
     -1.02691884E+03     -1.00772621E+03     -1.84082771E+03
     -4.43501131E+02     -1.53176403E+03      2.24368356E+03
     -3.00172451E+02     -6.91059249E+02      4.61949072E+02
     -6.15832587E+02      2.79554079E+03      2.46306865E+02
      3.84649888E+03      1.00526113E+02     -7.40645655E+00
     -3.42611160E+01      4.99571329E+02      3.84829457E+02
      1.02169934E+03     -1.27457458E+03      1.02551664E+03
     -2.75962187E+03      1.31507514E+03      1.49754451E+03
      3.10292566E+02      5.05985532E+02     -1.32830385E+02
     -8.02080026E+01     -1.09790113E+03      1.73672974E+03
     -4.17011129E+02      1.45186808E+02     -1.50620215E+03
     -1.03609239E+02     -5.52277839E+02     -9.82088345E+01
      9.15666724E+02     -4.14809838E+02      2.31444625E+03
     -7.61671134E+02     -4.03215368E+03      5.35660579E+02
     -2.29436220E+03      5.67904187E+02      7.76620088E+02
      1.34589996E+03      2.37539974E+02     -4.43949543E+01
      1.76211313E+03      3.41248022E+02      5.71254828E+02
      4.25839716E+03      1.97294815E+02     -1.76263200E+03
      1.25107398E+03      2.29450197E+02      3.98425795E+03
      8.93103344E+02     -1.15622383E+03      1.46385234E+02
      3.28799243E+02     -1.18835410E+03     -3.03107385E+02
     -7.74169657E+02      3.58607883E+02     -4.21878994E+02
      1.13333005E+03      1.23939155E+02     -9.46224468E+01
     -9.99135740E+01      4.53103729E+02     -2.62491811E+03
      1.06498358E+03      3.63725669E+02     -6.98103757E+02
     -1.59330140E+02      3.68338223E+02     -5.40133109E+02
      2.70261532E+02      3.04007312E+03      1.69838749E+03
     -1.75606119E+03      5.68321097E+02     -1.54752942E+03
      3.00318888E+02     -2.64742382E+02     -2.80015486E+02
      1.16579939E+03      8.68986300E+02     -6.19524090E+01
     -2.97606611E+03      3.20099729E+02      1.67832848E+02
      5.07153957E+02     -2.62378186E+02     -1.47904738E+03
     -1.94189274E+03     -2.11221703E+01      4.79661714E+02
     -9.51936345E+02      9.14267157E+02      1.36357810E+02
      3.31713425E+02      5.20941033E+02     -5.59596114E+01
      1.14112781E+03     -1.88621840E+03     -5.96987089E+01
      2.88104278E+03     -1.47224916E+03     -7.75471451E+02
      6.93968209E+00      1.74875645E+02      3.82256735E+02
      6.63896771E+02     -1.35900232E+03     -1.04678946E+03
      1.20668523E+03      8.29398092E+02      5.09786018E+02
      3.87733266E+02     -2.29783546E+02      1.14560051E+02
     -1.77327446E+03      1.24477808E+03      1.25288057E+01
      2.53864516E+03      1.48496887E+03      1.81889072E+03
      8.05570024E+02      1.43767512E+02     -2.23700165E+02
      3.77000967E+03     -3.15386364E+03     -3.83388176E+02
      7.02127222E+01     -1.21418586E+03      2.60077789E+03
     -8.52453043E+02     -1.60706602E+03      2.87102811E+02
     -5.11728585E+02      1.38539206E+02     -1.23754862E+02
      7.36245369E+02     -1.75624023E+02     -9.43384861E+02
     -1.96851369E+03     -7.51834568E+02     -2.35171069E+01
     -1.33986539E+03     -1.35347207E+03     -8.08832472E+02
      5.67855646E+01      2.44887214E+02     -2.67894995E+02
      4.09528485E+03     -1.17145118E+03      1.48516599E+03
      2.25114135E+01      5.98675397E+02     -1.47627570E+02
      3.51898227E+02      1.21790050E+02     -9.93248089E+00
      2.69005976E+02      2.26707155E+03     -1.15744477E+03
      6.41522997E+02     -2.59140752E+03     -4.27640296E+02
      1.81763642E+02     -1.24017274E+00     -1.18647196E+02
      3.39581110E+03      1.38213722E+03     -1.95314542E+03
      2.03487087E+02      6.42050517E+02      1.07484219E+03
     -1.64336353E+02      7.58137496E+02     -8.19936669E+02
      4.25783507E+02     -6.33370464E+02      2.23885679E+03
      1.51396665E+03      2.83949453E+02     -2.56273574E+01
      1.69114907E+02     -4.96191871E+00     -2.84807114E+02
     -2.89211051E+03     -2.01497536E+03     -3.56716088E+01
     -2.55439385E+03      7.04609804E+02     -2.04655810E+03
      1.86871892E+02      3.48799728E+02     -2.21749455E+02
     -6.06886920E+02     -5.90130887E+02     -1.06628655E+03
     -7.95775400E+02      4.44955245E+02     -1.63338371E+03
      4.93511883E+01     -1.07945593E+02      5.60895574E+01
     -1.95893897E+03     -4.84969810E+02     -3.00275592E+02
      1.07792614E+02     -5.47615526E+02     -3.60466419E+03
     -1.77804844E+02      3.50110666E+02      8.03752493E+02
      8.34721703E+02      4.21843590E+02     -1.86978043E+03
      4.15896165E+02      1.15228672E+03     -5.49936231E+03
      4.56718314E+01      4.07759017E+01      8.00098282E+02
     -1.42602658E+03     -2.28751740E+02      1.95371559E+03
      1.14016617E+02      1.88395657E+03     -2.18199157E+03
     -6.92852280E+02     -8.07667235E+02     -1.02155122E+03
     -2.54975317E+02      8.01216185E+02     -2.09771764E+02
     -3.88268095E+02     -1.88977411E+02      9.33748515E+00
     -3.13147112E+02     -1.09329183E+03     -1.52164897E+03
      1.58349598E+03      9.41860917E+02      1.02812108E+03
     -7.91598318E+01      5.06965362E+02      2.58041215E+02
     -4.52435760E+02      6.21819214E+02      2.38075080E+03
     -1.04490094E+02      2.26806366E+03      1.36154204E+02
     -7.99907426E+02     -1.20835776E+02      3.11390515E+02
     -5.20744126E+02     -1.91932254E+03     -2.20526382E+03
     -5.75861758E+02      1.72714732E+03      1.17480997E+03
      6.97315987E+00      7.71714339E+02     -2.02073999E+02
     -1.84423789E+02     -1.40434406E+03     -4.08693478E+02
      6.54856686E+02     -1.22935541E+03      5.60257251E+02
     -2.65839471E+02     -1.86548200E+02      5.96169490E+02
     -1.37816876E+03     -1.07914990E+03      8.99852680E+01
      8.30624301E+02      1.54932549E+02      1.11522671E+03
      8.83273909E+01      1.77912348E+02     -3.35391908E+02
      1.17672069E+03      1.17990886E+03      1.29214008E+02
      3.08104503E+03      2.76609343E+02      1.77337884E+03
      5.73686616E+02      6.20725097E+01     -7.01152776E+02
     -1.06262600E+03      2.11943410E+03     -1.78247021E+02
      2.12691589E+03     -5.45799285E+01      6.88803640E+01
      6.64704594E+02      1.56862612E+01     -4.43215454E+02
     -4.42904929E+03     -5.38496571E+02     -6.65534126E+02
     -5.34453975E+02     -2.99249779E+02     -7.54019431E+02
      6.12805973E+02      1.19983094E+03      4.38029019E+01
     -6.37522534E+01     -4.55028388E+02     -3.13006886E+03
      6.87356552E+02     -1.31212416E+03      2.31922052E+03
     -2.02636007E+02     -4.93355332E+02     -2.23200975E+02
     -1.13868718E+03      5.67484655E+02      1.11413054E+03
     -1.41885850E+03     -8.79103373E+01     -1.76663041E+03
     -3.02880087E+03      2.44602640E+03     -1.77153353E+02
     -8.96655464E+01      2.23424015E+02     -7.72103758E+02
     -4.86176322E+02     -1.59887664E+03     -1.20424518E+03
     -2.25791586E+03      2.30562615E+02      2.27689218E+03
     -6.47495394E+02     -6.87135550E+02      2.09296954E+03
     -2.78775224E+02      1.05779187E+02     -5.15473631E+02
      1.62923638E+02      1.87163184E+03      7.76672669E+02
      5.67152176E+02     -7.39630604E+02      9.42069563E+02
      8.06786000E+02      1.72838406E+01      1.10694040E+02
      1.10724096E+02      1.05537853E+03     -9.74140005E+02
     -1.15536163E+03      1.04966163E+03      1.09986472E+03
      8.02686139E+01     -2.71089680E+02     -4.66215112E+02
      5.51938623E+01     -3.34038789E+03     -1.85256993E+03
     -2.63281311E+03      2.08570798E+03      2.45305588E+02
      2.31243685E+01      7.97494549E+02      4.54483325E+02
     -1.29920278E+03     -1.07329560E+03     -4.58943507E+02
     -1.38791633E+03      5.39336778E+02     -1.60801183E+03
      1.40825321E+03     -4.26515553E+02     -1.13988146E+02
     -2.93179524E+03     -1.66709179E+02     -1.96446718E+03
      5.81240033E+02      1.41040427E+03     -9.55924621E+02
     -7.48783191E+02      1.97013757E+02     -6.64273419E+02
     -9.74918213E+02      7.26648267E+02     -1.85693573E+03
     -1.27585685E+02      1.74635058E+03     -8.75809357E+02
      4.78390980E+01     -6.73550705E+02      5.82867561E+02
     -3.41511019E+02     -6.38660398E+02     -6.18581548E+02
     -5.76569500E+02      3.10033818E+02      2.81675439E+02
      3.92168708E+02      8.02089351E+01      4.28065034E+02
     -2.10067023E+02      2.25101916E+03      7.71357320E+02
      1.59062770E+03      3.02976540E+03     -1.21094454E+03
      2.30932687E+02      5.39333868E+02     -9.18376513E+01
      1.21429949E+03     -3.53024271E+03     -6.40572365E+02
     -8.47102483E+02     -3.08904796E+02      1.60258292E+03
     -6.41216670E+02      1.73607027E+03      2.56505070E+03
      6.46660473E+02      3.91704359E+02     -5.77314217E+01
     -1.16409439E+03     -2.19380965E+03     -7.37670330E+02
     -1.19991553E+03     -2.40207699E+03     -3.32422782E+03
      1.82885952E+03      2.35510683E+03      1.06248048E+03
     -6.31853839E+01      3.80592178E+02     -2.40255898E+02
      2.13553733E+03     -1.13224860E+03     -3.35345916E+03
      9.98188328E+02      1.10803548E+03      4.51433730E+02
     -2.50294239E+02     -1.80767188E+02      3.07508407E+02
      2.60109613E+03     -3.21231772E+03      1.13141111E+03
     -1.91910166E+03      3.07989166E+02      5.22361929E+02
      2.94865221E+02      3.53082601E+02     -7.87761706E+01
     -2.01628479E+03      1.41359540E+03     -9.10595864E+02
      1.41663500E+03      7.67894653E+02     -7.16971428E+02
     -1.55003173E+02      7.22541270E+01      1.71436686E+02
      1.79677994E+02     -3.14762687E+03      1.43059993E+03
     -2.02025792E+03      9.36036992E+02      6.37146776E+02
     -6.08208787E+02     -1.69793962E+02     -3.25064601E+02
      1.84738908E+03     -1.04152054E+03     -1.58068574E+03
      1.08839937E+03     -1.56581528E+03      1.92183481E+03
      7.92401487E+02     -4.71161604E+02      3.53064981E+02
     -9.74852827E+02      1.87434753E+03      5.95612105E+01
      6.61172104E+02      2.30058248E+02      5.69863559E+02
     -2.67724766E+02     -6.38361309E+02      3.77588018E+02
      5.38462503E+02     -6.23435128E+02      1.30173506E+03
     -5.88885460E+02      6.19335926E+02      4.34191669E+01
     -1.33804963E+02      2.46145039E+02     -1.96069268E+01
      1.28323301E+03     -2.24451145E+03      1.72114665E+03
      7.09834433E+02      2.79561106E+03     -5.94265030E+02
      4.64586164E+02     -3.84436251E+02     -2.18964153E+02
     -1.90820548E+03      7.18186879E+01      4.78511390E+02
      1.95743235E+02     -3.89345762E+01      6.00625768E+02
      3.03986237E+03     -8.94903192E+02      1.70806345E+03
     -1.31154345E+02     -2.60096340E+02     -5.97273054E+02
      2.56692591E+03     -3.40364819E+02      2.11419095E+03
      9.69211533E+02     -1.61383659E+03      2.73784877E+02
      4.97313612E+02     -1.49319000E+03      8.23993471E+02
     -8.84755318E+02     -1.23039045E+02      1.19616560E+02
     -8.62291415E+02      1.89283950E+03      2.41751459E+01
      2.09808606E+03     -6.58149837E+02      3.12196510E+02
     -3.26123249E+02      1.42034439E+03     -8.90535724E+01
      1.94095000E+03     -2.60696020E+03     -2.84191283E+03
      1.05517811E+03     -1.42551095E+03      1.06460380E+03
     -3.88912961E+02      6.00813076E+02     -5.89863107E+02
      8.96886108E+02     -1.79285360E+03     -1.29630286E+03
     -2.62468913E+02      1.77131129E+03      1.82681375E+03
     -2.50024550E+02      4.91558728E+02     -8.34197332E+02
      2.61356215E+03     -6.46447771E+02      2.51771247E+03
     -4.68223848E+02     -2.13353248E+03      6.72312850E+02
     -4.54200443E+02      2.06174339E+01      1.15804107E+03
      5.80551350E+02      2.29217793E+03     -3.82448856E+03
      1.32426526E+03     -6.20488657E+02     -6.34498949E+02
     -1.05142738E+00     -1.78290070E+02      1.80482607E+02
     -4.42749646E+02      1.15507515E+03      1.28405496E+03
      2.50656074E+03      6.85906169E+02      1.82875571E+03
     -5.58080132E+02     -1.58428155E+02      4.33310934E+02
     -2.09835732E+02     -3.00711476E+03     -4.46481032E+02
      4.96158463E+02     -1.45238706E+03     -7.95173717E+02
      1.41123356E+02      1.78003702E+02     -5.61025737E+02
      7.10136364E+02     -1.81464868E+03      3.12688682E+03
     -2.75292745E+03     -6.71279202E+02      1.81646926E+03
      4.87946178E+02      1.58580655E+02     -4.53763748E+02
     -9.14903414E+02     -8.17017421E+02     -6.06159700E+02
     -1.31063695E+02     -3.61177625E+00      1.03183234E+03
     -1.57229986E+03      2.10119594E+03      9.84098081E+02
      6.26201321E+02      1.08601657E+03     -4.84275340E+02
      3.15534022E+02      2.75319268E+02      1.31984527E+03
     -1.10006233E+03     -1.90446999E+03     -6.93799602E+02
     -7.71226171E+02     -2.43244421E+03      1.23581891E+03
      3.82437794E+02     -2.77179992E+01      6.38356304E+02
      3.09530676E+02     -9.33981403E+02      5.31398240E+02
     -4.71778352E+02      2.02806889E+03     -2.19482752E+02
      1.64303767E+02      7.51243240E+02      2.18682833E+02
     -1.62792192E+03      5.29072296E+02     -1.85356213E+03
      7.96937746E+02     -2.75475148E+02      8.64724288E+02
     -4.77789078E+01     -3.94555925E+02      1.18600380E+02
      4.13310573E+03      2.27703284E+03      1.42740556E+03
     -1.80810312E+03     -2.19301380E+03      5.96630098E+02
     -1.18667876E+02      5.35592041E+02     -3.86828848E+02
     -6.57417605E+02     -4.99517954E+02      7.59515893E+02
      1.12193827E+03     -9.75404583E+02      2.61055670E+03
      6.08291386E+02      2.71369120E+02      4.73807858E+02
     -3.13024884E+03     -1.67074405E+03      2.69421455E+01
     -1.01339129E+03     -1.86664648E+02      1.00183514E+03
     -4.99641886E+02      3.94726383E+01      1.07087529E+02
     -8.21817580E+02     -7.05996183E+02     -1.86586435E+03
      7.42453019E+02     -3.67358756E+01      2.55890974E+03
      4.80479891E+02     -1.11715566E+02     -4.31068208E+02
      1.59402771E+03     -5.27366291E+02     -3.12874837E+03
      3.91754997E+02     -2.47440991E+01     -2.01207161E+03
      6.22419663E+02     -8.25699865E+01     -6.11752020E+02
     -1.70670496E+03      2.92947783E+03     -1.62144498E+02
      4.92963744E+02     -1.44708286E+03      2.15064429E+03
      7.68230013E+02     -3.10836338E+02     -4.22359361E+01
     -4.20920741E+03      1.01030330E+02     -2.37684341E+03
      1.49897132E+03      1.39773202E+02     -6.19532307E+02
     -1.15179741E+03     -1.26943454E+03      2.94062041E+03
      3.35872266E+02      3.16752825E+02     -2.76961851E+01
      3.17525571E+02      2.47762607E+03     -2.91433085E+02
     -4.10426886E+03      5.62299422E+02     -2.04240222E+03
     -1.35701827E+03     -1.65385074E+02      2.29944215E+03
      1.00666591E+03     -4.30792534E+02     -4.37363288E+02
     -4.31179391E+02      1.40937171E+03     -9.03562900E+02
     -9.42750140E+02     -3.70051494E+02      8.91665133E+02
      1.61386679E+02     -3.14355328E+02     -1.07374122E+02
      5.53283387E+01      2.12261848E+02      5.07205766E+03
      6.48480835E+02     -1.54040633E+03      5.11424259E+02
     -3.22449943E+02      8.45772010E+02     -2.69787472E+02
      1.80048629E+03      3.36766482E+03     -1.52127835E+03
     -1.82905542E+03      2.17671832E+03      5.56897636E+02
      5.78939467E+02     -2.52017074E+02      5.65428061E+02
     -1.43870259E+03     -1.02185529E+03     -1.66168454E+03
     -5.24819095E+02     -1.23429482E+02     -7.41209329E+02
      5.26601272E+02      7.22217546E+01      1.38431670E+02
     -3.32767846E+02      4.82302128E+02      5.56271441E+01
      1.75046747E+03     -8.09340604E+02     -6.69855430E+02
      3.48279105E+02      8.26748195E+01     -8.00366513E+01
      3.01748034E+03      1.30056159E+03     -3.46420583E+03
      7.59056434E+02     -3.61442406E+02      8.98448644E+01
     -1.40574401E+02      2.39652702E+01     -5.18420911E+02
      1.06888027E+03      2.81923240E+02     -6.87529139E+00
      2.14083758E+03     -4.16167509E+02     -5.11343919E+02
     -7.09321642E+02      6.57315012E+02      1.58563849E+02
      1.14299512E+03      1.06806217E+03     -9.26136888E+02
      2.81314332E+02     -8.11741147E+02      1.81305010E+02
     -3.17644372E+02      1.02420996E+03      2.94143929E+02
     -1.69301921E+02      1.00042818E+03     -1.64246680E+03
      3.97804537E+02      1.77952693E+03     -8.72254941E+02
      3.66314257E+02      1.53313189E+02     -5.81054653E+02
     -4.23222470E+02      1.08378847E+03     -1.07335943E+03
     -1.16986752E+02      1.80594585E+03      4.39929334E+03
     -1.03139780E+02      1.11149103E+03     -2.64658371E+03
     -1.50753418E+03     -1.63633973E+03      1.37170344E+03
      8.12655446E+01      4.34665554E+02     -4.02192573E+02
      1.98487203E+03     -2.33868012E+03     -1.66451795E+03
     -1.06871218E+02     -5.77342752E+02     -3.38216964E+03
      7.14075209E+02      4.67126107E+02      1.08570085E+02
      3.20658476E+02     -9.01672449E+02     -1.04677251E+03
     -1.80855694E+03      5.42437675E+02      1.36964280E+03
      1.09395130E+02      4.40525525E+02     -2.89380306E+02
     -9.12587012E+02      5.94841157E+02      3.90475007E+02
     -3.47340295E+02      7.59224420E+02      1.93970030E+02
      1.66112053E+02      7.35142821E+02     -4.69009117E+02
     -1.25395045E+03      5.01212983E+02     -2.16679988E+03
      5.55507442E+02      1.12308203E+03     -2.36108819E+02
      3.45840836E+02     -3.46737301E+02     -4.54417752E+02
      1.93015664E+03      9.94516373E+02     -9.87563249E+02
      9.00260442E+02      4.15205736E+02      1.33032651E+02
      6.95660287E+01      4.66822020E+02     -1.27127437E+02
      1.44599059E+03     -1.13796487E+03      3.79608208E+02
     -4.14816327E+01     -8.17965488E+02     -3.75265961E+02
     -5.28216876E+01     -5.50579098E+02      1.96097106E+02
      3.85865030E+02     -6.55677252E+01     -4.43861628E+02
      1.14898597E+03      1.53063240E+03      4.25020994E+03
     -3.21593550E+01      3.40596274E+01      2.85714030E+02
      2.17580328E+03      2.59956231E+03     -3.87641031E+02
     -4.64834696E+02     -1.37372305E+03     -2.11564067E+03
     -5.87176517E+01      3.78462976E+02     -3.19213071E+02
      2.55199840E+03      3.05028313E+03      1.23995851E+03
      1.27277163E+03     -5.29861304E+02      2.46474245E+03
      2.58632970E+03      1.64712706E+03     -1.21868649E+03
     -6.85888971E+02      1.05318205E+02      1.43726576E+01
      3.17242749E+02      1.12045704E+03      1.45696332E+03
      3.44160549E+03      4.57587954E+01      8.19774593E+02
      9.95200148E+02      1.74791064E+03      5.42923656E+02
      4.87981329E+02      4.07519836E+02      6.27279819E+02
     -1.73539207E+02     -2.33220229E+02     -4.50515426E+02
     -9.93701931E+02     -1.82682426E+03     -9.15999598E+02
      4.44150681E+02      4.64416618E+02      4.11904660E+02
      1.19306448E+03      2.99662553E+03     -3.14401040E+02
      9.74749701E+02      1.49126182E+03      6.93777354E+02
      4.53899075E+02     -4.99324592E+02     -1.09020298E+02
      8.87953915E+02      1.31649493E+03     -2.12578704E+02
     -3.69901679E+02     -5.91638268E+02      1.02000176E+03
      6.21495963E+02      1.03445708E+03      4.15024050E+02
      4.20494064E+03     -2.60106492E+03     -8.15223917E+02
     -6.97981846E+02     -2.26390313E+03     -2.49805550E+03
     -1.16985130E+02      6.31462714E+02      6.33640491E+02
     -1.44893487E+03     -2.78405048E+02      2.42643864E-01
      3.90440907E+02      1.18413252E+03      2.80681051E+02
      1.03573870E+02      4.19634737E+01      7.28880849E+02
      7.45522782E+02     -1.63504272E+03      1.07379832E+02
     -3.73727147E+03     -3.69064097E+01      1.95385942E+03
     -3.89108884E+01      2.32159353E+01      8.07018093E+01
     -1.91336019E+03     -1.16461156E+03      6.15619731E+02
      2.85379812E+03      9.84169917E+01     -2.32340845E+03
     -7.26398655E+00     -3.73403383E+02     -4.12098839E+02
      1.89080245E+02     -1.00534682E+03      2.21666494E+03
      1.64004175E+03      1.47024315E+02      2.18149854E+02
      4.44722227E+02     -8.90689654E+02     -4.60878191E+02
     -1.63751972E+03      2.71129457E+02      1.72058921E+03
     -9.84632798E+02      7.91355146E+02      1.41212873E+02
      3.82528183E+01     -9.64440425E+02     -7.06937587E+02
     -4.22067859E+02      2.45963010E+02      6.62168994E+02
      2.80122279E+03      1.45286815E+03     -4.08209237E+03
      6.99947574E+02     -2.33005176E+02     -9.64335541E+02
      2.58640328E+03      1.68503129E+03     -3.49840246E+03
  }
}

Hamiltonian = DFTB {
  SCC = Yes
  SCCTolerance = 1e-6
  MaxSCCIterations = 200
  ForceEvaluation = Dynamics
  MaxAngularMomentum = {
    C = "p"
    H = "s"
  }
  Charge = 0.0
  SpinPolarisation = {}
  Eigensolver = Standard {}
  Filling = Fermi {
    Temperature [Kelvin] = 300.0
  }
  SlaterKosterFiles = Type2FileNames {
    Prefix = "../../pbc-0-3/"
    Separator = "-"
    Suffix = ".skf"
    LowerCaseTypeName = No
  }
  KPointsAndWeights = {
    0.0000000000000 0.0000000000000 0.0000000000000 1.00000000000000
  }
  Dispersion = LennardJones { 
    Parameters = UFFParameters {}
  }
}

ParserOptions = {
  ParserVersion = 3
}
