Geometry = GenFormat {
<<< "system.gen"
}

Driver = VelocityVerlet{
  Steps = 50000
  TimeStep [fs] = 0.2
  MDRestartFrequency = 25
  Thermostat = None {
    #InitialTemperature [Kelvin] = 300.0
  }
  Xlbomd{ 
    IntegrationSteps = 6 
    MinSccIterations = 2
    MaxSccIterations = 200
    SccTolerance = 1e-6 
  }
  Velocities [m/s] {
     -1.01409760E+03      5.07986103E+02     -1.68757565E+01
      1.62541069E+03      8.02562287E+02     -2.27297811E+01
     -2.23266409E+01     -1.31049307E+03     -2.19692188E+03
      4.70898200E+02      6.72267576E+01      1.35774032E+02
      2.13365573E+03      8.92380407E+02      1.12977998E+03
     -7.52770794E+02      1.94432035E+03      8.62688389E+02
      1.05448114E+02      1.23124184E+01     -9.46231464E+01
      4.05775425E+02      3.25638211E+03      8.34619573E+02
      1.24165761E+03      6.46599815E+02     -1.15728017E+02
      7.16077227E+01      5.94231349E+00     -1.11997369E+03
     -1.92762080E+03     -1.60023681E+03     -1.49272678E+03
     -3.73829806E+01     -9.72013571E+02     -5.08925378E+02
      7.01668091E+02     -1.58545865E+02     -7.09845881E+01
      1.77252874E+03      4.61702873E+00      1.02250838E+03
     -4.16701283E+02      2.62202849E+03     -2.04374780E+02
     -3.63207394E+01     -1.71545612E+01     -2.08534667E+02
     -8.38584629E+02     -7.42797074E+02      1.83647183E+03
     -8.87351416E+02      5.82915083E+02      1.50868445E+03
      2.33280460E+02     -5.34794537E+02     -1.04776285E+03
     -2.66924201E+03     -4.14188225E+02      2.25980563E+03
      1.21733100E+03      7.54935445E+02     -3.48619394E+02
      2.86387202E+01     -9.65006856E+02     -1.95773766E+02
      2.68047559E+03     -2.81326168E+01      3.25429355E+02
      2.76492528E+03      8.20510394E+02     -1.10638783E+03
      2.08292240E+02      1.66763780E+02      8.46327092E+02
      4.24218766E+03      3.23099768E+01      7.77892865E+02
      1.34252504E+03     -1.62361663E+02     -3.28871111E+02
     -1.06803158E+03     -4.07108594E+01     -3.24844481E+02
     -4.23329832E+02     -1.42106164E+01      7.52992889E+01
      5.03020157E+02      9.98683379E+01     -2.27176108E+02
      2.62177618E+03      9.12187628E+02     -1.42842566E+03
      7.67139781E+02     -4.64632337E+03     -7.50886265E+02
     -6.06560318E+02     -1.50276108E+02     -3.99653529E+02
     -6.10714968E+02      5.32738380E+02     -3.47175180E+01
      1.65941210E+03      5.48462777E+02     -1.85250362E+02
     -1.88702120E+02     -8.25058702E+01      3.15415952E+02
      1.14799217E+03      1.37101299E+03      2.01973298E+03
     -2.16662075E+03      1.63330543E+03      1.98173988E+03
     -2.71890049E+02     -1.10390491E+02      9.63666793E+01
     -3.01283896E+03     -1.44175920E+03      2.91706150E+03
     -4.02651595E+01      2.20765216E+03     -3.24990704E+02
     -2.83471633E+02     -7.93658363E+02     -4.01720584E+02
      6.58923896E+02      1.18543987E+03      3.24730385E+02
     -8.64747443E+02      1.09606825E+03      2.42930187E+03
     -1.81815635E+02     -3.70522445E+02      2.55084886E+00
     -7.19515135E+02      4.61285596E+02     -2.47102068E+03
      1.92063409E+03      2.18394898E+03      2.22308345E+02
     -1.60824668E+02     -7.40467140E+02      2.90829242E+02
      1.78291190E+01     -1.52020837E+03      4.26372035E+02
     -3.23310087E+02     -1.83204174E+03     -6.05656814E+02
     -1.10265942E+02      5.90332195E+01     -7.92171794E+01
     -1.53717620E+03      9.45112122E+02      3.90803674E+01
     -2.32829135E+03     -3.94779336E+03     -9.63147050E+02
      1.00839001E+03      9.92191298E+01      2.32157240E+02
     -9.13776722E+01      1.22085990E+03     -6.20607360E+02
      9.86914019E+01      5.71444413E+02     -6.97952565E+02
      3.23195431E+02     -4.10616069E+02      2.51111418E+02
      5.94165936E+02     -3.19365755E+02     -2.00685487E+03
     -2.23979230E+02     -1.21777629E+03     -3.77525116E+02
     -7.45377515E+02      2.21206125E+03      8.20949040E+02
      7.78281915E+02      6.04398303E+01     -1.46876543E+02
      4.80099984E+02     -3.12118369E+03      4.29313944E+02
      2.89927349E+02     -8.93056563E+02      2.40584994E+03
     -9.76064683E+02     -2.11626641E+03     -6.28963704E+02
     -2.81015937E+02     -6.84594605E+02      5.99774167E+02
      2.34916558E+03      2.19626407E+03     -1.92004395E+03
      2.34858668E+03      1.24222608E+03     -1.50966270E+03
      1.08165005E+02     -8.97667406E+01     -5.66561430E+01
     -1.08541269E+03      2.04646852E+03      1.21711931E+02
      1.01894358E+03      1.04504067E+03     -1.55384600E+03
      2.96461531E+01     -1.40157405E+02      3.98810793E+02
     -1.85310347E+03      5.02467506E+02      1.21580228E+03
     -6.04087435E+02      2.99237217E+02      2.09610156E+03
      6.60449622E+01     -6.58697527E+02      2.28873619E+02
     -1.78364852E+03     -9.65179513E+02     -6.74223593E+02
     -1.07940342E+03      4.08614404E+00     -2.03699823E+03
     -1.84921898E+00      9.96077279E+01      7.76129813E+02
      1.76816324E+03     -3.39163432E+02      1.49316878E+02
     -1.75595093E+02      1.68924974E+03      1.00470071E+03
      1.64947887E+02      6.74645027E+01      6.11802555E+01
      2.57526543E+03     -1.60555454E+03      1.76235240E+03
      1.47287881E+03     -1.44864842E+03     -8.39316527E+02
      9.96624038E+00     -7.90694510E+02     -8.66072522E+00
     -6.63872986E+02      6.18249899E+02      1.24022027E+03
      2.92695238E+03      1.80430368E+02      1.30138934E+03
      1.30367333E+02     -6.25824575E+02     -7.06451201E+01
     -2.31680962E+03     -3.31851028E+03     -9.63727669E+02
      3.02000467E+03      5.63853389E+01     -2.73709073E+03
      1.19649354E+03     -1.28862250E+02     -9.49552978E+01
      2.35945719E+02      1.98757155E+03      1.34714879E+03
      6.49798896E+02      1.21803950E+03      4.36516924E+03
     -3.16761450E+02      5.57726995E+02     -1.22433581E+03
     -1.57070271E+02     -6.17675437E+02     -4.45007419E+02
     -2.07417399E+03     -1.78500362E+03      3.17622797E+03
      5.52028558E+02      2.80544296E+03      6.80950224E+02
     -2.58016235E+02      5.21987500E+02     -1.06967715E+02
      3.51736344E+02      7.23205078E+01      6.59816909E+02
     -1.40710888E+03     -5.50989687E+02     -7.24985391E+02
      1.82106105E+03      7.02565633E+02     -4.08446226E+03
      6.54515216E+02      6.10700988E+02     -4.23575455E+02
      2.48637836E+02      1.97575370E+02      1.96411223E+03
      1.96100067E+03     -7.33958178E+02     -3.62031801E+02
     -6.00127270E+02      4.69435014E+02     -1.58109013E+02
     -3.74544094E+02      9.32997613E+02      2.19707095E+03
     -3.67351413E+02      1.68019908E+02     -1.16549936E+03
      1.29360153E+02      4.38047331E+02      3.08522918E+02
     -1.17513949E+03     -1.29984115E+03      2.50157053E+03
      7.15396819E+02     -5.83618571E+01     -1.20238130E+03
      1.97870591E+01      3.01421450E+01      3.70794982E+02
     -1.52956511E+03     -1.33414351E+03      1.00476082E+03
      2.85885127E+03      2.77677664E+03     -2.74872809E+03
      1.96507844E+02      1.50217940E+02     -5.55105493E+01
     -2.82943296E+03     -1.13985413E+03      5.92851215E+02
      3.00187686E+03     -4.32430354E+02      4.84007580E+02
     -4.71852898E+02     -8.80054326E+01      5.57028148E+02
     -1.62744083E+03      1.00226057E+03     -1.47258683E+03
     -2.07303886E+03      2.08351310E+03     -5.77196538E+02
     -8.65013036E+02      1.43042562E+02      2.82299117E+01
     -1.16947180E+03      3.24120020E+02      3.28559929E+01
      1.50270352E+03      7.79648095E+01      4.24941632E+03
     -4.32759397E+02     -4.03667513E+02      6.26808251E+02
     -1.53076700E+02      1.64934534E+03     -8.01838106E+02
     -2.55015880E+03     -4.35618335E+02      9.02005809E+02
     -2.63097092E+02      1.24848662E+03     -7.11404993E+02
      1.17688083E+03     -1.01223390E+03      6.86041677E+02
      2.87576341E+02      2.89963232E+03     -7.94365120E+02
     -4.36972338E+02     -4.62687684E+02      4.30748239E+02
      1.68381309E+03      4.36645375E+03     -5.67981168E+02
     -7.29147421E+02      7.16356925E+02     -3.17234926E+01
      6.28906167E+02     -6.46945422E+02      2.12976182E+03
      1.26031189E+03      3.93404327E+02      8.16871627E+02
      4.39226641E+02      1.32023340E+02      8.01015060E+01
      7.54488787E+02     -2.88817905E+03      1.56526482E+03
      1.07285177E+02      2.82289410E+02     -1.00566495E+03
      4.49087183E+02     -8.06991065E+02      6.25247366E+00
     -8.99332521E+02      3.62808021E+03     -1.99413958E+03
     -1.94123346E+03     -1.97681600E+02      1.03950324E+03
      5.31267925E+02      3.70418291E+01      4.93793859E+02
      8.90227416E+02     -2.03019072E+03      7.45273421E+02
     -3.95097463E+02     -4.15782979E+03     -1.94668156E+03
      6.16443608E+02     -4.08020015E+02     -5.91513314E+02
     -1.63419119E+03     -2.33260595E+03      1.66976189E+02
     -9.06733096E+02     -1.54476601E+03      1.77137151E+03
     -1.59907995E+02     -3.70257592E+02     -3.42160880E+02
      7.37056723E+02      5.93793563E+02     -2.95286845E+03
     -8.61164139E+02      2.74667372E+03      3.24354333E+02
      3.02489845E+02     -4.34730829E+02      6.54280801E+02
      1.06704854E+03      4.69315001E+02     -1.92484656E+03
     -2.45251987E+03      3.94201990E+02     -1.74195101E+03
     -5.78304803E+02      6.00879873E+02     -9.34507156E+01
      1.98670515E+03      4.96031991E+03      5.54768475E+02
      5.14178121E+02      2.30504772E+01     -8.54095508E+02
     -2.41092027E+02     -7.97852967E+01     -1.85730188E+02
      2.57833586E+03     -3.79087015E+02      1.21041052E+03
      1.17952123E+03      2.34614996E+03     -5.93885913E+02
      4.71831668E+02     -1.60037710E+03     -1.49950726E+03
     -1.08104970E+03     -7.38250919E+01     -6.19001973E+02
     -1.34712317E+03     -1.60237559E+03      1.40433914E+03
     -6.04736497E+02      5.94912184E+02      2.44045047E+03
     -2.94498352E+02      1.30941089E+03      1.68588254E+03
     -9.43253109E+01      1.57203467E+02      1.00982689E+03
     -2.63568605E+02     -3.10307944E+03     -3.96937732E+02
      2.77975171E+03     -7.12680429E+02     -4.44402663E+02
     -2.26918644E+02     -9.31865348E+02     -2.79434515E+02
     -1.67349565E+03     -1.06407799E+03      9.26073617E+02
     -7.84487983E+02     -4.44305000E+02      3.79329415E+02
     -1.59630992E+02      1.50805216E+02      1.91854682E+02
      3.92903025E+02     -2.68987783E+03      7.71045872E+02
     -1.70933373E+03     -6.48215322E+02      7.71758132E+02
     -6.56413913E+01     -7.91278491E+02     -9.37916739E+01
      8.21234643E+02      6.41532103E+02     -2.19786945E+03
      2.61357380E+03      6.47423029E+02      1.10910421E+03
      7.66129836E+02     -2.03376824E+02      2.49918594E+02
     -3.80000524E+02     -5.19784116E+02      1.35953904E+03
      8.73336397E+02      6.25131327E+01      1.98412896E+03
     -5.03914809E+02     -4.29393147E+02      2.51120771E+02
      2.97571223E+02      1.15644420E+03     -2.70547405E+02
     -1.68715739E+03     -3.03673822E+02      5.51618187E+02
      2.87480074E+02      6.00441247E+02      3.70025616E+02
     -4.05520126E+02      7.58424432E+02      4.48804789E+02
     -1.25666873E+03      2.92489422E+03     -5.75857611E+02
      3.30605304E+02      6.50637642E+01      6.40299522E+02
      2.82790044E+03     -2.44342928E+02      7.29773791E+02
     -1.09426247E+02      6.88587644E+02      1.55647473E+03
     -4.41293814E+02      1.25159288E+03      1.81760641E+02
     -1.87478563E+03     -1.68288007E+02      1.55715218E+03
      9.52752728E+02      2.27521904E+03     -3.56915224E+02
      2.60415554E+03      2.57660054E+01      2.19239823E+03
      1.29475448E+02      8.47368677E+01     -3.12665055E+02
     -1.99986779E+03     -1.28677528E+03      2.85065739E+03
      5.31555824E+02     -2.42032456E+03     -6.49103595E+02
      1.24486780E+03     -1.37929370E+03     -1.69361133E+02
     -1.97781801E+02     -3.03683387E+02     -9.73972731E+01
      1.25460123E+02     -2.00056017E+03     -1.38460384E+03
      2.74624793E+03     -1.03498195E+03     -2.04720209E+03
     -1.96206814E+02     -4.36102246E+02      4.61988810E+02
     -5.37037335E+02     -3.40791454E+03     -6.26393347E+02
      5.22016094E+02     -8.81117824E+02      6.09428846E+02
      3.70805005E+02     -9.46788023E+02     -5.03634815E+02
      2.28970788E+03      3.39549175E+03      1.09721494E+02
      1.81657061E+03     -1.73527789E+03     -9.11234781E+02
     -6.90117633E+02      5.55565152E+02      2.81947730E+02
     -7.35754894E+02      3.71107115E+03     -1.56358841E+03
     -1.85498481E+03     -1.67919960E+03      3.24414086E+02
      1.04943717E+02      9.62347778E+01      7.04167697E+02
     -1.17291572E+02     -5.57380763E+02      1.34135947E+03
      2.42895785E+02      2.42313203E+03     -1.64375009E+03
      7.05859878E+02     -3.87339541E+02      5.31184146E+02
      5.29608423E+01     -2.09656065E+03     -5.24779569E+02
     -3.58221930E+03     -5.13727684E+02      3.00519812E+03
     -4.51794054E+02     -4.21494293E+02      7.53038752E+02
      1.99070135E+02      1.38720720E+03      1.96148007E+03
     -1.14605736E+03      5.77775076E+01      8.28850115E+02
     -2.58721132E+02     -2.51249942E+02      2.31061593E+02
      1.17169018E+03     -7.61538650E+02     -1.54007781E+02
      4.78615241E+02      2.53510678E+03     -2.85048535E+03
      9.40367976E+02     -1.11095664E+03      4.87201533E+02
      8.10117044E+02     -1.25223255E+03      1.09443978E+03
     -2.48707767E+03     -9.06465611E+01      7.20856639E+02
      8.31553409E+02      1.49461752E+03      8.20346263E+02
      1.51051534E+02     -7.39811932E+02     -3.20942556E+02
     -1.52195329E+02      9.88834605E+02     -9.81658254E+02
      8.88880877E+02      5.24299360E+02      1.32464766E+03
     -6.55174599E+02      2.01801114E+02     -1.71772331E+03
      2.28851834E+02     -3.37918987E+02      5.29155445E+02
     -2.51409772E+03     -5.53334563E+02      1.12255865E+03
     -3.37769810E+02      3.68584764E+03      1.43214896E+03
     -1.70694982E+02      2.55650169E+02     -3.42466783E+02
      9.71316285E+02      1.83060616E+02      2.68936616E+03
     -1.49411958E+03      4.56874265E+02     -9.97920069E+02
      3.80360233E+02      1.09071201E+02     -4.42211984E+02
      9.87066230E+02     -2.21926971E+03     -1.64197686E+03
      9.83714076E+02     -5.04088214E+02      9.84515588E+01
      1.04229367E+03      7.61317175E+01      1.92872501E+02
     -7.97682595E+02     -3.19302331E+03      2.79556083E+03
      3.87334694E+02      1.98757046E+02     -3.55792584E+02
      7.77855004E+02     -6.38289071E+02      6.59494333E+02
     -2.27383077E+03     -1.00836200E+03      2.09743632E+03
     -3.80456281E+02      5.74152397E+01      2.22427826E+01
      1.15962355E+02      1.02579109E+02     -4.00616444E+02
     -2.80802550E+01      1.53616357E+02      2.31546317E+03
      8.44731730E+01     -5.73383930E+02     -7.57834025E+02
      9.39353781E+02      2.88761421E+02      3.99038510E+02
      1.23615502E+03     -5.68363772E+02     -2.51831538E+02
     -1.70450771E+02     -1.85787177E+03     -1.65519312E+03
      5.38986001E+02     -3.85350559E+02      5.40341519E+02
     -1.91483630E+03      1.93409716E+03      5.11906740E+02
      6.68207688E+02     -1.07057738E+03      2.79693502E+03
      3.63370139E+02      6.05332295E+02     -1.08956404E+02
     -9.81290940E+02     -2.08946154E+03     -8.18374771E+02
      3.46338255E+03      5.61540162E+02     -5.64190411E+02
     -4.18963303E+01      3.81842436E+03     -2.24208618E+03
      1.17212863E+02     -6.80855984E+02      9.72581776E+02
      8.96956769E+02      1.06893286E+03      1.59887027E+02
      2.08903260E+03      1.80789442E+02     -2.94191975E+03
     -1.28048218E+03      9.51244204E+02      1.41269790E+03
      3.92072783E+02      4.53745613E+02     -3.12131269E+02
     -1.56767476E+03      4.01925057E+02      7.34851783E+02
     -1.21253911E+03      2.44352991E+02      9.23499674E+02
     -9.29226383E+03      1.34682315E+04     -1.43698584E+04
      1.39547272E+03     -6.99517912E+02     -1.30429458E+03
      3.63593106E+02      5.38769553E+01     -2.26729073E+03
      6.00770976E+02      5.75093060E+02      4.26625226E+02
      5.28385974E+02      1.50450617E+03      1.88221705E+02
     -1.24171445E+03     -1.26351527E-01      6.11185149E+02
      3.54901618E+02      4.18946687E+02      2.65788366E+02
     -1.07193421E+03     -1.42129866E+03      7.69803648E+01
     -2.36175631E+03     -2.37248468E+03     -1.63269189E+03
      1.94864983E+02     -7.05178808E+02     -5.36533083E+01
     -1.88788542E+03      2.50705866E+02      1.71320609E+01
      3.89642814E+02     -1.22992594E+03      2.23780681E+03
      3.67888898E+02     -2.83469027E+02     -2.77383766E+02
     -1.40295317E+03      4.96181982E+02      1.89314746E+02
      7.18432569E+02     -1.39911033E+02      1.37816588E+03
     -4.15157181E+02      1.25297182E+02      5.88290837E+02
     -3.88496392E+02     -6.85711116E+02     -1.82937147E+03
     -7.85290170E+02      1.70300332E+02     -2.46731163E+03
      5.19078501E+02     -6.66453510E+02     -9.45618166E+01
     -7.67471972E+02     -4.36506639E+01      6.29215991E+02
     -1.12135651E+03     -1.19414979E+03     -2.30075600E+03
     -1.00871535E+01     -4.33556464E+02      2.72623062E+02
     -4.36210822E+02     -6.81688356E+02      1.35537509E+03
      8.48803695E+02     -9.56369728E+02     -4.67305629E+02
     -2.24013634E+03     -6.51779405E+02     -1.38903861E+03
      8.26676896E+02      7.96641658E+01     -2.71707093E+02
     -1.10277547E+03     -1.22668593E+03     -1.96615931E+03
      5.07799141E+01     -4.02834085E+02     -2.13255297E+03
     -1.34091848E+03     -2.31673561E+03      3.94984705E+02
     -7.57167057E+02     -4.47849997E+02      1.77926040E+02
     -1.63784017E+02      1.77860653E+02     -1.17216239E+03
     -2.89250658E+03      3.47869017E+03     -1.47414083E+03
      1.61481039E+02      3.10021118E+02      2.42402197E+02
      1.48347408E+03     -5.12567847E+02      4.09968556E+02
     -4.67368810E+02     -1.30216142E+02     -5.42935018E+02
      5.87712028E+02     -5.69912144E+01      6.17614676E+02
      1.62560544E+02      2.73359586E+03     -5.53244540E+01
     -9.24341565E+02      1.59382617E+03     -1.71180331E+03
     -9.35018374E+02      4.53723651E+02      2.90674723E+02
      4.19015181E+03      1.71817411E+03     -2.14609963E+03
      1.55739321E+03      2.94320929E+03      1.01110562E+03
      4.42505917E+02      1.88467072E+02      3.55636164E+02
     -1.33688536E+03      3.09651738E+03     -6.94920448E+02
     -1.96206995E+03      3.42599487E+02     -2.15334195E+03
     -2.23283109E+02      1.35641379E+01      7.19190482E+02
      2.26353925E+03     -1.08054857E+03      2.91605974E+03
      5.16006107E+01      1.57386669E+03      1.42735722E+03
      6.58713312E+02      5.79606219E+02      1.42345424E+02
     -2.03077687E+03     -7.49189127E+02      8.64260743E+02
     -1.29986665E+03      5.00370833E+02      4.81784502E+02
      6.82020706E+02     -2.75586986E+01      4.09414506E+02
     -2.15723743E+02      1.67812112E+02      6.41759535E+02
     -2.78513268E+02     -1.58068730E+03     -8.95008539E+01
      1.63301971E+02      1.75810807E+02     -6.40784098E+02
      6.43268362E+02      1.05966193E+03      1.52702832E+03
     -3.51069517E+02     -1.29704228E+03      3.35468400E+02
      1.39443297E+03     -1.51288499E+03     -4.39040910E+02
     -2.59560272E+02     -5.53245012E+02     -3.77622704E+01
      1.09534287E+03     -1.08980481E+03     -1.19030642E+03
     -2.19826847E+02     -1.96416759E+03     -4.43065700E+02
      7.19300321E+02     -4.55174850E+02      6.09891786E+02
      1.11930300E+02      2.05039871E+02     -1.12581807E+02
     -5.11093524E+02      8.79046728E+02      2.28738494E+02
     -1.57329505E+03      7.54482655E+01     -3.30010489E+00
     -3.55321419E+02     -5.70802061E+02      2.33570569E+02
      4.60295819E+02      3.51104478E+03     -2.51013889E+03
      6.04548626E+02      8.63682037E+02     -5.85630216E+02
     -1.49708793E+02     -5.04839228E+02     -9.62437136E+02
     -1.49579079E+03     -1.74934297E+03      2.65900268E+03
      7.58823234E+02      2.34546144E+03      6.01085968E+02
     -2.99800615E+02     -5.48612001E+02      1.07754785E+03
     -1.20969875E+03      9.27538776E+02      4.47123006E+01
     -7.77109066E+02     -2.44667990E+03     -3.03112144E+03
     -1.50108904E+02     -2.53871910E+02      3.88448386E+02
      2.34913485E+03     -8.02097193E+02     -2.08143786E+03
     -4.47337859E+03      8.33682197E+02     -4.77055454E+02
      1.00687081E+03     -6.78791369E+02      2.40418982E+02
      1.56845374E+03      6.72480251E+02      1.57682284E+03
      1.83111249E+02     -1.38658171E+03      3.82203386E+03
     -8.04730475E+02     -2.81281012E+00      8.73350535E+02
      1.10500665E+03      8.54410917E+02     -4.16853430E+03
     -5.14583520E+02     -3.87998339E+02      1.74699198E+02
      4.61845027E+02     -2.62492181E+02     -8.69029544E+01
     -1.62564477E+03      1.07356206E+03      8.47946881E+02
      1.71746008E+03     -1.27966780E+03      2.55884160E+01
     -3.12354517E+02     -5.48281242E+02     -1.10484614E+02
     -1.13120199E+03     -2.19529713E+03      2.49348417E+03
     -1.00481167E+03     -1.11065123E+03      2.00044783E+03
      3.65379905E+03      4.96565726E+02      1.17474795E+03
     -2.02775080E+02     -1.34716907E+02     -2.13173128E+02
      1.25350451E+03      2.26329867E+02     -4.20946151E+02
      2.52685522E+02      3.47462900E+02      2.27786092E+03
     -2.14608043E+03     -2.29474826E+02     -1.01768796E+03
  }
}

Hamiltonian = DFTB {
  SCC = Yes
  SCCTolerance = 1e-6
  MaxSCCIterations = 200
  ForceEvaluation = Dynamics
  MaxAngularMomentum = {
    C = "p"
    H = "s"
  }
  Charge = 0.0
  SpinPolarisation = {}
  Eigensolver = Standard {}
  Filling = Fermi {
    Temperature [Kelvin] = 300.0
  }
  SlaterKosterFiles = Type2FileNames {
    Prefix = "../../pbc-0-3/"
    Separator = "-"
    Suffix = ".skf"
    LowerCaseTypeName = No
  }
  KPointsAndWeights = {
    0.0000000000000 0.0000000000000 0.0000000000000 1.00000000000000
  }
  Dispersion = LennardJones { 
    Parameters = UFFParameters {}
  }
}

ParserOptions = {
  ParserVersion = 3
}
