Geometry = GenFormat {
<<< "system.gen"
}

Driver = VelocityVerlet{
  Steps = 100000
  TimeStep [fs] = 0.2
  MDRestartFrequency = 5
  Thermostat = None {
    #InitialTemperature [Kelvin] = 300.0
  }
  Xlbomd{ 
    IntegrationSteps = 6 
    MinSccIterations = 2
    MaxSccIterations = 200
    SccTolerance = 1e-6 
  }
  Velocities [m/s] {
      1.10384397E+03     -5.88914801E+02     -2.93233464E+02
      2.69128905E+02      6.77355718E+02     -2.12931324E+03
     -1.17306348E+02     -1.98799333E+02     -1.29737038E+03
     -4.17664245E+02     -8.79807681E+01      5.45172752E+02
      2.63369660E+03     -1.23871012E+03     -6.12876532E+02
      1.56530795E+03      1.85469679E+03      1.59214346E+03
      3.31520188E+02     -7.67420008E+02     -5.40701089E+02
      1.64672508E+03     -1.28662201E+03      1.02945515E+03
      1.61440281E+03      2.05921253E+02     -8.59162454E+01
     -7.53257172E+02      6.40761064E+01      8.83237017E+02
     -1.73921296E+03      3.41180155E+03      1.84110231E+03
     -2.71174988E+03     -5.51255194E+02      2.87599189E+01
      9.59602610E+01      3.04574100E+02      4.41427958E+02
      3.17194574E+03      1.48793281E+03     -1.07090675E+03
     -3.69343723E+02      1.79461639E+03     -1.67464095E+02
      8.85748595E+02      3.12779905E+02      5.06420667E+02
      1.30761894E+03      1.79962024E+03      5.40738048E+02
      1.08472638E+03     -9.40348657E+02      5.09555553E+01
     -3.26896885E+02     -3.33392650E+02      6.85167371E+02
      1.72937960E+03     -1.80693102E+03     -6.40664810E+02
      5.58339107E+02      3.02269354E+02      1.12803073E+03
      8.49852795E+02     -5.63105724E+02      3.17680281E+02
      2.30349139E+02      2.26657787E+03     -3.42650009E+01
      8.56470289E+02      1.57566169E+02      3.52694898E+02
      3.93053965E+00     -2.15537147E+02      1.09232233E+03
      2.16042411E-01     -5.68029159E+01      2.60308211E+03
     -1.85162736E+02     -1.79229020E+02      9.19294948E+02
      9.65152360E+02     -1.67445202E+03      7.24090411E+02
     -4.91721104E+02     -9.95434077E+01      5.25150701E+02
     -1.95492378E+03      1.89828266E+03     -2.18682727E+03
     -2.67380324E+03      3.41584611E+02     -1.69454712E+02
     -1.86252268E+03      6.65347830E+02     -7.26320826E+02
     -9.74861671E+02     -9.73145486E+01     -3.17670797E+01
      1.88231438E+03      1.87373463E+03     -1.93741536E+03
      4.44464099E+02     -2.34375433E+03     -2.44984440E+03
      4.81508431E+02     -6.91997106E+02      5.81143896E+02
     -1.84330441E+03      1.20673563E+03      1.82111878E+03
      2.86279183E+02     -2.18440620E+03      1.01924787E+03
      6.91800895E+02      5.47537961E+01      5.13405731E+02
      1.56447381E+03      1.31211961E+03      8.95218157E+02
     -1.02805695E+03      1.29956652E+03     -9.85613867E+02
     -1.19188553E+03     -1.69997109E+02      7.80778743E+02
      8.37645050E+02     -6.13863925E+02      6.37925792E+02
      2.01652284E+03     -4.64322881E+02     -2.51665960E+03
      5.14872398E+02      1.83737228E+01      3.93933308E+02
     -1.44131107E+01     -9.27588872E+02      4.25541042E+02
     -7.03671260E+01     -3.02525522E+03      1.67038307E+03
     -1.52425057E+02      4.34112441E+01      6.30718246E+01
      1.91203394E+03      9.59245178E+02     -6.88184936E+02
      2.21201456E+03      1.82057387E+03      2.60492106E+03
     -4.06924097E+02     -6.25714558E+02      1.00610274E+02
     -2.92257397E+03     -4.88121842E+02      9.53622696E+01
      1.90899465E+03     -6.59375548E+02      2.97703229E+02
     -8.01124644E+02      4.94032889E+02      2.39933797E+02
      2.21497151E+02     -1.43894967E+03     -2.68253101E+03
      6.07767728E+02      7.41703838E+02     -6.97173653E+02
      6.55879575E+02      2.14563429E+02     -4.37650361E+02
      6.39424760E+02      5.27574181E+02      4.43934366E+03
     -2.80604396E+03     -6.70858092E+02     -8.34790727E+02
     -9.31372825E+02      7.58018932E+02      8.27231037E+02
     -3.82815656E+02     -5.30834687E+02      6.21986490E+02
      9.96507609E+02      5.84517266E+01      9.30082809E+02
      5.62263773E+01      2.24933639E+02      8.40440152E+02
     -8.96884504E+02      7.85964585E+02      7.06563067E+02
      3.72797047E+02     -4.72257413E+02      7.19719773E+02
      1.78145707E+02      5.53129257E+01     -3.88589880E+02
     -9.76788219E+02      2.60774480E+03     -8.24085414E+02
      1.37146403E+02      3.98529410E+02     -4.57618802E+02
      1.78408358E+03     -1.68791836E+02      1.17158500E+03
      5.39261325E+02     -1.13118717E+02     -7.26236105E+02
     -1.05598648E+02      6.91650574E+02      4.62520501E+02
     -3.45796781E+03     -2.69401944E+02     -2.57341717E+03
      1.41219316E+03     -1.49024154E+03      4.90729725E+02
     -4.91184898E+02     -6.94489513E+02      2.69038955E+02
      1.38230268E+02     -1.52732915E+03     -2.14761875E+03
     -3.74304234E+01     -1.20093288E+03     -4.04055290E+02
      4.95167912E+02     -4.49083009E+02     -7.18871191E+02
      2.10641503E+03      1.42958058E+03      1.98005717E+02
     -1.58558736E+03     -1.74670964E+03      2.04720613E+03
     -6.44351026E+02     -2.23961479E+02      4.17996003E+02
     -2.26095476E+03      9.15908321E+02      5.23065642E+02
      1.60426253E+03      2.01297964E+03      3.19800982E+02
      2.76308099E+02     -8.25254218E+02      8.75869836E+02
      1.73737296E+03      1.31570151E+03      1.21411736E+03
      1.59745184E+03     -6.88382500E+02      3.58162399E+03
      2.98262284E+02     -4.01571670E+02     -2.12043925E+02
      1.64704491E+03     -3.22453603E+02     -5.61975152E+02
      4.59735942E+02      4.12598013E+02     -8.93738952E+02
      5.38890194E+02      1.26978885E+02      9.25535846E+01
      1.99472163E+03     -2.79543710E+03      8.39314400E+02
      4.19768646E+03     -1.94317297E+03      1.46822609E+03
     -2.16929984E+03     -2.09777916E+03     -2.78489632E+03
      1.09049779E+02      3.66292704E+02      1.52746183E+02
      1.25960187E+03      2.07692589E+03     -4.33142999E+03
      5.89304897E+02      8.46653785E+02      1.27895786E+03
      1.23210103E+03      1.14586017E+03      3.43910065E+01
      5.39588317E+02     -1.04534830E+02      7.47801478E+02
      8.33293612E+02      1.04163708E+03      1.34495867E+02
     -3.72767375E+02     -1.69140140E+03     -6.78505617E+02
     -2.90906281E+02     -2.77372194E+02      4.15402771E+02
      3.36190228E+03     -6.53787991E+02      1.56617383E+03
     -8.32197350E+02     -1.69850787E+03      8.80518736E+02
     -3.10387337E+02     -4.98763604E+01      2.31904509E+02
     -4.20864942E+02     -4.29584313E+02     -1.07366686E+03
     -7.69219563E+02     -3.43049702E+02     -1.17328702E+03
     -3.39443090E+01     -1.00696800E+03      6.25179561E+02
     -1.08080482E+02      2.17063304E+02      2.14040483E+03
     -1.22155399E+03     -1.83480605E+03      5.37281951E+02
      1.99745848E+02     -1.51017481E+02      1.37479133E+02
      1.13145919E+02     -4.17172052E+03     -1.54534337E+03
     -3.09627191E+02      1.19820331E+03     -3.63156577E+02
     -2.49717960E+02     -2.54263702E+02      6.28265047E+02
      4.03509051E+02     -1.57982609E+02     -2.30184840E+02
      1.89861204E+01     -4.23422535E+01      4.63038785E+02
      4.28790614E+02      6.27901581E+01      3.25072605E+02
     -9.44478407E+02      3.17064119E+03     -2.22120874E+03
     -1.88051927E+03     -3.80816639E+02     -8.29720744E+02
     -8.04009956E+01     -1.31505172E+03      7.46531465E+02
      4.35450275E+02     -1.51990272E+03      3.92507308E+02
     -9.48467125E+02     -7.36010332E+02     -8.26566730E+02
     -5.45477872E+02     -7.12162993E+01      2.16569361E+01
     -8.07839934E+01     -9.16594791E+02     -2.89684744E+03
      3.58085174E+03      2.31936381E+02     -2.29020414E+03
     -1.91136547E+03     -2.02612231E+03      3.85118297E+03
     -1.69112111E+02     -7.03214613E+02      1.76913002E+02
      1.51001458E+03     -1.23640740E+03     -8.95406345E+02
     -1.49136901E+03     -2.62255841E+03     -2.28340249E+03
      2.27706222E+03      1.07285390E+03      1.10369202E+03
      2.36220237E+02     -7.44967566E+02     -1.15961248E+01
      1.36127671E+03      1.88285145E+03      2.53754161E+03
     -1.02627598E+03      4.16868427E+03     -2.76588773E+02
     -7.77705015E+02     -8.23721940E+02     -8.90413411E+01
      1.04444628E+03      1.98667777E+03     -1.35615364E+03
     -1.98137233E+03     -1.04637828E+03     -1.36460827E+03
     -8.13248432E+01     -1.17273078E+03      8.49671130E+01
      2.11889312E+03     -1.63662840E+03     -1.52196344E+03
     -2.73911123E+03     -1.87642464E+03      1.29678628E+03
     -2.36472271E+02      3.08081362E+02     -7.70467434E+01
      1.37195675E+03     -2.58102719E+03     -1.20911445E+03
     -2.07097023E+03      1.31054056E+03     -3.63318539E+03
      4.50577373E+02     -3.28158227E+02     -3.37116467E+02
      5.41111610E+02     -2.33382803E+03      1.42973864E+03
      9.10120179E+02      7.42080424E+02      2.34144527E+03
      4.05842086E+02     -2.81256553E+02     -8.59344255E+01
     -1.09052361E+03     -1.49591315E+03      1.71642917E+03
      1.55673921E+02     -2.72771751E+02     -1.96648540E+03
      4.23653609E+02     -3.58473648E+02     -5.03961904E+02
     -7.61064018E+02      2.32872314E+03     -4.82910354E+02
     -3.80970955E+02      9.96499684E+01      7.76768827E+02
     -4.22296949E+02      4.09681054E+02      5.96264489E+02
      4.60420083E+02     -1.77231614E+03     -1.30581256E+03
     -1.63929709E+03     -3.44858027E+03      1.09694112E+03
     -4.07586757E+02      6.28047371E+01     -3.10447155E+02
     -7.34244408E+02      3.61176603E+03     -1.62344578E+03
     -3.03033971E+03     -3.38602426E+03     -1.53321505E+03
      1.43358247E+03      3.20993099E+02      1.18802173E+02
      2.05957734E+01      1.47050395E+02      3.26377876E+02
     -1.68202679E+03      6.89834578E+02     -5.81949560E+02
      9.44109691E+02     -1.61087513E+03      1.20619352E+02
      6.64485717E+02      3.37747990E+02      1.20394769E+03
     -5.73478382E+02      1.72921705E+02      6.26327977E+01
      1.03107287E+03     -2.01763849E+03     -3.67664556E+02
     -1.12197811E+03      1.71511797E+02      2.37252311E+03
      2.79042088E+02      7.08385016E+02      2.31561886E+00
     -2.85173789E+03     -1.20623401E+03      1.14290405E+03
      9.97330077E+02     -1.73260912E+03      8.57289068E+02
      4.93046807E+02     -1.51776322E+02     -7.20895258E+01
      8.70029143E+02      2.51603096E+03     -3.75293420E+02
      2.03128344E+03     -1.04644186E+03      1.98111390E+03
      8.83279019E+02     -8.67658006E+02     -1.99023419E+01
      5.56918848E+01     -1.60780946E+03     -8.31467195E+01
     -7.07213166E+02     -1.22453821E+03     -3.45313063E+02
     -2.62373529E+02      1.24179884E+02     -3.05290691E+02
     -6.76319583E+02      3.28170442E+03     -2.54906648E+03
      1.42019052E+02      6.35379151E+02      2.04568647E+03
      2.00897829E+02      5.35027230E+02     -2.64965907E+02
     -1.09195113E+03     -1.93962871E+03      1.37602449E+03
     -1.75227138E+03     -1.96039828E+03     -4.00870782E+02
      6.45808716E+02      2.56031354E+01      1.00523164E+03
      5.28131562E+02     -1.10403934E+03     -1.60513757E+03
      5.31817787E+02     -2.37534916E+02      1.81601148E+03
     -8.64646568E+01     -6.55474008E+02      3.93463491E+02
      6.30662685E+02      3.08886612E+03      2.59934167E+02
     -1.54374725E+03      2.90987628E+03      1.88650346E+03
      3.63360507E+02     -5.29418401E+02      3.91399096E+02
     -1.23472253E+03      4.77736094E+03      1.40026204E+03
      4.39475404E+02      4.02881843E+02     -9.72906585E+02
      7.02958116E+02      2.98341307E+02     -7.09177894E+02
     -2.54107905E+02     -7.25848343E+02      1.20614137E+02
     -1.14955455E+03      2.17923011E+03      1.29378979E+03
     -5.64580196E+02      9.07288789E+02      1.20231244E+03
     -1.09280257E+03      3.77637989E+02     -2.76046657E+02
      3.89531189E+02     -4.00387262E+01     -2.39637071E+02
      1.77335399E+03      3.26423109E+03      1.02699704E+03
      3.08311163E+03      6.10424272E+02      1.38998474E+03
     -3.16086234E+02     -1.04279680E+02      1.07899654E+03
      9.54740230E+02      2.94905754E+02      1.23461776E+03
      2.84181974E+03      1.58573459E+03      1.32917544E+03
     -4.97867718E+02      2.37556013E+02      5.14065404E+01
      1.56615299E+02     -5.28202863E+00     -2.04197799E+03
     -1.77461659E+03     -1.00251007E+02      1.58695811E+02
     -3.44765974E+02     -1.17036870E+02      2.40353662E+02
      7.26648381E+02     -2.76231194E+02     -1.57915702E+03
     -1.12600940E+03     -7.60667036E+02      1.29586908E+02
     -4.03021718E+02     -1.75993238E+02     -4.03310983E+02
     -8.94463430E+01     -3.28566930E+03     -3.42161143E+03
      1.16093990E+03     -8.76479939E+02     -5.39265529E+01
     -1.00172979E+01      1.53117194E+01     -2.15507376E+02
     -2.09004971E+03      6.20142728E+02      2.23104681E+03
     -7.09941663E+02     -1.50195769E+02     -1.41908848E+03
     -5.10807171E+02     -3.25356688E+02     -4.28582491E+02
      1.55617912E+03      4.77111982E+02     -1.28866680E+03
      2.14900470E+03     -3.67672798E+02      3.76592000E+02
     -9.64123961E+01     -1.08746695E+03      5.57463136E+02
     -6.31115337E+02      4.00885641E+02     -3.27968493E+03
      1.49117467E+03     -2.00840479E+03     -5.28884816E+02
      1.21758281E+03      1.70044402E+02     -3.05895917E+02
     -3.97691438E+02      1.14632929E+03     -1.82783258E+02
      4.32367673E+03     -1.61435818E+02     -1.16514419E+03
      3.25767861E+03      1.70863876E+02     -4.07061548E+01
     -1.37817971E+02      9.04398215E+02     -1.95141720E+02
     -1.67582219E+03     -1.27948109E+03     -3.03672438E+03
     -1.01537791E+03     -1.26950778E+03     -2.91669497E+03
     -2.58402331E+03      1.79474841E+03      1.02087769E+03
     -6.00402758E+00     -7.50110017E+02      1.23741421E+03
      1.14170254E+03      1.64531304E+03      1.76048197E+03
      1.16595830E+03      1.37600399E+03      1.78321158E+03
      2.69467356E+02      4.94437378E+01     -6.82057222E+01
      2.31154546E+03     -5.89492398E+01      1.33860504E+03
     -4.28961009E+02     -1.83508734E+03      6.10364834E+02
      7.63832991E+01      2.62364493E+02     -9.19008739E+02
      5.31686648E+02      8.13415605E+01     -1.10983386E+03
      1.62966336E+03     -4.57940958E+02      3.21998812E+01
      4.00122718E+02     -1.06964291E+02      4.88625619E+02
     -4.47419015E+02      1.35193714E+02      2.96851112E+03
     -7.52335970E+02     -1.30172826E+03     -1.66419774E+03
     -9.25254056E+02     -8.94392414E+02      2.42924123E+02
     -1.24944685E+03     -3.48285238E+02     -1.32102928E+03
      3.75969910E+03      2.40376873E+03      2.16497176E+02
     -6.05083001E+02     -2.44650412E+02      3.75947378E+02
      2.16855911E+03     -1.03521819E+03     -9.47119270E+02
     -4.82020189E+02      2.36639398E+03      1.17289984E+01
      3.03586415E+02      7.69640572E+01      2.92425439E+02
      1.20356609E+03      5.03860593E+02     -1.48163463E+03
      1.00915318E+03     -1.85600541E+02     -2.39519496E+02
      8.22566741E+02      1.73176795E+02     -7.89134956E+01
     -2.02964962E+03      2.03127084E+03     -3.97393162E+03
      5.00294770E+02     -1.37890584E+03      1.59644804E+03
      4.13794543E+02      5.66047396E+02     -3.34276882E+02
     -6.62963856E+02      1.25764527E+03     -2.80514161E+02
      2.98708752E+03     -1.21799018E+02     -6.54773203E+02
     -7.00697653E+02      2.53851320E+02      1.74091066E+02
      3.40669125E+02     -3.17535138E+02      5.79380043E+02
     -5.87795635E+02     -4.42748631E+02      1.75455419E+02
      3.91115319E+02     -2.20262215E+03     -1.51633244E+03
      3.28313123E+02      3.12482171E+02     -3.53232081E+03
      1.05754147E+03      3.85547526E+02     -7.78301317E+01
     -2.53175050E+03     -8.97951561E+01     -1.10379704E+03
      2.73203257E+02     -5.94057548E+02      6.55510371E+02
      3.12777926E+02     -2.19851037E+02      9.32728714E+01
      3.45994645E+02     -3.50927036E+03      2.16553992E+03
     -7.07777459E+02      1.48150189E+03      1.74029237E+03
     -5.33912522E+02     -1.08430650E+03      4.65289784E+02
     -2.70701477E+02     -2.07745103E+03     -7.34102456E+02
      3.27926843E+03     -1.82091439E+03      1.04512180E+03
     -1.74348665E+01     -1.28572083E+02     -4.83950449E+02
      1.21680069E+03     -3.28700007E+02     -1.33284001E+03
     -3.33081951E+02     -6.86271186E+02      1.15506685E+03
     -4.25268412E+01      5.67205829E+02     -3.63187111E+02
      2.06562980E+02      3.47881956E+02      5.43535843E+02
      3.34709671E+03      6.56409864E+02      1.43696677E+03
     -3.36030643E+01     -8.08841375E+02     -5.58411522E+01
      4.24976461E+03     -1.92830102E+03      1.97898738E+03
      7.79725464E+02     -2.58068815E+03     -1.36271765E+03
      4.42893812E+02      2.30045014E+02      5.35764568E+02
     -2.52087051E+03     -1.60397134E+03      3.40594287E+03
      1.73944999E+03      1.85412604E+03      2.51247799E+03
      1.15301490E+03      5.69332623E+02      4.96835775E+02
      6.93693875E+02     -1.84579260E+03     -6.43530748E+02
      2.52285536E+02     -1.91098796E+03     -1.22989878E+03
      6.32834897E+02     -7.43466044E+02     -3.96713894E+02
      2.96418898E+03     -1.04225774E+03     -2.10308290E+02
      1.56682738E+03      2.32516572E+03      5.24419964E+02
     -4.47882046E+03     -3.26279884E+02      9.80328788E+02
      6.80399940E+02      5.28454159E+01     -2.00284247E+02
      3.48765838E+02     -1.27230159E+03     -1.34216756E+03
     -7.78590318E+02      5.26660789E+02      1.01716695E+03
     -1.45465768E+03      2.12396929E+03     -7.43858113E+02
      3.03147660E+02     -5.19093583E+01      2.63260264E+02
     -1.09852404E+03     -6.14029856E+02     -1.88824007E+03
      8.56925425E+02      9.19079238E+02     -4.56758163E+02
      1.03734716E+03      5.45314522E+02      3.49275232E+02
     -6.40639693E+01      2.42271672E+03     -1.93334502E+03
      4.70114111E+02     -1.50659488E+03     -6.34186945E+02
      5.74102871E+02      2.35383012E+02      5.60854790E+02
      1.34213354E+03      1.97456956E+03     -1.30557962E+02
     -1.58739144E+03     -1.68449725E+03     -8.61130678E+02
      5.55589267E+02      4.99371599E+02     -1.76859368E+02
      2.77013619E+03     -2.07407704E+02      1.21225817E+03
     -1.38538639E+02      1.68088412E+03     -6.36898113E+02
     -1.12753144E+01     -5.78598092E+02     -3.49053319E+02
     -1.36113917E+03      7.04470416E+02     -4.75490238E+03
     -1.59941644E+03     -5.21603153E+02     -1.45343017E+02
      3.10803883E+01      8.02850796E+02     -2.88484178E+02
      1.08771323E+03      1.51535254E+03     -5.33052059E+02
     -2.81087103E+03      1.89438600E+03      1.47106963E+03
      2.32298816E+02     -7.85719619E+01      5.15561728E+02
      1.27987391E+03     -3.19537006E+02     -3.04245519E+03
     -5.62965582E+02      2.61464657E+02     -7.55628592E+02
     -1.39585471E+02     -1.23326819E+02      2.88897809E+01
      1.11326458E+03      7.73908688E+02     -1.14278324E+03
      7.65202216E+02      1.84928676E+03      2.90834790E+03
      2.25086163E+02     -8.28670436E+02      5.01173175E+02
     -3.02755767E+02     -7.75872746E+02     -1.05893743E+03
      3.45744999E+02      2.89654039E+03     -6.54486560E+01
      1.52827406E+02     -2.64474923E+03     -1.27520807E+03
      2.31106015E+02     -4.08480935E+02      7.05013967E+02
     -6.68462984E+02     -1.62967876E+03     -4.89753050E+02
      2.92715350E+03     -4.20454956E+01      9.65397591E+02
     -1.44942463E+03      5.83536823E+02      2.35533671E+03
     -1.52386966E+04      1.76591080E+04     -1.56607099E+04
      1.25659429E+03     -3.66694359E+02     -1.34006017E+03
      1.45227695E+02     -4.65372059E+03     -1.38757723E+03
      5.51048249E+02      1.66099970E+02     -6.73593409E+01
     -1.35749164E+03     -1.27058385E+03      1.16239479E+02
     -9.57439602E+02     -1.10414684E+03      1.99069577E+03
      3.14130587E+02     -3.67439674E+02     -5.49393115E+02
      8.24028673E+02      2.74998955E+02     -1.51127462E+03
      3.78396039E+02     -1.88698553E+03     -1.10130055E+02
     -7.93421778E+02      1.37332538E+02      1.21718598E+02
      3.53801925E+01      7.80302731E+02      2.92650614E+03
      3.36047383E+03     -9.17229928E+02      6.25221302E+02
      2.51263694E+02      2.15873840E+02      4.72704755E+02
     -2.44503681E+03     -2.32614985E+03     -1.04447060E+03
     -1.24812743E+03      6.98344026E+02     -4.43800951E+02
      1.68858129E+02     -2.95422102E+02     -3.75696311E+02
     -1.20482494E+03      4.99524813E+02     -9.49696975E+02
     -1.05005969E+03     -2.87570618E+03     -1.04708043E+02
     -3.33378692E+02     -6.75966987E+01     -4.14701115E+02
      2.84789893E+03     -7.02480561E+02     -6.36879183E+02
      6.46888268E+02     -7.84281419E+01      3.54983799E+03
      8.93853897E+02     -2.89221224E+01      4.94707975E+02
      1.69787576E+03      3.66664579E+02      7.32044033E+01
     -1.77935877E+02      1.56199585E+03     -1.12233259E+03
      1.10891152E+03     -1.08722174E+02     -3.72752963E+02
      2.51195028E+03     -1.11697457E+02      1.72084295E+03
      1.79587505E+03     -6.53777889E+02     -8.73270777E+02
      6.43813894E+02      1.93615161E+03     -1.80189165E+03
     -1.16701901E+02     -1.80696023E+02      2.75795394E+02
      2.38631765E+03      1.34315041E+03     -1.12800085E+03
     -4.38735435E+02     -1.44069976E+03     -3.64955961E+01
      3.58369576E+02     -9.71868340E+02     -1.64144874E+03
  }
}

Hamiltonian = DFTB {
  SCC = Yes
  SCCTolerance = 1e-6
  MaxSCCIterations = 200
  ForceEvaluation = Dynamics
  MaxAngularMomentum = {
    C = "p"
    H = "s"
  }
  Charge = 0.0
  SpinPolarisation = {}
  Eigensolver = Standard {}
  Filling = Fermi {
    Temperature [Kelvin] = 300.0
  }
  SlaterKosterFiles = Type2FileNames {
    Prefix = "../../pbc-0-3/"
    Separator = "-"
    Suffix = ".skf"
    LowerCaseTypeName = No
  }
  KPointsAndWeights = {
    0.0000000000000 0.0000000000000 0.0000000000000 1.00000000000000
  }
  Dispersion = LennardJones { 
    Parameters = UFFParameters {}
  }
}

ParserOptions = {
  ParserVersion = 3
}
