Geometry = GenFormat {
<<< "system.gen"
}

Driver = VelocityVerlet{
  Steps = 50000
  TimeStep [fs] = 0.2
  MDRestartFrequency = 25
  Thermostat = None {
    #InitialTemperature [Kelvin] = 300.0
  }
  Xlbomd{ 
    IntegrationSteps = 6 
    MinSccIterations = 2
    MaxSccIterations = 200
    SccTolerance = 1e-6 
  }
  Velocities [m/s] {
     -2.07828727E+01      3.80076858E+02      1.36536119E+02
      8.78499519E+02     -1.12422595E+02      3.92106938E+03
     -6.27050817E+02     -9.86908286E+02     -2.56808659E+03
      4.10525499E+02      2.68802366E+01      2.47925594E+02
      1.13779740E+03     -2.29705374E+02      1.37935536E+03
      2.64829897E+03     -4.98569190E+02     -1.39492658E+03
      1.27300527E+02      3.84022630E+01      5.98224097E+02
     -2.47648007E+02      1.40352564E+03     -2.29118329E+03
      1.67532583E+02      2.27353277E+03      3.14496105E+02
     -4.04884403E+02      5.42715688E+02      6.41543993E+02
     -2.06454695E+02     -2.37428843E+03      1.19819705E+03
      1.24889516E+03     -1.49400283E+03      6.56079207E+02
      6.65442709E+02      1.83371721E+02      2.19082894E+01
     -7.19825075E+02     -3.40715544E+03     -1.85023504E+02
      5.66092059E+02      6.23644250E+02      1.24156397E+03
      4.42210319E+02     -6.70229602E+02      3.48873193E+02
      2.38028620E+03     -1.29639487E+03     -3.54089368E+02
     -9.59243159E+02      1.59623493E+03     -3.33325319E+02
     -1.90987858E+02     -3.80246078E+02     -1.03653878E+03
      9.12784307E+02      1.09351640E+03     -1.69364376E+03
      2.68705789E+02     -2.58325538E+03      2.85380895E+03
     -8.25351487E+02     -5.46803239E+02      4.77310175E+02
      9.94498373E+02      1.25942181E+03      1.97789409E+03
     -1.44603674E+03      1.89995830E+03     -4.72567300E+02
      1.51166223E+01      7.51040249E+02      5.03471450E+02
     -9.67564888E+02      4.03103152E+02      1.88627228E+02
     -2.10029125E+03     -1.19031139E+02      9.50739262E+02
     -6.46211686E+02      2.69576370E+03      5.38725110E+01
      2.58491347E+02      5.01141349E+02      6.26089660E+02
      3.92000418E+02      2.21670797E+02     -5.14861927E+02
      1.94642834E+03      9.30034426E+01     -1.43873532E+03
     -1.40737242E+03      3.04850136E+02      4.91487543E+02
      3.14854794E+02     -2.45066434E+02      2.06671197E+02
      2.67197373E+03     -9.00600269E+02     -2.23257724E+02
      5.47447008E+02     -1.31063646E+03     -5.95438593E+02
      8.62663167E+02      8.10450291E+02     -1.57098467E+02
     -4.85794277E+02      9.19518916E+02      5.80047504E+02
     -7.34371755E+02     -1.46903602E+03      1.76305414E+03
     -2.81947036E+02     -5.29862773E+02     -7.80926222E+00
      4.70133838E+02     -4.05975646E+02      8.98669686E+02
     -6.38210337E+02      7.13848572E+02      2.12989541E+03
      2.40391249E+01     -1.65852302E+02     -6.52384133E+02
      2.48735224E+02     -2.70310211E+02      8.47078526E+02
     -1.23269917E+03     -5.27196518E+02     -7.02293173E+02
     -2.23583274E+02     -6.57919627E+02      2.55283493E+02
      1.94970760E+02      6.95438353E+02     -2.96504349E+02
      2.14621649E+02     -2.58297689E+03     -7.56733138E+02
     -7.29004656E+01     -4.28730598E+02     -2.63854662E+02
     -1.48730181E+03     -1.17680669E+03     -2.85516489E+03
      2.48551253E+03     -2.99018370E+02      1.54273029E+03
     -5.80399376E+01     -1.41423940E+01     -1.31317539E+01
     -8.60757312E+01     -3.88034458E+03     -1.17892140E+03
     -7.77619416E+01     -1.07825907E+03     -6.71512722E+02
     -6.54858003E+01     -1.40293002E+02      7.24951589E+02
      2.02969770E+03     -1.50157062E+02     -1.33140485E+03
     -2.40356232E+03     -6.68620841E+02     -2.76381635E+02
      5.53636470E+02     -1.66789238E+02     -7.51830171E+01
     -9.23432164E+02     -7.86225534E+01      2.18971787E+03
     -1.01846537E+03      1.39334954E+03     -4.87309196E+02
     -4.18353384E+02     -8.76138981E+02     -1.06273671E+03
     -5.26974242E+01      1.14529846E+03      2.52446845E+02
      3.45453326E+02      1.30780078E+03      5.07547842E+02
     -1.54143151E-02     -4.89251253E+02     -2.70426316E+02
     -2.37994624E+02      1.62961644E+03     -1.10025206E+03
     -4.25444553E+02     -3.82131933E+02      4.91058870E+02
      1.21289899E+03     -5.56764922E+02     -2.81167372E+02
     -1.32868440E+03     -3.79442077E+02     -6.91086102E+01
     -1.05760832E+04      7.78774211E+03     -1.73310639E+04
      1.78609846E+03     -1.61767935E+03      2.18972268E+02
     -1.43545941E+02     -2.39799964E+03     -1.00678556E+03
      4.67843181E+02      5.05322380E+01      7.03411268E+02
     -6.67517703E+02     -1.61502960E+03      8.94630306E+01
      1.35923930E+03     -2.86579473E+03     -8.26049984E+02
     -5.98893001E+02      1.94892187E+02      4.41090194E+02
     -1.92077744E+03      1.77371373E+03     -2.88403619E+03
     -2.40976275E+03     -9.75450923E+02     -1.64375808E+03
      6.34105860E+02      1.58822883E+02      7.12250380E+02
     -1.29767252E+03      1.53570651E+03      9.37603953E+02
      3.01478866E+03      3.38104261E+02     -1.01745910E+03
      1.68737875E+02     -4.01546518E+02      1.33786382E+02
     -2.07294831E+03      1.25148582E+03     -2.19156587E+03
     -1.28746007E+03     -1.66090557E+03     -2.18051716E+03
      3.80820289E+02     -5.08982790E+02     -2.25512606E+02
     -1.28147846E+03     -1.28492636E+03     -6.53119643E+01
     -1.13845441E+03     -2.98742881E+03      4.71254996E+03
     -5.98643024E+02      5.87825175E+02     -5.32813212E+02
     -1.78383451E+03     -1.12560932E+03     -1.14010773E+03
      3.33487386E+03     -1.51224441E+03      5.50308777E+02
     -7.55105550E+01     -2.53535219E+02      9.86126989E+01
     -1.46381998E+03     -1.88109750E+02     -7.61068217E+02
     -2.89602717E+02      1.70464736E+03      2.31761985E+03
      2.36465840E+03      9.30201887E+01     -1.61897110E+03
      1.98222578E+02      8.32711455E+02      1.89054809E+02
     -6.06778958E+02     -1.26135842E+03     -1.85942024E+02
      2.04501841E+03      2.68977661E+02      3.06713817E+03
      3.58906879E+02     -1.89046016E+03      3.29722203E+03
      4.26282540E+02     -9.64884843E+01     -4.63933429E+02
     -1.82233150E+03     -5.16277243E+02     -8.01939541E+02
     -2.67892209E+02      1.92451731E+03      1.07120344E+03
     -4.71339422E+02      9.50237871E+02      3.10780077E+02
      4.97847712E+02      2.22939085E+03     -2.51204937E+03
     -5.96052100E+02      1.27201867E+02      6.98501851E+02
     -6.58325335E+02      5.29447721E+01      6.85167492E+02
      2.24078617E+03     -7.89145516E+02     -2.08109074E+03
     -2.45151768E+03      1.65757071E+02      2.11764830E+03
      1.89427109E+02     -1.76652307E+02      4.13788119E+02
     -1.18404838E+02     -2.32701188E+03      1.86117280E+02
      3.25894136E+03      3.86513934E+02      3.10972082E+02
     -6.32894205E+02     -8.04414594E+02     -6.32700371E+00
     -2.76056920E+03      4.41449151E+02      1.35343781E+02
      1.66388973E+03      1.44818615E+03      2.28457895E+03
      2.28861428E+02      4.68524420E+02      7.82610406E+01
     -4.33271108E+02      1.64631759E+02      4.51257873E+02
     -1.24801230E+03      5.48977294E+02     -2.42029654E+02
      1.63907056E+02      3.64210046E+02      3.96655215E+02
      1.14410883E+03     -1.03929654E+02      4.73663914E+02
      1.79523489E+03      2.29935218E+03      2.80357027E+03
      2.77566039E+02     -8.19119346E+01      3.14960057E+02
      1.50205313E+02      2.21245746E+03      8.20931421E+02
     -2.74350169E+03     -1.04099138E+03      3.12142131E+03
     -5.41870064E+02      2.81500090E+00     -1.43507106E+02
     -1.58215254E+03     -1.49817307E+03     -3.44996252E+02
      1.73817692E+03      2.82180910E+02      1.50361675E+03
      2.85247757E+03     -7.55779663E+01     -4.64924307E+02
      7.06098509E+02      3.67807325E+00     -1.50061822E+01
      2.36928792E+03      8.92104604E+02      1.34395063E+03
     -2.89728614E+03     -1.73647276E+03      2.08503719E+03
     -2.82798898E+02      3.49608488E+02     -2.49886734E+03
     -8.22910798E+01     -3.50763426E+02      5.69653650E+02
      8.38184852E+01     -2.36465494E+02      1.01429175E+03
      9.86034922E+02     -1.18074693E+03     -1.38952256E+03
      9.63085355E+02      2.08106045E+01      4.64011570E+00
      1.52438801E+03      1.63379477E+03     -3.84499848E+02
      2.04156338E+03     -3.41551969E+02      9.33653965E+02
     -5.17755399E+02     -3.56001773E+02     -3.23940037E+02
     -4.44540593E+02      6.08487851E+02     -2.38118163E+03
      2.74733388E+03      2.34148302E+02     -1.74865849E+03
     -5.92339980E+02      8.14718737E+02      1.25547673E+01
     -1.06805412E+03     -1.00288198E+03     -1.49043789E+03
     -1.50011118E+03     -6.60461930E+02      8.27969177E+02
     -9.01469269E+01     -1.22109805E+02      2.72322466E+01
     -3.11750349E+03      3.34254680E+03      2.33058676E+03
      1.89660584E+02     -2.04904099E+03     -5.45300475E+02
      3.75728707E+01     -9.98201817E+01     -4.60027901E+02
     -2.32451472E+03      1.19785929E+02     -1.25113900E+03
      3.02935358E+03     -1.16206796E+03      2.99741954E+03
      4.49405736E+02     -1.28234317E+02      3.72918334E+02
     -2.30176608E+03      1.35746655E+03     -7.12937397E+02
     -1.43277989E+02     -1.96137539E+03     -3.44647412E+03
      2.18350673E+02     -5.57183386E+02      7.70976903E+02
      2.13496345E+03     -9.77384497E+02      1.04338485E+03
      2.81594268E+03     -5.95812031E+02      2.29049570E+03
     -1.07631360E+02     -2.01966375E+01      3.91675108E+02
      4.01236979E+02     -2.20836977E+03      9.10977960E+01
     -1.00941257E+03     -1.50407694E+03     -1.24537514E+03
      5.61872991E+02     -1.33453136E+02      2.84208580E+03
      2.01253316E+01      7.12336173E+02      1.42075514E+02
     -1.14518578E+03      1.68820950E+02      2.05939939E+02
      2.25572392E+02      9.64082999E+02      1.33387033E+03
      1.04868502E+03      2.41397861E+03      3.66395689E+02
     -1.18578006E+02     -5.10003188E+02     -2.74672353E+02
     -2.85766709E+03     -2.99084747E+03     -1.21023579E+03
     -1.04814930E+03     -4.45236878E+01     -4.11648112E+02
      8.32689896E+01     -4.43576790E+02     -4.80476601E+02
      1.99576666E+03      3.03725908E+03     -1.08223517E+03
      7.17013337E+02     -2.21813168E+01      2.27325164E+03
      5.88403675E+01     -2.23574726E+02     -1.22733505E+01
     -3.52074896E+02     -4.45868660E+02      1.01641201E+03
      8.39403274E+02     -1.32964975E+01     -1.57571207E+01
      1.63240997E+01      7.92450510E+01      3.02818098E+01
      5.55474997E+02      1.89968921E+03      2.17315245E+02
      1.03375613E+03     -1.13219832E+03      7.68243850E+01
      6.13759892E+01      1.80229301E+02      5.42217894E+02
     -2.73106455E+02      9.10944566E+02      1.03786243E+02
      7.74319425E+02      1.10725862E+03      7.66260921E+02
      3.79759836E+02      5.52047884E+02      1.11082015E+02
     -1.86550682E+03      2.25766660E+03     -4.52890279E+02
     -7.59649985E+02      5.23217095E+02      2.55546508E+01
     -6.36654085E+02     -9.61447380E+02     -7.15018918E+02
      3.00834913E+03     -1.24936580E+03     -5.62408569E+02
     -1.64925894E+03      4.00903646E+02     -1.63247933E+02
     -5.26259112E+02     -3.16405093E+02     -1.50939879E+02
      5.86031017E+02     -1.00850879E+03      5.34968680E+02
      6.21754031E+03      9.10184487E+02     -1.70541498E+03
      8.21560221E+01     -4.04875630E+02     -1.74064689E+02
      1.78619625E+03     -3.96286848E+03      1.59867977E+03
      1.51482275E+03      5.44091734E+02      1.32915346E+03
      6.36331558E+02     -7.80255500E+02      2.03882523E+02
      4.63096013E+02     -3.76134116E+02      1.68122044E+02
      2.44044030E+03      4.54087151E+02     -4.68445190E+02
     -1.50425223E+03      2.70975526E+02     -1.67443597E+03
     -3.47244965E+03     -5.63663176E+02     -1.40799218E+03
      1.05953631E+03     -5.47307594E+02     -2.30974406E+02
     -3.05507320E+02     -1.44754578E+03      4.54216023E+02
     -1.30311021E+02      6.37089529E+02      9.09843339E+02
     -2.67263854E+02      5.18272557E+02     -6.19340469E+02
     -1.17141637E+03      7.98521568E+01      6.44964893E+02
      9.05552702E+02      4.03057281E+03      2.81981774E+03
      3.86915176E+02     -5.59830322E+01      1.08956066E+03
     -4.95286206E+02      1.36911105E+02     -1.99854069E+03
     -5.04873985E+02      1.24597056E+03     -2.33445548E+03
      3.36193258E+02      1.26508424E+02     -3.63054081E+02
     -7.86897363E+02      1.56931083E+03     -2.73516636E+02
      3.63276341E+02     -5.74790110E+02      2.46713845E+03
      6.63796626E+01      9.05730507E+02     -3.07146905E+02
     -4.47633838E+01     -1.06934461E+03      2.15356878E+02
     -1.30039362E+03      2.22768263E+03     -3.38891876E+02
     -1.77487159E+02      1.45531319E+02     -8.87825184E+02
     -2.43145045E+02      1.29021261E+03      2.51434305E+02
     -1.94313833E+03     -9.72831537E+02     -3.11827631E+03
      4.26635418E+02      5.18679862E+02      5.62321152E+02
      1.09566469E+03     -5.43323738E+01      2.92040150E+03
      2.23396540E+03      9.53212156E+01      1.24974001E+03
      6.41809234E+02     -3.08666782E+02      1.56710771E+02
      7.54066819E+02      1.82253894E+03      1.96637461E+03
     -8.96219176E+02     -4.01208860E+01      1.63765208E+03
      6.59872578E+02      7.34604114E+01      7.07259358E+01
     -1.70725321E+02      5.76086765E+02     -4.50763194E+02
     -9.56283702E+01     -2.97922332E+01     -7.44303115E+02
      4.23278302E+02      1.66116130E+03     -3.31871496E+03
      8.70057355E+02     -4.21937193E+02     -5.25414478E+02
      4.04787413E+03     -1.08059246E+03      9.55391753E+01
     -6.02138541E+02      7.72584766E+01     -1.61173090E+03
     -6.31717511E+02      1.65765471E+03     -2.72477069E+03
      1.24470460E+02     -3.20850105E+02      6.16825632E+02
     -3.49610816E+02      1.00132693E+03     -3.19030732E+03
     -1.56880012E+03      1.48221186E+03     -1.05312251E+03
      4.24954057E+02     -5.29792424E+02      9.89090579E+02
      9.66652082E+02      3.50070661E+02      3.08250827E+03
      1.75458240E+03     -1.55514323E+03     -1.30994248E+03
      3.68451972E+02     -1.50185551E+01     -1.39280720E+02
      2.27537617E+02      6.10941210E+01      1.05159097E+03
      1.82518849E+02     -1.51380279E+03     -6.00609821E+02
      3.40775602E+02     -2.35483749E+02     -2.68580613E+02
      1.16099850E+03     -2.02659006E+03     -4.38226450E+02
     -1.47302900E+03     -7.49850693E+02      8.86522938E+02
      1.82374345E+02      4.01187661E+02      6.78932294E+02
      1.69677389E+02     -3.96910155E+02      4.39081302E+03
      1.75185806E+03     -1.26538521E+03      8.93400438E+01
      5.15508891E+01      2.91200912E+02      5.78903201E+00
      1.03976821E+02      2.32319712E+03     -6.61531429E+02
      1.00410104E+03      2.54742666E+03     -1.48564090E+02
     -9.39974211E+02     -1.47089001E+02     -7.68321961E+01
     -9.01683930E+02      1.40702463E+01     -7.48733172E+02
      1.71235867E+03      4.80117622E+02      5.72464958E+02
     -8.14723652E+02      6.37079310E+02      1.78645210E+02
      2.21436256E+02     -6.45115679E+02      4.15217854E+03
     -7.63228389E+02      1.16224214E+02     -2.17905537E+03
     -5.83473331E+02     -2.20748055E+02     -1.10373667E+02
      2.28054288E+02     -1.81328458E+03     -1.75320607E+03
     -1.95160072E+03     -8.02544411E+02     -5.20813575E+02
     -5.77650464E+02     -1.66438285E+03      2.00617045E+03
      2.33324931E+02      2.99199582E+02      1.17047564E+03
     -1.04211385E+03      6.38588475E+02     -1.32313174E+03
     -1.45284379E+03      1.23804141E+03     -1.69802137E+03
      3.18549279E+02     -8.95958908E+02     -9.31122182E+02
     -7.42359110E+02      2.77163381E+01     -7.98675535E+01
      1.37669435E+03     -7.81493037E+02     -5.78404984E+02
     -6.09916663E+02      1.12345736E+03     -1.60025069E+03
      2.71231959E+02      2.70058738E+02     -1.43619625E+02
     -1.13440174E+03     -2.25111838E+02      1.17333330E+03
      1.31675194E+03     -7.19707749E+02     -1.10978761E+03
     -1.00232740E+02     -2.00628088E+02      6.12411965E+02
      1.75434325E+02     -1.61559050E+03      5.48001436E+02
      5.56803667E+02      2.55462223E+03      9.79112734E+01
     -1.52759916E+02      5.25718811E+02      1.09753893E+03
     -1.12320079E+02      4.25954890E+02     -8.34765380E+02
     -1.35976526E+03     -1.95758431E+03      5.27060627E+02
     -1.21201625E+02     -1.52579429E+02      6.97625834E+02
      2.70979704E+02     -1.58568565E+02     -6.37372064E+02
      1.46006616E+03     -2.49145083E+02      6.60768038E+02
      2.73693267E+02     -2.85117986E+02     -2.75697240E+02
     -4.19979341E+02      2.40088007E+03      4.85332498E+01
     -7.90942338E+02      1.07004656E+03     -1.69416290E+03
      2.99223202E+01     -2.29546508E+02      1.80013038E+02
     -1.06434558E+03      5.85422278E+02     -6.51793151E+02
      5.91245348E+01     -2.00212910E+03     -9.71965257E+02
      1.59791411E+02      3.71300734E+02     -3.24424675E+01
      1.15553490E+02     -3.02011458E+03     -3.87916635E+01
      1.41992703E+02     -3.55117433E+03      7.54960652E+02
      8.22309457E+02      4.22714448E+02      9.98978074E+02
      2.49361167E+02     -8.35100389E+02      2.00180375E+02
      1.58361243E+03      3.88310960E+03     -7.13546929E+02
     -1.17113947E+03     -1.88289846E+03      1.14181103E+03
     -5.97512029E+02     -1.23262898E+02      2.45324103E+02
     -2.23552527E+03     -3.27487083E+03     -7.47383831E+02
     -8.97108714E+02     -1.20688501E+03      2.06443253E+03
     -2.70120228E+03     -1.80704240E+02     -4.04956763E+02
      1.41156085E+02     -1.06539139E+03      1.69914001E+02
     -1.86049265E+03      3.00516043E+01      6.62766837E+02
     -4.07907289E+02      5.65826431E+02     -1.89114049E+03
      4.77360421E+02     -8.71877637E+02      4.53275200E+02
     -2.06181930E+03      1.62597546E+03      1.89976560E+02
      1.07389777E+03      2.47124028E+03      1.36701358E+03
      9.47926652E+02     -6.46705150E+02      9.77638415E+00
     -1.47371822E+03      2.91152308E+02     -8.93897259E+02
      9.38667786E+02     -1.47457581E+03     -3.78283494E+02
      3.04549373E+02     -4.22552211E+02      1.81633369E+02
      4.61354861E+02     -1.62433217E+03      3.72181441E+03
     -1.17276568E+01      1.61904614E+03     -1.73463976E+03
      1.75111469E+02      2.56361020E+02     -2.30619576E+02
     -2.62460057E+03     -9.24304372E+02      1.62288372E+03
     -7.43728020E+02      1.17398749E+03     -1.40501670E+03
      2.38857834E+02     -6.41077293E+02      9.79539705E+01
     -1.08217624E+03      2.88731361E+02      1.51554612E+03
     -6.91419074E+02     -2.24758399E+03     -4.39201281E+02
      1.38371251E+02      1.77064198E+02      1.20007576E+02
      7.45469244E+02     -1.17514225E+03      2.09179667E+03
     -9.06664472E+02     -7.21516659E+02     -2.37764400E+03
     -1.24841492E+02     -3.36282383E+02      7.15182558E+02
     -2.81636823E+02     -8.39031272E+00     -1.30745265E+03
      4.73043408E+02     -1.06573982E+03     -4.39340608E+03
      4.07787534E+02     -2.66433662E+02      9.84923264E+01
     -1.17049308E+03      2.11039275E+02      5.47897221E+02
     -1.84901195E+03     -1.52696679E+03      7.22561089E+01
      6.41308517E+02      3.76434109E+03      6.85327644E+02
      8.77330449E+02     -1.19792945E+03      3.69704288E+02
      1.55966846E+02     -3.00375835E+02      1.49810342E+03
      4.54392847E+02     -2.08843784E+02     -2.48645006E+03
      5.19870234E+02     -9.99397573E+02      2.21815537E+03
      1.81959322E+01     -1.27063656E+02      1.66253112E+02
     -1.50735396E+03      5.99191576E+02     -2.29429128E+03
     -1.13993479E+03      1.72571141E+03     -2.85252905E+03
      1.80455636E+02     -3.50234782E+02     -6.69594666E+02
      1.62577852E+03      1.60575720E+03     -6.06265541E+02
      1.18878627E+03      3.00315725E+03      2.27839031E+02
      4.80750810E+02     -3.09987887E+02      8.53116780E+01
      1.87406579E+03      8.83886849E+02      2.19230029E+03
     -7.38802016E+02     -1.23287635E+03     -1.64067764E+03
     -1.08742359E+01      9.91410279E+02     -1.56838248E+02
      2.49317057E+03     -2.81561673E+03      1.25728203E+03
     -1.09161723E+03     -1.42720181E+03     -4.23678231E+01
      4.14407288E+02     -2.64353337E+02     -1.51508583E+01
      1.47592032E+03      3.31174160E+03     -4.79835411E+02
     -6.34201207E+02     -3.10156988E+03      2.89255367E+03
     -6.46529951E+02     -3.97020919E+02      7.05186670E+02
      8.02956444E+02      2.26765449E+03      2.41051695E+03
      2.24314228E+03     -5.54077835E+00     -1.34123530E+03
      3.63145484E+02     -6.40919619E+01     -4.30441069E+01
     -2.97027167E+03     -3.03058823E+02     -1.13969772E+03
      4.89415975E+02     -1.69838285E+03      1.21585344E+03
     -2.62898114E+02      2.45814137E+02      1.68048846E+03
      1.74393321E+03      1.05623412E+03     -3.86499330E+02
      3.80470941E+02      7.78971861E+02      5.06362017E+02
      3.09187769E+02     -6.20852247E+02      3.86875185E+02
      2.66786652E+03     -1.07095180E+03     -6.57805709E+02
      8.50411253E+02     -8.88960481E+02     -2.14042428E+03
     -1.44523544E+03     -1.74419592E+03      2.86211380E+02
      7.48773836E+02     -5.17674795E+02      3.45257903E+02
      2.57417096E+02      2.76549292E+03     -6.75471418E+02
     -3.13207783E+02     -9.96518411E+02     -1.64562860E+02
     -4.34829066E+02     -3.48071753E+03      3.00106288E+03
  }
}

Hamiltonian = DFTB {
  SCC = Yes
  SCCTolerance = 1e-6
  MaxSCCIterations = 200
  ForceEvaluation = Dynamics
  MaxAngularMomentum = {
    C = "p"
    H = "s"
  }
  Charge = 0.0
  SpinPolarisation = {}
  Eigensolver = Standard {}
  Filling = Fermi {
    Temperature [Kelvin] = 300.0
  }
  SlaterKosterFiles = Type2FileNames {
    Prefix = "../../pbc-0-3/"
    Separator = "-"
    Suffix = ".skf"
    LowerCaseTypeName = No
  }
  KPointsAndWeights = {
    0.0000000000000 0.0000000000000 0.0000000000000 1.00000000000000
  }
  Dispersion = LennardJones { 
    Parameters = UFFParameters {}
  }
}

ParserOptions = {
  ParserVersion = 3
}
