Geometry = GenFormat {
<<< "system.gen"
}

Driver = VelocityVerlet{
  Steps = 100000
  TimeStep [fs] = 0.2
  MDRestartFrequency = 5
  Thermostat = None {
    #InitialTemperature [Kelvin] = 300.0
  }
  Xlbomd{ 
    IntegrationSteps = 6 
    MinSccIterations = 2
    MaxSccIterations = 200
    SccTolerance = 1e-6 
  }
  Velocities [m/s] {
     -3.25671099E+02     -6.92185656E+01      6.33507094E+02
     -1.95346319E+03     -8.59191811E+01     -2.95029937E+03
      7.29551888E+02     -2.32666430E+03      1.31830593E+03
     -9.76303786E+01      7.79517043E+01     -5.45918412E+02
      2.58688836E+03     -2.39615113E+03      1.89863369E+03
     -1.14619963E+03     -1.21302787E+03      1.84660188E+03
     -1.70036515E+02      2.91553431E+02      1.21435310E+02
      3.71265136E+02     -1.76061055E+03      7.36236485E+02
     -1.55147832E+03      1.25461827E+02     -2.54748863E+01
      1.43632493E+02      2.74494598E+02      4.46495262E+02
      1.78526586E+02     -5.87336323E+02     -1.34774272E+02
     -1.29551759E+03     -2.07878838E+03      3.35042918E+02
     -2.67277920E+02     -5.74024632E+02      5.66105031E+02
      1.54812062E+03     -1.07119536E+03      2.20914261E+03
     -1.56990794E+03      6.96905468E+02      1.87692163E+03
     -3.10173424E+02     -1.03597310E+03     -3.34104069E+02
     -3.21163489E+03     -1.19975526E+03     -5.36168289E+02
     -7.16153035E+02      2.33458371E+03      8.84172641E+02
     -4.51844404E+01     -4.13184233E+02      3.48266635E+02
      1.43748310E+03      8.83781600E+02      6.13215507E+02
      9.42463793E+02      8.90998375E+01     -7.17080965E+02
      4.82238269E+02      7.94917122E+02      5.74878434E+02
      9.03364693E+02     -2.99104037E+03     -5.73251172E+02
     -3.72970331E+02      2.63393720E+02     -3.12906358E+03
     -5.29662054E+02     -2.11231573E+02      4.16875474E+02
      7.61657992E+02      5.47315118E+02     -1.57172854E+02
     -1.22451368E+03     -1.50427271E+03      1.21409569E+03
      1.84323427E+03     -1.82754535E+03      7.29268246E+01
      2.02611951E+02     -1.02590193E+02     -5.83739331E+02
      2.55294660E+03      2.02378515E+03      1.09170036E+03
      1.37939687E+02      1.91768591E+03      2.91921597E+03
     -4.11465782E+03     -3.88704339E+03      4.42191007E+01
     -5.37992763E+00      4.58255811E+02     -3.08765133E+01
      2.43921433E+03     -8.98679556E+02     -4.35633821E+03
      2.67731083E+03      2.32190720E+03      2.09397965E+03
     -1.42976021E+02      5.11893359E+02      4.36723016E+02
     -8.48708214E+02     -3.76192506E+02      8.19666131E+02
      1.24397836E+03      9.53429891E+01      1.02404671E+03
      1.18540635E+02      3.12819944E+02     -4.25087253E+01
     -6.11075338E+01      6.08244758E+02     -1.41974885E+03
      7.07724049E+01     -9.83457999E+02     -1.69243687E+03
     -6.65935708E+02      3.54919158E+02     -3.47411694E+02
     -1.74776040E+02      1.55347708E+03      1.41002668E+03
     -3.26935767E+02     -3.40155728E+02      2.24128410E+03
      7.22145324E+02     -2.62685376E+02      2.23243765E+02
      5.69052210E+02     -6.48263911E+01     -3.47759333E+03
     -2.47262587E+03     -1.43313102E+03      2.65633891E+03
      4.19335349E+02     -7.68028665E+01     -5.89309953E+02
     -1.00620189E+03     -2.10119325E+03      1.52115356E+03
     -1.96980704E+02     -5.21710600E+02     -3.65242179E+02
      3.19679337E+02     -7.10432851E+01      6.73050392E+01
     -1.51647004E+03      8.62500239E+02     -1.03187473E+03
      2.34098183E+03      1.35915163E+03      2.92601836E+02
     -5.13818403E+02      7.15360857E+02      8.56733013E+02
      3.61935545E+03     -2.85232688E+01     -2.64658659E+02
      9.22451416E+02      2.55697613E+03      1.92581219E+03
      1.84513913E+02     -7.43949087E+02      8.65597741E+02
     -3.75065782E+02      2.21837995E+01     -3.08130640E+02
      6.11395452E+02      6.95036392E+02     -1.90415017E+03
     -8.96066118E+02      2.99751279E+03      1.86527536E+03
      1.82401487E+02      3.03648874E+02      2.54758223E+02
      2.35822636E+03      7.73946363E+02      9.00323059E+02
      2.51965394E+03     -9.58184581E+02     -2.44682960E+03
      3.85351164E+02     -5.49112204E+01      1.52549053E+03
      7.33638165E+02      1.47404328E+02      9.13083444E+02
      4.96170190E+01      1.78886534E+02      3.82534286E+03
     -8.43647407E+02      2.00629707E+03     -8.04818056E+01
     -1.23749840E+03      2.13037132E+01      4.73755577E+02
     -2.82552101E+03     -6.48691188E+02      9.47222021E+02
      3.59434302E+02      1.05291223E+02     -3.53245101E+02
      2.50123210E+02     -5.58154681E+02     -2.74358631E+02
     -1.37782181E+03     -3.95398390E+02      1.54319835E+03
     -9.07723558E+01     -4.52779288E+02      8.06366882E+02
     -2.06560049E+02     -8.89653694E+01     -5.11763899E+02
     -2.11064695E+03      3.64908025E+02      2.14842554E+03
     -1.23253322E+03      3.24150104E+03      9.86138864E+01
     -1.03355296E+02     -9.60264571E+02      6.09940234E+02
     -2.83427256E+02     -1.10628868E+03     -1.57189453E+03
     -1.89028287E+03      2.34586705E+03     -7.64027089E+02
      3.26641442E+02      1.67246402E+02     -9.84726775E+01
     -1.56624094E+03      2.44504803E+03      3.21244004E+03
     -1.13059630E+03     -5.46302500E+02      9.46498921E+02
     -9.05146682E+01     -4.33038743E+02     -2.70365045E+01
      1.73996520E+03      4.04324681E+02      8.68623480E+02
      1.46713861E+03     -1.72476676E+03      7.86050677E+02
     -1.84953399E+02      1.00472798E+03      4.22388696E+02
      1.20000509E+03     -1.64018066E+03      3.41125348E+03
     -9.15610236E+02     -1.06950075E+03      3.16328644E+02
     -4.94430460E+02      1.04695030E+03      5.15818297E+01
      1.45332592E+02     -8.03789284E+02     -1.35088717E+02
     -5.68964380E+02      2.22081333E+02     -2.29947984E+03
     -1.91958036E+02      3.22431044E+02      2.20332247E+03
      3.05306448E+02     -8.53221424E+01     -5.53854766E+01
     -1.87624919E+03      2.61192817E+03     -2.53084790E+03
      1.33135662E+03      2.02266230E+02     -2.97888230E+02
     -7.94038701E+02     -4.80861244E+02     -1.64790152E+03
      8.78948512E+02      8.71448577E+01      6.47694542E+01
      1.12010438E+03     -2.73163232E+03     -1.99734959E+02
     -4.30881024E+02     -1.64887532E+03     -1.43190289E+02
      5.86581317E+02      1.48186937E+02     -5.89031190E+02
      2.27090421E+02      2.11334108E+03      4.98422141E+02
      1.17254577E+01     -9.96974844E+00     -1.10682794E+03
      1.83518041E+02     -3.66099784E+02      1.12951436E+00
      7.96340973E+02      6.72735747E+02      1.64136691E+03
      6.51953006E+02     -2.41070076E+03     -2.01223762E+02
     -2.04070859E+02     -5.79426461E+02     -2.33253892E+02
     -2.07625267E+02      4.33374509E+03     -1.40590307E+03
     -1.74328272E+03      3.62087127E+03     -1.27052158E+02
     -2.00948837E+02     -3.39636341E+02      2.42450941E+02
     -1.40421802E+01     -1.16348143E+03     -1.66206234E+03
     -1.84270765E+03      2.65293273E+03      1.64232528E+03
     -2.42428168E+02      2.74214254E+02     -1.64426859E+01
     -1.04772187E+03      1.17969500E+03     -2.97485416E+03
     -1.75976543E+02     -1.04020746E+02      1.24752516E+03
     -1.66069897E+01      6.18519607E+01      3.91734587E+01
     -2.96471485E+03      1.28170696E+03     -1.54463139E+03
     -1.96411785E+03      1.56615079E+03     -1.48523635E+03
      3.02235532E+02     -3.58838626E+02      7.11911196E+02
      3.81377443E+03     -3.15759340E+02      9.01609268E+02
      1.09865941E+03     -1.05664753E+03      1.26784053E+03
      6.49622044E+02      2.43112444E+02      6.98804559E+02
     -6.21069597E+02     -1.51322044E+03     -5.26835994E+01
      2.55231990E+03      1.86012873E+03     -1.02537488E+03
     -1.04850276E+03     -2.97578247E+03     -2.78564127E+03
      1.13927837E+02      2.62951865E+02      4.27542022E+02
      5.53041343E+02     -3.18930248E+03      1.60771418E+03
      5.77108665E+02     -4.59737751E+03      1.81006839E+03
     -1.87559405E+03      8.34841467E+02      4.99616105E+02
      5.86563724E+02      1.95356568E+02      2.58750696E+02
      1.00630722E+03     -6.50968710E+02     -3.28134657E+02
      1.36818737E+03      2.49551480E+02     -2.37449082E+02
     -4.36428789E+02      5.09838968E+02      5.28999441E+02
      5.96058283E+02      8.96659322E+02     -9.83893208E+02
     -2.26403744E+03     -2.86814115E+03     -1.98317191E+03
      2.78921444E+00     -4.51202608E+02     -2.80232202E+01
     -4.64578516E+03     -9.67409888E+02      5.10916437E+03
      1.72924187E+03      1.96286816E+03      9.83203119E+02
      2.46338381E+02     -2.50738489E+02      7.18074670E+02
      8.85797411E+02      9.88252904E+02      1.38119049E+03
      7.41790321E+02      1.99786100E+03     -5.48039670E+02
     -5.74619109E+02     -1.02179493E+03      2.75686177E+02
      1.07307664E+02      1.73524770E+03      3.50158040E+03
     -6.88572548E+02      1.00278806E+03     -2.32117680E+02
     -5.65822211E+02      1.13692028E+02     -3.18970672E+02
     -8.27661595E+02      1.29050461E+02     -4.17552238E+02
      1.30486343E+03     -4.46918009E+01     -2.25691540E+02
     -7.51858267E-01      2.63574260E+02     -1.99336549E+02
     -3.29736874E+03      8.52282243E+02     -1.66824855E+03
      9.63396400E+02     -9.55685457E+02      1.73705854E+03
     -9.40025270E+01     -5.33291870E+02     -3.86922124E+02
      5.51943188E+02      2.00146601E+03     -2.38959551E+02
     -4.22250895E+02      3.27894612E+03      2.51116836E+02
      1.05696342E+02     -8.17532635E+02      1.13275865E+03
     -7.85872765E+02      4.95537207E+03      2.30840900E+03
      1.47475962E+03      2.77169229E+03     -2.10888447E+03
      5.32052017E+02     -2.95519512E+02      2.27763523E+03
      2.98521919E+02      7.16930948E+02      1.67199899E+02
      1.55084674E+03     -9.73593379E+02     -7.69035058E+01
     -4.38090038E+02      1.92047327E+02      3.05030375E+03
     -4.28458735E+03     -3.13744423E+03      1.36342900E+03
      3.44583643E+02      3.03900975E+02     -5.09927546E+01
     -6.36557722E+01     -3.69827596E+03     -2.70974944E+02
     -1.90581179E+03      1.52375748E+03      6.56971714E+02
     -1.61763896E+02     -1.39783622E+02      1.22112214E+02
     -8.58243832E+02      7.70898339E+02      2.08822867E+03
      2.27830436E+03      3.13056998E+02      1.76764685E+03
     -5.13356852E+02     -5.24879930E+01      4.35515608E+02
      5.58774254E+02      1.02632857E+03     -1.35134114E+03
     -2.70781223E+03     -1.57326118E+03     -8.11597270E+02
     -1.85737890E+02     -4.92843478E+02      7.18294585E+02
      1.04259888E+03      5.13905665E+02      1.17278623E+03
      5.30179028E+02     -1.26953270E+03      2.15882076E+03
     -4.64558749E+01      1.47070203E+02     -1.00729285E+02
      1.86377948E+03      1.78292831E+03      4.13777798E+02
     -8.79172440E+02     -1.58215188E+03     -2.95919738E+03
      1.41540091E+03      1.09939344E+02     -5.45631669E+02
     -2.64077061E+02      2.10554301E+02      2.85128320E+03
      7.36195313E+02      1.05278271E+03     -2.15609919E+03
      5.35706543E+02      9.24189854E+02     -4.67509751E+02
      2.20069424E+03      2.10998963E+03     -3.16052963E+03
      7.39954540E+02     -1.73582233E+03      2.68133516E+03
     -3.83104405E+02     -4.13483556E+02     -2.69685561E+02
      1.03482210E+03     -1.54224131E+03      1.52998693E+03
      2.46739387E+03     -2.13473337E+03     -9.91671974E+02
     -5.98824788E+02     -5.93800343E+02      1.77942568E+02
      1.93060461E+03      9.53615923E+02      5.37186903E+02
     -1.49833385E+03     -7.12485790E+02      1.66231345E+03
      5.22982213E+01      5.71087636E+02      9.39039564E+02
      7.39220549E+02      1.88812388E+02     -1.06397890E+03
     -2.34694818E+03      1.16337987E+02      3.37748250E+01
     -4.96331400E+02     -1.24994677E+03      1.23047287E+02
     -1.04268571E+03     -2.00457340E+03      2.71267179E+03
      1.33658114E+02      2.96769728E+02      1.19968274E+03
     -2.09432766E+03      1.67680926E+03      5.74483540E+01
     -1.97746821E+03     -1.40134873E+03     -5.61891757E+02
      3.93742548E+02      1.40978984E+02     -4.63724909E+02
      5.40418538E+02     -6.53632665E+02      1.39911151E+03
      2.89698334E+03     -6.56356404E+01     -1.55539167E+03
      1.42545209E+02     -4.60301271E+02     -3.66775370E+02
      1.25343863E+03      1.15683124E+01     -1.61295217E+03
     -3.45603398E+02      3.13547147E+03      6.59114760E+01
      8.11355495E+01     -3.00892077E+02     -3.20454991E+01
     -1.80461053E+03      1.85873276E+03     -1.77783325E+03
     -1.76488049E+03      2.66964210E+03     -1.54823760E+03
      4.35133330E+01     -1.52566700E+02      2.21667520E+02
     -5.93266664E+02     -2.52203624E+03      5.62735771E+02
      6.59101247E+02     -1.79305832E+03      1.53338793E+03
     -1.09077647E+03      7.42788536E+02      1.45502193E+02
      8.59949276E+02      2.11512320E+02     -5.02875759E+02
      3.00724354E+02      2.44882838E+03      1.91462706E+03
     -6.20350109E+01      3.40619494E+02     -1.23213015E+01
     -1.85924708E+03      1.09338477E+03     -6.68348444E+02
      1.53327569E+02      5.53692108E+02     -2.24136533E+03
      4.68832401E+02     -2.79055938E+02     -3.92123510E+02
      9.48055550E+02     -1.16534885E+03      6.27463093E+02
     -3.05009841E+01      2.25009339E+03     -1.38879467E+03
      3.55615674E+02     -4.77717530E+02      2.06271938E+02
      4.31886955E+02     -3.80901364E+03      2.37067494E+03
      1.84006947E+03      4.32805581E+01     -9.75597016E+02
     -5.21951102E+02     -2.29167063E+03      2.59805181E+01
     -2.16366741E+02     -2.45780984E+02      1.90041784E+02
     -6.67932691E+02      1.31742214E+03     -6.94311263E+02
     -7.98619722E+02     -5.20326870E+02      6.63988707E+02
      3.00438285E+03      1.39847477E+03      7.39683548E+02
     -4.85589869E+02      6.92748487E+02     -2.70148913E+01
     -1.65117802E+03      3.87478492E+02     -2.39917867E+03
      1.72092601E+03     -1.36608422E+03     -1.12718214E+03
      2.21214606E+02     -1.22815528E+02      1.23880888E+01
     -3.50045068E+03      1.55365796E+02     -5.87384865E+02
      9.47194831E+02      1.01853898E+03     -1.71141592E+03
      2.53508205E+02      2.35660451E+02      3.49544368E+02
     -7.92367583E+02      5.14578844E+02     -9.44565445E+02
     -1.46936632E+02     -1.66278544E+03     -3.92051348E+03
      3.23444581E+02     -2.72735326E+02     -4.29211254E+02
     -1.32649210E+03      3.85963283E+03     -2.08989278E+03
      7.69025182E+01      3.83516526E+03     -3.36658590E+03
     -1.25459355E+02     -2.87382500E+02      5.34783727E+02
      1.22759836E+03     -3.64496495E+02     -1.00810970E+02
     -2.37209729E+02      1.63134241E+03     -1.32532383E+02
      3.84266234E+02     -2.17044565E+02      8.71015507E+02
     -6.27388498E+02     -1.21940593E+03      2.49427839E+02
      1.72219186E+03     -6.91550888E+02      4.94187431E+02
      7.23013050E+02     -1.55080337E+02     -5.17081096E+02
     -2.84418190E+03     -1.78368298E+03      3.82296956E+03
      3.85258210E+02      5.08042365E+02      2.76064031E+03
     -3.45993900E+02     -5.28901508E+02     -1.47815810E+02
      2.27090886E+03      1.66500167E+03     -7.81555195E+01
     -5.01044167E+02     -1.67560275E+03      8.01190826E+02
     -3.02381602E+02     -6.00657704E+01      4.04469912E+02
      9.17035877E+02     -1.35327496E+03     -1.14325946E+03
     -1.37365383E+03     -2.08103113E+03      3.04346656E+03
      3.98594147E+02     -5.14401023E+02     -2.20756794E+03
     -3.92350633E+02      3.61481938E+02      1.07061451E+02
      2.08995234E+03     -3.37389673E+01     -5.91884314E+01
     -3.40002866E+03     -1.61445232E+03      1.08911397E+03
     -1.21671218E+03     -2.61297497E+03      8.89124456E+02
      2.30986465E+02     -3.63413700E+02      6.47280297E+02
     -1.61767748E+02     -1.96843893E+03     -1.64783905E+03
      1.13572848E+03     -6.07960474E+02      2.47314257E+02
      1.95447580E+02     -4.61207666E+02     -4.00142696E+01
      1.59721932E+03     -1.58744630E+03      6.93725504E+02
     -2.80405165E+02      1.72644805E+03     -1.91056034E+03
      2.93629934E+02     -4.45596096E+02     -1.54237533E+02
      1.31579784E+03     -5.76632215E+02      2.34522169E+03
     -5.75008226E+02     -2.21340066E+03     -1.89772411E+03
     -4.62921750E+01     -2.94375342E+02      1.79503904E+02
      3.97654497E+02      6.84326134E+02      3.33606296E+03
     -4.28040580E+02     -7.78342000E+02      1.10867724E+02
     -5.25700629E+02     -7.03321610E+02     -1.27855610E+03
      1.89337385E+03     -2.89730270E+02     -2.22345194E+02
     -2.61456959E+02     -2.23553542E+03     -1.32608084E+01
      3.71379039E+02     -8.05145159E+01     -4.53166858E+02
      3.35348934E+03      9.87711495E+02      6.60374254E+02
     -1.49988678E+03     -1.47527837E+02     -1.98053999E+02
     -1.06543643E+02     -3.81881240E+02      2.31768517E+01
     -8.67053915E+02     -9.99881569E+02     -1.05140300E+03
     -2.34995911E+03      3.44902047E+02     -1.85065695E+03
      1.80034664E+03      4.01701185E+03     -1.17652617E+04
     -1.00504532E+02     -1.61303469E+03     -1.39574675E+03
      4.55624079E+03      4.18552006E+02      2.42823778E+03
      1.16492052E+02      5.31234021E+01     -1.08462109E+02
     -1.14616801E+03     -1.27941514E+03      2.99107596E+02
     -2.04322531E+03     -6.72528822E+01      1.96556480E+03
      4.07182392E+02      7.67646284E+02      1.54845821E+03
      1.47088486E+02      2.57344785E+02      2.61545901E+02
      1.50783461E+03     -3.82675237E+03     -8.66631370E+02
     -1.14097685E+03      2.14771390E+03      5.02937232E+02
      8.07562178E+02     -5.74599399E+02     -1.72698376E+03
     -7.40900358E+01      2.09002517E+02     -2.75836042E+02
      6.75175858E+01     -1.55966753E+03     -3.11079572E+02
      2.51770447E+02     -9.73840673E+02     -8.94398469E+02
     -8.46082521E+02      2.21010019E+02     -4.67148843E+02
     -3.01418193E+02     -1.94812720E+02      6.35930090E+02
     -1.26926761E+03      7.83006997E+02     -1.03047177E+03
     -2.34420815E+02      8.31675102E+02      2.52816997E+01
      8.50220979E+02     -1.01126844E+03     -1.90942774E+03
      3.42560782E+02      1.30198669E+03     -2.91353105E+03
     -5.25069822E+02      4.62901537E+02      2.00760616E+01
     -8.37910059E+02      1.20616073E+03     -3.15918058E+02
     -1.14127994E+03     -6.16530824E+01      4.45097382E+02
      1.32985315E+02     -1.39811860E+02     -1.17304255E+02
     -9.96785157E+02     -1.51882015E+02      3.39375521E+02
      3.00729661E+02     -2.31316632E+03      9.63388145E+02
     -8.47432468E+00      2.07748620E+02      7.75383771E+00
      4.15564880E+02     -1.34206982E+03      1.19615002E+03
      6.56846816E+02      9.24767930E+02     -9.06040301E+02
     -7.00841492E+01      4.47246982E+02      3.99125747E+02
     -1.75743403E+03     -5.88627416E+00      3.00060806E+03
      6.46718037E+02     -1.36259872E+03     -9.37074272E+02
     -4.08656349E+01      5.27064369E+02     -2.74370501E+02
      1.64034841E+03      9.36922653E+02      1.63574840E+02
      1.25912553E+03     -1.32753626E+02      9.41038192E+02
      9.73668537E+01      4.48545105E+02      7.69447399E+02
      2.34729591E+02     -3.42220328E+03     -3.24059804E+02
      1.60290081E+03      2.39742661E+03      9.28176835E+02
      2.54944450E+02      3.77207897E+02      6.52856170E+02
     -3.84472084E+02     -3.79958443E+02     -3.04772970E+02
      9.72741663E+02      2.18293949E+03     -1.04433274E+03
      1.36008919E+03     -2.07419253E+03     -6.98072202E+02
      7.61764736E+02      5.93881088E+02     -2.23376601E+03
     -3.48561919E+02     -2.17940739E+02     -1.08019620E+03
     -3.66423242E+02      1.10496222E+03     -4.61559354E+02
      4.85624005E+02     -6.03025798E+02     -6.89560595E+02
     -6.18507467E+02      3.44285767E+02      2.18527709E+02
      1.71465416E+03     -3.57882342E+02     -2.35007498E+03
      2.39072500E+03      5.23993010E+02     -4.97362800E+02
     -1.86659025E+02      6.76214675E+01      6.12089409E+02
      2.83272693E+02      2.65429322E+02     -9.65573973E+02
      1.01541217E+03     -6.75681482E+02     -1.92226153E+03
     -7.91008302E+01     -3.83320800E+01     -6.78394397E+00
     -2.32022187E+02     -1.68801531E+03      7.32501254E+02
      1.02011260E+03      2.12321316E+03      6.55083799E+02
     -1.66061777E+02     -8.70784636E+02      1.01471204E+03
     -2.72311353E+03     -2.21284579E+03     -3.68940637E+03
      4.13493331E+03     -1.30242297E+03      1.34765927E+03
     -2.59717544E+02     -4.17400131E+02     -1.70298038E+02
     -2.41455712E+03      8.73274002E+02     -1.30504307E+03
      8.33463865E+02      3.13784523E+02     -7.68641192E+02
     -5.18583154E+02     -7.42424830E+02     -6.11813750E+01
     -6.30954176E+02      9.66647551E+02     -2.27472111E+02
     -8.28269521E+02      6.61984639E+02      1.73327408E+03
     -1.29877402E+02     -6.15366099E+00      6.77573211E+02
      8.38042397E+02      1.28036681E+03      2.43055403E+03
      4.01782467E+02     -2.22467945E+03      2.70634153E+03
     -5.61243760E+02      1.04796453E+02     -3.89545071E+02
      1.70020144E+03      1.24595935E+03      1.13927533E+03
      6.86585861E+02      6.23700630E+02     -1.93895610E+03
     -3.13316061E+02      1.50700827E+03      1.94653437E+03
     -2.40548928E+02     -1.65107457E+02      4.47011747E+02
     -1.26358132E+03      1.26063916E+02     -1.08032954E+03
     -1.83539253E+03      9.54241934E+01      2.08916167E+03
     -4.28919495E+02      1.22451823E+03      3.83350948E+03
  }
}

Hamiltonian = DFTB {
  SCC = Yes
  SCCTolerance = 1e-6
  MaxSCCIterations = 200
  ForceEvaluation = Dynamics
  MaxAngularMomentum = {
    C = "p"
    H = "s"
  }
  Charge = 0.0
  SpinPolarisation = {}
  Eigensolver = Standard {}
  Filling = Fermi {
    Temperature [Kelvin] = 300.0
  }
  SlaterKosterFiles = Type2FileNames {
    Prefix = "../../pbc-0-3/"
    Separator = "-"
    Suffix = ".skf"
    LowerCaseTypeName = No
  }
  KPointsAndWeights = {
    0.0000000000000 0.0000000000000 0.0000000000000 1.00000000000000
  }
  Dispersion = LennardJones { 
    Parameters = UFFParameters {}
  }
}

ParserOptions = {
  ParserVersion = 3
}
