Geometry = GenFormat {
352 S
C  H
1   1         37.58652700         31.16014700         38.70202200
2   2         38.14823600         31.89447400         39.27947300
3   2         37.09445900         31.65801500         37.77186700
4   1         38.63069300         45.40613900         38.22549400
5   2         38.10791300         44.55869000         37.63517900
6   2         23.79070700         44.91804500         39.13030600
7   1         39.71295000         45.95531100         37.28240200
8   2         24.48938500         47.02231100         37.34887400
9   2         39.32737400         45.71335900         36.28532100
10   1         25.89067800         45.46042300         37.51680700
11   2         26.08691500         45.25739800         38.52653800
12   2         26.56853600         46.29603200         37.15502200
13   1         41.59651600         44.23315600         36.71619500
14   2         42.71595500         44.21224600         36.69457900
15   2         41.15665200         44.21865800         35.72605600
16   1         25.85394400         42.93924700         37.52240600
17   2         24.78223600         42.87171100         37.75429200
18   2         26.36080000         43.01495400         38.51686000
19   1         41.62977000         41.62297000         36.73674200
20   2         42.60326900         41.94070200         36.50786900
21   2         41.06166500         41.49172900         35.80101000
22   1         41.66652500         40.45569500         37.76808900
23   2         25.32330700         40.27990900         38.06932900
24   2         26.87927500         40.82143900         38.69092200
25   1         36.51840700         30.47797200         39.57953700
26   2         35.80319700         31.23186500         39.95792400
27   2         35.94532300         29.67374200         39.12613800
28   2         37.02732100         30.05875200         40.43879200
29   1         42.25705700         39.14329200         37.20834700
30   2         41.94366100         39.03407000         36.16658600
31   2         43.30697400         39.08994200         37.43623500
32   2         41.85798500         38.23328700         37.70860900
33   1         27.69988000         31.48415500         33.87362600
34   2         27.53482000         32.53296700         33.62218800
35   2         26.73626000         31.18505200         34.29738100
36   1         28.18507100         30.56474500         32.71055800
37   2         27.33173900         30.55133500         31.98259100
38   2         28.18788100         29.51809900         33.04691200
39   1         29.48794500         31.02344100         31.95750800
40   2         30.33828800         31.18626500         32.71379500
41   2         29.36380700         32.14909800         31.60896100
42   1         29.94552500         30.06113300         30.87120800
43   2         45.06550400         29.08738900         31.22428700
44   2         31.07277700         30.16140900         30.72193300
45   1         29.17118500         30.28413800         29.58433800
46   2         29.73032200         31.13189200         29.07128000
47   2         43.51631800         30.69963700         29.83349800
48   1         44.34650900         29.06955200         28.65827500
49   2         43.90227800         28.21408300         29.15110100
50   2         45.37137700         28.62444600         28.54415900
51   1         28.38369500         29.32613900         27.30763100
52   2         28.75610200         30.32577900         26.90077200
53   2         27.29528600         29.48374800         27.54513000
54   1         43.96117400         28.18159100         41.67763000
55   2         43.45769900         27.32305200         42.07694400
56   2         45.04244600         27.99172300         41.64732300
57   1         28.64198100         31.48356900         35.12252600
58   2         28.15249300         32.13620300         35.90647300
59   2         28.86732500         30.47719900         35.49356800
60   2         29.62116800         31.91409400         34.83628900
61   1         27.97980300         28.54274500         40.31613300
62   2         28.14525300         27.78802900         39.51144100
63   2         26.88735400         28.58273400         40.45499400
64   2         28.32408500         29.53646000         39.99409900
65   1         37.63361200         39.86941400         36.76271200
66   2         37.91506400         39.99421400         37.89872900
67   2         36.52727400         39.48853800         36.75191200
68   1         37.73319700         41.20674100         36.08871800
69   2         37.55958100         41.11774500         35.01517800
70   2         38.75518600         41.65229100         36.05980800
71   1         36.73508300         42.27623400         36.60459900
72   2         37.05028000         42.75224200         37.52694400
73   2         35.75963800         41.79361100         36.75206700
74   1         36.59323700         27.96573100         35.48413100
75   2         36.37609900         27.45089800         34.52740600
76   2         37.54027600         28.53319100         35.38698000
77   1         35.27948500         28.80321200         35.77292900
78   2         35.48905000         44.73658200         36.69526200
79   2         34.50814700         43.32973600         35.86627500
80   1         35.01316400         29.83874400         34.72180800
81   2         35.88013800         30.50073900         34.89158800
82   2         34.01623900         30.34778800         34.95429400
83   1         34.93005300         29.31554900         33.29259800
84   2         35.95295500         29.14364100         32.80645700
85   2         34.42241700         30.18126400         32.77429300
86   1         33.98899900         28.13073000         32.98841900
87   2         32.96017200         28.35483700         33.26813700
88   2         34.25841600         27.19416300         33.49761600
89   1         38.47790500         38.80461700         36.08750000
90   2         38.07227100         38.60680500         35.06152200
91   2         39.51464100         39.21984600         36.00957000
92   2         38.45411100         37.88749300         36.67631400
93   1         34.17798800         27.72853000         31.47277400
94   2         34.99184600         27.01502600         31.42656200
95   2         33.32237300         27.18736700         31.12406600
96   2         34.21405000         28.65682700         30.95175200
97   1         31.30073800         39.15678600         41.00026100
98   2         31.38505700         39.75356300         42.03434200
99   2         32.35645600         39.23600800         40.58086400
100   1         30.71580000         37.74213100         41.17487800
101   2         30.84263500         37.14206700         40.23583400
102   2         29.58081100         37.81746100         41.13447100
103   1         31.02327500         36.98517300         42.50643000
104   2         30.55059200         35.98506000         42.41945800
105   2         30.43714900         37.53388700         43.29412400
106   1         32.50311500         36.86045000         27.55644100
107   2         32.88242300         37.87778200         27.59282900
108   2         33.08568700         36.33005000         26.83134700
109   1         32.72131300         36.09671800         28.92650000
110   2         33.81381300         36.02535700         29.02086100
111   2         32.30347200         35.11459300         28.83577500
112   1         32.04366200         36.69990800         30.18177700
113   2         30.99866600         36.98153700         30.01649800
114   2         32.55552900         37.67523200         30.45998600
115   1         32.10989000         35.89890600         31.45051200
116   2         33.16840500         35.50447900         31.55699900
117   2         31.60488700         34.91091600         31.25238000
118   1         31.75133000         36.74246300         32.64288400
119   2         32.04653100         37.76658600         32.54926000
120   2         32.30487700         36.42059400         33.53499100
121   1         30.51877000         40.01898300         39.99267500
122   2         30.72877100         39.75311800         38.98680300
123   2         29.41846700         39.90830700         40.14538200
124   2         30.72512900         41.05739000         40.11754300
125   1         30.22231200         36.85081600         32.97520300
126   2         29.51763500         36.87529300         32.09395700
127   2         29.87832800         36.03287000         33.70684800
128   2         29.94603600         37.80648700         33.50854900
129   1         35.72253900         38.68378600         31.66282400
130   2         34.97583800         37.93970400         31.36023200
131   2         35.06327000         39.50710900         32.04438300
132   1         36.50882600         38.21297000         32.85920900
133   2         37.15947200         39.03428600         33.33377200
134   2         37.20939600         37.40296700         32.47058000
135   1         35.69655100         37.52749100         33.98732100
136   2         36.48680500         37.07927700         34.73766700
137   2         35.16753400         36.64307700         33.61694400
138   1         34.74673300         38.48703200         34.68359300
139   2         33.79712200         38.49547600         34.09559200
140   2         35.26723800         39.45982600         34.77578300
141   1         34.42265400         37.82804800         36.05030700
142   2         35.37992400         37.75763700         36.65127000
143   2         33.96980500         36.86517400         35.88521000
144   1         33.45811600         38.53896800         36.99650200
145   2         33.44579500         39.69740700         37.01071200
146   2         33.67699000         38.32898700         38.04151400
147   1         32.01863800         38.13209300         36.60905400
148   2         31.85610300         38.24788100         35.49769600
149   2         31.42522700         38.96947100         37.00381200
150   1         31.44163000         36.83574400         37.19849000
151   2         31.74108400         36.76594400         38.25963100
152   2         31.98424600         36.01065900         36.60238000
153   1         36.53240200         39.25899100         30.51811500
154   2         36.02073900         24.35159200         29.66359300
155   2         37.11419000         40.11241200         30.87725900
156   2         37.28517200         38.48782200         30.23373000
157   1         29.92660500         36.76660400         37.05554700
158   2         29.46101100         37.16379000         36.13479400
159   2         29.50004300         35.73810100         37.11910100
160   2         29.39179000         37.38226800         37.84657600
161   1         40.15999000         30.49202400         29.82686000
162   2         40.66479300         31.28589300         30.49845200
163   2         41.01648800         29.73269600         29.54465400
164   1         39.02750300         29.74337800         30.50260600
165   2         38.57523300         28.95151000         29.82539500
166   2         38.17659300         30.37394200         30.76998700
167   1         39.49018700         29.10812200         31.84038600
168   2         38.76142800         28.74604900         32.52466400
169   2         39.98766300         29.95202400         32.39441500
170   1         40.47707600         27.92630500         31.76477800
171   2         41.48678900         28.24123400         31.50937000
172   2         40.13018800         27.28500300         30.91981500
173   1         40.45088800         42.44024500         33.04523700
174   2         39.40013500         42.16186300         33.32614600
175   2         40.95616400         27.70068500         33.89234800
176   1         41.19306500         41.13403000         32.85355700
177   2         41.46258100         40.75845600         33.91184700
178   2         42.19754900         41.15829800         32.34182500
179   1         40.43362500         40.00829000         32.06555100
180   2         40.37181700         40.34334100         31.03195400
181   2         39.39247200         39.97242600         32.46137500
182   1         41.05550100         38.64389900         32.05164900
183   2         42.06685000         38.74646100         31.62694300
184   2         40.58166600         38.00189200         31.27010500
185   1         39.79529700         31.24095800         28.48992200
186   2         39.62248700         30.58003500         27.68934100
187   2         38.93538500         31.90219600         28.67935300
188   2         40.64229200         31.91300100         43.49493300
189   1         41.05362600         37.83691100         33.31036200
190   2         40.06100600         37.45912100         33.38991200
191   2         41.86035900         37.05682300         33.48462800
192   2         41.18724000         38.39749700         34.25827100
193   1         33.02151200         26.94741500         42.23537800
194   2         32.50074800         27.91512800         42.31785300
195   2         32.24222100         41.75619800         41.72350900
196   1         34.34934500         27.10470600         41.46229900
197   2         35.07992100         27.72607600         42.16064700
198   2         34.22922800         43.21150200         40.62232200
199   1         35.07968600         25.86059500         40.97657100
200   2         34.45125300         25.51093000         40.09116400
201   2         35.11080500         25.03368200         41.75519000
202   1         36.50802300         26.23844800         40.54824000
203   2         36.51245200         27.10574000         39.90060600
204   2         36.78258800         25.38198500         39.94284800
205   1         37.48104600         26.45674500         41.72187800
206   2         37.57260400         25.54525600         42.31127100
207   2         37.05788200         27.24675100         42.47860100
208   1         38.81786500         26.99184500         41.21013700
209   2         38.61437600         27.96165500         40.80348900
210   2         39.08100400         26.42162900         40.28698400
211   1         39.98417500         42.44439100         42.23154000
212   2         39.68911300         43.03092200         43.15161400
213   2         40.86425000         42.95269100         41.72921700
214   1         40.52468800         41.08410200         42.69557700
215   2         39.73417600         40.37584700         43.05768500
216   2         41.15591000         41.25195700         43.57356800
217   1         33.30650800         26.32216500         43.56119000
218   2         32.33148200         26.26820200         28.79440700
219   2         33.76887900         25.25753100         28.18198100
220   2         34.02327500         26.92414500         44.17657200
221   1         41.36098300         40.26822100         41.67853400
222   2         40.94682800         40.31686800         40.63131200
223   2         42.36653000         40.72373300         41.45577100
224   2         41.63204000         39.23934600         42.02789000
225   1         31.40084900         43.43515200         37.55466600
226   2         30.43250500         43.96931300         37.81077500
227   2         31.23834000         42.50693000         38.11027300
228   1         31.50365400         27.77377600         36.06390400
229   2         32.16121300         26.94405200         35.88874500
230   2         31.89701200         28.71387600         35.56602000
231   1         30.15628600         42.74563800         35.33165800
232   2         29.51398800         43.55899900         35.49448300
233   2         29.71367300         41.86270600         35.94627700
234   1         30.15270600         42.46885200         33.86698500
235   2         30.65263000         43.22325700         33.17550900
236   2         29.14580700         42.51567400         33.49003800
237   1         30.72475400         41.03302600         33.42933400
238   2         30.00016800         40.30536700         33.82887300
239   2         31.58931100         25.64450800         34.02645500
240   1         30.97986300         40.87359700         31.94451200
241   2         31.64490300         24.70052700         31.69870000
242   2         31.56552900         26.45997200         31.51883900
243   1         29.78014200         40.74347000         31.04280600
244   2         29.27843600         41.80537000         31.00672700
245   2         29.01898100         40.12533500         31.54247200
246   1         30.05185000         40.24796300         29.64004500
247   2         30.70124500         39.33828500         29.69815600
248   2         30.67907500         40.91703000         29.05918900
249   1         32.52666600         28.98180400         38.15270800
250   2         32.29642400         29.22399500         39.18037300
251   2         33.53806300         28.47605800         38.18129600
252   2         32.44924600         30.02637100         37.76759200
253   1         28.76134800         39.90605900         28.81962700
254   2         28.27089400         38.99173500         29.17129500
255   2         28.00469800         40.71926500         28.97766500
256   2         29.03485000         39.84276800         43.08156700
257   1         41.67441100         34.45532400         39.50799100
258   2         42.65292600         34.73724300         39.90960700
259   2         40.89108500         35.09688100         39.97215500
260   1         41.76722500         34.72143000         38.01116400
261   2         42.36350600         33.93680700         37.53585200
262   2         42.24083200         35.64827500         37.74576300
263   1         40.37999600         34.74838100         37.24931100
264   2         39.70122500         35.43549300         37.77226500
265   2         39.82127900         33.74908100         37.46725600
266   1         40.33816100         34.94477800         35.74344400
267   2         41.19204700         34.46819400         35.28462300
268   2         40.37594700         36.02094100         35.40201500
269   1         38.95369300         34.47282300         35.28645200
270   2         38.25367300         35.33715800         35.38542300
271   2         38.43701500         33.69321400         35.87917200
272   1         39.03139600         34.10593900         33.84595200
273   2         39.89522000         33.44259100         33.59675800
274   2         39.44310900         35.05379700         33.38521200
275   1         37.76524500         33.47889900         33.29933700
276   2         36.89256300         34.13358400         33.49772200
277   2         37.51684200         32.54390000         33.84832900
278   1         37.87618000         33.24342600         31.72852500
279   2         37.13003400         32.53395000         31.32013000
280   2         38.81528200         32.68111700         31.63098600
281   1         41.29061600         33.08494900         39.92033700
282   2         41.69797100         32.33535100         39.26071800
283   2         41.53525200         32.74740500         40.91156900
284   2         40.17735200         32.92490200         39.87982800
285   1         37.89549800         34.52708300         30.93549600
286   2         38.06551900         34.24534800         29.88336100
287   2         36.93755800         35.07417400         31.06575300
288   2         38.61767800         35.21434900         31.47363200
289   1         30.11378400         32.45588500         40.06394800
290   2         29.09703800         32.41443800         40.46406900
291   2         30.36022600         33.51713900         40.25657600
292   1         31.14442300         31.59381200         40.74647600
293   2         32.07726600         31.81915600         40.14822400
294   2         30.88079100         30.51145700         40.70269700
295   1         31.52757300         32.10331400         42.14078500
296   2         30.68534300         32.16727800         42.82510500
297   2         31.84234400         33.15508100         26.80106900
298   1         32.51610200         31.17343300         27.53794800
299   2         31.99670400         30.19702700         42.76054000
300   2         32.43982800         31.43625100         28.62688000
301   1         34.01281700         31.15065700         27.04804100
302   2         34.38412200         32.09099200         26.48821500
303   2         33.98973600         30.27109900         41.64071800
304   1         35.01711200         30.79658900         28.07800800
305   2         36.00701600         30.60590800         27.63920400
306   2         34.83661400         29.80837800         28.51980400
307   1         35.24511900         31.93027100         29.13925600
308   2         36.20958000         31.67847500         29.63429300
309   2         34.42238700         31.93122000         29.87389100
310   1         35.18514000         33.40896700         28.67647400
311   2         35.22944700         33.94924400         29.64124500
312   2         34.14341200         33.56453300         28.34610000
313   1         29.92575100         32.13795800         38.58503600
314   2         30.86988800         32.32528300         38.05525500
315   2         29.66100700         31.03595600         38.50630700
316   2         29.13314000         32.73270100         38.08679400
317   1         36.17216200         33.96200100         27.70406100
318   2         36.01559100         33.48527200         26.72757300
319   2         35.84730300         34.95957100         27.43552200
320   2         37.16808200         33.91296500         28.20261400
321   1         37.24190200         37.60386300         24.67646000
322   2         36.96512300         38.09977600         23.72361500
323   2         36.87815500         38.25762900         25.48132700
324   1         36.58350700         36.18510400         40.07525200
325   2         35.78682500         36.01183000         40.85020000
326   2         37.37444500         35.43922600         40.38607200
327   1         35.85227600         35.78235100         38.79645900
328   2         36.31081400         36.08250400         37.78377100
329   2         34.96483200         36.49543300         38.70987700
330   1         35.48488200         34.34974900         38.70601100
331   2         35.14281900         33.95058700         39.66415100
332   2         36.41295500         33.74706300         38.52870000
333   1         34.42260200         33.97019000         37.71078500
334   2         33.51997600         34.64635300         37.77911700
335   2         34.05545900         32.93259400         37.92736900
336   1         34.85222900         33.96900100         36.18361300
337   2         35.65292200         33.23436500         35.95380400
338   2         35.21108200         34.93773000         35.82652600
339   1         33.66842000         33.49472300         35.32548300
340   2         32.68703700         34.10624200         35.43018700
341   2         33.39174700         32.38345100         35.51637900
342   1         33.99260600         33.36936600         33.77398200
343   2         34.89773100         32.78731100         33.61288500
344   2         34.03920300         34.39808200         33.29742600
345   1         38.77413500         37.59629800         24.67348400
346   2         39.17521700         37.09534100         23.74967400
347   2         39.14111400         38.65239000         24.79720900
348   2         39.17832000         37.00468300         25.55601200
349   1         32.91168600         32.60772200         33.01136700
350   2         32.98752200         31.58214200         33.21826300
351   2         31.90191200         32.86751300         33.16762300
352   2         33.13146900         32.63017600         31.88597000
0.00000000          0.00000000          0.00000000
15.32620600          0.00000000          0.00000000
0.00000000         15.32620600          0.00000000
0.00000000          0.00000000         15.32620600
}
Driver = VelocityVerlet {
  Steps = 100000
  TimeStep [fs] = 0.2
  MDRestartFrequency = 5
  Thermostat = None {}
  Xlbomd = {
    IntegrationSteps = 6
    MinSccIterations = 2
    MaxSccIterations = 200
    SccTolerance = 1e-6
    PreSteps = 0
  }
  Velocities [m/s] = {
-1.66463639E+02     -1.38848585E+01      1.68197637E+02
-4.24467506E+02     -2.81124446E+03      3.27318118E+03
-4.80565359E+02     -8.82962435E+02     -1.41646715E+03
8.24842595E+02      5.83366474E+02      8.57470463E+01
-1.86088768E+03      1.52290104E+03      1.34872505E+02
-2.21336410E+02     -1.51144717E+03     -1.06889519E+03
-2.72060960E+02     -3.42371708E+02     -3.05280933E+02
1.34891284E+03      2.32115569E+03     -2.17852577E+03
-1.85883607E+03      8.85793682E+02      5.60173103E+02
3.78822449E+02      7.37494280E+02     -1.75766356E+02
7.28242256E+02     -4.41884925E+02     -1.99388893E+03
-1.06579339E+03      5.99872116E+02     -1.92828632E+03
-3.89753111E+02      6.34585773E+01      1.62960756E+02
1.55480214E+02     -5.24100280E+02     -9.40645079E+02
-2.09142809E+03     -7.10112848E+02     -1.04455124E+02
-1.52368929E+02      1.83792444E+02      3.17461748E+01
3.96850996E+02      2.35773388E+02      3.58585243E+03
1.14186721E+03     -1.96272908E+03     -1.46112843E+02
-1.09650186E+03     -2.07219572E+02     -8.96647404E+01
-2.79435010E+02      9.53015144E+02      8.74746363E+02
-1.34602326E+03     -2.61374936E+03     -5.83986308E+02
5.77164463E+02      1.20956100E+02     -4.96648232E+02
8.76942151E+02     -1.32375384E+02     -1.41994429E+03
1.31519660E+03      2.69389744E+03     -7.06525875E+02
-4.59419950E+02      3.32185085E+02     -5.35910504E+01
-8.12861000E+02     -2.58547918E+03     -2.09619464E+03
-1.27668880E+03      2.55053625E+03      6.78392089E+02
1.61165370E+03      2.26975897E+03      1.01069777E+03
-1.63498107E+02     -1.94176972E+02     -2.25533631E+02
-3.07616629E+02      3.87451719E+02     -4.85210023E+02
1.64711743E+03      4.01132768E+02      2.61152497E+03
-8.63407616E+02      6.38577962E+02      3.28020067E+03
1.24194473E+04      1.23425674E+04      2.83166472E+04
7.10236328E+01      2.03877361E+03     -1.76551589E+02
1.00971750E+03      2.78135912E+02     -1.76738847E+03
1.53041624E+02     -2.93160093E+02     -3.50212777E+02
2.76044575E+03      1.06163915E+02      1.23476119E+03
4.51021429E+03     -1.86063944E+03      1.05090325E+03
-1.39859782E+03     -3.82271169E+02     -1.30030605E+03
-3.89377961E+03      2.06963183E+03     -2.99736601E+01
6.20615420E+02      1.42221740E+03     -7.49120136E+02
-8.11460203E+02     -3.01633888E+02     -3.68083229E+02
-2.15425707E+03     -1.72024240E+03     -6.76836554E+02
-1.08867604E+02      1.91145457E+02      2.32537257E+03
9.09227376E+01      1.10214488E+01     -4.10863140E+02
-1.01990372E+03      1.14351492E+03     -9.67600399E+02
1.13078169E+03     -8.98410653E+02     -7.79763711E+01
3.04911003E+02     -2.08108189E+02     -1.32586783E+03
-1.49074720E+03      5.47538796E+02      1.67572146E+03
3.02158434E+02     -2.51300620E+03     -3.07144715E+02
-3.72786951E+02     -1.00072315E+03      1.89430406E+02
-1.30292284E+03     -1.16526513E+03     -7.86000579E+02
-1.22138068E+03     -1.19823635E+03      4.08815340E+02
-6.44559372E+02      4.40933895E+02     -2.29175446E+02
-4.17056157E+02     -2.23210044E+03      1.06983327E+02
-8.60860450E+02      1.94403816E+03      6.80597039E+01
7.59031934E+02      6.10958204E+01     -4.65201149E+02
4.07800949E+03      2.29858611E+03      1.50295894E+03
-6.24733871E+01      1.38221393E+02     -3.50573279E+03
-2.13851698E+03      2.74301213E+02      6.62160158E+02
-1.27510195E+02      1.91767535E+02     -2.97785693E+02
2.74518423E+02      3.93875045E+01      3.48053829E+01
1.82107517E+02     -7.30757835E+02     -4.01717758E+03
7.84179518E+02     -2.60833729E+03     -2.87403559E+03
-3.96479810E+02      6.72222455E+01     -1.18633191E+03
-3.84681198E+02      1.24115702E+02      4.32620548E+02
-9.28331896E+02      9.06905614E+02     -7.40594944E+02
-8.22310419E+02     -6.36807875E+02      4.40668183E+02
-1.02094040E+03     -9.63405840E+02      1.11157003E+03
-6.79213066E+02      7.01031166E+01     -5.96300175E+02
-6.10693015E+01     -1.02074791E+02     -2.53619612E+02
-1.21593013E+03     -1.07616832E+03     -2.88537130E+03
3.79526739E+02      1.38631991E+03     -1.14553106E+03
-5.36074804E+02      1.47972169E+02      4.11921179E+01
6.94084763E+02      1.50620264E+03      1.05292748E+01
1.22638928E+03      4.05543303E+02     -3.77678228E+03
-4.41685570E+02     -1.48995287E+02     -2.75675377E+02
4.15062978E+02      1.74550837E+02      9.71069424E+02
-3.14427269E+03      2.39031552E+03      1.90436387E+02
-5.06104652E+02     -1.89542844E+02      4.10447135E+02
-4.87731689E+02      1.35854228E+03     -1.56667427E+03
-2.55828414E+02     -1.83145114E+03      1.60928463E+03
-4.46481534E+02     -5.53046875E+02      1.60027854E+02
2.09399759E+03      1.28816992E+03     -3.12674424E+03
8.89167505E+02     -1.69207096E+03      4.83830429E+02
4.25098182E+01      2.41056480E+02     -1.35300235E+03
2.44974193E+03      6.43647712E+02     -1.76963081E+03
-7.67128777E+02     -2.57022177E+02      2.71689390E+03
-7.53691255E-01      4.52062268E+01     -3.95498668E+02
-1.03899728E+03     -1.01130506E+03      1.90705748E+03
1.18437474E+02      2.21144323E+03      8.58880978E+02
7.08298050E+02     -2.86331816E+03      3.15602016E+02
2.16037958E+01     -1.55802257E+02      4.14488115E+02
2.86963294E+02      2.21759666E+03      3.01794550E+03
-6.52710573E+02      1.02141729E+03      7.12380494E+02
1.58782944E+03      1.17352031E+02      5.23886476E+02
1.45416885E+02     -6.22351699E+02     -4.30491793E+02
-7.40519675E+02      1.71127926E+02      3.31097015E+03
-2.75111877E+03     -1.15091890E+03      1.16731187E+03
5.24965591E+02     -5.92242242E+02     -2.99505901E+02
6.09336652E+02     -3.22998797E+03     -1.86990187E+03