Geometry = GenFormat {
<<< "system.gen"
}

Driver = VelocityVerlet{
  Steps = 100000
  TimeStep [fs] = 0.2
  MDRestartFrequency = 5
  Thermostat = None {
    #InitialTemperature [Kelvin] = 300.0
  }
  Xlbomd{ 
    IntegrationSteps = 6 
    MinSccIterations = 2
    MaxSccIterations = 200
    SccTolerance = 1e-6 
  }
  Velocities [m/s] {
      7.40039174E+02     -2.42984943E+02     -2.44426852E+02
     -7.61678946E+02     -1.73250198E+03     -1.38011776E+03
      5.26342450E+02     -2.01095815E+03     -3.62193993E+03
     -4.26975300E+02      1.10964769E+02     -1.19190183E+03
      3.23204982E+02      4.93349258E+02     -1.82985815E+03
      1.85847640E+03     -1.54629436E+03      2.63607201E+02
      5.50510580E+02     -2.16069591E+02      2.03835841E+02
     -1.10396112E+02     -2.90467026E+03     -2.83613200E+03
     -6.57172073E+02      1.46448836E+02     -1.69012840E+02
      2.92386751E+02     -8.28030486E+02     -1.70542319E+02
      1.21584154E+02      1.76407881E+03     -3.03111908E+03
     -2.80969263E+03     -1.83948775E+03     -1.36739387E+03
      1.20867268E+03     -7.08560444E+01     -2.91941036E+02
      7.02057452E+01     -1.13113179E+03     -3.13254196E+03
     -3.12840803E+01      1.18769528E+03      1.33442519E+03
      6.43540495E+02      7.20871861E+02      1.71540197E+02
      1.00828844E+03     -2.46604230E+03      4.25314397E+02
     -1.67051261E+02     -1.76537352E+03      2.39562264E+02
     -1.35302034E+01     -9.25649605E+02     -1.64409688E+02
     -1.23428411E+03      1.30203298E+03      1.07062189E+03
      1.35837623E+03     -1.54785623E+03     -5.33993867E+02
     -1.54272322E+02     -1.11330888E+02     -3.47004826E+02
      8.94930977E+01     -2.72445163E+03      6.21541829E+02
     -2.32485471E+03     -6.20645146E+02     -3.92529054E+02
      6.19364746E+02      2.72446972E+02      5.90245762E+02
      2.81802242E+01     -5.01962613E+02     -7.42122957E+02
      1.78981615E+03      2.31822289E+03      3.14853649E+03
     -6.77014640E+02     -2.89662234E+03      1.80973927E+03
      1.74967500E+02      1.31211605E+02     -3.59889892E+02
     -1.39710911E+03      1.06384944E+03     -6.22239049E+02
      1.17588347E+03      2.46067466E+03      9.40387179E+02
      7.83635520E+02      5.49748778E+02      3.92997093E+02
      6.37739643E+02     -5.37336944E+02      7.31769455E+02
      5.86868643E+02      1.48947512E+02      8.30292642E+02
      6.32711473E+02      1.75704949E+03     -2.38972313E+03
      7.09294043E+02     -2.28729261E+02     -4.78827325E+02
     -1.75140569E+03     -3.13979084E+03     -1.63491262E+03
      2.82053262E+03      1.98892904E+03      1.31451659E+03
     -1.44815143E+02     -6.28567740E+02     -7.35085714E+02
     -1.94211932E+03     -2.19176757E+02      1.50657132E+03
     -2.45112317E+03      3.50155352E+03     -1.45996684E+03
      1.23434276E+03     -1.54982771E+02      2.82827137E+02
     -1.46845739E+00      1.52731963E+03     -3.60098351E+01
     -9.11534012E+02      4.69230016E+02      1.41666511E+03
      1.51851467E+02     -3.27021194E+02     -1.11242447E+03
      1.28743854E+03      1.10537800E+03      8.56897008E+02
      1.58457061E+03      4.00005638E+02     -5.34522086E+02
      8.16456300E+02     -9.52835391E+02     -2.83534890E+02
      1.05008787E+02     -2.85651111E+03      1.48332224E+02
      3.44910411E+02      9.19862011E+02      2.15693350E+02
     -3.95926129E+02      1.49967813E+02     -3.57920365E+02
      4.89100203E+02      1.63358497E+03     -1.80464669E+03
     -2.22462323E+02     -6.77123926E+02      3.19895195E+02
      4.06687135E+02      3.43608861E+02     -1.92720029E+02
     -1.96035080E+03      3.50271792E+02      1.04651261E+02
      1.86288299E+02     -2.41303954E+03      1.34290203E+03
     -4.20044451E+01     -4.94311877E+02      2.53537099E+01
     -4.94699204E+02     -2.33549782E+03      1.85094819E+03
     -4.57957328E+02      5.28716475E+02     -6.43506385E+02
     -1.21084934E+03      2.07796128E+03     -1.42275697E+03
      9.43382899E+02      6.19781507E+02      7.69347176E+02
      3.08051794E+03      1.57993055E+03     -7.62000059E+02
      9.99195249E+02     -2.15192681E+02     -7.48314215E+02
      1.29314664E+03      3.30626927E+03     -6.52245866E+02
      4.49792523E+02      7.08993827E+02      3.43527935E+02
     -3.01166250E+03     -1.04765238E+03     -3.36900266E+02
     -8.14886972E+02     -6.96310624E+02     -2.99793260E+02
      2.95446019E+02     -4.18316721E+02      5.57875924E+00
      1.74561812E+02      6.37952496E+02      9.81276741E+02
     -1.56221765E+03      1.41490010E+03     -8.90971527E+02
      4.57904423E+02      3.67975081E+02     -8.86888122E+01
      1.23266596E+03      6.71115437E+02     -3.81575749E+02
      1.07915146E+02     -2.00822866E+03     -8.63912891E+02
      7.53548677E+02      5.01914858E+01      2.39094044E+02
     -4.58753751E+02     -3.97530675E+02     -9.34008592E+02
      1.86490097E+03      2.05461998E+03      7.86567336E+02
      3.79730819E+02     -4.41286046E+02     -7.56829873E+01
      7.18266426E+02      1.33790067E+03      1.96187057E+02
     -2.12263827E+03      2.40350306E+03      9.17136052E+02
     -4.16341374E+02      3.87896366E+02     -1.00514021E+03
     -7.42883791E+02      9.37506741E+02     -5.64776347E+02
     -1.59437457E+03      3.83747282E+02      1.85991790E+03
      3.33838878E+02      3.06780468E+02      1.11104492E+02
      7.11784304E+02      2.30748530E+02     -3.17938751E+02
      4.40185512E+02     -9.30582821E+02      1.90759863E+03
      2.55482812E+01     -2.85682304E+02     -2.28995050E+02
     -5.98426436E+01     -2.92753947E+03     -2.78897020E+03
     -1.17780212E+02      5.81888658E+02      2.43106591E+03
      5.83367724E+02     -3.49712532E+02      4.17976234E+02
      1.69747637E+03     -8.74339699E+02      1.83796124E+03
      8.24229020E+02      4.49255593E+02     -1.00528932E+03
     -1.62870454E+02      1.15038530E+03     -2.22216557E+03
      5.28811026E+02      1.19784146E+01     -1.67177816E+02
      2.75525164E+03     -7.96851807E+01      6.12713518E+02
      1.14537479E+03     -2.20686501E+03     -1.51270762E+02
      1.05422000E+03     -3.51563518E+02     -2.64988475E+02
     -9.26857211E+02     -4.18930432E+02     -2.60700898E+00
      5.77016460E+02     -1.42223949E+03     -8.45814324E+02
     -2.00109325E+02     -1.02845545E+03     -7.23244598E+01
      2.77849752E+02     -4.10042742E+02     -3.48542836E+02
     -3.39842330E+03     -5.99973131E+02      1.70786655E+03
     -4.39914862E+02     -2.24131146E+03     -5.56803697E+01
     -4.80083164E+02     -3.38074631E+02      1.34249391E+02
      1.97675563E+03      2.39413614E+03     -4.10238099E+03
      3.78301785E+00     -3.86391105E+02      4.08854899E+02
      5.20414113E+02     -2.90534463E+02      9.01699710E+01
     -1.37217880E+03     -9.41498502E+02     -2.44978425E+03
      1.85203514E+03      3.83520854E+01     -1.52047913E+03
      2.43749653E+02      2.14349858E+02      3.92013768E+00
     -7.88752879E+02     -1.03911139E+03      6.37815303E+02
      9.85295878E+02     -9.13863933E+02      2.47006047E+03
      4.40505246E+02     -5.51194046E+01      2.38543324E+01
      2.56664048E+02      2.05695260E+03     -1.75389106E+03
     -6.65809062E+02     -6.19269369E+02      3.09914699E+03
      3.53093851E+02     -1.35057561E+02      7.32791204E+02
      2.31391235E+03     -4.11762209E+03     -1.57658855E+02
     -1.14270484E+02      4.62509891E+02      6.68715014E+02
      3.95846009E+02     -3.39922359E+02     -3.63184362E+02
      3.68586067E+02     -1.31939287E+03      2.87194041E+03
      2.72611373E+02     -1.53991717E+03      5.60718406E+02
      1.46780491E+02      2.85623779E+02      5.23381388E+00
     -1.72997939E+03      3.42431844E+02      1.02084728E+03
     -2.31851804E+03      1.92355826E+03     -1.46589248E+03
      3.37238175E+03      1.28755676E+03      1.91811006E+03
     -4.28439824E+02      4.05869986E+02      5.30251754E+02
      1.65796385E+03     -2.12847801E+03      2.09786237E+03
     -1.29612799E+03     -1.52866590E+03     -3.73143332E+03
     -3.03635049E+02     -1.35382805E+03     -1.38696698E+03
     -7.25638024E+02     -3.08744182E+02      3.04623824E+02
      1.08080516E+03      1.49660130E+03      4.00076491E+02
      1.84720605E+02     -1.80796399E+03     -1.48728237E+02
     -2.33495506E+02      2.74274053E+02     -1.12760916E+02
     -8.00629656E+02     -2.05524189E+03      3.92396645E+03
     -1.28517209E+02      8.75335665E+02     -2.63092430E+03
     -4.37750302E+02     -1.03242498E+03     -3.19068514E+02
      7.40878414E+02      1.96429242E+03      2.40143869E+03
      1.98839950E+03     -9.04511896E+02     -6.75929708E+02
     -3.02495814E+02      3.05051176E+02      9.80761617E+01
     -2.75612386E+02      1.95172165E+03     -3.52588082E+03
      1.80708981E+03     -2.36164628E+01     -7.22689422E+02
      7.28118372E+02     -2.21273873E+02      1.85948346E+02
      3.16170171E+03      2.16448159E+03      1.46952687E+03
     -1.78857518E+03     -8.64643580E+01     -3.26599231E+02
      3.55581011E+02      4.36544346E+00      1.85444034E+02
      1.81868226E+02      1.20284840E+02      8.31322349E+02
      1.07491753E+03     -1.00121543E+02     -7.47042316E+02
      1.04837250E+02      4.35097503E+01      5.21800621E+02
     -1.27468486E+03     -8.86095197E+02      9.34449313E+02
     -2.48518758E+02     -2.03484641E+02      3.59121601E+03
     -2.92411563E+02      3.20274644E+02      7.01599692E+02
     -9.64587419E+02      1.56732842E+03      6.14225012E+02
     -1.19671053E+03     -1.59906119E+03     -3.40368476E+03
     -2.17945468E+02      2.09420440E+02      4.32594426E+02
     -2.89726959E+03     -2.85016597E+03      5.57732326E+02
      1.59759606E+03     -2.57385954E+02      1.63054692E+03
      2.53871702E+03      6.73284537E+02     -1.07582109E+03
      3.90807554E+01      7.95529391E+01      2.02522047E+02
     -1.53455737E+03     -2.30257995E+03     -1.13035749E+03
      8.90278860E+02      5.06335998E+02      1.06708930E+03
      1.50622068E+03      9.72577820E+02     -1.06813284E+03
     -1.24455663E+02     -1.24627018E+02      1.61077184E+02
     -1.88045345E+02      2.40096469E+03      1.01180261E+03
      1.31449720E+03     -4.15280859E+02     -1.16613758E+03
      3.92971068E+02     -1.88774173E+02     -3.38149456E+02
     -2.35597249E+03      5.05137590E+02      4.56091157E+02
      1.81889744E+03      1.04802050E+03     -1.18777919E+03
      7.91524437E+02     -9.26777652E+02     -1.66970085E+02
      7.15736020E+02     -6.84148414E+02     -7.88574296E+02
     -2.85390162E+03     -8.32580796E+02     -1.20710873E+03
      4.50202762E+02      6.29471160E+02      6.27921764E+02
     -1.72670839E+03      5.95793831E+02     -4.09584751E+02
     -7.98405572E+02      1.06730517E+03      6.22233858E+02
      1.43031718E+02      1.42269941E+01     -2.13808005E+02
      2.53866578E+03      2.67620970E+02      2.51031830E+03
     -1.12077002E+02      4.99353320E+02     -2.46127312E+02
     -1.67223190E+01      8.15850705E+01     -2.76690801E+02
      1.20874897E+03     -1.41304900E+02      3.85126735E+03
      6.95716786E+02      6.22366269E+02     -1.70918566E+02
      4.03823063E+02      5.82188062E+02     -6.30639756E+02
      1.86302092E+03     -5.20243097E+02     -1.00683168E+03
      1.72756983E+03      2.74772341E+00     -1.48707692E+03
      3.19227354E+02      9.83823377E+01     -7.80837094E+02
      6.54803897E+02     -2.95029081E+02      1.82895919E+02
     -7.70341437E+02     -3.54931006E+02      2.33632567E+02
      7.48525442E+01      3.28034607E+01      5.72082262E+02
      2.03362674E+02      1.68597461E+03     -1.62778655E+03
     -2.67146763E+03     -1.93991867E+02      2.11725863E+03
      1.46193288E+03      1.40744698E+03      1.95276452E+03
     -5.65358885E+02      6.94248549E+02     -7.00421649E+02
     -3.38564710E+03     -1.29710910E+02      2.91946547E+03
      1.60662090E+03      1.17619781E+03      1.61969279E+03
     -1.28430067E+03     -4.05267096E+02     -1.68879182E+03
     -3.24576859E+02     -8.68185760E+02      4.48362105E+02
     -2.50812207E+03      7.83278653E+02      4.56553477E+01
      1.08183079E+03      3.10636923E+03     -5.46717582E+02
      5.95492993E+02     -4.60386073E+02     -5.38888557E+02
      8.92957784E+02      2.66046497E+03      1.39944611E+03
     -6.90294633E+02     -1.73806346E+03     -1.17576676E+03
     -1.88808592E+04      5.37173846E+03      9.51504243E+03
     -2.18911087E+02      3.49868975E+03      5.71076628E+02
     -1.19671314E+03      1.73101247E+03      7.85842663E+02
     -1.61680547E+02     -1.37275088E+02     -5.71113895E+02
     -2.32302435E+02      2.93283505E+01      2.99347953E+03
     -8.61813343E+02      6.41761781E+02      1.18903231E+02
      7.01357911E+02      3.78553755E+02     -1.06142315E+02
      5.15864301E+02      2.61712509E+03      1.38132163E+02
     -1.44033094E+03     -5.17756635E+02     -2.18965093E+02
     -5.51959485E+02      1.70568169E+02     -2.03688793E+02
      3.46510354E+03      1.77653522E+03      7.96801315E+02
     -4.03364321E+02      2.37878311E+03     -7.60412455E+02
      3.34770736E+02      6.30436012E+01      1.47280288E+02
     -2.20052436E+03     -1.55940135E+03     -1.50642691E+03
      1.44169718E+03     -1.35051766E+03     -1.28136529E+03
      3.01510497E+02      8.15921944E+02      3.60855185E+02
      1.74314455E+03      2.95779219E+00      1.25780787E+03
      1.42737437E+03      6.78111285E+00     -4.74123396E+02
     -3.81611157E+02      1.09212204E+02      2.31048376E+02
      1.25579422E+03     -2.64589121E+03      8.18214544E+02
     -3.17596774E+03     -3.28528873E+01     -6.89051033E+02
     -2.21221720E+02     -5.72143955E+02      2.15685948E+03
      6.48778690E+02     -1.26062273E+02     -1.24088619E+02
      9.34487154E+02      2.33236850E+03     -1.29076729E+03
      1.51645626E+03      7.56472838E+02     -7.74144592E+02
     -5.56641811E+02      1.35895313E+03      1.51937139E+03
     -4.37999710E+02      4.47138604E+01     -4.82912514E+02
     -2.81701397E+03     -1.31675728E+03     -1.77682455E+03
     -2.10379758E+03     -8.94060603E+02      1.82067678E+03
      4.12465176E+02      3.50800170E+02      1.26467869E+02
      1.07991967E+03      1.39054414E+02     -8.32492625E+02
      2.54699031E+01      1.40581107E+03      6.90710079E+02
     -2.24272182E+02     -1.29724740E+02     -3.95331350E+02
     -4.14479122E+02     -2.43662856E+03      1.72647463E+03
     -2.28374696E+02      1.94466975E+03     -8.10766334E+01
     -4.83910116E+02     -1.90302347E+02      5.16947933E+02
     -9.26211391E+02     -1.07852683E+03     -2.17427398E+03
      3.13741564E+02      1.61320440E+01     -1.62763531E+03
      3.37450780E+02      3.89676533E+02      2.80416138E+02
      1.24811223E+03      2.04487953E+02     -1.79118102E+03
     -2.46022344E+02     -5.09610755E+02     -8.75922165E+02
      9.66764829E+02     -3.98766955E+02     -1.15704698E+01
     -5.68710292E+02     -5.04611558E+02     -3.77811471E+03
     -6.85742757E+02      2.87806119E+03      7.69611479E+02
     -2.10506980E+01      2.24379696E+02     -5.74594595E+02
      1.94586019E+02     -1.98471007E+03      1.42713681E+03
     -1.38482777E+03      1.82625221E+03     -3.19119332E+03
     -3.77583915E+02     -6.46403851E+02     -1.95986485E+02
     -1.09194252E+02      2.11320397E+02      1.61400570E+03
      2.77153755E+02      1.68012402E+03     -2.85542074E+02
      5.05713362E+02      1.25511069E+02     -1.04096313E+03
      9.67914178E+02     -2.44423786E+02     -1.14811041E+02
      2.64139549E+03      1.65116259E+03      1.50614125E+03
     -4.42717543E+02      1.68879497E+02     -3.60875505E+02
      5.93436262E+01      5.05665371E+02      2.42078968E+02
     -2.35898190E+03      3.08211823E+02      2.45699417E+01
      1.44540074E+03     -4.90662521E+03      1.04771942E+03
      1.84214344E+03      7.09693029E+02     -1.56838858E+03
      4.50195796E+02     -3.34023309E+02     -1.29078267E+03
      2.34132538E+03     -1.05403839E+03     -5.61505965E+02
      9.35380051E+02      5.98487648E+02     -9.40919114E+02
      4.43479224E+02      5.57012621E+02      3.31550478E+02
      1.00683660E+03      1.56426307E+03      1.54997154E+02
     -8.78840534E+02     -8.23177337E+02     -1.69325860E+03
      5.69398682E+02     -9.53428149E+02      6.11186847E+02
     -6.38546671E+01      1.44833411E+03      9.23351182E+02
      1.21641309E+03     -1.59676856E+03      6.40746431E+02
     -3.64459719E+01     -2.96877299E+01      2.27126250E+02
      9.48517010E+02      1.12442739E+02     -6.84651447E+02
     -1.60704934E+03     -3.08088093E+02      4.63354137E+02
     -1.23720048E+02     -3.09012010E+02      2.30193799E+02
     -1.39407229E+03      2.79715586E+03      2.68316596E+02
      5.58466557E+01     -2.02656735E+03      6.45673066E+02
      7.84786572E+02     -2.87019507E+02     -4.28077913E+02
      2.97079756E+03     -7.18301949E+01     -4.10232539E+02
     -1.57981966E+03     -1.41352576E+02      2.55140058E+02
     -3.88899395E+02     -2.53447094E+02     -5.90308950E+02
      2.15884732E+03      7.10252119E+02      2.25808616E+03
      1.16882234E+02      3.25090497E+03      1.74604268E+02
      5.54643476E+02     -1.54916790E+02      2.49170798E+02
      9.96058352E+02     -5.77749317E+02     -2.82181826E+03
      2.15694662E+03     -9.67057484E+02     -5.09371059E+02
      1.80574655E+01     -2.79631058E+02     -6.52828457E+02
      2.48373486E+03      2.03476105E+03      1.16377108E+03
      2.99520258E+02     -3.23918965E+03     -2.28101121E+01
      3.63519858E+03     -2.69933867E+03      1.84114343E+03
     -6.28800575E+02     -1.46962940E+02     -6.31544280E+02
      1.35577362E+03     -1.65921746E+03      4.38816999E+02
      5.04913722E+02     -8.85860424E+02     -1.52507173E+03
      1.25170801E+03      1.63355215E+03     -1.73083366E+03
     -4.18641099E+02     -4.04214082E+02      5.76664600E+02
      1.21239381E+03     -1.26165504E+03      5.63173711E+02
     -2.00758336E+03      1.75112147E+03      2.96842235E+03
      2.52090071E+02     -1.84079763E+02     -1.58922476E+02
     -1.28681688E+03      2.84839650E+03     -1.01315650E+03
     -1.16420297E+03      1.74577848E+03     -1.90688641E+02
     -5.22621943E+02     -5.21776260E+02     -2.95242584E+02
     -2.14404733E+03      1.10519100E+03     -1.19365369E+03
     -1.78230147E+03      1.58092304E+03     -1.11828919E+01
     -2.56580650E+02     -1.01348062E+03     -1.42968146E+03
     -2.30138167E+03     -2.95252508E+03     -2.15532815E+03
     -3.49595840E+02     -3.19332708E+03     -2.40482341E+02
      4.16129619E+02      1.05232334E+02     -1.81618965E+03
      8.88633229E+02      1.25787134E+02     -2.80279853E+03
     -7.88193231E+02     -1.06029920E+03      4.11916164E+02
     -4.38517861E+01      1.05186467E+03     -1.66975669E+02
     -3.79290351E+03      1.28160057E+03      1.19016890E+03
     -1.82745846E+03     -1.64726089E+03      2.23077377E+03
     -5.04800634E+02      4.97292822E+02      3.34572521E+02
      1.33548715E+03      1.73664324E+03     -1.68528956E+03
      6.12588075E+02      1.61582003E+03     -1.00072384E+03
      1.68628768E+02      4.83277483E+02     -7.67489042E+02
      8.81484851E+02     -5.32847660E+02     -7.69258742E+02
      6.76369311E+02      2.54051242E+02     -7.15446800E+02
     -5.47966904E+01      5.89212583E+01      4.01044810E+02
      1.57600649E+03      1.76690511E+03      2.24949047E+01
     -1.09300233E+03     -3.75357877E+02      8.07271817E+02
      1.93556988E+03      1.49079901E+03      1.54485060E+02
      1.04916270E+03      5.16531596E+02      3.65295843E+02
      6.10283130E+02      4.58008249E+02     -5.07309481E+02
      6.73047658E+02     -1.48856477E+03      1.93782757E+03
     -1.14062719E+03      1.72208528E+02     -3.68856210E+03
      9.59069497E+01     -8.26311177E+02      1.87068049E+02
     -6.98109457E+02      1.56837596E+03      1.79247161E+03
      1.48967242E+03      1.61434347E+03      1.41916638E+03
     -8.97294320E+02     -4.16201654E+02      2.48528718E+02
     -7.30044525E+02      1.47491721E+03      3.92453243E+02
     -4.44632292E+02      1.50380834E+02     -1.33547166E+03
      1.15038667E+02      5.74943867E+02     -1.60722163E+02
      1.80227507E+03      5.09893444E+02      2.39630097E+03
     -3.42507040E+02      2.41061273E+03     -2.71304027E+03
      4.86529780E+02      5.79408271E+01      4.23392320E+02
     -6.34774534E+02      1.52793269E+03     -6.93512553E+02
     -7.17250423E+02     -1.41847752E+03     -1.27515392E+03
     -7.26103568E+01     -3.48309805E+02      5.92351047E+02
     -7.12761064E+02      1.18563187E+03     -2.59284520E+03
     -3.24093928E+03     -9.10197131E+02     -2.72075488E+03
     -1.20920435E+02     -3.24650503E+02      6.47220942E+02
      1.14078233E+03     -1.22295556E+03      7.53933885E+02
      6.29292122E+02      1.50458116E+03     -5.87006291E+02
      5.55662341E+01      7.97272930E+01     -3.52837078E+02
      2.67146753E+02      3.06648547E+03      1.35699408E+03
     -8.57139944E+02      1.39951494E+03     -2.83621110E+03
      4.65296564E+02     -2.38713766E+02      1.73934415E+01
      9.75317875E+01      2.83587220E+02      2.33529928E+03
      2.12697313E+03      1.77370525E+03     -2.23922895E+03
      1.38449862E+02     -7.64130919E+02     -3.28451349E+02
      2.31401067E+03      5.31191969E+02     -2.13102415E+03
      1.26508966E+03     -1.95227008E+03      7.27750141E+02
      6.92122769E+02      9.42500696E+02      5.14775745E+02
      6.17592807E+02     -1.13741021E+02     -6.22802559E+01
     -1.27276999E+03      1.00476065E+03      5.55655579E+02
      8.38367795E+02     -3.15947397E+03      8.33052722E+02
     -1.28967734E+03      3.81639099E+02      1.11521067E+03
  }
}

Hamiltonian = DFTB {
  SCC = Yes
  SCCTolerance = 1e-6
  MaxSCCIterations = 200
  ForceEvaluation = Dynamics
  MaxAngularMomentum = {
    C = "p"
    H = "s"
  }
  Charge = 0.0
  SpinPolarisation = {}
  Eigensolver = Standard {}
  Filling = Fermi {
    Temperature [Kelvin] = 300.0
  }
  SlaterKosterFiles = Type2FileNames {
    Prefix = "../../pbc-0-3/"
    Separator = "-"
    Suffix = ".skf"
    LowerCaseTypeName = No
  }
  KPointsAndWeights = {
    0.0000000000000 0.0000000000000 0.0000000000000 1.00000000000000
  }
  Dispersion = LennardJones { 
    Parameters = UFFParameters {}
  }
}

ParserOptions = {
  ParserVersion = 3
}
