Geometry = GenFormat {
<<< "system.gen"
}

Driver = VelocityVerlet{
  Steps = 100000
  TimeStep [fs] = 0.2
  MDRestartFrequency = 5
  Thermostat = None {
    #InitialTemperature [Kelvin] = 300.0
  }
  Xlbomd{ 
    IntegrationSteps = 6 
    MinSccIterations = 2
    MaxSccIterations = 200
    SccTolerance = 1e-6 
  }
  Velocities [m/s] {
     -4.88154617E+02      4.89241817E+01      6.57397857E+02
      8.10222307E+02      6.57708818E+02      1.78475029E+03
      2.82446136E+03     -8.72211195E+02     -4.54547432E+02
     -3.91636041E+02     -1.06294576E+02     -3.26377322E+02
     -8.12060542E+02      1.48642680E+03      1.94265321E+03
      2.26697065E+03     -4.88599540E+02      2.58196176E+03
     -1.01807685E+03     -1.10703607E+02     -1.06141982E+02
      1.69793917E+03     -1.04961969E+03      2.68958266E+01
     -1.49576468E+03      2.56153302E+03     -5.58737805E+02
     -4.46794898E+02      2.83494986E+02      2.87741671E+01
     -1.09225576E+03     -8.20512374E+01      1.39471885E+03
      3.30315152E+03      1.91422255E+03      3.99815159E+02
      5.68706609E+02     -4.40844194E+02      2.26140937E+02
      6.09699671E+02      1.00427261E+03      1.48664338E+03
     -1.58959662E+03      1.59499986E+03     -1.70906293E+03
     -2.14747191E+01     -9.13497092E+01     -2.03346329E+02
     -5.29001445E+03     -2.31834246E+03     -4.49949791E+02
     -2.25491150E+03     -9.30218692E+02      3.92987535E+02
      1.14831876E+03      3.21584971E+02     -2.28950604E+02
     -2.04944793E+03      2.46186793E+03      3.70416260E+03
      8.57964768E+02      2.61145329E+03      6.83953492E+02
     -7.08050265E+01      2.47970084E+02      1.65994401E+02
      1.67875056E+03      9.35624731E+02      5.88315212E+02
      1.25286865E+03      1.67101483E+03      1.31597875E+03
     -2.78386736E+02      6.21144996E+01      5.84127827E+02
      5.10914892E+02      1.83263333E+03     -7.94757555E+01
     -1.62120055E+03     -1.43169511E+03      1.26351608E+03
     -1.13988306E+03      4.81373907E+02     -1.07455780E+03
      3.69950617E+02      5.67402703E+02      3.05274501E+02
     -1.30971908E+03      3.62564988E+03     -1.22764435E+03
      1.06121795E+03      4.91580256E+02     -1.22277168E+03
      1.31444496E+03      1.97484936E+03     -8.82552840E+02
      2.37713557E+00     -1.58311931E+02     -9.30608038E+01
     -4.72580873E+02     -2.32208687E+03      2.42967950E+03
      9.37001617E+02      1.01230588E+03      3.81811431E+03
     -3.26374618E+02      6.79175151E+02     -6.26258347E+01
     -3.75029437E+03     -1.70373997E+03     -3.85887853E+02
     -1.53144380E+03      1.16958358E+03     -5.01781059E+02
      6.97741514E+02      2.43390202E+02     -2.83517240E+02
     -3.15502815E+03     -1.76056421E+03     -5.81330916E+02
      2.35756375E+03      9.76435115E+02     -2.84393123E+03
      4.28551127E+02      4.90850891E+02      5.88082661E+01
     -1.82455951E+03      1.27174668E+02      1.72087658E+03
      3.37630029E+03      1.79045398E+03      7.59831267E+01
      7.13578145E+01      1.61133438E+02      1.09160530E+02
     -4.24363201E+02      3.75965779E+03      9.24289523E+02
      1.85892475E+03     -1.39656039E+03      1.35630250E+03
      2.39945660E+02     -3.81330423E+02     -4.75996402E+02
      3.25753330E+03      9.11837589E+02      1.58611473E+03
     -4.60565689E+03      1.77810496E+03     -4.96786700E+02
     -4.53755472E+01     -1.47082941E+02     -1.76358408E+02
      1.21580192E+02      3.62966671E+02      1.23560394E+03
     -2.22648232E+03     -3.27918657E+03     -2.41318985E+03
     -6.94557804E+01     -1.94778295E+02      3.38863542E+02
      1.56574143E+03     -1.95576011E+03      1.97870779E+03
      1.53690271E+03      6.02797257E+02     -7.03721400E+02
      3.74350059E+02      2.84934593E+02      3.35441768E+02
      7.76484351E+02      8.79669473E+02      4.54899016E+02
      4.38110160E+02      1.89323656E+02      1.91138849E+03
      5.49435282E+02     -1.19425097E+03     -8.67624411E+02
      9.34775044E+02     -3.17062983E+02      4.37179674E+02
     -2.88829069E+02     -1.98886111E+02      8.47039050E+02
     -2.11634850E+03      1.23804208E+03      2.37726760E+00
      3.29095127E+03      1.26777066E+03     -8.85077187E+02
      3.56996421E+02     -1.30717953E+02     -2.15134194E+02
      5.82656088E+02     -4.94377215E+02     -1.06385060E+03
      1.21703125E+03      1.39880647E+03     -1.54057134E+02
     -8.45740999E+01     -7.02042213E+02      1.06423901E+03
      8.71739449E+02     -1.07712565E+03      2.69247591E+02
      3.12339930E+01      1.13174442E+03     -1.83617932E+03
      1.26325486E+02     -8.97459729E+01      9.13736221E+02
      2.34366644E+01      6.35980682E+02      5.50604744E+02
     -3.70900904E+02      8.60272983E+01     -2.56326761E+03
      4.90737956E+02      1.46422358E+01      5.66824937E+02
      6.44116047E+02      3.39369589E+03      4.36749062E+02
     -2.46454411E+02      5.28320189E+02     -6.83093653E+02
     -2.10494474E+02      2.36135907E+02      6.15696744E+02
     -1.57704281E+03      4.08201758E+02     -8.25379600E+02
     -3.96918424E+02      1.89733951E+03      1.76575965E+03
     -1.07558283E+03      6.69232852E+02      7.43151694E+02
      1.90183981E+03     -3.96488572E+02      2.73790781E+03
      1.57019658E+03     -2.09920229E+03      1.90856863E+02
     -7.35351938E+02     -7.74756902E+00     -4.46885382E+02
      4.12966837E+02     -1.13818234E+03      4.33465881E+02
     -3.59802460E+02      1.62776420E+03     -1.97257289E+03
     -2.36357936E+02     -1.05878936E+02      3.10985343E+02
     -4.57428927E+02      1.83607692E+03      2.21246388E+01
     -6.68710613E+01     -7.66532400E+02      1.83312991E+03
     -4.87260742E+01      2.87706799E+02      1.49667839E+03
      8.80322596E+02      1.26087398E+03     -6.48888942E+02
     -1.31861755E+03     -2.48957453E+02      2.20822613E+02
      1.44635371E+03      7.35896167E+02      1.07194862E+03
     -2.67247734E+02      5.81474026E+02      3.47928202E+02
      2.05490991E+03      7.89230469E+02      3.38103772E+02
      2.07351582E+02      1.01247606E+02      2.57424988E+03
     -2.44153122E+03      1.13443071E+02     -1.51773744E+03
      6.74118226E+02     -7.11295602E+02     -6.32090584E+01
     -1.54385724E+03     -2.04044336E+03      6.16170868E+02
     -9.74616099E+01     -1.58911017E+03      1.42765274E+03
      3.65548436E+02     -1.84708407E+01      4.04248556E+02
      1.88701416E+03     -1.20806103E+03     -1.34386221E+03
      6.98041405E+02      1.84760756E+02     -3.04407374E+02
     -3.57275758E+02      4.77792457E+02      5.47932348E+02
      2.40661649E+03     -4.33100907E+02      1.90790228E+01
      9.38378701E+02     -4.81859408E+02      1.50988656E+03
      3.03651889E+02      2.48315248E+02     -1.60005795E+02
     -1.63971892E+03     -2.48108121E+03      1.57012432E+03
     -2.79749963E+02      1.49073883E+03      3.70368141E+02
     -5.30751583E+02     -1.39449272E+02      2.91725838E+02
      3.64196627E+03      2.49908870E+03      7.73424777E+02
     -1.07120414E+03      1.71798119E+03     -2.25319665E+03
      9.98096679E+02     -2.27902881E+01     -2.41289236E+02
      2.33340746E+03      1.85734095E+03     -5.57586043E+02
     -1.33720593E+03      1.73719224E+02      9.74399633E+02
      4.15696028E+01     -6.80364274E+02      1.36431463E+02
      3.78738978E+02      9.95420938E+02     -4.91068546E+02
      1.31131028E+03     -6.78984006E+01     -4.09682743E+02
      6.24204708E+02     -3.73814183E+02     -1.79830648E+02
     -1.79840931E+03      1.25651077E+03      1.01529015E+03
     -2.04628190E+03      2.33456212E+03      6.34410993E+02
      4.01021743E+02     -3.21673277E+02      9.09348413E+01
     -2.92947706E+03      2.96248663E+02     -2.44379565E+03
      2.50971112E+02     -1.36651819E+03     -2.88047411E+03
     -1.35048740E+03     -2.67173714E+03      1.49151173E+03
      3.12121225E+02      1.77076848E+02     -2.57369252E+02
     -3.00345817E+03     -1.20692107E+03      1.12814971E+03
     -1.88295576E+03     -1.29143110E+03     -1.68818578E+03
     -2.58275831E+02      1.26524397E+03     -9.35795094E+02
      1.43813850E+02      7.10931006E+02      5.66576703E+02
      1.00726440E+03     -5.15374695E+02      2.74448211E+02
      5.63557446E+02     -2.73584489E+03     -2.59272036E+02
      6.10708504E+02     -1.39422429E+02      6.03109574E+02
      2.44903411E+03     -1.36160687E+03     -1.94451751E+03
      6.26665243E+00     -4.03045465E+02      9.27504957E+02
     -5.83754170E+02      6.99421354E+02     -2.27764909E+02
      1.45263573E+03     -2.28491802E+01     -1.80639925E+03
      2.37100033E+02     -1.07151068E+03      5.50097749E+03
     -1.39872410E+02      4.44395482E+02     -4.50279573E+02
     -4.09260991E+02     -9.59296625E+01      2.66695180E+03
      6.92158263E+02     -1.62302130E+03      3.15697713E+03
      5.08013366E+02      1.01283153E+03      4.48081500E+02
     -8.07596033E+02     -2.90971412E+02     -1.00439410E+03
     -2.71891967E+02     -1.66094660E+03      1.01682350E+03
      1.00505853E+03      4.95584028E+02      7.98518353E+02
     -2.27274403E+03      9.84970955E+02      1.66633358E+03
     -6.85739552E+01     -2.09533056E+03     -2.68602684E+03
      2.62277230E+02     -3.23151093E+01      7.55717311E+02
     -3.74558817E+02      7.31870918E+02     -1.66736049E+02
      1.50222206E+03      1.33932812E+03     -4.66492146E+02
      4.34852385E+02      1.83369470E+02     -3.53545276E+01
      6.03845587E+02      1.47856044E+03     -1.03603751E+02
     -2.82074663E+03     -3.46859877E+02      4.87193668E+02
     -2.47183625E+02     -2.29531521E+02      4.93330799E+02
      6.79597000E+01      2.71954270E+02      4.19356194E+02
     -6.22982193E+02     -8.77813055E+01     -8.63850193E+02
      2.31663887E+03     -5.75492987E+02     -4.34039212E+02
     -3.53246255E+02     -5.37952305E+00     -4.65269271E+02
     -2.52825381E+02      2.17046566E+03      1.61969766E+03
     -1.49915007E+03     -1.17830007E+03      3.48482945E+03
      1.31753536E+03      1.01195691E+03     -9.21113671E+02
     -2.50875337E+02      5.25475074E+01      3.48444541E+02
     -2.11845053E+03      4.43826735E+02     -3.05988271E+03
     -3.34585395E+03      8.02636487E+02      3.71932909E+03
      1.82678499E+02      4.95623025E+02      8.33793620E+02
      3.29927421E+03      9.05722043E+02     -1.13276550E+03
      1.16944892E+03     -8.27703423E+02      9.87171673E+02
      8.18506572E+02      1.92132061E+02      4.52846253E+02
     -7.65046492E+02     -6.19338616E+02      9.06834184E+02
      9.39377317E+02     -1.17085740E+03     -2.24590041E+03
      1.17247895E+03      1.01530809E+02      7.64921474E+02
     -1.81291863E+02     -1.60283840E+03     -1.91594929E+03
      1.06014486E+02      6.53955117E+02     -5.95062714E+02
     -2.65513088E+02      1.17508910E+03     -3.76808268E+01
      2.13552804E+02     -1.64543623E+03     -2.05042236E+03
     -2.77924129E+03      1.53981674E+03      1.96801514E+03
      2.67067646E+02     -3.51012733E+02      4.81842990E+02
      3.03065782E+02      1.45111902E+03      1.01109073E+03
      3.28709754E+02      9.82060733E+01     -1.12423950E+03
     -1.26989495E+04     -1.16943387E+04     -2.22436547E+04
      2.50764469E+02     -8.59575362E+01      6.40277537E+02
      9.12141147E+02     -2.35421750E+03      2.72272426E+02
     -4.16970301E+02      3.10666678E+02      7.79900207E+01
     -1.73663843E+03      2.32078752E+03      1.04807618E+03
     -1.05438551E+02     -1.04823087E+03      1.14314626E+03
     -6.29745147E+01      3.19223737E+02     -1.29725513E+02
     -9.82947744E+02      1.58952949E+03      5.53670872E+02
      1.74890526E+03     -1.63566794E+03      3.96306805E+02
      5.98499758E+01      1.00093753E+03     -3.22867043E+03
      1.13662041E+03     -4.26326504E+02      5.53667974E+02
      2.20073911E+03      9.40426427E+02      1.31634941E+03
     -2.79229228E+02     -8.24187550E+02     -5.35010735E+02
      5.67691710E+02      3.40167945E+03     -1.52264482E+03
      3.14390063E+02      5.14108422E+02      3.89225803E+02
      1.85498390E+03     -1.47531550E+03      2.60726952E+03
     -3.56344959E+03      8.11176197E+02     -1.51332056E+03
     -4.87222024E+02      2.71142667E+02      5.40770010E+02
     -1.67296716E+03      1.43570144E+03      1.50892895E+03
     -2.37104412E+03     -1.09182997E+03      9.52837835E+02
      3.02622893E+02      6.22810475E+02      3.71655781E+02
     -7.63173608E+02      4.82513705E+02     -3.04421869E+01
      1.62337457E+03      2.34200667E+03      1.21861248E+03
      3.07032567E+02     -4.31470209E+02      1.87519096E+02
      9.00441260E+01      1.09184237E+03     -1.34730126E+03
     -2.64764339E+02     -2.57420426E+02     -1.24914983E+03
      4.80258601E+02     -5.48023737E+02      1.83568428E+02
     -1.27537773E+01      6.38345529E+02      6.34703379E+02
      4.95874685E+02     -4.03667963E+02      8.99831032E+02
      1.73879694E+01      2.52223128E+02      8.14158730E+02
      1.72291966E+03      3.55946229E+03      7.93209851E+02
     -3.36635994E+02     -5.88120032E+02     -9.60136893E+01
     -1.78613594E+02     -5.73143402E+02     -3.59706732E+02
      1.30478451E+03      1.36183937E+02      1.23726488E+03
     -6.80328869E+02     -1.98904811E+03      6.63310055E+02
     -3.33267238E+02     -2.17946201E+02      8.55071471E+02
     -8.61908839E+02     -2.88743607E+02      7.26725941E+02
      2.22582958E+03     -1.43468588E+01      2.60070748E+03
      3.72097440E+02     -4.00373067E+02      4.45315257E+02
      1.01514732E+03     -3.62710745E+03      9.65353188E+02
      8.95704942E+02      1.58826730E+02     -7.41580809E+02
     -1.51092825E+03     -3.16768281E+02      1.58182910E+03
     -6.49932516E+02      5.14829547E+02     -5.98248460E+01
      2.34695861E+03      1.39349088E+03      3.36385433E+03
      1.88068825E+01     -5.94637097E+02     -1.85027305E+03
      1.32985660E+02     -2.92937638E+03     -5.18767941E+01
     -6.80912166E+02      3.88469256E+02     -2.82553324E+01
      9.77255933E+02     -1.02803562E+03     -2.41169976E+03
     -1.95939120E+03     -7.33276084E+02     -3.47377962E+02
     -7.28953030E+02     -6.01799355E+02     -4.52634022E+02
     -4.19267581E+02      1.04702221E+02      1.82209518E+01
     -3.96307274E+02     -8.73672233E+02     -9.14480544E+02
      8.41634024E+02     -1.36087970E+02      2.19092717E+02
     -2.59118158E+03      2.07797584E+02     -1.03599636E+03
     -5.79769710E+02      1.33979899E+02     -2.36384100E+03
     -6.57666897E+01      4.63119129E+02     -3.04838652E+01
     -1.21487377E+03      1.25902226E+03     -5.13691329E+00
     -1.27159644E+03     -3.23235124E+02      2.71048495E+02
     -1.71421544E+02      4.63923991E+02     -9.76577907E+01
     -1.16666610E+03     -4.66981087E+03     -6.71747038E+02
      3.18617278E+02     -3.68763958E+02      2.16974481E+03
      9.08342122E+02      2.80022364E+02      8.72545099E+02
     -1.73803281E+03      8.46455389E+02     -1.75080211E+03
     -7.29339816E+01      6.57927370E+02      2.11432867E+03
      4.07232779E+02      9.06409605E+02      5.67122250E+01
     -3.16476173E+03      3.43968056E+03     -2.77849111E+03
     -5.62556068E+02     -2.43621340E+03      1.49211991E+03
     -1.45901913E+02     -7.37433974E+01     -2.99381476E+01
      1.20068321E+03     -5.88571217E+02      2.54930644E+03
      2.13285802E+02     -1.12231623E+03     -6.08820559E+01
     -1.61278420E+02      5.11618981E+02     -2.17030844E+02
      1.72063097E+02     -8.41319155E+02      4.76777762E+02
      6.05736426E+02      6.67908478E+02     -1.08437787E+03
     -2.53235301E+03     -1.88350979E+03      1.94270890E+03
      8.37326834E+02      1.28574881E+02     -2.93924422E+02
     -1.01531539E+03      6.45253489E+02     -1.27646748E+03
      1.04460875E+02      8.15889655E+01      1.56291614E+03
      7.11143133E+02      6.53908478E+02      3.75539243E+02
      4.16852616E+02     -1.32618583E+02     -9.10198305E+02
     -2.68361966E+02     -6.09410506E+02     -3.14723512E+03
      4.52186412E+02      4.03715300E+02      1.81384108E+03
     -2.30234045E+02      1.11508048E+02     -2.40939191E+02
      1.91364371E+03     -7.12917127E+02     -2.48674113E+02
      8.07673925E+02      6.75552365E+02     -8.10707974E+02
     -3.77843064E+02     -1.91270230E+02      3.95688004E+01
     -1.54768681E+02      1.25279926E+03      2.99959797E+02
     -2.31641027E+03      1.46268156E+03      8.11699832E+02
      1.74465679E+02     -5.35465213E+01      5.77219004E+02
     -5.35989795E+02      2.33520362E+03     -4.74298459E+02
      5.94142391E+02      3.64669326E+01      5.51105442E+02
      2.37806205E+02     -8.79528873E+02      6.45414412E+02
     -7.11435392E+02     -1.99519638E+03     -1.69481543E+03
     -1.12490805E+03      2.67826626E+00      8.47820389E+01
      5.45533554E+02      2.77533427E+02     -1.66993970E+02
     -5.27350976E+02      1.58362172E+03      5.55638054E+02
     -4.48228139E+02     -1.02190764E+03      2.01711978E+03
      6.77512940E+02      7.22897593E+02      4.86707860E+02
     -6.50957087E+02     -1.18697201E+03      2.05750800E+03
      1.84202757E+03      8.89864334E+02      9.53912298E+02
      5.54936274E+02      6.66035236E+02     -4.42636761E+02
      6.27604639E+02      7.18109471E+02     -1.02404486E+03
      1.22497898E+03     -7.86818034E+02     -1.93598511E+03
     -2.05103310E+02     -8.96621500E+02     -8.53287280E+01
      3.95269391E+03     -6.71460448E+01      6.73252523E+01
     -9.90659710E+02      7.64980197E+02      1.45366844E+03
      6.47480396E+02      9.08036174E+02     -3.35718493E+03
      4.15722649E+01      7.07768844E+02     -2.06821584E+02
     -2.13879731E+02     -3.42380693E+03      1.02156312E+03
     -2.94800796E+03      7.35938830E+02      2.14792876E+02
      1.13752528E+03     -2.52856796E+02      4.13043299E+03
      1.09849087E+02     -3.58262906E+02      3.13778152E+01
      9.34716325E+02     -9.36168566E+02     -3.48636013E+01
      7.00983347E+02      1.19897040E+03     -6.96336033E+02
      7.70165659E+00     -1.94506936E+01      3.55357838E+01
      3.80755441E+03      3.32166192E+03      6.01253860E+02
      1.01449441E+03      1.77671877E+03     -9.02424170E+02
      3.88018891E+01      3.87464592E+01     -3.19859528E+02
     -1.67923292E+03      1.86406503E+03      2.96563473E+02
      1.65791264E+03     -4.33729748E+02      3.83226572E+02
      1.87479513E+02     -2.76935974E+02      4.40104240E+02
      2.06848116E+03      3.65119215E+02      1.65577526E+03
     -3.63508897E+02     -2.27780990E+03     -1.40069862E+02
     -2.08407650E+02      4.10860663E+02      2.03139854E+02
      3.22065946E+03     -1.05679723E+02     -1.04756155E+02
     -1.78533802E+03     -1.07155979E+03     -2.74371756E+02
      1.41620402E+02     -3.72588297E+02     -4.53955793E+01
      4.12129485E+02      3.86013120E+02      3.23246730E+02
     -6.61981847E+02     -3.00464825E+02      3.27406646E+03
      4.48275855E+02     -6.26241519E+02     -4.85144456E+00
     -6.36167968E+02      2.66263015E+02     -7.13967798E+01
     -3.05810305E+02      1.31516401E+03     -2.90574723E+03
      4.24816083E+02     -4.65040256E+02      7.52024616E+02
     -1.18192466E+03      1.33012393E+03      2.01271024E+03
      1.09809615E+03      1.89332791E+02     -2.12985222E+03
      1.89382947E+02     -5.95749848E+02     -5.44549856E+01
      1.18045312E+03     -1.29258253E+02     -2.41306878E+02
     -9.21750851E+02      1.80438591E+02      9.19295772E+02
      2.22977848E+02      3.49735351E+03     -1.80524640E+03
      1.86366949E+02      1.96471769E+02     -2.37943067E+02
      2.31454544E+03      2.04285252E+03      7.42942969E+02
     -5.85572903E+02     -2.41591440E+02      1.71131911E+03
      2.22076872E+03     -1.83121168E+03      2.15525400E+02
     -3.30576119E+02     -1.46696216E+02     -4.99350556E+02
      1.80972717E+03     -2.26739936E+03      2.53031889E+02
      2.39960326E+02      1.47330113E+03     -9.51683293E+02
      1.09264018E+02      2.46024368E+02      7.68689713E+02
     -5.79347199E+02      7.34264719E+02      1.21806324E+03
     -3.67767567E+02     -1.94795769E+03     -1.51985270E+03
      9.94926229E+01      3.20259982E+02      7.43325363E+01
      1.25600632E+03     -3.96244328E+02      2.16167386E+03
      1.10782745E+03      7.55145813E+02     -4.47391664E+02
     -7.66264507E+02      5.68401294E+02      1.22626643E+02
     -1.49116890E+02      4.49747120E+03     -1.19794886E+03
     -6.17842257E+02     -5.30624006E+02      2.96124761E+03
     -7.92611601E+01      6.59830971E+02      1.49388059E+02
      2.91421738E+03     -2.04486952E+02      3.72516864E+02
     -1.59301785E+02     -7.27474835E+01     -3.35121286E+03
      5.12294161E+02     -9.23500370E+01     -3.34695338E+01
      1.71611969E+03      2.02672488E+03     -4.81574370E+02
      1.65190456E+03      1.23022150E+03      1.42588926E+03
      1.46460754E+02      2.77128214E+02      3.06008107E+02
      1.35002068E+03      5.80048503E+02     -5.95878711E+01
     -2.96788046E+03      1.48914276E+02      4.02648353E+02
      2.28342762E+02      4.32520183E+02      4.34231378E+02
     -2.26764547E+03      8.04019961E+02     -5.17811105E+02
      1.05279489E+03     -1.70753600E+03     -7.70550581E+02
      4.15038248E+02     -1.44014402E+02      1.03110165E+01
      1.94497179E+03     -7.72187856E+02      2.91710295E+02
      2.72436279E+03     -7.62672746E+02     -3.91754074E+03
      1.07713809E+03      3.85013083E+03      2.93037815E+02
     -2.13287961E+02     -3.91218374E+01      9.03723043E+02
      9.25747170E+02      5.16360178E+02     -2.63151421E+03
     -3.31015299E+03      1.32048502E+03      1.96198722E+03
     -1.04403226E+03     -2.49100237E+03     -1.49342573E+03
  }
}

Hamiltonian = DFTB {
  SCC = Yes
  SCCTolerance = 1e-6
  MaxSCCIterations = 200
  ForceEvaluation = Dynamics
  MaxAngularMomentum = {
    C = "p"
    H = "s"
  }
  Charge = 0.0
  SpinPolarisation = {}
  Eigensolver = Standard {}
  Filling = Fermi {
    Temperature [Kelvin] = 300.0
  }
  SlaterKosterFiles = Type2FileNames {
    Prefix = "../../pbc-0-3/"
    Separator = "-"
    Suffix = ".skf"
    LowerCaseTypeName = No
  }
  KPointsAndWeights = {
    0.0000000000000 0.0000000000000 0.0000000000000 1.00000000000000
  }
  Dispersion = LennardJones { 
    Parameters = UFFParameters {}
  }
}

ParserOptions = {
  ParserVersion = 3
}
