Geometry = GenFormat {
<<< "system.gen"
}

Driver = VelocityVerlet{
  Steps = 50000
  TimeStep [fs] = 0.2
  MDRestartFrequency = 5
  Thermostat = None {
    #InitialTemperature [Kelvin] = 300.0
  }
  Xlbomd{ 
    IntegrationSteps = 6 
    MinSccIterations = 2
    MaxSccIterations = 200
    SccTolerance = 1e-6 
  }
  Velocities [m/s] {
     -3.55076111E+02      5.46713695E+02      7.91512890E+01
     -9.22946852E+02      1.04090518E+03      1.29934008E+03
     -4.13523817E+02      2.00055910E+03     -1.17573214E+03
     -2.27693264E+02      3.52767858E+02      2.03298114E+02
     -1.29687339E+03     -5.60620383E+02     -6.09608009E+02
      1.33354774E+03     -3.35653367E+03      1.14493645E+03
     -2.09578333E+01      1.93594574E+02      2.06592637E+02
      4.94709222E+02      1.76659330E+03     -1.80916518E+01
      2.61369948E+02     -1.59093148E+03     -1.29151761E+03
     -2.63338353E+02      6.27104633E+02      6.47323292E+01
     -2.93761467E+03     -1.09666891E+03     -2.39119593E+03
      1.37419361E+03      2.13597495E+03     -1.74591505E+03
      5.10035598E+02     -5.71961743E+02     -2.34306836E+02
      2.73339730E+03     -2.98067034E+02     -2.32348719E+03
      5.83936668E+01      4.15338758E+02      2.05663142E+03
      1.29702167E+04     -1.75512488E+04      1.66447950E+02
      5.99336148E+02      1.18616364E+03     -1.56289335E+03
      7.41191622E+02      8.14203271E+02     -4.65613893E+02
     -3.32754628E+02     -2.33510205E+02     -4.90578700E+02
      1.46404052E+03     -2.42779203E+03     -3.12634659E+03
      1.07767161E+02      2.39860028E+02      2.78819459E+03
      1.06745272E+02     -1.11113962E+03      6.68324680E+02
     -7.17673917E+02      7.49444416E+02     -5.36710060E+02
     -1.17594904E+03     -1.50184303E+03      3.13171645E+03
      2.24475150E+02     -3.47266533E+02      8.59939514E+02
      3.86823610E+02      7.92102819E+02     -1.56175705E+03
     -8.92227084E+02      2.40740710E+03      2.82188898E+03
     -1.69308986E+03     -1.86665785E+03      5.77674203E+02
     -6.68423723E+01     -7.02306924E+01     -1.01111943E+02
      1.13975787E+03     -4.81944844E+02      2.08497250E+03
      9.63688764E+02     -1.45180774E+02     -1.52182954E+03
      2.43889637E+02     -5.72408395E+02      1.92013715E+03
      3.84554733E+02      3.54116683E+02     -4.48746728E+02
     -2.40659538E+03     -2.42574459E+02     -1.64810336E+03
      1.38775345E+03      1.12965377E+03      1.57447341E+03
      1.25915144E+02      3.26318787E+02      1.01160988E+02
     -1.55382096E+03     -2.72750112E+03      1.28719356E+03
      2.17397671E+02      2.33168946E+02      1.31762919E+03
     -1.37642692E+02     -7.72715750E+01      4.55398882E+02
      3.72867464E+02     -2.61799260E+03      2.16438811E+03
     -4.29125466E+03     -1.37629249E+03     -1.46401260E+03
      8.60223801E+01      3.56357666E+02     -3.08006483E+02
     -1.50122719E+03      7.88813586E+02      1.65186383E+02
      1.54361810E+03      5.37443064E+02     -3.54576796E+02
     -7.29605066E+02      1.09711307E+03      9.42174376E+01
      1.25659044E+03      6.70644323E+02     -1.75505737E+03
     -6.12235286E+02      7.33842035E+02      3.73585142E+03
      5.00692112E+02     -2.35190758E+02     -3.34798651E+02
     -2.61640203E+02     -8.63405837E+02      1.80018142E+02
     -8.97343490E+02     -1.15311654E+03      7.30600188E+02
      6.22043339E+02     -3.44769327E+02     -6.55984310E+01
     -1.43595808E+02      1.66969608E+01     -9.88356768E+02
      1.89687775E+02     -1.80861557E+03      3.47153877E+02
     -5.58667957E+02      1.95865825E+02     -1.58419975E+02
      4.82705667E+02      6.23668206E+02     -4.39006996E+02
      5.16391465E+02      7.75633746E+02     -1.04326236E+03
      3.49537615E+02      5.85950983E+02     -3.14760973E+02
     -1.72761560E+03      1.48886564E+03     -1.40277879E+01
      2.47045666E+02      3.40120460E+03      2.13794852E+03
     -1.05237931E+03     -2.19463357E+03      7.82622111E+02
      2.72850250E+02      2.64010038E+01      3.80848278E+02
      2.95449419E+03     -1.00003805E+03     -2.36527270E+03
     -9.16709283E+02      7.51205659E+02     -2.13916398E+03
     -2.34861247E+03      2.11831359E+03     -2.22152722E+03
     -1.31425065E+02      2.09268665E+02     -5.45922663E+02
      2.23754657E+03      1.78496772E+03      8.45996736E+02
      4.19527629E+01      2.65678368E+02      6.24294741E+02
     -1.61458080E+02      3.13376201E+01     -1.57734001E+00
     -1.93390567E+03      3.36931049E+03     -2.81453373E+03
      1.29323675E+03      1.49805564E+03     -6.29520614E+02
      2.07304029E+02     -4.12407756E+02     -5.10395315E+02
      1.79155600E+03      2.53143437E+03     -1.69967770E+03
      2.78446427E+03     -1.19119105E+03      2.03521676E+03
     -4.11173947E+02      4.91300778E+02     -7.90938203E+01
     -1.96508737E+03      4.54380404E+02      1.32017942E+03
     -5.08874801E+03     -4.94839603E+02     -2.44531846E+02
      3.41443076E+02     -7.57222408E+02      2.92266896E+02
      3.03406311E+01     -1.00942465E+03      1.41382878E+03
      3.18057757E+03      1.50455382E+03      2.73776676E+02
      2.63033908E+02      6.54476763E+02      4.44604139E+02
      3.64485942E+02      1.86515317E+03      1.16557281E+03
      9.31145522E+02     -2.49492955E+03      3.66996283E+02
      7.39711059E+02     -3.45354137E+02     -7.33218951E+02
     -3.01150798E+02      1.49075010E+02      1.67488415E+03
     -3.80963073E+01      2.36967748E+02      1.45047392E+03
     -4.60371287E+02     -1.41278980E+02     -1.34013947E+02
      5.30776721E+02      2.28349139E+03     -3.47074411E+03
      1.63377932E+03     -3.49304722E+03      7.69258004E+02
     -7.23072953E+02      6.75026495E+02     -6.85711771E+02
      3.26814631E+02      2.23797806E+03     -1.30790406E+03
     -2.24209949E+03      2.38699818E+03     -3.75383745E+03
     -8.20210252E+02      1.54058109E+03      2.54392112E+03
      5.26713467E+02      6.83981474E+02     -2.46417780E+02
     -3.31134370E+03      1.04597934E+03     -1.62026175E+03
      1.20657117E+03     -1.09964555E+02      8.05703415E+01
     -9.46067150E+02      2.05227061E+02      2.21467408E+03
     -6.33666343E+01      9.27194932E+01      1.75179827E+02
     -1.50763691E+03     -4.93622213E+02      1.77956918E+03
     -1.20928324E+03     -6.34717745E+02     -1.40164550E+03
     -1.09008011E+03      3.81822328E+02     -3.33512597E+02
     -3.95504680E+02     -5.67726602E+02     -1.85688957E+03
     -1.18521553E+03     -2.29219106E+03     -1.55743849E+03
     -2.80417896E+02      1.87352019E+02     -2.18788233E+02
     -2.26406201E+02      4.74160083E+02      1.98116447E+03
     -1.63078769E+02      1.34786312E+03     -1.89580287E+03
     -4.93668236E+02      6.91563174E+02      4.46972355E+02
     -2.30196439E+03     -4.49565950E+01     -3.55277827E+02
     -1.20885649E+03     -4.65007904E+02      1.91042242E+03
     -9.55215810E+02     -1.50825935E+03      3.29513540E+02
     -2.10975161E+03      1.25014768E+03     -9.04622523E+02
     -1.20618770E+03      1.96299803E+03     -1.16408426E+02
     -2.66077856E+02     -5.25749344E+01      3.60183275E+02
      1.26127238E+03     -2.64073419E+03     -1.26609347E+03
     -5.76337455E+02     -4.92160225E+02      1.56669715E+03
     -7.83552571E+02     -3.33716853E+02     -8.09369350E+01
     -1.25524464E+03      1.08915539E+03     -1.87439418E+03
      2.64621922E+03      5.38548955E+02     -2.50385467E+02
     -3.52772368E+02     -6.59748188E+02      3.93089666E+02
     -7.61478672E+02      1.07964526E+03      6.56252365E+02
      2.82790046E+03     -2.09319695E+03     -1.41303709E+03
     -9.04683617E+02      1.59724808E+02     -4.06261119E+02
      1.06243862E+03     -1.53976910E+03     -1.22483589E+02
      1.33123256E+03     -1.83585919E+03      1.99534652E+03
     -1.99901360E+03      9.07570975E+02     -4.82122552E+02
      2.34027710E+02     -2.25617790E+02     -4.52652097E+02
      1.45005826E+03     -3.15563631E+03      1.69854311E+03
      2.56255221E+03     -3.84469458E+03      3.36783305E+03
     -1.37365483E+02     -9.94734343E+02     -7.41275602E+02
      1.93191765E+02     -2.08073949E+02     -1.74622466E+02
     -2.87967278E+03     -7.05835951E+02      4.07610923E+02
     -6.44009738E+02     -3.70074655E+02      9.61460880E+02
     -1.55501335E+02     -1.22302210E+02     -4.29044280E+02
      1.35393977E+03      2.14199715E+03     -1.71343481E+03
      2.80212736E+02     -1.13233367E+03      2.12450241E+03
      8.81177541E+01      1.17493645E+02     -1.89621862E+01
     -3.04318576E+03      4.66699032E+02      6.65866090E+02
     -4.27041583E+02     -9.35347399E+02      9.89907568E+02
     -3.09687958E+02     -4.64781434E+02     -3.01681015E+02
     -2.96554771E+02      1.11326672E+02     -8.70132815E+02
     -3.52166264E+02      4.48970069E+02      3.57447671E+03
     -4.61165212E+02      6.31355345E+01      6.93084646E+02
      2.12399192E+02      1.33498731E+03     -1.40710270E+01
     -4.19518108E+02     -6.88874439E+02     -1.55134316E+03
      4.97566435E+02      3.40637607E+02     -6.31333717E+02
      2.07571992E+02     -8.92679645E+02     -2.74590892E+03
      2.41723706E+03     -1.43418890E+03      3.93114861E+03
      4.61508578E+02     -1.14145527E+02     -1.68460659E+02
      7.35365962E+02     -8.72649366E+02     -1.42957246E+03
      2.06908966E+03     -1.40780356E+00      1.54178833E+03
     -2.17600916E+02     -3.95816764E+02      4.35205153E+02
     -4.38304915E+02      2.85346267E+03     -1.85069669E+03
      3.94215070E+02      1.67474999E+03     -1.48761223E+03
     -9.64021734E+01     -2.86758244E+01     -5.53887429E+02
      3.60711518E+02      2.43566288E+03      8.80838685E+02
      1.23155138E+03      4.36664666E+01     -2.22174767E+03
      7.63537628E+02      3.27774497E+02      2.41943911E+03
      4.62536499E+02      1.63194501E+02     -1.31295495E+02
      5.11418683E+02      3.10972067E+03     -4.41750596E+03
     -1.86127719E+03      2.95820156E+03      5.15774820E+02
      1.34860209E+03     -1.99233878E+03     -3.11854465E+03
     -1.03149278E+02      7.87336538E+02     -3.56258973E+02
     -9.94547268E+02     -8.56976012E+02     -7.03245109E+02
     -8.34893165E+02     -1.04144612E+03      4.66710576E+02
     -6.27355059E+02      1.62140144E+02      5.33143113E+02
     -2.61440959E+02      1.61900146E+02     -2.01781539E+03
      3.16524034E+03     -8.96149125E+02      5.42375741E+02
      2.68084620E+02     -5.15190722E+01      5.68035338E+02
      5.41697050E+02     -5.57844057E+02      1.01258359E+03
     -1.57774012E+02      1.83270510E+02     -1.74880468E+03
     -2.78865296E+02      4.35685599E+01     -6.43861947E+02
      9.88731049E+02     -2.04416156E+03     -1.09358003E+03
      1.58077615E+03     -5.98793916E+02     -2.58101794E+03
     -4.50481194E+02      8.29415031E+02      2.29203300E+02
      1.48969611E+03     -2.67673159E+02     -1.52268270E+03
      7.33927893E+02     -3.30600619E+03      6.71411945E+02
      2.48762213E+02      3.29546125E+02     -1.22108010E+02
      6.22471273E+02     -8.35557529E+01      3.97186179E+02
     -1.12363138E+02      1.91436326E+03     -1.11308980E+03
     -4.29653682E+01     -6.53005429E+02      2.78326334E+02
     -2.79049811E+03      1.01302629E+03     -2.84636948E+03
      7.23734659E+02      1.05810793E+03      1.38545732E+03
     -1.66212273E+02      8.26319966E+02      3.43499319E+02
     -5.73738913E+02      6.37294663E+02     -4.88082656E+02
     -1.29200107E+03      2.32901968E+03     -1.25033229E+03
      2.21956893E+02     -1.86091799E+02     -6.19598817E+02
     -6.50262216E+00      1.75903240E+03     -5.28744558E+02
      1.45407165E+02     -1.94856345E+03     -4.01819636E+02
     -3.64321293E+03     -3.79913848E+03     -2.83048373E+02
      2.27021696E+02      5.42920939E+01      5.46685537E+01
     -1.73562668E+03      5.34435972E+02     -3.06891480E+03
      2.65432120E+03      8.58576030E+02     -3.75099450E+02
     -1.17547550E+01      7.48484222E+02     -1.80888158E+03
     -2.55709777E+02      1.00613429E+02      5.49322355E+02
     -4.93697453E+03     -1.74180319E+03     -2.87849058E+02
      1.53448264E+03      1.91289770E+02     -4.71043829E+02
      3.39061747E+02      1.14425779E+03     -5.05724417E+01
      2.20290632E+03     -1.21063852E+02     -5.62486720E+02
      7.70770712E+02      6.24003371E+01     -5.44165021E+02
      5.30591082E+02      1.73964072E+02     -7.25342356E+01
      1.36022210E+02      9.65004019E+02      1.46475734E+03
     -3.01689528E+02      5.13736330E+02     -2.17981103E+03
     -3.31141817E+02     -4.29785586E+01      4.06091610E+02
      5.54806829E+02      2.31819749E+03     -2.85848527E+03
     -2.17552949E+00     -8.46191449E+02     -4.14002240E+02
     -8.51897715E+01      1.03216253E+03      2.21700178E+02
     -1.42424517E+03     -2.26034399E+03      6.10836949E+02
     -9.65082207E+02     -9.93069597E+02     -3.42616212E+03
      1.27820742E+02     -4.47412098E+02      9.70718171E+02
      1.89632643E+03      8.30541061E+01      5.83418010E+02
      1.82369453E+03      9.58990142E+02     -3.45640839E+03
     -3.67340291E+02      4.81836312E+02     -2.47880872E+01
      1.81437280E+03      6.61759744E+02     -1.44729415E+03
     -2.02981197E+03     -7.51321407E+02     -2.28535180E+02
      3.27994704E+02     -6.69902443E+01     -5.70561619E+01
      1.50315789E+01      2.16500299E+03      6.57801880E+02
      3.30095655E+03     -1.70763781E+03     -3.80827920E+02
      2.69864349E+02      9.78473931E+02      1.07565954E+02
      1.46735784E+02      7.97891503E+02      7.94249501E+02
     -3.51545482E+03      1.31964965E+02      2.88544938E+02
     -1.89480721E+03     -9.07479283E+01     -5.92115292E+03
      3.45333199E+02     -1.52070197E+02      7.80829846E+02
     -2.73007315E+03      4.10100198E+02     -1.71265704E+03
      3.43911415E+03      1.00233283E+03     -1.24840191E+03
      1.17785325E+01     -1.48353544E+03      3.74460420E+03
     -2.19958082E+01      4.23232185E+01     -6.54265356E+02
      1.11445902E+03     -9.74460463E+01      1.46989495E+03
     -7.10311933E+02      2.37024453E+03      2.38368443E+03
     -6.83301004E+02     -1.28742878E+02      3.51394758E+02
     -2.48512197E+03     -2.99097386E+02      5.43394386E+02
     -1.45526002E+03      1.68823014E+03      7.36309338E+02
      7.32641663E+02     -4.01445961E+02     -9.04074279E+02
      2.06569012E+03      1.12404873E+03     -2.02736952E+03
      1.39807364E+03     -1.68124392E+02     -8.09214437E+02
     -5.22863809E+02      3.85203415E+02     -7.67722651E+02
      1.09675096E+03      1.17675915E+03      2.63001463E+03
     -1.32092744E+03     -1.16186730E+03     -1.28084086E+03
      1.67986346E+02      2.20266447E+02      9.22915887E+01
     -2.33920439E+03      1.38081581E+03      3.99440224E+02
      2.76099373E+03     -9.27573592E+02      1.60533108E+03
     -2.41492329E+01      8.87947711E+02      1.25855053E+02
     -7.42313796E+02     -3.55683654E+03     -1.89038578E+03
      1.01754121E+03      5.12597948E+02      2.72761201E+03
     -4.58209074E+01      3.00617037E+02      2.41497832E+02
     -5.83355211E+02      1.81632173E+03      1.21176066E+03
      1.28440598E+03     -1.24107473E+03      3.61827126E+02
     -5.52888781E+01      3.76386886E+02     -4.63881993E+02
     -6.34197574E+02      1.23674980E+03      1.02894713E+02
     -1.50752162E+03      2.95639343E+03     -1.20395234E+03
      2.45151536E+02     -1.59695534E+02      5.68872469E+02
      5.79686361E+02     -1.05602176E+03      2.88691608E+03
     -1.11191187E+03      3.27575233E+02      2.03151324E+03
      1.81479646E+03     -5.02480127E+02      2.26303339E+03
      2.68767110E+02      8.59322548E+02      7.05822948E+02
      1.87144962E+03     -1.58480865E+02     -3.75348472E+01
     -8.43650595E+02      2.07225851E+03      2.07485501E+03
     -1.08956285E+03      1.94301273E+03     -7.78575706E+02
     -4.68861236E+02     -2.25492048E+02     -1.56655114E+02
      9.33382977E+02      3.03798380E+02      9.52752531E+01
      3.65031791E+02      1.68010840E+03      9.92168458E+02
     -7.31042981E+02      7.76568028E+02     -1.03586592E+02
     -1.67498861E+03      1.12224515E+03      2.08613514E+03
      3.77616414E+02     -2.78482891E+02     -1.49130123E+03
     -3.86485777E+02     -6.54276173E+02      5.73907252E+02
      8.05350131E+02     -3.91967391E+03      2.01859597E+03
      9.71581249E+01      7.82521328E+02     -1.56965509E+03
     -2.85739612E+02      3.37534481E+02     -4.98148839E+02
     -2.14249762E+03     -3.82704098E+02      1.63166875E+03
     -3.48928877E+03      6.57696242E+02     -1.49761990E+03
     -6.04842772E+02      5.50315483E+02      1.00693770E+03
     -1.97639539E+03      4.13182943E+02     -4.48402528E+02
     -4.56647696E+02      1.79833305E+02     -1.82568026E+03
      2.73894223E+02      4.34340752E+02      5.52134147E+02
     -2.34244767E+03     -2.03773836E+03     -2.94068616E+03
     -2.24328779E+03      2.16381360E+03      2.45347214E+03
     -7.28143241E+01      2.74011647E+02      4.14616420E+02
     -4.63099212E+02      5.05061986E+02      1.26941400E+03
     -6.57537434E+01      1.92854771E+03      1.59183559E+03
     -4.83892600E+01      3.52821072E+02      2.65461654E+02
     -8.52766460E+01      1.88074861E+03     -1.50535872E+03
      1.06378261E+03      2.94781606E+03     -1.33268102E+03
     -3.62310263E+02      7.85260233E+02      5.19325334E+02
     -1.71339956E+03      1.31676753E+03      2.27120476E+03
     -2.43230180E+02     -1.61102440E+03      6.44519790E+02
     -1.05091449E+03      5.79655221E+02     -1.24734369E+03
     -7.17728061E+01      2.22981809E+02      8.86429190E+01
      1.29650636E+03     -6.24477655E+02      1.86265528E+02
     -1.56976427E+03     -1.25343431E+03     -2.09590177E+03
     -2.36808089E+03      6.14616824E+02     -2.02342191E+03
      2.56562145E+02      1.52845291E+00      1.46656168E+02
      2.39673344E+03      1.68119283E+03     -5.71960476E+02
      1.11893066E+03      1.75385474E+03     -1.84254451E+03
     -5.40352698E+01     -1.06246153E+02     -3.11075688E+02
     -5.22362076E+02      1.04027637E+03     -2.79160746E+03
      1.17966732E+03     -6.03363158E+02     -8.56383368E+02
     -1.03862781E+03     -2.05527006E+02      6.07039381E+00
      8.56366721E+02     -8.63184905E+02     -1.32566571E+03
     -2.20278684E+03      1.89332533E+03      1.65642642E+03
     -3.52483722E+02      1.81282615E+02      1.45606195E+02
     -1.03702012E+02     -2.32218965E+01      2.96371464E+03
     -5.73220518E+02     -5.42223524E+01     -7.14931524E+02
      6.70678355E+02     -3.80767313E+01      4.21701066E+02
      2.65142201E+03     -3.74849452E+02     -1.64528452E+03
     -6.27797571E+02      1.87962239E+02     -9.30224301E+02
     -3.79052185E+02      1.02861716E+03     -5.17070057E+02
     -1.27930071E+03      7.65011046E+02     -1.58498273E+03
     -3.48630438E+03      6.23268578E+02      1.97059350E+03
      4.00117337E+02      7.44984772E+02     -3.27621268E+02
     -3.11569241E+03     -2.48020154E+02     -1.89178239E+03
      8.39032792E+02      8.00798258E+02      1.30272710E+03
      3.50105277E+02      2.54422477E+02     -5.96937217E+02
      4.11753188E+02     -1.28716241E+03      1.81347561E+03
      2.21918592E+03      1.48295018E+03      1.15274044E+01
     -5.29066102E+02     -4.31191844E+02      4.18530760E+02
     -2.17375965E+03     -7.23941536E+02      2.60909114E+03
      7.43507723E+02     -1.62419281E+02      3.17552386E+03
     -1.73687629E+03     -1.71063691E+03     -2.51218325E+02
     -7.25905342E+02     -3.18107633E+02      3.12615775E+02
      4.59882424E+03      1.52234326E+03     -2.16894941E+03
      1.19549282E+03     -3.06389966E+02     -1.17312242E+01
      2.06117843E+03     -2.21173903E+03     -7.61896472E+02
     -4.07963930E+02      4.86570102E+01     -1.46172832E+02
     -1.26950914E+03      9.73239495E+02      9.35742267E+02
     -1.73867179E+03      1.43283766E+03     -7.27166536E+02
     -6.30235009E+02      7.41606013E+02      9.39619659E+01
     -1.05561619E+03     -3.09264200E+03     -3.63299117E+03
      2.97365766E+03     -2.84715957E+03     -1.40213364E+03
     -3.28209762E+02      4.12788579E+01      4.29093144E+02
      1.44029490E+03     -1.43837486E+03     -1.56496386E+03
     -9.95690145E+02      1.20982427E+03     -5.22768115E+02
     -4.65962468E+02      8.04443128E+02      5.14032091E+01
     -2.44907764E+00      1.16765858E+03      2.19745929E+03
     -2.19992551E+03     -2.40727955E+03      5.31175356E+02
      4.73627310E+02      1.62195316E+02      9.41899340E+01
      5.40344444E+02      1.47527847E+03      3.18391464E+02
      3.25267577E+02      1.77753173E+03      2.12760829E+03
     -7.35687969E+02     -3.75612305E+02      2.94012657E+02
     -2.92958745E+03     -4.45167354E+02      8.06822560E+01
     -7.73203633E+02     -6.43976012E+02     -2.24821860E+02
     -2.99233245E+02     -6.12795935E+02     -4.37927035E+02
     -9.75244697E+02     -1.97335277E+02     -1.31626826E+02
      1.60922309E+03      9.17570364E+02      5.39339248E+02
     -5.72438404E+02      1.06439418E+03      1.31195779E+02
      1.94570265E+03      2.94008245E+03      2.01647561E+02
     -6.15985034E+02     -3.12434379E+02      6.84285174E+02
      1.16103722E+00      5.96936680E+02     -4.21787971E+02
      9.18492428E+02      1.57394790E+03      2.14322991E+03
     -7.12132036E+02      8.05110438E+02     -3.14612984E+02
      1.36910349E+03     -2.36553250E+03     -1.14103164E+03
     -6.12307092E+01      2.70186485E+02      1.70417570E+02
     -3.58287782E+02     -5.93719293E+01     -1.76199153E+03
     -2.31853757E+03      1.08664626E+03     -7.95896417E+02
     -9.62587824E+02     -3.76416516E+01     -2.63901743E+03
  }
}

Hamiltonian = DFTB {
  SCC = Yes
  SCCTolerance = 1e-6
  MaxSCCIterations = 200
  ForceEvaluation = Dynamics
  MaxAngularMomentum = {
    C = "p"
    H = "s"
  }
  Charge = 0.0
  SpinPolarisation = {}
  Eigensolver = Standard {}
  Filling = Fermi {
    Temperature [Kelvin] = 300.0
  }
  SlaterKosterFiles = Type2FileNames {
    Prefix = "../../pbc-0-3/"
    Separator = "-"
    Suffix = ".skf"
    LowerCaseTypeName = No
  }
  KPointsAndWeights = {
    0.0000000000000 0.0000000000000 0.0000000000000 1.00000000000000
  }
  Dispersion = LennardJones { 
    Parameters = UFFParameters {}
  }
}

ParserOptions = {
  ParserVersion = 3
}
