Geometry = GenFormat {
<<< "system.gen"
}

Driver = VelocityVerlet{
  Steps = 50000
  TimeStep [fs] = 0.2
  MDRestartFrequency = 5
  Thermostat = None {
    #InitialTemperature [Kelvin] = 300.0
  }
  Xlbomd{ 
    IntegrationSteps = 6 
    MinSccIterations = 2
    MaxSccIterations = 200
    SccTolerance = 1e-6 
  }
  Velocities [m/s] {
     -9.26775932E+02      2.12585478E+02      1.91049509E+01
      4.78038528E+02     -4.13492770E+01      1.62123495E+03
     -7.07024529E+02     -3.79377488E+01     -7.82189014E+02
      7.29663293E+02     -1.09343082E+02     -3.50744532E+02
      6.00168231E+02     -1.88226236E+03      2.10227499E+03
      2.91078070E+02     -1.83852706E+03      1.28811975E+03
     -4.03516994E+01     -2.31742882E+02      1.28221496E+02
      8.20783963E+02      5.26176685E+02     -9.86200745E+02
     -1.53092709E+02     -5.53015346E+02     -1.37729029E+03
     -1.18698740E+02     -1.24482323E+02     -1.46486896E+02
     -1.19740963E+03      2.26703675E+03      1.15284297E+03
     -1.83253716E+03     -2.37753474E+02      4.67452663E+02
      5.45341466E-01     -4.51252208E+02      6.32700568E+02
      1.21049628E+03      2.31851479E+03     -9.97421221E+02
      4.80653800E+02      5.57083749E+02     -7.47175669E+02
      1.99352532E+02     -3.49225758E+02      1.15814713E+03
     -1.67838196E+03      2.76851343E+01      1.64373754E+03
      3.06003899E+03      1.04332482E+03      1.25854940E+03
      6.86248234E+01      5.96350649E+02     -6.73581524E+01
      4.85587867E+02     -7.61572866E+02      6.34054412E+02
      5.86632738E+02      1.36372285E+02     -1.13467874E+03
     -5.40365098E+02      3.49087691E+02      1.77662267E+02
     -8.97510336E+02      3.18439326E+03      1.31654152E+01
     -5.83424957E+02     -8.84664416E+02      8.79874090E+02
     -6.39591735E+02      1.23352838E+02     -5.39099020E+01
      4.20449300E+02      2.34851151E+02      3.71783623E+03
     -1.52457344E+03     -1.53045970E+03      3.25598925E+03
     -1.75321946E+03     -3.90144484E+02     -1.82266910E+03
      2.27508527E+02     -1.86979987E+02     -4.87970608E+02
     -8.98495844E+01      1.12047918E+03      1.88548492E+03
     -6.54711490E+02      7.63486262E+01      2.85258837E+03
      2.10016072E+03     -6.83981743E+02     -1.28334594E+03
      7.66713125E+02     -1.03062655E+03     -1.69876883E+02
     -2.31595634E+03     -3.20669241E+02     -2.38780993E+03
      5.24253545E+02     -3.49124104E+03      7.79090353E+02
      3.92867594E+02     -6.51526596E+02     -1.92599001E+02
      1.01172879E+03     -7.49841177E+02      4.06611935E+02
     -2.04662228E+03     -2.12988899E+03     -1.16984470E+03
      5.06768379E+02     -1.78883079E+02      1.93844104E+02
      4.00042605E+02      1.43877695E+03     -9.02068898E+02
      2.22998513E+03      9.33577763E+02     -1.67044194E+02
      1.36665223E+02      6.67095900E+02     -4.27306375E+02
     -7.14427614E+02     -8.66214522E+02      1.07698137E+03
     -1.67153037E+02      4.99861007E+02     -2.72966222E+03
     -9.64610283E+01      6.36080396E+02     -3.40841888E+02
      2.93475421E+03      1.13580019E+03      3.41740935E+02
     -1.18037445E+03     -6.89533785E+02     -1.96162561E+03
      5.80534798E+02      3.79593407E+02      2.31044653E+01
      1.21599025E+03      1.90268149E+02     -2.28385171E+03
     -9.15291416E+02     -3.55413244E+03     -1.64184454E+02
      3.65295094E+02     -2.26712048E+01     -4.43983905E+01
      1.97067388E+03     -1.37310957E+03     -1.20667004E+03
      4.59536661E+02     -8.30822972E+02     -1.12626997E+03
     -9.28819607E+01      4.31088731E+02     -1.49165466E+02
     -4.13783816E+03     -1.97988160E+03     -1.39262237E+03
      1.35180297E+03     -5.80103022E+02     -4.21637135E+02
      4.07549261E+02      2.01965781E+01     -8.31311249E+02
      2.22109434E+03     -1.23893791E+03     -6.49471111E+02
      1.13026635E+03      9.33830728E+02      2.03533810E+02
      2.06400693E+03      1.69978122E+03      9.86172459E+02
     -7.89795072E+02     -5.60486601E+02      1.33792769E+02
      1.64336808E+03      4.19891465E+02      1.10968080E+03
      2.36521277E+03      3.74513711E+02      5.96024324E+02
      2.63942443E+03     -2.77700235E+03      1.55449269E+03
     -4.00619206E+02      5.51943735E+02      7.63760379E+02
     -4.41307930E+02      1.74367202E+03      2.61515123E+02
      1.06647163E+03     -1.81343497E+03      5.10336602E+02
     -3.03404085E+02     -5.83030336E+02      1.18354936E+02
     -1.41020164E+01      1.09868069E+02     -2.51433479E+03
     -2.19622921E+03     -6.10139520E+02     -4.53200562E+03
     -3.74291225E+02     -1.92277272E+02     -1.44348517E+02
     -4.33853660E+02      1.72244006E+03      1.04176191E+03
      1.74900720E+03      6.84884335E+02      1.61119911E+03
      5.29010953E+01     -6.21044316E+02     -1.40076477E+02
      2.19234591E+02      2.05392177E+03     -2.49353058E+02
     -2.42386242E+02      1.84990579E+02     -2.35256487E+03
      1.08352268E+03     -7.93061516E+02      2.09359959E+02
     -3.10719318E+02      1.63867775E+03      8.73048233E+02
     -8.83204884E+02     -5.77750304E+02     -1.59675435E+03
      6.77242593E+01     -5.06568116E+02      1.47419344E+02
     -1.21259669E+02     -1.69526665E+02      2.40187246E+03
     -1.16172760E+03     -1.18761585E+03      8.75672300E+02
      3.75376808E+01     -2.26661317E+02     -8.79899787E+02
      5.83143243E+02      2.45228538E+02      1.75978046E+03
      1.10608522E+03     -1.28040382E+03      3.36786298E+02
     -8.33630488E+00     -9.88858660E+01      5.86686503E+02
      7.54286612E+02      4.56687407E+02      1.03272369E+03
      2.44589114E+03      1.46212757E+03     -2.15317495E+03
     -1.51629617E+02     -8.04621362E+02      6.01675574E+02
     -1.86335841E+03     -1.05622352E+00      1.72325627E+03
      8.11337462E+02      4.77073692E+02      8.38552041E+02
      5.42300174E+02      1.15882300E+03     -1.08901619E+03
     -5.34958232E+02     -3.49567513E+02      4.03609921E+02
     -1.19859331E+03     -7.30397717E+01     -1.03561472E+03
     -2.24974584E+03      2.94027074E+03      1.70308366E+01
      8.48516781E+02     -1.06686671E+03     -1.54659283E+03
     -1.81783093E+02     -2.94325706E+02      4.18457133E+02
      3.50093227E+03     -5.30614185E+02      1.06127379E+03
     -5.28657747E+02     -3.84592677E+02      1.96555352E+01
      6.65281501E+02      9.68212092E+02     -3.34057719E+02
     -1.44660612E+03      1.20209123E+02     -3.32686028E+03
     -1.29344324E+03     -2.19221644E+02      1.66064732E+02
     -1.26765819E+02     -3.07756846E+02     -2.21570501E+02
     -2.79845325E+02     -7.00511394E+02      1.39254954E+03
      2.21484110E+02      3.52268641E+03     -4.22873433E+03
     -3.78400518E+02      2.45085367E+02      8.45510893E+01
     -3.33465228E+02      1.25927114E+02     -5.71633929E+02
      1.90571846E+02      4.74185419E+02     -2.23504493E+02
     -3.16608811E+02     -3.19377318E+02     -4.12192820E+02
     -4.73407343E+02      3.54556405E+02      2.98534730E+03
     -8.12885633E+02      1.66744472E+03      2.53775824E+02
     -1.57664073E+02     -2.65626557E+00     -3.63454384E+02
      1.73916381E+03     -1.36701501E+03      4.89091589E+02
     -9.68013989E+01     -1.12923958E+03     -3.21616126E+02
     -3.78599994E+02     -3.93302403E+02     -5.91161332E+02
     -2.21737284E+03      1.09768007E+03     -8.12147497E+02
     -2.20403563E+03     -3.49145996E+03     -6.03038429E+02
     -3.05548530E+01     -3.68129778E+02     -3.98741179E+02
     -6.57053211E+02      6.28952144E+02     -3.92846576E+02
      2.91549916E+03     -1.31296354E+03     -2.58679339E+02
     -1.60247683E+02      2.66778853E+02      8.85971008E+01
      1.51230672E+03      1.19553172E+02     -5.03512442E+02
      1.86762767E+03     -3.77452479E+03      7.67193232E+02
      2.07709296E+02     -8.40777457E+01      4.37257882E+03
      1.49157448E+02     -6.88831427E+02     -1.73090981E+02
     -2.97170999E+02     -1.09467800E+03      9.93741537E+02
      3.43482131E+03     -2.05749336E+03     -1.52851851E+03
      1.66256492E+03     -5.76453933E+02     -8.73797484E+02
     -4.91394403E+02     -9.26076381E+01     -5.07959891E+02
     -2.44603197E+03     -1.20931765E+03      2.81223562E+03
      8.11136842E+02     -8.14351984E+02     -1.13830778E+03
      1.00049447E+01     -1.74851143E+02     -9.93071778E+02
      1.93822238E+02     -1.43017813E+03      1.82009055E+03
     -6.75904982E+01     -2.54153396E+03      1.91827380E+03
     -1.88342331E+02     -1.15641814E+02     -4.17392272E+02
     -1.00705428E+02     -8.05800498E+02      7.03716562E+02
      1.25731349E+03      1.22862858E+03      2.36009617E+02
      4.94018712E+02     -4.36389102E+02      2.02006931E+02
     -1.22388962E+03     -7.18275008E+02      1.53325278E+03
     -5.89727827E+02     -4.51266871E+02      7.71472506E+02
      4.06409582E+02      1.36533894E+02     -1.93017405E+02
     -3.42232366E+02      1.94347391E+03     -1.90295709E+03
      1.03758941E+02     -2.52371603E+03     -1.62803197E+03
     -5.86386902E+02     -2.43444673E+02     -4.09039049E+01
     -6.62267932E+02      1.07440494E+03     -1.65018928E+03
     -3.98788120E+02      3.88551410E+02     -1.00951608E+03
     -5.07100798E+02     -4.99041283E+02      2.70553472E+02
     -1.01532101E+03      1.47487065E+03     -1.17060832E+03
      7.76712926E+02     -1.56642066E+03      2.01370651E+02
      7.20722314E+02      1.51987156E+02      3.43592646E+02
      2.97244372E+03     -9.51369282E+02      1.22250489E+02
     -4.44120929E+02      1.42369709E+03      3.87719761E+03
     -7.13222099E+03      2.04777192E+04      2.24926192E+03
      2.44246730E+02     -9.58023683E+02     -3.06777863E+02
      2.12930652E+03     -3.90890833E+02      1.01306540E+03
     -1.23078190E+03      3.53172004E+03     -8.83899941E+02
      7.77201894E+01     -3.96870263E+01     -6.09013092E+02
      3.37236627E+02      6.81609754E+02     -9.31464210E+02
      1.08755100E+03      2.30174300E+02     -2.02507935E+03
      6.36546932E+02      2.62573702E+03      3.50189038E+03
     -5.99253092E+02      1.13263553E+02      6.19440109E+01
      2.54125149E+03     -4.64263053E+02      3.00147527E+03
     -7.30841508E+02     -2.25547506E+03      1.32121187E+03
     -8.66448962E+01     -5.29051763E+02      4.39331230E+01
      5.51950470E+02      5.95411125E+01     -1.97880608E+03
     -2.38507646E+03     -6.64772985E+02      1.15221106E+03
     -5.29941426E+02      2.52942990E+02      1.37973485E+02
     -1.05705460E+03     -1.27174548E+03      1.19983180E+03
     -1.13222394E+02     -5.89613807E+03      4.17936739E+02
      2.36051025E+02     -4.80703910E+02      1.26662818E+02
      2.18482297E+03     -2.45470539E+03     -2.00101480E+03
      5.29302705E+02     -2.25193159E+03      5.69380780E+02
      3.19759728E+02     -4.20255225E+02      1.85839135E+02
     -1.75440766E+03     -1.03432978E+03      8.09139888E+02
     -7.42014154E+02     -2.35828624E+03      1.01627527E+03
     -5.17476406E+01      5.61974219E+02     -1.36215708E+02
     -1.70234977E+03      4.18278566E+02      1.59700703E+03
     -1.96860826E+03      5.27993860E+02     -3.45349343E+02
      1.02147452E+02     -3.27340518E+02      1.70109755E+02
      2.42059059E+03     -1.42554571E+03      3.47241224E+02
     -8.41674066E+02     -1.99704625E+02      1.14696054E+02
      3.77377228E+01      2.05367835E+02      7.16952817E+02
     -1.72225185E+02      3.17458398E+03      1.38513002E+03
     -2.24659462E+02      7.69056513E+01     -8.65941490E+02
     -5.37102230E+02      7.33198408E+01     -9.08707106E+01
     -3.63896964E+03     -1.35516149E+03      3.73160121E+03
      2.71450295E+03      1.73836772E+03      2.84429104E+03
     -2.99496393E+02     -9.28104045E+02      6.33766545E+02
      1.13195363E+02     -5.17649212E+02     -3.60047428E+02
     -6.40084127E+02      9.40827936E+02     -1.21922712E+03
     -1.26328240E+03      1.22791848E+03     -2.55797991E+03
     -2.64203023E+03     -2.93163905E+02     -8.04676239E+02
     -1.26291529E+03     -6.10257156E+02      2.78470204E+02
      3.61196364E+02     -2.94700537E+02      1.87985382E+03
      1.94640212E+03      2.05258286E+03      7.82697496E+02
     -1.94671972E+02     -1.90132904E+02      1.40924549E+02
      1.61853380E+03     -7.73091872E+02     -1.34764514E+02
      4.05823339E+01      4.32588808E+02      3.17919677E+03
      4.16583804E+02     -7.61365850E+01      3.42073640E+02
     -2.30336225E+02     -7.93659766E+02      2.17128106E+03
      2.68525593E+03     -1.00020211E+03     -6.12881372E+02
      2.58184499E+02     -3.61056717E+02      6.80813537E+02
      1.12109226E+03      1.78096569E+03     -2.57502864E+03
      1.27630153E+02     -4.89032497E+02      5.62053704E+02
      7.87512654E+01     -6.67046581E+02     -1.34851477E+01
     -1.40624250E+03     -1.22604470E+03     -8.28748613E+02
      1.82395256E+03      1.03845646E+03     -2.94905007E+02
      1.26536486E+02      1.35010198E+02     -4.88524328E+02
      1.43970769E+02     -9.71603744E+02     -5.66578531E+02
      2.18164706E+03     -1.33996554E+02      1.88745164E+03
      5.00241591E+02     -5.89096831E+01      2.40763036E+02
      1.21243321E+02      1.51696147E+03     -1.23074168E+03
     -1.41638510E+03      6.71025379E+02     -3.28802208E+03
     -4.23470173E+02     -4.34719778E+02      6.81103978E+01
     -2.12311052E+03      1.88519688E+03      2.16589965E+03
      1.40972578E+03      2.80002155E+03      4.52556079E+03
      8.57004177E+02     -2.12639202E+01      7.89954417E+02
     -7.30759920E+02      4.24803398E+02      1.63419930E+03
      1.39424520E+01     -1.38195593E+02     -5.20155741E+02
      1.12104929E+03     -2.86426246E+02      2.45409769E+02
     -4.18732925E+02     -5.27789160E+02     -5.93057594E+02
     -5.25880458E+02      1.44042041E+03      4.56993541E+02
     -2.31144354E+03     -1.89277991E+03      5.02176303E+02
     -1.40555058E+03      1.30305360E+03      1.31825314E+01
      5.11454363E+00      2.68550545E+02     -2.06538597E+01
      3.56765159E+02     -1.99270413E+03     -1.17840518E+03
      3.84115994E+02      2.39383506E+03     -1.15713470E+03
      5.48632641E+02      5.69039431E+01     -5.63952349E+02
      1.08525776E+03      2.57217449E+03     -6.05841157E+02
      4.20318751E+02     -3.53061895E+02     -5.70307180E+02
     -7.63478119E+02     -9.64633199E+02      5.69293827E+02
     -1.60852126E+03     -3.31181577E+03     -1.42817484E+03
      1.26530250E+03      1.15795509E+02      4.82234761E+02
      2.88489011E+02     -2.02201942E+02     -1.57378668E+02
     -2.35020806E+02     -4.00610986E+03      8.01682214E+02
      2.36213042E+03     -6.27714064E+02     -2.19881540E+03
     -1.33427620E+00     -2.85304702E+02     -6.00378575E+01
     -2.10130307E+03      3.63728072E+03      3.05939027E+03
     -1.60070325E+03      8.03453054E+02      1.16537965E+03
      9.90286273E+01     -3.58810723E+02      4.62233163E+02
      9.95853707E+02     -1.14214563E+03     -2.88261134E+03
     -1.61163861E+03      1.77671566E+02      7.67455609E+02
     -1.75186792E+02      6.41274809E+02     -6.91020294E+01
     -4.04196825E+01      4.31366273E+02      1.15076840E+03
     -5.09786004E+02     -1.54412864E+03      1.39383051E+02
     -1.02621901E+01     -3.79868715E+02      1.60223542E+02
      6.79304808E+01     -1.01647979E+02      1.32777756E+01
      5.76365052E+02     -4.94799464E+02      5.41189306E+01
      4.19792086E+02     -3.78060987E+02     -4.58129532E+02
     -7.33823934E+02     -2.26683787E+03      1.04641103E+03
      2.46722233E+03     -2.08670825E+03      2.19441393E+03
      1.91768547E+03      2.50121237E+03      2.24935226E+03
     -6.83331043E+02     -4.88853023E+01      4.68783262E+02
      2.15591429E+03      5.23230285E+02      1.64692567E+03
      6.99375125E+02     -5.40613432E+02     -5.88973364E+02
      2.00052651E+03      1.61922486E+02      1.15363807E+02
     -5.45384886E+02     -5.13560002E+02      3.00011487E+02
     -1.88597600E+03      1.42674077E+03      5.43199513E+02
     -9.45933105E+02     -1.20690055E+03      1.30962816E+03
      8.10629763E+02     -5.26948871E+01     -3.74444793E+02
      8.57267482E+02     -2.35384540E+03     -5.12167203E+01
      2.44813461E+03     -1.72379354E+03     -1.94324870E+03
      5.53125527E+02     -2.02381303E+02      8.86200852E+02
      1.10640156E+03     -2.80082465E+03      5.66008577E+02
      1.95313279E+02     -1.19344343E+02      8.64735626E+02
      1.64661884E+02     -1.47230366E+02      4.37971338E+02
      1.94895945E+02      3.80059839E+02      1.90632502E+03
     -2.22877549E+03     -1.42686890E+03      1.37656054E+03
      5.12333051E+02     -3.60145418E+02     -6.12957868E+02
      3.22725110E+03      1.18905387E+02      9.29686426E+02
      4.14222616E+03     -8.38886695E+02      1.00664271E+03
      3.05505400E+02     -8.09726724E+02     -8.51436711E+02
     -1.29999083E+03      7.90773304E+02      1.28888295E+03
      1.77790709E+02      2.95656271E+03     -2.00792362E+03
     -7.70657292E+02      1.27099533E+02     -3.27756687E+02
     -1.67498308E+03      1.39046322E+03      1.47244883E+03
     -8.01871916E+02      3.91130990E+02      3.59629468E+02
     -1.74805241E+02     -4.22952248E+02     -5.11547772E+02
      4.17412015E+02      2.23736729E+03      1.00855659E+03
      3.48802585E+02      2.18113071E+03      4.46972815E+02
      9.78346156E+01      2.40628617E+02     -1.45958829E+03
      1.66042965E+03     -2.32398101E+03     -1.45763647E+03
     -8.59511869E+02     -1.22264306E+03     -2.45091361E+02
      2.84055852E+03      9.27508206E+01      1.57915142E+03
      5.92703446E+02      1.47027137E+02     -8.05675199E+02
      1.44328808E+03      2.32887608E+03      2.63001158E+02
     -4.95522201E+02     -1.16346240E+03      3.13527834E+02
     -2.15230796E+03     -2.50648948E+03      9.83211817E+02
     -3.06591981E+02     -1.49384882E+03     -2.09589378E+02
      1.61130334E+03      5.97533552E+02     -5.56643008E+00
      2.09767371E+03      1.37828699E+03      6.93348182E+02
     -5.74959400E+01     -4.39745022E+02      1.81162982E+01
      2.04580695E+02     -2.69395314E+03     -2.28208007E+03
      1.59988557E+02     -3.37168682E+02     -8.82195015E+02
      7.12211888E+02     -6.11029443E+02     -6.03628400E+02
     -1.36190027E+03      9.28021658E+02     -8.75588268E+02
      6.65953433E+02     -2.22991448E+03      1.86806943E+03
     -2.40623560E+02     -5.12857156E+02      1.24291425E+01
      1.01507365E+03     -2.63287547E+03     -4.34669842E+03
      5.95683892E+02     -1.89163449E+03      1.98273962E+02
     -2.83221785E+01     -5.19870357E+02     -4.61641423E+02
      3.43365545E+03     -3.95306343E+02     -6.97095327E+02
     -7.70844883E+02     -6.86167644E+02      7.00594231E+02
     -1.07997686E+02     -3.85294548E+02      5.26898828E+02
     -8.40360733E+02      2.16783501E+03      3.54084038E+03
      1.69684564E+03     -7.45028174E+02      2.11934830E+03
      5.85451579E+02      5.07270502E+02     -5.82582484E+02
      2.85795913E+02      1.79051350E+03      4.24502975E+03
      8.49061344E+02     -2.15397253E+03     -8.23240927E+02
      3.73033066E+02      5.41839317E+02     -1.28629190E+02
     -2.61735987E+03      9.79475387E+02     -2.24260807E+03
     -1.61287990E+02     -3.89970593E+02      3.61068709E+02
     -1.43747119E+02      3.13183896E+02     -6.82064340E+02
     -8.99924511E+02      1.40899971E+03     -2.35496407E+03
     -1.40900532E+03     -2.80830426E+02     -9.19696673E+02
      8.80724904E+02      2.12810457E+03      7.07503376E+02
      8.33059050E+02      4.21608577E+02     -1.00685262E+03
     -3.51142404E+03     -1.37758767E+03     -2.41684312E+03
      1.60752185E+03      1.73511609E+02      3.19387243E+02
      2.86100489E+03      9.21848552E+02      4.71643843E+02
     -1.93628255E+01     -4.17189466E+02      7.19502896E+02
      1.07022428E+03      2.05968352E+02      2.47936115E+03
     -7.72937253E+02      1.85320973E+03     -4.33289627E+02
      5.22343847E+01      2.76371256E+02     -3.60421203E+02
      8.64591212E+02      2.48133569E+03      3.28822115E+02
     -2.94272762E+03      8.53333386E+02     -1.24327665E+03
      9.52923679E+02     -5.06837957E+02     -1.45574139E+02
     -9.42764161E+02     -1.28079290E+03     -2.32540123E+03
      2.94426792E+02      1.47538163E+03     -2.87601705E+03
      1.14414934E+02     -4.68933960E+02     -2.05997777E+02
      5.98966426E+02      9.33976906E+02     -2.63245319E+03
     -3.73243939E+02      1.60379374E+03      3.97854563E+03
      3.16301884E+02     -1.19961695E+02      8.85631976E+01
      1.80819902E+03     -1.68684154E+03      2.19601970E+02
     -1.89420663E+03      6.84400944E+01      2.59108778E+01
     -2.36800132E+02     -3.34293868E+02      3.93084772E+02
     -1.83757328E+03      4.95905483E+02     -5.59073020E+02
     -1.12654980E+03     -8.03637794E+02     -3.33049912E+03
     -5.95442436E+01     -5.69846761E+02      2.42307480E+02
     -2.25229218E+03     -1.66278053E+03      3.22123337E+02
     -1.23732710E+03      1.20117005E+03      1.04502204E+03
      5.60950462E+02     -2.86412026E+02      3.23218119E+02
      3.31701586E+02     -6.07685615E+02      1.49708374E+03
      2.71700443E+03     -3.04127318E+01      1.11279515E+03
      8.87334530E+02     -6.23971372E+00     -7.68932624E+01
     -4.76259710E+02     -6.92467326E+01     -2.37683963E+02
      7.67722967E+02     -2.58548309E+03     -2.01349177E+03
     -1.71675408E+02     -1.14498103E+03      1.14947729E+03
      3.43855268E+02     -3.96394386E+00      2.21654999E+02
      2.16440097E+03      1.97681865E+03     -3.44248519E+01
      7.82090195E+02      1.37541588E+03      2.22711904E+03
     -1.02383429E+03      1.03732975E+03      3.43877806E+03
  }
}

Hamiltonian = DFTB {
  SCC = Yes
  SCCTolerance = 1e-6
  MaxSCCIterations = 200
  ForceEvaluation = Dynamics
  MaxAngularMomentum = {
    C = "p"
    H = "s"
  }
  Charge = 0.0
  SpinPolarisation = {}
  Eigensolver = Standard {}
  Filling = Fermi {
    Temperature [Kelvin] = 300.0
  }
  SlaterKosterFiles = Type2FileNames {
    Prefix = "../../pbc-0-3/"
    Separator = "-"
    Suffix = ".skf"
    LowerCaseTypeName = No
  }
  KPointsAndWeights = {
    0.0000000000000 0.0000000000000 0.0000000000000 1.00000000000000
  }
  Dispersion = LennardJones { 
    Parameters = UFFParameters {}
  }
}

ParserOptions = {
  ParserVersion = 3
}
