Geometry = GenFormat {
<<< "system.gen"
}

Driver = VelocityVerlet{
  Steps = 50000
  TimeStep [fs] = 0.2
  MDRestartFrequency = 25
  Thermostat = None {
    #InitialTemperature [Kelvin] = 300.0
  }
  Xlbomd{ 
    IntegrationSteps = 6 
    MinSccIterations = 2
    MaxSccIterations = 200
    SccTolerance = 1e-6 
  }
  Velocities [m/s] {
      2.15504355E+02      2.76244390E+02     -5.93651317E+02
     -1.66513780E+03      7.59782479E+02      9.28889394E+02
      4.04570141E+02      1.65930108E+03      5.97289451E+02
      5.80821105E+02      3.92839151E+02     -5.61553100E+01
     -1.07661271E+03     -2.95149995E+01      2.48554128E+02
     -2.71756825E+03     -2.47415763E+02     -2.65437960E+03
      2.30979683E+02     -2.52036715E+02     -2.47370982E+02
     -3.57802974E+01      3.00467041E+02     -1.20326364E+03
     -1.00821574E+03     -9.11076412E+01      3.77131442E+02
     -5.40987250E+01     -1.51099676E+03      2.38202728E+02
     -2.09093709E+02      1.45839097E+03      1.34976072E+03
     -1.44480490E+03      2.16543074E+03      4.68839722E+02
     -4.66849439E+02     -4.57498470E+02      6.85648562E+02
     -3.47843608E+03      2.01949819E+03      4.37812049E+02
      1.58463085E+03     -6.75061053E+02      1.64966135E+03
      4.16583675E+02     -3.42110461E+02      2.96440697E+02
      7.25404395E+02      1.92917663E+03      5.31991197E+02
     -1.68560387E+02      2.03991053E+03      6.05037272E+02
      5.37961559E+01     -2.12797850E+02     -3.60399800E+02
     -1.64316391E+03     -4.81040774E+02      1.14635025E+03
     -1.33633980E+03      1.75780308E+03      1.14641520E+03
     -1.61613906E+01      1.71938272E+02     -2.25848205E+02
     -2.00621110E+03      1.66471953E+03     -2.04208804E+02
     -2.34576633E+02      2.49175991E+03     -5.32036366E+02
      1.50190626E+02      5.89887132E+02      4.71311789E+02
      1.34260426E+03     -3.64121248E+01      1.40368775E+03
      2.53800803E+03      1.50691821E+03      2.44789974E+03
      3.41621304E+02      4.03120842E+02     -7.78605689E+01
     -9.93799191E+02     -5.79013017E+02     -3.23382115E+02
     -1.83919505E+02      1.08948298E+03      1.43122268E+03
     -1.02821078E+02     -4.31516900E+02      2.15519540E+02
     -3.78233237E+02      1.18848270E+03      1.97410566E+02
      6.82642239E+02     -5.38942972E+02      8.75877219E+00
      3.02980554E+02      1.97757316E+03     -1.24656260E+03
      7.95802107E+02     -2.10364652E+02      8.51318267E+02
     -2.23057460E+02     -1.60016945E+02     -6.58449152E+02
     -5.02047215E+02     -1.37069117E+03      1.67944526E+03
      3.28420602E+03      8.29676746E+01     -1.77494291E+03
      8.57875151E+02      7.84567032E+02     -8.92425683E+01
      1.74875761E+03     -1.96537177E+03      6.81994596E+02
      2.60096410E+03      2.18952795E+03      2.16876567E+03
     -4.91239831E+02     -2.00917183E+02     -6.63688773E+02
     -6.21712233E+02     -9.88988149E+02     -2.84270567E+02
     -2.02658356E+03      2.74769118E+03     -8.71311722E+02
     -4.93241766E+02     -8.90277912E+02      8.18966494E+02
     -2.42087040E+03      3.08890150E+02     -1.36107897E+03
     -2.80896710E+03     -5.02994498E+03     -4.06788701E+02
      6.98314630E+02     -3.49542279E+01     -5.42072457E+02
     -5.19127301E+02     -3.92169671E+02      1.08248167E+03
     -1.91392296E+03     -4.14478436E+02     -1.70203341E+03
     -5.34693109E+02      2.91041012E+02      3.88665560E+01
     -2.01116831E+03      1.07361961E+03      4.44495019E+03
     -7.46117856E+01      4.22608386E+02     -9.00229436E+02
      3.36493565E+02     -6.91022271E+02      5.49914330E+02
      2.95980252E+02     -1.54977440E+03     -6.75413998E+02
     -1.47429938E+02      1.79932640E+01      3.65388538E+02
      3.30095588E+02     -1.25625579E+02     -1.10901806E+03
     -3.77498592E+01     -5.69793411E+03     -2.78885789E+03
     -2.24884439E+03     -1.66954614E+03      1.40126723E+03
     -2.83573072E+03     -3.36797371E+03     -2.73185790E+03
      3.22187640E+02      3.26011955E+02      2.06668180E+02
      1.37564444E+03      4.04741454E+03      6.25878399E+02
     -1.82717716E+03      1.86652005E+03      2.13085750E+02
     -1.04861357E+03      8.17977518E+02      1.73641695E+03
     -7.59680799E+02      1.46619558E+02     -2.16181433E+02
      1.43297759E+03     -1.12089327E+03     -2.13688559E+02
      2.80080853E+03     -2.57768908E+03     -2.48985600E+03
     -3.03255748E+02      2.81176707E+02      3.55489496E+02
      3.73054769E+02     -3.09741845E+03      1.50081230E+03
     -1.21662995E+03     -7.14667920E+02      2.83921045E+02
      7.13672319E+02     -2.28428898E+02     -7.73029348E+02
     -1.85262792E+02      9.73563714E+02     -2.33753946E+03
      9.19555135E+02      4.98967124E+01      2.12988807E+03
      6.59082776E+01     -1.04285114E+03     -6.27199327E+02
      1.00544169E+03     -1.06320332E+03      1.55728825E+03
     -2.60844205E+03      3.31810254E+02     -8.54406448E+02
      9.18169824E+02      8.31708373E+01      6.82896110E+02
     -4.65701398E+01      1.32410526E+02      2.58034385E+03
      6.93793208E+02     -7.79375182E+02     -2.00009055E+02
     -1.27355566E+02     -2.80385907E+02      3.41577678E+02
      5.45241182E+02      2.28143688E+03      8.21081079E+02
      5.79324994E+02     -1.26889201E+03     -8.87819456E+02
      2.13104619E+02     -9.63599527E+02     -6.09991582E+02
      1.12221506E+03      8.73877607E+02      1.57984055E+02
     -6.68928743E+02      8.40035176E+02     -1.03063772E+03
     -4.46064872E+02     -6.18509058E+02      2.33701481E+02
      7.31362505E+02      1.83263675E+03      1.93373169E+03
      7.66290037E+02     -4.94217367E+02     -9.29533035E+02
     -2.00782852E+02     -1.44096008E+02     -2.71853751E+02
     -1.81110907E+03     -3.76336338E+02     -1.67064283E+03
      3.21998286E+02      3.87040084E+02      3.48918107E+02
     -4.33079218E+03     -1.31417191E+02     -4.70763723E+03
      4.95674484E+02     -1.52917428E+02      1.17184742E+02
     -2.95163224E+02     -1.25548402E+03     -6.91306502E+02
      1.57880525E+03     -4.04011347E+03      1.75588466E+03
     -4.26395007E+03      1.22482093E+03     -7.70922236E+02
      1.52009781E+01     -2.17563853E+02     -8.91858518E+00
     -2.55366036E+02      1.46308245E+03     -3.26350731E+03
      1.38935145E+03      1.50594815E+03     -2.55419745E+03
     -3.47559683E+02      2.58614704E+02     -3.25640078E+02
     -4.52858136E+02     -5.01023334E+03     -2.71800279E+02
      3.59551024E+02     -3.55938902E+02     -4.18143162E+03
     -2.77982830E+02     -4.61384505E+02      2.00285562E+02
     -1.85581792E+03      1.34468396E+03     -3.82610190E+03
      2.83479474E+03      1.01641287E+03     -4.25173829E+02
      1.92112165E+02      3.07113780E+01      1.03012103E+03
     -3.10420135E+02     -1.31829593E+03      6.79844659E+02
     -2.51658563E+03      5.34910091E+02     -1.05456740E+03
      3.23443592E+02     -1.14176369E+03      6.60619873E+01
     -5.13967043E+02      2.12729842E+02     -4.05903691E+02
      1.61376972E+03     -2.57458249E+03      4.32331378E+02
     -5.30690662E+01     -3.76158735E+01      4.62279953E+02
      2.49654079E+03      1.21433008E+03      1.12985404E+02
      9.08261435E+02      1.39801068E+03     -6.49420355E+02
      3.00180448E+02      3.51995508E+02      5.62368567E+02
     -1.81731530E+03      1.63391629E+03      7.38792007E+02
     -2.65690930E+03      1.19363382E+03      6.31324550E+01
      7.92405954E+01     -7.15109265E+02     -4.51631680E+02
     -5.64660317E+02     -3.28260567E+03      1.29635644E+03
     -1.30741422E+03      5.29068918E+02     -2.98818230E+02
      5.17511709E+02      3.84762846E+01     -4.26850582E+02
     -1.00372656E+03      1.13516967E+03      7.60247713E+02
      6.24579084E+02     -4.56648940E+02     -4.24580368E+02
      1.21940562E+03     -4.18505053E+02      1.53389873E+03
     -2.75044363E+02      1.39889975E+02     -3.38896953E+02
      6.35523423E+02      3.37726366E+02      2.25175939E+03
     -2.11546880E+03      9.25267962E+02      1.24215508E+03
     -2.48143044E+02      3.08987044E+02      2.10348202E+03
     -1.92716229E+02      1.89802414E+02     -2.68876542E+02
     -1.97112588E+03     -1.21896941E+03      7.34701194E+01
     -1.55427005E+03     -1.76487529E+03      7.11179382E+01
     -6.22226065E+02      5.40715113E+01      2.52927284E+01
     -6.99291638E+02     -5.61505271E+02     -1.34403104E+03
      2.90459964E+03     -1.06748768E+03      7.93479611E+02
     -1.06524731E+03     -3.01298156E+02      4.45095485E+02
      1.23312863E+03     -2.43369741E+02      1.51961921E+03
      1.20532708E+03     -2.31129738E+03      6.28772985E+02
     -1.80809354E+01     -3.00664052E+02      2.45790839E+02
      1.35054933E+03      1.13668622E+03     -1.52075182E+02
      8.27312988E+02      4.05950380E+02     -2.09994997E+01
      9.26372227E+01     -8.55881291E+01      4.08908350E+02
     -1.53090910E+03      2.62866725E+03      9.06066086E+02
      1.13580629E+03      9.09241972E+02     -1.05856440E+03
     -1.44362125E+01      4.49323809E+02     -5.48968732E+02
     -4.57706277E+02      5.20075147E+02     -2.56603080E+02
     -2.15967130E+03     -6.81624359E+02     -1.05338207E+03
     -5.06863574E+01     -3.97370554E+02     -6.07985424E+02
     -8.58712362E+02      4.80217773E+02     -1.15858437E+03
      2.98678589E+03     -2.07268902E+02     -4.45978674E+02
     -5.61507718E+01      8.58833589E+02     -7.74287999E+02
      1.53399447E+03     -1.81452804E+03     -2.83545282E+03
     -1.33476983E+03     -2.58912092E+03      2.21072093E+03
     -5.92747819E+02     -3.92150828E+02      2.07174238E+02
      9.61988897E+02     -1.15205433E+03      1.41991905E+03
      4.84874700E+02      3.00412740E+02      2.00409136E+03
      4.99385525E+02      2.18372910E+03      1.20947201E+03
     -2.23168013E+01     -3.57859011E+02     -1.76871846E+02
     -9.36847177E+02      1.75957302E+03     -9.57271288E+02
     -1.66853479E+03     -2.45818829E+03      9.34757381E+02
      1.90061514E+03     -2.05221049E+03     -1.24855908E+03
     -7.97300329E+02      8.66803561E+02      6.38284901E+02
      2.26100069E+03      9.10980749E+02     -5.38204470E+02
      9.98780207E+01     -1.86979926E+03      1.97477490E+03
     -4.33919176E+02     -6.99554852E+01      5.75129453E+02
     -3.78629494E+02     -2.25911545E+03      6.96065706E+02
     -9.00205264E+02      1.59588015E+03     -1.62343237E+03
     -2.58435910E+01     -2.65093438E+02     -4.41377273E+01
      1.78592102E+02      3.07619627E+03     -4.27726402E+02
     -1.24225652E+03     -4.17161007E+03     -4.38485192E+02
     -5.52995334E+02      7.23352473E+02     -3.26638929E+02
      9.95791373E+02      1.67417900E+03      6.80546132E+02
     -1.16967986E+03     -7.96596606E+02     -6.96405580E+02
      1.39735579E+02     -3.95813246E+02      2.05048209E+02
      1.10798462E+03      8.45379515E+02      1.59621981E+03
      9.79011404E+02      8.89279866E+02     -7.47843585E+02
     -3.88763460E+02      1.14159577E+02      4.22177220E+02
     -4.32062128E+02     -2.68282529E+03     -8.50621879E+02
     -7.22583683E+02     -3.12678453E+03     -1.57465192E+03
     -4.63589882E+02      4.61897739E+02      6.35165114E+02
      4.33861583E+02      3.44739129E+03      5.40074776E+02
     -1.30399806E+03     -2.31356831E+03      1.14104945E+03
     -1.76599989E+02     -8.78911333E+01     -3.57257166E+02
      3.09963426E+03     -2.21721805E+03     -8.59648073E+01
     -5.54211990E+02     -2.43582166E+03      1.05522388E+03
      1.66581691E+02     -5.16284696E+02      2.73087820E+02
     -1.08890360E+03      1.22879444E+03      1.33860260E+03
     -6.73527549E+02      3.32014469E+02     -1.56794038E+03
      3.59260083E+02     -2.00491553E+02      1.85911022E+03
      3.98045553E+02     -2.16540109E+02      6.79296910E+02
      2.47630987E+03      3.24865887E+03      3.36637875E+03
      1.29178338E+02     -4.43467698E+02     -3.90391442E+02
     -2.15241716E+03      1.76642416E+03     -9.44558553E+02
      3.18953497E+02      2.55976360E+02     -4.44072409E+02
      7.01313847E+02     -7.65608250E+02      2.69459376E+02
      4.17425888E+02     -8.59667453E+02     -4.86337712E+02
     -3.67026752E+02     -9.48067067E+01     -8.21739731E+02
     -1.38468605E+02      1.48990867E+03      9.77617355E+02
      1.39522570E+03      1.91060630E+03     -2.30636004E+01
      1.63344724E+02      4.71011837E+02     -7.92850844E+01
     -1.48408303E+02      1.09151448E+03     -4.03420245E+02
      3.43469008E+02     -5.70876495E+02     -5.09384166E+02
      2.10850138E+01      1.74158755E+02      2.23630746E+02
     -1.26860840E+03      1.12395832E+03      2.57969764E+03
      1.89412079E+03     -6.51983222E+02      3.34254215E+03
      1.02177853E+02     -8.48986991E+02      2.55288764E+01
     -1.76735813E+03      1.86532701E+02      9.53328666E+02
     -1.44704989E+03      2.04225967E+02     -1.37628937E+03
      3.84532149E+02     -3.98070703E+02      3.03470308E+02
      9.65740244E+02      9.52297304E+00      2.41609168E+03
     -2.84965031E+03     -1.34845429E+03     -4.23727636E+02
      4.34912446E+02      2.54277253E+01     -8.61872790E+02
     -2.45930495E+03      2.20179580E+03      3.13621839E+02
     -1.25090393E+03      4.60574910E+02      1.17015956E+03
      1.35572730E+02     -3.78565098E+02      6.92661700E+02
      6.30527563E+02     -2.10613886E+03      1.52821729E+03
     -9.71403309E+02      7.59203985E+02      2.32905811E+03
      4.40412985E+02     -6.05475429E+02      4.97842489E+02
     -4.58707437E+02      6.69603235E+02     -6.43245244E+02
      3.53199992E+02     -1.51818472E+02     -2.51535864E+03
      1.39178965E+03     -8.70179595E+02     -1.79519456E+03
      7.32819195E+02     -1.05239687E+03      1.45313506E+02
     -1.29573634E+02     -2.55241077E+03     -4.72089490E+01
     -1.60385012E+03      2.00305740E+03      4.09599352E+02
      4.43574927E+02     -2.26877435E+02     -1.23531434E+02
     -3.58928400E+02      1.34983843E+01     -2.01114997E+02
      4.15485787E+02     -1.32471052E+03     -7.35302544E+02
     -1.06466007E+03     -1.50251994E+03     -2.00065718E+03
     -1.04847080E+03     -5.28746064E+02     -9.79564800E+01
      3.33655978E+02      5.48750420E+01      1.23581019E+03
      1.12585569E+03     -7.43236814E+02      2.95799573E+03
     -1.03021719E+02     -3.54629261E+02     -9.07675200E+02
      9.56997563E+02     -2.97121219E+03      8.68305996E+02
     -7.07453032E+02     -4.58122563E+03      1.93201302E+03
      1.33144676E+02     -4.29382066E+02     -5.69455517E+02
      6.92124046E+02     -1.73186055E+03      1.34752399E+03
     -1.03385054E+02      6.16136526E+02     -1.84018585E+03
     -4.28497500E+02     -3.76890843E+02      7.61220285E+01
     -9.55962645E+02      3.30640445E+03      1.97093934E+03
      1.50621328E+01     -1.98673322E+03      3.74826879E+02
     -2.55481049E+02      2.65353394E+02     -1.57195267E+02
      1.90850056E+03      3.16116108E+03     -1.18191148E+03
     -4.53933356E+02     -3.55067448E+02      1.81820491E+03
     -4.59069206E+02     -5.99733495E+01     -3.53375454E+02
     -2.30803864E+01     -5.10900652E+02      8.12138165E+02
      4.22065625E+02     -1.46899551E+03      3.26028819E+02
     -2.67326182E+02     -3.95898222E+02      3.02008035E+02
     -1.98210006E+03      1.12250117E+03     -5.75063659E+02
     -1.92925376E+03     -2.04978717E+03     -7.72216906E+02
     -1.88426907E+02      1.67155958E+01      1.46061698E+02
     -9.82306045E+02      1.31479504E+03      1.74054179E+03
     -1.49087606E+03      7.75012508E+02     -1.89041743E+03
     -8.35165418E+02      3.25288037E+03     -1.08238593E+03
      9.65093343E+03      1.94444696E+04      9.05863011E+02
     -1.02692701E+03      1.18953599E+03     -1.20149613E+03
      2.09398972E+03     -2.20972696E+03     -4.51791430E+02
      1.09094459E+03     -8.45832903E+02      7.86389744E+02
     -2.46876078E+02     -8.05651609E+02      5.65472243E+01
      1.15925830E+03      4.12700604E+02     -2.08957515E+03
      9.80067994E+02     -1.19173784E+03     -2.18813989E+02
     -2.17596547E+02     -8.65819784E+02      2.02765840E+02
     -3.88648727E+03      2.28265453E+03     -7.27900693E+01
      1.09222625E+03      1.94625793E+03      2.02439114E+02
      9.60061001E+01      5.75504692E+02      3.52750794E+02
     -2.28182731E+03      2.23317723E+03      2.22175792E+02
      2.40692547E+03     -2.84286185E+03      3.50997682E+03
     -1.67549982E+02      1.08627803E+01     -1.21879348E+02
     -1.71336103E+03     -2.49328937E+03      3.40945511E+02
     -3.70640493E+01      1.06307299E+03     -3.06591013E+02
     -5.07822240E+02     -5.60463944E+02      1.92837822E+02
      1.77592728E+03      8.74744274E+02      1.34748423E+03
     -5.58438276E+02      3.29380933E+03     -1.18069536E+03
     -7.38326110E+01      6.87398317E+02      2.42167280E+02
     -1.08739898E+03     -1.68770814E+03     -2.12625356E+03
      1.12924841E+03     -4.74444853E+02     -1.99284006E+03
     -2.63624252E+02     -2.36541342E+02     -5.63543786E+02
      5.97725037E+02     -1.90587418E+03      6.48873284E+02
     -1.11813437E+03      2.00515258E+02      2.41068663E+03
     -1.95784474E+02      1.81885725E+02      4.54553364E+01
     -4.21780273E+02     -7.88611509E+02      1.01428782E+03
      5.26291531E+02      1.65282478E+03     -6.30390690E+02
     -3.67545621E+02     -2.93409172E+02     -5.25291629E+02
     -6.80547230E+02     -2.64111080E+01     -1.01026932E+03
      3.02711803E+03     -2.43937251E+03     -8.01613892E+02
     -1.97979911E+03     -1.94078324E+03      3.10806631E+02
     -4.73420619E+02     -2.29658352E+02     -1.57925656E+02
     -9.34239524E+01     -1.61320370E+03      2.14321905E+03
     -2.81544557E+03      1.38116390E+03      1.02367749E+03
      1.54429685E+03      2.73015051E+03     -9.63983496E+02
      3.99503351E+02     -1.28657221E+03      2.13722952E+02
      1.88473535E+03     -9.42437804E+02     -1.76559908E+03
      1.96756829E+03     -3.97216100E+03      1.57887284E+03
     -3.93445333E+02     -1.30476443E+02     -3.00274283E+02
      5.01482906E+02     -1.63227806E+03      1.76763419E+03
     -1.88975022E+03     -2.34883488E+03      5.63137690E+02
      2.96075584E+02      2.74496588E+02     -9.58567259E+02
      4.19314809E+02     -2.56984431E+03     -1.87015161E+03
     -1.05856486E+03      1.24598253E+03     -5.39249989E+02
     -4.08692577E+02     -2.20022381E+02      1.12579288E+02
      1.21380546E+02     -3.18812869E+02      7.18223650E+02
      3.05281344E+02      1.89896439E+03     -7.42376393E+02
      3.53430791E+02     -2.46009146E+01      5.30862738E+02
     -1.62457195E+03      7.65991563E+02     -1.65195521E+03
      9.83759855E+02      3.42536578E+03      3.88387787E+03
      2.57698962E+00     -3.99737263E+02      5.50392312E+02
     -2.15417496E+02     -4.68141636E+02     -6.02591689E+02
      2.47748397E+03     -2.23520847E+02     -1.65982140E+03
      9.70926870E+02     -1.68643911E+02      2.15520459E+00
     -2.65099914E+03      9.40723648E+01      3.93481049E+03
      9.92361427E+02     -1.17339135E+03     -5.79783073E+02
      3.54235317E+02     -4.86329686E+01     -1.51173207E+02
     -2.62339739E+03      7.31249300E+01     -1.33497750E+03
     -1.36151383E+03     -2.09443819E+02      1.14415275E+03
     -9.29828034E+02     -3.15194389E+02     -7.05539585E+02
      7.68017845E+02      2.35720959E+02     -9.66269698E+02
      5.54617244E+02     -8.68852568E+01      3.49564029E+02
     -8.66290892E+02      4.35156090E+02      2.59211697E+02
     -1.89197037E+02     -1.00769743E+03      1.03343175E+02
      1.05978289E+03      8.65882280E+02     -7.23444430E+02
     -2.33128557E+03      5.49219494E+02      8.66328520E+02
     -5.69044592E+02      1.06367494E+03     -1.16740227E+03
      3.37865745E+02     -7.74816225E+02     -2.62694050E+02
      7.06064090E+02      9.62029392E+02      8.63109796E+02
      1.00087884E+03     -2.10837817E+03     -7.78132744E+02
      8.11323707E+01      3.30641731E+02     -1.50376652E+02
     -6.77239064E+02     -2.08326870E+02      4.31346722E+02
      3.35894975E+03      2.97934982E+02     -1.41016869E+03
     -4.38932501E+02     -6.98915034E+02      2.85874450E+01
     -2.02778782E+03      1.78267348E+03     -5.47344029E+01
      3.73487285E+02      1.27747064E+03     -1.77777152E+03
     -5.99948539E+01      3.22664750E+01      1.86501769E+02
      9.51253077E+02      5.86420074E+02      8.48271669E+02
      1.20298564E+03     -1.07484550E+03     -2.99668000E+02
     -7.89969144E+02      1.51460432E+02      4.58047115E+02
      3.97976042E+03      7.00732135E+01     -3.58524303E+03
     -6.64305620E+01     -3.96218721E+02     -7.52938581E+02
     -9.82103666E+02     -1.67379012E+02     -1.79822996E+02
      3.50918856E+02      1.37805766E+03     -2.12702898E+03
     -2.97586732E+03      1.58711268E+03      2.37801861E+02
     -1.12186704E+01     -4.07067557E+02      5.07644384E+02
     -8.08113695E+02     -1.71406789E+03     -2.67386610E+03
     -1.81342820E+03     -1.45401170E+03     -1.96971117E+02
      4.15477976E+02     -2.61025256E+02      4.23036843E+02
     -1.31785118E+03     -2.46847570E+03     -1.34289107E+03
      8.20182107E+02     -6.62984959E+02     -5.99874676E+02
     -5.68399986E+02     -1.08204508E+02      2.62719632E+02
     -9.18218301E+02      2.98925930E+03      6.96384855E+01
     -5.01136831E+02     -2.04233783E+02     -8.21037126E+01
     -2.00328922E+03     -1.61604168E+03      1.25513437E+03
     -3.16281326E+02      3.67670213E+01     -3.05397353E+02
      1.12416630E+03     -2.23382739E+03     -1.44906865E+03
      2.08000977E+03      3.37513594E+03      9.39146622E+02
      9.73835813E+02      1.73969775E+03      1.80782630E+03
  }
}

Hamiltonian = DFTB {
  SCC = Yes
  SCCTolerance = 1e-6
  MaxSCCIterations = 200
  ForceEvaluation = Dynamics
  MaxAngularMomentum = {
    C = "p"
    H = "s"
  }
  Charge = 0.0
  SpinPolarisation = {}
  Eigensolver = Standard {}
  Filling = Fermi {
    Temperature [Kelvin] = 300.0
  }
  SlaterKosterFiles = Type2FileNames {
    Prefix = "../../pbc-0-3/"
    Separator = "-"
    Suffix = ".skf"
    LowerCaseTypeName = No
  }
  KPointsAndWeights = {
    0.0000000000000 0.0000000000000 0.0000000000000 1.00000000000000
  }
  Dispersion = LennardJones { 
    Parameters = UFFParameters {}
  }
}

ParserOptions = {
  ParserVersion = 3
}
