Geometry = GenFormat {
<<< "system.gen"
}

Driver = VelocityVerlet{
  Steps = 100000
  TimeStep [fs] = 0.2
  MDRestartFrequency = 5
  Thermostat = None {
    #InitialTemperature [Kelvin] = 300.0
  }
  Xlbomd{ 
    IntegrationSteps = 6 
    MinSccIterations = 2
    MaxSccIterations = 200
    SccTolerance = 1e-6 
  }
  Velocities [m/s] {
     -7.25008195E+02      4.48400132E+01      8.65390017E+02
      9.52321507E+01      1.49607749E+03     -7.18572947E+02
      5.38966227E+02     -2.69203431E+03      8.33155248E+02
      8.23277675E+02     -3.58570675E+02      5.73612442E+02
     -8.96714903E+01     -5.87102101E+02      1.92193801E+03
      9.16158731E+02     -1.31792972E+03      5.88998705E+02
      2.84059538E+01      2.15350796E+02      7.74877637E+02
      3.93116098E+02      3.11003844E+03      1.60596083E+03
      1.28417217E+03      9.24285668E+02     -1.94601476E+03
      1.45775616E+02     -6.65503607E+02      2.45200380E+02
     -8.69694788E+02     -3.39553376E+03      1.23561419E+02
     -4.10201524E+02     -9.41792379E+02      3.01021244E+03
      2.76812412E+02      1.68442284E+02      4.61499132E+01
      2.11935120E+03      6.91214559E+02     -4.12369686E+02
     -2.17228543E+03     -2.11286561E+02     -5.88882009E+01
      7.51581081E+02     -2.91828001E+02     -4.75617700E+02
     -2.66736012E+03      1.57812541E+03     -1.12020107E+03
      1.61684187E+03     -3.82400109E+03     -4.23916060E+03
     -5.43714139E+02      4.24004908E+02     -9.26554320E+01
     -8.06004133E+02     -2.58616508E+02      2.05279793E+02
     -5.12225445E+02     -1.03257303E+03     -1.91098384E+02
     -3.15064543E+02      4.92413851E+02     -2.53249851E+02
      4.77755898E+02     -9.63053840E+02      1.86915394E+03
      5.02076127E+02     -1.98111104E+03     -4.44925716E+02
     -3.06660896E+02     -3.38056510E+02      1.74151130E+01
      1.67563634E+03      1.20041886E+02     -4.52696747E+02
     -1.80353715E+03      2.16957431E+03      1.86990848E+03
      1.39222605E+02     -1.49480570E+03     -9.10409567E+02
     -9.98563121E+01      4.02522128E+02     -2.06301969E+02
      7.88377097E+02     -1.01819407E+03     -1.55491678E+03
     -8.37598201E+02     -2.93289308E+03      1.63449156E+03
      1.25130332E+03      1.52485037E+03      1.35909678E+02
     -3.44155002E+02      7.90313506E+02      4.16925811E+02
     -9.12139867E+02      1.31922659E+03      2.37757323E+03
     -9.70947838E+02      1.32188298E+03      1.34708222E+03
     -7.44765234E+01     -1.18217698E+02      3.58948320E+02
      2.09110243E+00      2.86107136E+03      3.28871560E+01
      3.30443474E+02     -2.01222629E+02     -9.33772336E+02
     -7.85517163E+02      2.67724821E+02     -6.65305544E+02
     -1.29555029E+02      3.31361545E+03     -8.73418095E+02
      1.52873829E+03     -2.20365715E+03      2.23186521E+02
     -4.28942774E+01      4.22875619E+02      1.08765256E+03
     -1.00360083E+02     -1.11442621E+03      1.32202285E+03
      2.36893859E+03     -3.18125273E+02      2.19925795E+03
     -3.63000378E+00     -3.69728955E+02      6.30300189E+02
     -1.39248096E+03     -1.67369312E+03     -7.20329456E+02
     -7.57637792E+02      8.69621985E+02     -6.84196413E+02
     -1.10277782E+02     -2.12714493E+02     -5.80543451E+02
     -2.39240014E+03     -1.65772259E+02      7.73386250E+02
      1.37523478E+02     -4.23734782E+03     -1.02990867E+03
      5.92531956E+02     -1.26004855E+02     -1.57579709E+02
     -9.69306419E+02      1.80751426E+03      5.02204651E+02
      1.85956582E+03     -4.51863987E+02      1.51673653E+03
      6.72214669E+02     -9.73894935E+01      9.65990051E+02
     -3.20977580E+03     -2.09966890E+03      2.82283323E+03
      5.99492663E+02      4.16038869E+02     -1.44149962E+03
     -7.09680233E+01      2.96365209E+02      6.23090380E+02
      1.19382524E+03     -2.76766052E+02     -6.77535676E+02
      2.25609779E+01     -1.80285817E+03     -5.39845911E+02
      4.86203921E+02     -1.79277027E+03     -2.46990580E+03
     -2.42836722E+02      1.46528229E+01      5.88067944E+02
     -1.70541525E+03      1.49171084E+03     -7.49829792E+01
     -8.58886912E+02     -3.09768734E+03     -8.22991039E+02
      1.49294940E+03      2.28645322E+02     -2.74128817E+03
     -2.01929683E+02      2.78742382E+02      6.20552972E+02
      1.37955226E+03     -1.48649737E+03     -2.14728610E+03
      5.13084055E+02     -8.47351160E+02      2.16585773E+02
     -3.04362036E+02     -2.28099860E+02      4.39959020E+02
      2.41249579E+03      2.13899483E+03     -4.00268305E+01
      7.15524285E+02     -2.03830470E+03      2.03409910E+03
      5.03524110E+02     -4.47712697E+01     -3.29445569E+02
     -2.04520439E+03     -1.36123701E+03      4.07768683E+03
      1.42678088E+03     -1.35250399E+03     -4.12588848E+02
      6.37089058E+02      7.02189063E+01     -1.91160118E+01
      2.55217636E+02     -8.36665787E+02     -2.75302667E+03
      1.40353417E+03      3.52477994E+03      2.06630058E+03
      3.49913039E+02     -1.58702654E+02      8.48690570E+02
     -9.47917632E+02     -2.38226456E+01      1.78707155E+03
     -8.48700689E+02     -8.54998709E+02     -3.81110696E+02
     -2.86880098E+02      3.86505722E+02      6.82321961E+02
     -1.41904626E+03     -1.23711267E+03      2.49708228E+03
     -4.51982846E+03     -1.51584879E+02     -7.61222081E+02
     -5.62514635E+02     -7.12155760E+01     -3.59519008E+02
     -1.09186356E+03     -1.53184532E+03     -2.46139413E+03
      4.99455924E+02     -6.18646406E+02     -4.61253634E+02
     -2.75365843E+00     -4.59859645E+02      2.24397320E+02
     -8.96300672E+02      1.84862224E+03     -1.64794130E+03
     -1.22667051E+03     -1.77900905E+02     -7.92966096E+02
     -4.31763444E+02      2.67638984E+02      7.05736625E+02
      5.84702733E+02     -8.02252722E+02      2.50642712E+03
     -4.32386852E+02     -1.24435962E+03      7.24735695E+02
      2.10808181E+03      1.37527243E+03      2.07182378E+03
     -1.71519271E+02      3.59229547E+02      3.41673604E+02
     -4.92090182E+03      7.90755212E+02     -1.71956729E+02
     -1.68752671E+03      3.22026525E+02     -7.18699819E+01
     -2.20597069E+03      1.03190891E+02      3.61316123E+03
      4.47942784E+01     -4.39613947E+02      3.57462082E+02
      2.79760829E+03      2.39551383E+03     -4.86547777E+02
      1.23426194E+03     -2.36908981E+03      1.92899432E+02
     -6.17555716E+02      4.99022116E+02      5.71996831E+02
      2.17138528E+02      1.38267655E+03      9.78811688E+02
     -1.42957306E+03     -2.32923085E+03     -3.02168172E+01
      5.73138804E+02      2.59354205E+01     -4.77045861E+02
     -3.25520428E+03      1.83720058E+03     -3.91691713E+03
      4.71000337E+02      2.20035229E+02      2.43120353E+02
      4.59710144E+02      5.49543272E+02     -2.87164140E+02
     -1.11834642E+03     -2.87715788E+03      2.43721312E+03
     -9.57656457E+02      6.36767114E+02     -3.22367820E+03
      8.00287045E+02     -6.19435983E+02      2.53805339E+02
     -4.37790761E+01      1.04249356E+02      1.48708337E+03
      1.23567964E+03      1.32919826E+02     -2.72390130E+03
     -4.25497128E+02      5.91811754E+02      2.65767038E+02
     -7.74754251E+02     -9.28178630E+02      5.60917347E+02
      4.40764348E+02      5.44933297E+02     -3.24801657E+03
      7.12504139E+01     -3.44404069E+01      6.49333158E+02
      1.95753393E+02      9.75545423E+02      3.67729195E+03
     -2.33982811E+02      3.76218249E+02     -1.44008481E+03
     -4.01293542E+02     -2.66568031E+02      8.54254466E+02
     -5.33803530E+02      1.54941585E+03      1.09208670E+03
      1.05220133E+03     -2.05284546E+03      8.63861646E+02
      1.57751638E+02      9.17884392E+02      8.00049090E+02
      1.60409589E+03     -3.42544655E+02      9.82651621E+02
      9.24817512E+02      2.02971561E+03     -6.68196827E+02
      4.64420832E+02      1.53734578E+01      2.42644675E+03
     -5.52095076E+02      8.27526368E+01      6.50315940E+02
     -1.13929470E+03      1.74837198E+03     -6.80128546E+02
      2.23556961E+03     -8.99013732E+02      4.43240084E+02
     -1.27425541E+03     -9.65993132E+01      3.01733708E+03
      4.24453087E+02     -2.67191323E+02      5.53001223E+02
      1.08828124E+02     -1.92685945E+03      1.96145973E+02
     -9.44412625E+02      1.24189328E+03      1.74999461E+03
      5.33479479E+02     -1.55381273E+02      5.07972948E+01
     -1.41214180E+03     -2.89370969E+03     -1.72686116E+03
     -4.08199792E+02     -1.30590774E+03      1.24802118E+03
     -1.07753138E+03     -2.75130883E+02      9.31857905E+02
     -8.02637928E+02      1.59504857E+03      1.25099749E+03
      2.22731335E+03     -1.03237274E+03     -2.09169806E+03
      2.77621967E+02      9.46370504E+02      9.54400988E+02
     -3.60017722E+02      1.27455990E+02      1.28263547E+03
      3.27272334E+03     -2.36108681E+03     -1.67052596E+03
     -5.87771253E+02     -1.29679989E+03      1.01027492E+02
      2.36799968E+03      2.59900746E+03      2.69941082E+03
     -5.24557444E+02     -5.42489838E+02     -1.00889641E+01
      1.54906145E+02      3.41828737E+02      3.70665522E+02
     -3.29787009E+02     -1.34589472E+03      4.80641498E+02
      1.03933445E+03      5.46009885E+02     -1.20182684E+02
     -3.26848477E+02      1.10005736E+03      4.02659820E+02
      1.34613224E+03     -2.29380925E+03      2.13884773E+03
      1.03979414E+02      6.48767252E+02     -5.38947150E+02
     -1.99684243E+02     -3.96779220E+02      8.14499734E+02
     -2.47301891E+03     -1.31427788E+03      3.53707628E+02
     -1.49550789E+03     -2.46566064E+02     -4.68847606E+02
      4.52869226E+02     -9.03130461E+01      1.35863521E+02
     -1.98422781E+03      4.64438136E+02     -1.36718989E+03
     -1.80233481E+03      7.24078460E+01     -7.08478010E+02
      2.03819577E+02     -5.30727606E+02      9.46895349E+02
     -9.11550187E+02     -5.54308334E+02      5.08253828E+02
     -1.83778366E+02      3.91904110E+02     -2.32508073E+01
      2.71821175E+01     -2.05626723E+03      1.83435124E+03
      3.32222586E+03      1.47722114E+03      4.03828014E+02
     -1.79961109E+02      4.71368728E+02     -5.72062725E+02
      3.44828509E+03     -8.93034476E+02      1.45160887E+03
      1.46040974E+03      1.42349682E+03     -1.31318685E+03
     -2.21031396E+03      1.28959472E+03     -3.31354645E+04
     -2.35860999E+03      4.85128686E+02     -1.96046494E+02
     -7.10370423E+02      1.90476649E+03     -4.19594560E+02
     -7.35877151E+02     -2.68914697E+02      8.45343771E+01
     -3.31055080E+03     -7.69030613E+02      1.95564352E+03
      3.85665746E+02      7.23777731E+02      1.42339550E+03
      1.70656570E+02      3.77871584E+02      4.67280959E+02
      1.64020670E+03      4.32684907E+02     -1.44501377E+03
      2.42328236E+03     -8.49652143E+02     -1.35969315E+02
      1.20050864E+02     -4.55455333E+02     -6.92901054E+02
     -2.17971759E+03     -2.50091456E+03      1.39143379E+03
      3.13827743E+03      1.97455511E+03     -1.95694721E+02
      7.62205581E+02      2.10298020E+02      7.65270486E+02
     -1.60364057E+03     -8.75069429E+02      1.57493300E+03
      1.57328061E+03     -1.27810532E+03     -5.76931438E+02
     -6.23934853E+02     -8.11706128E+02      3.40569572E+01
      1.08336037E+03     -1.87491438E+03      1.67836896E+03
     -2.74074060E+03      3.45385292E+02      1.96572953E+03
      4.47757746E+02     -3.76364310E+01      3.28081627E+02
     -7.46413824E+02     -8.32457709E+01      1.03468806E+03
     -9.03242907E+02      5.99823049E+02     -6.59322550E+02
     -5.18970318E+02     -5.54147320E+02      5.05391570E+02
      1.51131839E+03     -5.23254712E+02      9.38995666E+02
     -1.10936430E+03      1.69705014E+03     -4.05941457E+02
      1.60457278E+03     -1.57576488E+03     -2.09063375E+03
      4.13143218E+02     -3.88097126E+02      2.74191607E+02
      2.02984430E+02      2.43279117E+03      1.00100084E+03
      1.80583917E+03     -9.03685935E+02      6.02856728E+01
     -1.01630929E+03     -2.59116686E+02     -4.97110807E+02
     -2.37915011E+02      6.10562734E+02     -1.93240401E+02
     -2.60854907E+03     -4.98050009E+02     -2.38053830E+03
     -1.05476600E+03     -4.06923189E+02     -2.09596047E+03
      6.15652327E+02     -4.70779164E+02      2.42029019E+02
      3.63503227E+03      3.32611679E+02     -1.50198342E+02
      2.43302925E+03      2.11649912E+03      5.26137874E+02
     -1.55058627E+02     -2.98344830E+02     -3.55854831E+02
     -6.37972818E+02     -1.19095327E+03      1.79097086E+02
     -5.37345927E+02      1.33228499E+03     -1.52714213E+03
      2.27406858E+02      2.15528670E+01     -3.53416848E+01
     -7.98678642E+02     -3.37192330E+03      2.71984271E+03
      2.44682653E+03      1.47109032E+03     -3.33086554E+02
      1.28355904E+00      3.40110261E+02     -2.41382044E+02
      1.51588448E+02      6.06323841E+02      1.82961265E+03
     -1.37063180E+02     -2.29574494E+03     -3.26747992E+03
      8.59766338E+01      1.11794746E+02     -4.64826440E+02
     -1.16249479E+02     -4.87376923E+02     -8.46434435E+02
     -3.55296029E+03     -3.88338790E+03     -1.67502165E+03
      2.37674026E+02      4.56599585E+02      2.48876882E+02
      1.26176643E+03      2.10481839E+03     -1.05407346E+03
     -7.01527541E+02     -2.63201884E+03      2.45784959E+03
      2.05335220E+02      1.42696542E+03     -9.23073006E+01
     -1.00755645E+03     -6.09533141E+02     -2.34660310E+03
     -2.45415605E+03      2.84865947E+03     -5.90356575E+02
      1.30201265E+02      1.15713730E+02     -5.76205442E+02
     -1.38778217E+02     -8.89421162E+02      7.78071131E+01
      3.71716176E+02      3.92632247E+01      1.46134324E+03
      5.26892543E+02      1.97149872E+03      2.25944649E+03
     -7.55526947E+02      1.92366011E+02      6.58481540E+02
     -6.09158371E+02     -3.52242273E+02      1.50144905E+03
      1.03002625E+03      2.35022243E+03     -9.64801961E+02
     -4.05148040E+03      1.56600521E+02      1.84527726E+03
      1.85460551E+02     -5.89157570E+01     -1.59027153E+02
      4.04998125E+02     -2.52245952E+03     -1.21851904E+03
     -1.35336416E+03      2.24309329E+03     -2.72802612E+02
      2.04783261E+02      1.34872129E+02      5.20650682E+02
     -3.73283366E+01      8.13449846E+02      5.07516535E+02
     -1.10298003E+03     -1.25273707E+03     -1.54959329E+03
      1.65278446E+02      1.53927009E+02      3.25659631E+02
     -9.94370585E+02      2.88000035E+03      1.18559341E+03
      1.43016289E+03     -2.53448929E+03      1.66756564E+03
      1.90749711E+02     -5.52871901E+02      7.54926562E+02
     -1.53805690E+03     -2.76849961E+03      1.16664954E+03
      3.56357058E+03      2.62343493E+03     -1.51684180E+02
     -2.60360952E+02      4.27705995E+01      9.56297759E+02
     -9.57610990E+02      3.82435891E+03      1.21801394E+03
     -6.85712397E+02     -3.96138798E+01      6.29158148E+02
      5.17285615E+01     -1.27156271E+02      4.31838273E+02
      4.62705598E+02     -1.05247183E+03      1.34235881E+03
     -1.72595472E+02      1.03211102E+03      8.99731621E+02
     -5.77482269E+02     -2.91876834E+01      4.25649610E+02
     -3.99945184E+03      1.91041842E+03      1.03797652E+02
      6.30532297E+02      1.29569715E+03     -1.80507724E+03
      3.09967687E+02     -2.01046706E+02     -1.60528038E+01
     -2.96137417E+02      4.64345498E+02      3.54812808E+03
      4.38066314E+03     -9.90872983E+02     -9.57450516E+02
     -2.25011162E+02     -7.57185618E+02      1.14574962E+03
     -4.60802966E+02      3.37862947E+03     -3.03664750E+02
     -2.95453044E+02      2.44796537E+03      6.11295582E+02
      1.47173197E+03      1.30149927E+03      5.21190318E+02
      6.45325725E+02     -4.34463707E+00      9.82110815E+02
     -6.29015418E+02     -7.51487909E+01     -5.41998385E+02
     -3.44190884E+02     -1.96760706E+02      1.77506591E+03
      2.83999987E+03     -2.90198406E+03      1.78166235E+03
      5.43010809E+02     -6.14203027E+02      1.09593735E+03
     -9.82716297E+02     -2.65218763E+03      8.85137386E+02
     -6.92422633E+02      2.17955105E+02     -1.10723604E+03
      1.20369581E+02      4.42542483E+02     -1.85593414E+02
     -2.99222827E+03     -2.10273807E+03      4.88504787E+01
     -2.71086841E+02      9.91837862E+02      2.62762224E+03
      1.58005921E+02      5.87366108E+02      4.53833177E+02
      3.34272653E+03     -3.61470404E+02      8.47906753E+02
      2.61894674E+03     -1.70838988E+03     -5.08458707E+02
     -3.10469365E+02      9.63924691E+01     -2.29520137E+00
      5.18730897E+02      1.13847578E+03      1.80825954E+03
      3.60779045E+02      4.45516587E+02     -9.87426101E+02
      1.00703638E+02      7.13623072E+00      1.91949727E+01
     -4.38669458E+02      3.47716580E+02     -1.27079177E+03
     -1.13828283E+03     -7.41674535E+02      1.67237227E+03
     -3.63319038E+02      2.28266687E+02     -1.07645917E+02
      2.63203869E+03      1.91452348E+03     -3.83857104E+03
     -3.21867925E+03      9.69068277E+02     -1.36090687E+03
      6.28846717E+02      1.62901736E+02      4.40238008E+01
      6.24243947E+02      1.96203039E+02      3.35716086E+02
      3.80924612E+01      1.49815735E+03      2.58130126E+02
     -2.03465878E+02      3.37091661E+02     -1.21703526E+02
      2.38279506E+03      1.34117335E+03     -3.24060552E+03
      3.04789054E+02      1.60096050E+03     -1.28123777E+03
      4.12676991E+02     -1.24357633E+03      4.05434548E+02
      1.03920016E+03     -1.38458293E+03      1.26713841E+03
      2.36309670E+03     -1.95492302E+03     -3.11911957E+02
     -9.76692374E+02     -7.58954297E+02     -1.79025792E+02
     -9.01903484E+01      1.52403882E+02      3.22641576E+02
     -3.33934011E+02      5.63858867E+02     -1.23612110E+03
      1.33635837E+03      5.36298882E+02     -4.09733237E+02
      3.02917555E+02     -2.01159852E+03      2.30747164E+03
     -1.06275801E+02     -3.11160505E+02     -5.49016266E+01
      6.90672599E+02      7.97300047E+02     -1.72713986E+03
     -5.98965223E+02     -1.73053035E+03      1.75268718E+03
      4.56075893E+02     -4.04739795E+02      3.41241438E+02
     -2.72699258E+02     -2.95344997E+02     -6.90907488E+02
      8.41212321E+02     -2.86357938E+02      1.17229435E+03
      6.06859708E+02     -7.89872002E+02     -3.94761713E+01
     -9.98427098E+02     -3.68702120E+02      3.09950260E+03
      8.66659648E+02      1.52114180E+02      8.26934491E+02
      2.57890793E+01     -8.98438024E+02      6.96149025E+02
      4.79554885E+02     -6.53619041E+02      1.77372118E+03
     -6.91594312E+02      1.28978814E+03     -8.62397688E+01
      2.14074449E+02     -1.80795240E+02      8.05061980E+02
     -2.26575934E+01     -1.20748478E+03      1.16381939E+03
      8.12164238E+01     -2.72997961E+02     -6.62521536E+02
      3.90584723E+02      1.23608461E+02      3.21006399E+02
     -7.24803558E+02     -6.20480402E+02      1.12932121E+03
      1.20551604E+02      1.29950531E+03     -2.88131627E+02
      1.31835474E+02      1.18248355E+02     -1.57882303E+02
     -1.87900267E+03      7.91133295E+01      1.05450023E+02
     -5.23674904E+02     -4.81744022E+02      4.61078582E+02
     -4.55539366E+01      9.50112759E+02      1.49627681E+02
      2.56420988E+03     -2.75490192E+02      2.10133353E+03
      2.25577795E+03     -9.01215925E+02     -4.57718446E+02
      9.30000992E+02     -3.91945480E+02      3.49371936E+02
     -2.31072942E+02      2.08794468E+03     -1.19943421E+03
     -1.12609093E+03     -1.30234835E+03      1.30873392E+03
     -1.00495426E+03     -1.83031218E+02     -8.94210723E+02
      5.61023886E+02      4.43955830E+02      1.00130123E+02
     -1.99008502E+03     -1.93559674E+03      2.76594548E+02
      1.43483331E+02     -3.48284424E+03     -1.06730475E+03
     -1.34041432E+03     -1.36319403E+03      1.75036187E+03
     -3.59641327E+02      6.67820043E+02      1.22744756E+03
     -8.60771317E+02      3.45199152E+02      7.95622905E+02
      7.48236082E+02      1.51959275E+03      6.50157128E+02
      4.83264535E+02      7.38569557E+02      7.02004231E+01
     -1.35791705E+03      5.91606693E+02      2.72495514E+03
      3.20945933E+03      8.66697984E+02      4.35948325E+02
     -5.87802865E+02     -9.30248096E+01      3.93138232E+02
     -2.19847199E+02     -1.02043825E+03      1.15026284E+03
      1.33214604E+03      1.22655688E+03     -8.36209006E+02
     -5.41006570E+01      3.06258989E+02     -1.45887261E+02
      3.93956820E+02     -1.33691057E+03     -2.33553813E+03
      1.09558900E+03      2.07913627E+02      5.97438580E+02
     -4.91581325E+01     -4.72638179E+02      8.57500121E+01
     -3.18744583E+02      2.99307142E+01      3.77268783E+03
     -3.75957022E+02     -9.98969923E+02     -6.86495227E+02
     -4.96394340E+01     -2.11536828E+02      4.63872441E+02
     -7.16771257E+02      2.25469493E+03     -1.34949646E+03
     -2.46739507E+03      2.23263118E+03      3.10156801E+03
     -1.36908108E+02     -7.15305720E+02     -7.18147426E+02
     -9.91940080E+02     -7.74056825E+02      8.62844624E+02
     -7.26793563E+02     -1.28428040E+03      8.16134546E+02
      4.14107828E+02     -1.83105592E+02      5.78409333E+02
      8.28442009E+02      3.19150650E+03      9.98742981E+02
     -9.66191319E+02     -3.66609948E+03      1.67711125E+03
      2.66637568E+02      7.66018635E+02      4.87060067E+02
      5.87918189E+02      1.17863840E+03      3.45052913E+02
      2.96329294E+03     -1.72016442E+03      1.45668780E+03
      1.41881782E+03      8.04941200E+02     -9.16490501E+02
     -9.68255546E+01     -4.92918108E+02     -7.03218974E+02
     -2.23333178E+03     -2.00419490E+03      1.20872465E+03
     -4.80503273E+02      1.92283125E+03      5.78354357E+02
     -2.57705174E+03      2.84891616E+03      2.83452985E+03
  }
}

Hamiltonian = DFTB {
  SCC = Yes
  SCCTolerance = 1e-6
  MaxSCCIterations = 200
  ForceEvaluation = Dynamics
  MaxAngularMomentum = {
    C = "p"
    H = "s"
  }
  Charge = 0.0
  SpinPolarisation = {}
  Eigensolver = Standard {}
  Filling = Fermi {
    Temperature [Kelvin] = 300.0
  }
  SlaterKosterFiles = Type2FileNames {
    Prefix = "../../pbc-0-3/"
    Separator = "-"
    Suffix = ".skf"
    LowerCaseTypeName = No
  }
  KPointsAndWeights = {
    0.0000000000000 0.0000000000000 0.0000000000000 1.00000000000000
  }
  Dispersion = LennardJones { 
    Parameters = UFFParameters {}
  }
}

ParserOptions = {
  ParserVersion = 3
}
