Geometry = GenFormat {
<<< "system.gen"
}

Driver = VelocityVerlet{
  Steps = 100000
  TimeStep [fs] = 0.2
  MDRestartFrequency = 5
  Thermostat = None {
    #InitialTemperature [Kelvin] = 300.0
  }
  Xlbomd{ 
    IntegrationSteps = 6 
    MinSccIterations = 2
    MaxSccIterations = 200
    SccTolerance = 1e-6 
  }
  Velocities [m/s] {
     -4.64268555E+03     -1.71037593E+04      2.06088197E+03
     -1.09123900E+03     -5.61175876E+02     -3.38989243E+02
      1.65852713E+03      2.01536084E+03     -1.30923889E+02
      4.18630499E+01     -4.95516946E+02      7.93283155E+02
     -2.36768693E+02     -2.02071437E+03      6.67885586E+02
      4.09711085E+03     -2.06368740E+03     -1.96097791E+03
     -4.16993089E+01      4.46738814E+02      9.72610175E+01
     -1.26117166E+03     -2.70026010E+03     -1.88520744E+02
     -1.48471108E+03      1.06591027E+03     -1.67325496E+03
      1.00236523E+03      2.06780876E+02     -1.37246365E+02
      1.08102009E+03      1.20092613E+03      3.52906839E+02
     -1.10967708E+03     -4.12536188E+02      5.35625890E+02
      2.45201932E+02     -1.41317015E+02     -6.23535890E+02
     -1.87701529E+03     -8.62317790E+02      4.61092392E+02
      2.46436430E+03      8.86149559E+02     -7.14533244E+02
     -4.11999150E+02      6.22018823E+02      7.10956447E+02
     -4.89793849E+01     -3.17818462E+02      6.29413959E+02
     -1.74928502E+03      2.89952588E+03     -1.42185601E+03
     -2.05080329E+02     -7.94795561E-02      7.27325365E+02
     -2.67368228E+02      1.18200960E+03     -1.04180600E+02
      2.42864973E+03      5.31710245E+02      5.20654415E+02
     -5.74857261E+02      3.81728061E+02     -2.01090065E+00
     -1.46708627E+03     -1.31159330E+03      8.77694894E+02
      3.30882829E+03     -9.81569758E+02     -1.87321927E+03
      4.93217998E+02     -7.62813873E+02      3.36873524E+02
      7.87880865E+01     -1.01378083E+02      7.48243375E+01
     -1.25146828E+03      3.80557807E+02      1.17827166E+03
     -3.54519086E+03     -9.50214126E+01     -8.70788259E+02
      3.95326867E+02     -4.14857735E+02     -2.16632912E+02
      1.68608203E+03     -1.49986650E+03      3.29334581E+03
     -2.02068401E+03      1.22560692E+03      2.49987891E+03
     -8.18154236E+02      2.61026303E+03      2.96065521E+03
     -4.25752342E+02     -6.73810956E+02     -3.34645358E+02
      4.04066785E+02      1.17930301E+03      1.63254393E+02
     -5.94925798E+02     -5.80027953E+02     -1.72105551E+03
      3.33291883E+02     -1.75646238E+02     -5.69572528E+02
     -1.74395034E+03      5.91006519E+02      6.19342307E+02
     -1.38276817E+03      7.77591341E+02      7.66493482E+02
      5.17308544E+02      5.85337337E+02      4.96699804E+02
      2.65969311E+01      1.12578591E+03     -8.98184305E+02
      6.37510693E+02      2.07710633E+03     -2.17537607E+03
      4.27242839E+02      2.95506944E+02     -2.04520657E+01
      1.37535435E+03     -1.68634081E+03      7.54306073E+02
      8.53355628E+02     -9.44556115E+02     -1.07216047E+03
     -3.02759196E+02     -3.64813647E+02      1.75949470E+02
     -3.29072233E+03      2.61104900E+03      2.46087838E+03
      1.78871854E+03     -2.54275401E+03      1.09602008E+03
     -1.65226796E+02     -3.60217626E+02     -7.99727975E+01
     -6.49049708E+02     -1.31138085E+03     -2.41715112E+03
      1.83018879E+03      1.72731153E+02     -5.20234557E+02
     -3.46367627E+02      3.29266873E+02     -5.63181207E+02
     -5.82517668E+01     -3.68712622E+03      2.60955968E+03
     -5.61378533E+02      1.34532485E+03      1.21816120E+03
      6.96277532E+01      9.41391225E+02      3.53152022E+02
     -4.99710026E+02      1.17337428E+02      7.66398395E+02
     -3.21506797E+02      1.76865270E+03      3.12098109E+02
      5.11692518E+02      8.40128226E+02     -4.35943727E+02
     -2.80983169E+03     -6.88593516E+02     -1.72203039E+03
      1.22766426E+03     -2.79079412E+03      1.00765953E+03
      5.58269689E+02     -2.24292200E+03     -7.26038442E+01
      6.93501105E+01     -1.28965824E+02     -7.48220951E+02
     -1.52775989E+03      1.84039035E+03     -2.12157015E+03
      1.38350972E+03     -2.23894561E+03     -3.60827912E+02
     -4.39122651E+02      5.33406405E+02      5.34844923E+02
     -5.37974575E+02      4.96478239E+02      5.19498464E+02
      7.08749873E+02     -1.14049245E+03     -1.17395707E+03
      1.13357042E+02     -2.02778743E+02      3.21198768E+02
     -3.02008228E+02      4.90633920E+02     -1.86608993E+02
      2.30106231E+03      9.81644932E+02      2.14210432E+03
      1.77883791E+03      1.06224927E+02      1.70151799E+03
      6.77388483E+02      7.56728919E+02      1.27264380E+02
      1.21321316E+02      1.86033048E+03      2.26252686E+03
     -8.75174927E+02      1.39316329E+03     -5.03837227E+02
      5.13844619E+02     -1.25489747E+03     -5.04952322E+02
     -3.56441087E+03      6.63566575E+02      1.38899714E+02
      1.10531127E+03     -2.37180270E+03     -1.13183388E+03
     -6.61519739E+02     -3.11669147E+02     -5.63079133E+02
     -3.61205727E+03      1.94884024E+03      5.70354596E+02
     -8.58005394E+02     -1.76794934E+03      2.70096674E+03
      1.02343061E+02     -1.41900460E+02     -3.05695148E+02
      1.22553498E+03      7.93895995E+01     -1.77336186E+03
     -1.53970479E+03      5.61517988E+02     -2.35259539E+03
     -9.50883078E+01      3.23930206E+02      3.87897913E+02
     -2.25745832E+02      1.46348744E+03      1.59620609E+03
      6.72012023E+01     -4.71596616E+02      1.13436604E+03
     -3.10837906E+02      8.99950641E+02     -7.31682902E+02
     -2.64009446E+02     -2.37697346E+02      6.08383575E+02
      2.72686761E+01     -1.34210158E+03     -6.19952581E+02
      6.07739261E+02      3.94674014E+02      1.50862902E+02
     -7.64789298E+02      4.61869863E+02      1.57106134E+03
     -1.68925992E+03     -2.97432674E+02     -4.53048875E+02
      1.27914166E+03     -2.78981772E+03     -7.30513050E+02
      1.04724814E+02     -3.96876915E+02      2.42163592E+02
     -2.62442024E+03      8.59402781E+02      5.08706099E+01
      4.13323374E+02      2.84869553E+03     -5.23710210E+02
      2.18886733E+02      1.55220764E+03      1.64366034E+03
      7.79823224E+02      6.27418085E+01     -2.44589575E+02
     -5.53457033E+02     -1.99258149E+03     -8.69105518E+02
      9.32386287E+01      8.36522802E+01     -4.60130717E+02
      1.11384987E+02      4.29739092E+02      4.39128144E+02
      6.92358525E+02      2.43422690E+02     -1.63074539E+03
     -1.95867285E+03     -1.66626852E+03     -1.13550234E+03
      2.91580416E+02      7.85296754E+02     -5.51811485E+01
     -2.87106649E+03     -2.05758888E+03     -1.18986407E+03
     -1.06539444E+03      2.31344885E+03      1.30399069E+01
      1.18703093E+02      2.42125565E+02      1.38903159E+03
     -6.04859925E+02     -2.53209562E+03     -1.42122392E+03
      1.40835423E+03      1.08485689E+03     -5.00962718E+02
      5.62246264E+02     -2.65495665E+02      6.73512612E+02
      1.52475805E+02     -1.85904458E+03      2.76022485E+03
     -7.26363564E+02      1.77792079E+03      2.63724744E+03
      6.67622986E+02     -7.42384873E+01     -1.46644783E+02
     -1.68105123E+03     -1.27852430E+03     -1.23929542E+03
     -3.55326218E+02      1.81622343E+03      3.03825315E+02
     -6.16841665E+02      3.15284948E+02      5.81162981E+02
     -1.35350546E+03     -1.31461362E+03      1.00586788E+03
      1.37168413E+03      2.61464947E+03     -9.63913407E+02
      7.12242393E+02      2.72202365E+02      1.55538473E+02
      9.04793390E+02      1.45793540E+02      2.27110724E+03
      2.05294606E+03      2.06382804E+03      7.72713160E+02
      4.16418592E+01      1.38678835E+02     -1.64436184E+02
      2.55054474E+03     -1.99920874E+03      2.00786237E+02
      1.27487756E+03     -1.09972815E+03     -5.71957866E+02
      2.25663348E+03      1.54604516E+03      1.00651088E+03
     -4.03344729E+02     -4.47018708E+02      1.78739667E+02
     -6.20315995E+02     -1.12305645E+03     -1.95147840E+03
      1.51591273E+03     -8.60096731E+02     -1.01190404E+03
      6.61542486E+02     -2.82919159E+02      7.48787454E+02
      6.41014944E+02      1.43888871E+02     -3.70999312E+02
      1.41187877E+03      6.51177584E+02     -4.40041258E+01
     -1.22854909E+03      4.26841054E+02     -4.05412003E+01
      2.11343115E+02     -2.85472316E+02     -6.30230797E+02
      2.93088269E+02      2.92142142E+03      7.78221826E+02
     -6.06488264E+02     -8.33652460E+02      1.28799814E+03
     -6.31757634E+01      4.44265144E+02     -5.46910108E+02
      2.37400903E+03     -4.19275643E+02      1.31836859E+03
     -3.21735989E+02     -1.94231675E+03     -2.30962272E+02
      1.05777595E+03      1.79297125E+02     -6.33910402E+02
     -2.97191146E+03     -1.38366187E+03      5.67392101E+01
     -5.05416727E+02      7.93259318E+01      1.60544823E+03
      3.23599666E+02     -9.69668072E+01     -4.45442089E+02
     -3.12367743E+02      7.88875546E+02      1.83251776E+02
      2.63979690E+03     -1.07767688E+02      2.21665950E+02
      4.86570637E+01     -2.93186729E+02     -3.84707253E+02
     -1.35570872E+02      1.95340943E+03      2.44333356E+03
     -1.29965247E+03      8.47860578E+01     -4.11881387E+02
     -3.31019654E+02     -9.87417509E+01     -4.17877786E+02
      1.43868702E+02      1.81939469E+01     -1.54836797E+03
     -1.28737256E+03      2.13173877E+02      5.93845840E+02
     -9.74526743E+01      3.27698550E+02     -3.42021722E+02
     -1.08354013E+03      2.37684418E+03      6.28565729E+02
      3.69709595E+02      1.01944941E+03     -5.39628009E+02
      1.81246078E+02     -6.96861459E+02     -1.15166545E+02
      1.58406797E+03      2.48437721E+03     -1.03738927E+03
      2.12911028E+03      6.03956948E+02     -1.52187759E+03
     -3.39239511E+03     -1.08937558E+03      1.36071092E+02
      8.89497709E+01      2.63746251E+02      6.56653664E+01
     -5.44571297E+02     -2.77959136E+02      6.27933387E+02
     -8.74857508E+02      2.44574562E+02     -3.36533604E+03
     -2.53388899E+02      2.58174296E+03     -1.51828881E+03
     -2.21328323E+02      3.20424794E+02      1.69271744E+02
      2.37933473E+03     -1.43784088E+03     -4.09516449E+02
     -7.08342987E+02     -1.55102012E+03     -8.00220631E+00
     -5.01595523E+02      5.92908831E+02      5.22511369E+02
     -7.92780152E+02      1.37608509E+03      2.34463753E+03
     -1.54871054E+03     -1.88791000E+03      9.17810405E+01
      3.91125389E+02      2.62982756E+02     -1.91199949E+02
      5.10544549E+02     -1.48475698E+03      1.87449207E+03
      9.86771811E+02     -2.08379495E+03      1.23984284E+03
     -5.40379819E+02     -2.41943932E+02      9.54369071E+01
     -6.67519026E+01      4.42257063E+02     -1.46514471E+03
     -2.14762625E+03     -3.01302195E+03     -8.55839252E+02
     -1.36421173E+02      8.20358106E+01     -4.23796192E+02
      1.26963875E+03     -8.17529312E+02      2.15476260E+03
      6.66747024E+02      4.76234537E+02     -5.35235409E+02
      4.71284080E+02     -1.77147120E+02     -1.20949528E+02
      7.47686888E+01     -1.18372428E+03     -1.20659794E+03
      2.46871828E+03      1.83233867E+03     -1.69339395E+03
     -1.44225740E+01      1.41359342E+02     -2.37295681E+01
     -1.34397057E+03     -2.18808460E+00     -2.63249432E+03
      2.78161859E+03     -2.64406955E+02     -2.20739084E+03
     -3.66022472E+02      5.00118513E+02     -1.72774454E+02
     -4.93937990E+03      1.31145940E+03     -1.36623804E+03
     -1.96129476E+02     -2.35947984E+03     -1.09715284E+03
      6.33055712E+02      1.85255973E+02      2.14143333E+02
      9.62729399E+02      1.54407611E+03     -1.48544652E+02
     -3.95594464E+02     -1.25694570E+02      1.63828862E+03
     -1.27288218E+03      1.69707426E+03      2.38202135E+03
     -9.93715660E+01      3.16042278E+02     -5.74963653E+02
     -8.98477725E+02     -1.35299358E+02     -8.08299012E+02
     -2.84973811E+02      2.17415154E+03      1.32706027E+03
      8.32981582E+02     -3.76056510E+03     -1.12318983E+03
      5.20345676E+02     -1.07339042E+02      7.10447104E+02
      2.17698483E+03      1.84077893E+03      8.20034963E+02
      1.75911692E+03      3.30041678E+02      2.41154772E+03
      2.19518689E+02      7.05615043E+02      2.29270330E+02
     -6.06074083E+02      2.52185447E+03      2.99540075E+03
      1.04752879E+03      1.39572674E+03     -2.27776089E+03
     -6.61670813E+02      1.06332289E+03     -4.05598940E+02
     -1.35109929E+03      5.00578933E+02     -3.94756639E+02
     -1.04300313E+03     -1.19514487E+02      1.30703261E+03
      4.59707999E+02      3.37535394E+02      2.88036457E+02
      1.37172569E+03      1.65267352E+03      1.21106399E+03
     -1.93037851E+03     -6.21081784E+02      1.81244800E+03
      6.61086936E+01      3.81397394E+02      5.51414741E+01
     -2.70240343E+03      3.84925270E+02     -6.54197372E+02
      2.21017070E+03      2.69689978E+03     -5.23741021E+02
      5.81526549E+01      2.29509238E+02      1.72526909E+02
     -1.78501280E+03      3.32617256E+03      9.55796262E+01
      1.83822586E+03      1.62771945E+03     -2.15001522E+03
     -4.69956023E+01      5.02163549E+01      2.84508459E+02
     -1.46000254E+02      1.46286239E+03     -1.01380606E+03
     -6.49446077E+02      2.87054432E+03      5.49220873E+02
     -4.77453463E+02      1.56473668E+02      4.42442052E+01
      7.41649276E+02     -2.33816412E+03     -1.90480993E+03
      5.80861228E+02     -1.01872214E+03     -1.80246237E+03
      9.78820620E+02      3.79218655E+02      4.62448470E+02
     -1.12535626E+03     -3.49184720E+02      2.12080579E+03
      2.63740013E+03      8.11319963E+01     -7.86757708E+01
      1.02589807E+03     -7.88103854E+02      1.94106411E+03
      8.79727123E+01      4.10885543E+02      1.27157847E+02
     -9.43770296E+02     -1.19321694E+03     -7.18949298E+02
      1.36555324E+03     -7.36146962E+02      7.58337452E+02
     -2.18009628E+03     -1.40293798E+03      4.69786857E+02
      8.02377162E+02     -1.48215980E+02     -7.59835871E+02
      1.90353053E+03      2.86384560E+03     -4.91073731E+02
      1.75180008E+03     -4.01116044E+02     -2.28344340E+02
      2.55830140E+02      6.97255709E+01      2.02933804E+02
     -4.74019400E+02     -7.84989911E+02     -7.44481469E+02
      1.58114592E+03      3.53614329E+03     -1.83596362E+02
     -1.83864670E+02     -3.62308468E+02     -5.09978027E+02
     -1.11548908E+03     -1.69214853E+03     -5.06067846E+03
     -5.74903164E+02      6.88332789E+02      1.26915890E+03
     -4.08373926E+01     -5.44787238E+02     -1.95456108E+02
     -3.44200341E+03      4.67913179E+02     -1.55874370E+03
     -7.76232986E+02     -7.36331732E+01      1.09119837E+03
     -2.05034443E+02      3.54508245E+02     -2.41791830E+02
     -1.73353162E+03      3.28786632E+02      1.60733000E+03
     -2.67977499E+03      4.45994146E+02      2.75075668E+03
      1.09129961E+03     -6.55088658E+02      3.71702846E+02
      1.52416870E+03     -2.80063518E+02     -5.50545230E+02
      1.33418350E+02      1.26606585E+01     -1.03234754E+03
     -6.60865212E+01      1.62327428E+02      1.15407166E+02
      2.08451113E+03      3.01704755E+03     -3.79897854E+02
      1.51298373E+03     -2.27836219E+03      8.13749399E+02
      3.70085800E+02      4.39877012E+02     -1.34028002E+02
      2.28051723E+03      1.33195574E+03      1.42813236E+03
     -1.27225106E+02     -1.58236106E+03     -8.75671500E+02
     -1.48727777E+02      1.85896659E+02     -4.75487317E+02
      5.04583644E+02      3.39638908E+03      9.74476026E+02
     -2.38470528E+02      1.74477296E+03     -8.34334439E+02
     -8.01999690E+02      5.54136801E+02     -1.33535581E+03
      1.01714761E+02     -1.78925033E+02     -4.15179392E+02
      4.18959969E+03      2.96957423E+03     -6.22389268E+03
     -3.24485253E+03     -9.80059857E+02      7.48896754E+02
     -7.87070974E+02     -1.48121551E+02     -5.86670606E+02
      3.96990094E+01      6.90566980E+02      4.08413439E+02
      9.13819315E+02      2.79502659E+03     -2.75500677E+02
      7.40491190E+02      1.13516179E+02      7.16466225E+02
     -6.33068945E+02      3.48747353E+02      5.67178143E+02
      1.63706472E+03      1.40149323E+02     -2.58328816E+03
     -2.60884868E+03     -3.46829976E+03     -8.54566953E+02
     -5.23947979E+02      2.42366238E+02     -4.51086085E+02
      5.36891979E+02     -7.12393091E+02     -1.68972254E+03
      1.92333516E+03     -1.01906909E+03     -2.71385635E+02
      1.51754183E+02     -4.01818634E+01      1.16874384E+02
     -6.43750922E+02     -5.44513273E+02      1.89015626E+03
      2.43638466E+03     -2.05400378E+03     -1.13827746E+02
      8.93259426E+02      3.60917485E+02     -6.72365069E+02
      1.12958207E+01      9.84244260E+02      1.01214384E+03
     -1.17082667E+03     -8.00029408E+02      9.45873466E+02
      1.11656971E+03      1.72115775E+02     -1.15532463E+03
     -3.76876540E+03      6.21873579E+02      6.34351218E+02
     -6.59631453E+02      5.49945928E+02      2.37681121E+03
     -4.98424826E+02      4.46600196E+02      1.21003619E+02
     -1.05246374E+03     -5.47912165E+02      2.32081059E+01
     -1.98638924E+02     -7.25798199E+02     -1.18670332E+01
     -4.35552055E+02      5.07904537E+02     -1.94712468E+02
      6.98893130E+02      7.34848624E+02      1.12034376E+03
     -1.81703221E+03      6.70634924E+01      3.59882609E+02
     -4.67570092E+02      1.54611048E+02      1.04385093E+03
     -3.11918172E+02     -2.06661607E+03     -1.03135108E+03
      6.14719566E+02      1.75393369E+03      1.61950890E+01
      7.34727466E+02      1.28233315E+03      1.71810443E+03
     -4.13623243E+02      3.05838957E+02     -8.27294380E+02
     -2.20672788E+03      1.29352020E+03      2.07500896E+03
      2.47442421E+02      2.81303217E+02      1.83246728E+02
     -3.50656640E+02     -1.50853358E+03      3.90886158E+03
     -2.45613246E+02      3.00385287E+02      9.02877280E+01
      2.80292047E+03      1.06443163E+03      1.88499515E+03
     -2.64343559E+03     -1.53690974E+03     -1.69909774E+03
     -7.10609988E+02     -4.27511178E+02      9.55164430E+01
      6.93264348E+02      9.46714674E+02      9.41591794E+02
      1.13913671E+03      1.53113936E+03     -2.02710233E+02
      4.63424252E+02      5.09166967E+02     -7.00272986E+01
      4.63759701E+02      2.59567556E+03     -2.74545723E+03
     -1.37226168E+03     -8.59661818E+01      9.14660224E+02
     -1.23206396E+02     -2.86670353E+02      3.30489238E+02
     -1.06442194E+03      1.14729325E+03      2.46037563E+03
     -6.95186600E+01      2.14032961E+03      2.16331794E+03
      3.79266636E+02      8.19380951E+01      3.59585679E+02
     -6.73338340E+02      7.82194396E+02     -1.64741879E+03
      2.05009712E+03      1.73773898E+03     -1.79920690E+03
      2.44963385E+02     -8.29637546E+01     -8.85607664E+02
      3.40091053E+03      9.58927376E+02     -1.38905697E+03
     -1.91749499E+03      3.08696278E+03     -1.85926509E+02
     -2.39168321E+02      3.93529319E+02     -2.59987295E+02
     -1.41271415E+03      1.25924811E+03      1.26832955E+03
     -3.23437675E+03      1.48695589E+03      2.04736158E+02
     -9.40879816E+02     -7.29547313E+02     -4.83500353E+02
      9.50662060E+02      1.85323984E+03     -5.78950946E+01
      2.00015032E+03      9.96764375E+02      4.03535384E+03
      3.33993987E+01     -2.89079766E+02      6.23890531E+02
     -3.77083885E+02     -4.48480593E+02     -2.32036365E+03
      6.12008733E+02      1.29559092E+02     -8.49542002E+02
     -2.60093969E+03      2.01162607E+01     -1.71271483E+02
      1.44737503E+02      1.94988924E+01      4.08045638E+02
     -3.22398804E+03     -1.22809186E+03     -3.01633177E+03
      8.59655640E+02      1.66721117E+03     -1.08677371E+03
      4.92687978E+01      1.34884517E+02      3.12498422E+03
     -2.86384203E+02      1.36990735E+02     -6.53046874E+01
      1.16946396E+03     -6.06619018E+02     -9.68086403E+02
     -3.31668451E+02     -2.32910673E+03     -1.49224848E+03
      4.01272858E+02     -2.39678180E+02      3.04064664E+02
     -5.87090334E+02     -5.08456493E+02      1.61879441E+02
      6.46327093E+02      6.94789026E+02      9.11606762E+02
      1.57811847E+02      9.59878828E+01      9.30378557E+01
     -2.17796308E+03      9.38236690E+02      1.88034083E+03
      1.42403944E+03     -1.64277023E+03     -2.73817650E+03
     -3.05958697E+02      7.73689147E+00     -3.16210812E+01
      1.68995720E+03     -1.18346561E+03      8.42482170E+02
      1.32921375E+02     -1.37475042E+03      1.46181183E+03
     -6.20278359E+02     -4.79336423E+02      3.15127805E+02
     -1.21878835E+03      1.01998114E+03      4.68046704E+02
     -2.74238163E+03     -4.66743680E+01     -4.17083477E+01
      8.99553980E+02      1.38038875E+03     -4.98673010E+01
     -2.57696433E+03      3.50201643E+02     -3.46021568E+03
     -1.88334165E+03      9.07439596E+02     -7.83713120E+01
      3.00569680E+02      8.04882922E+02      6.31633142E+02
     -3.90553868E+02     -1.37356010E+03     -1.10282125E+03
      9.41561586E+02      4.67706940E+02      4.63322216E+01
      9.25660847E+01     -3.40706501E+01     -1.13004002E+02
      2.32877766E+03      8.48302029E+02     -1.08815892E+03
      7.33037658E+02      2.40349413E+03      2.91411754E+02
     -4.62362038E+02      4.04633393E+02     -5.47941872E+02
     -7.86041150E+02      1.57010858E+03     -1.44232890E+03
     -1.97532378E+03     -1.90222919E+03      9.13959749E+02
     -2.28152962E+03      1.19511697E+03      5.17082251E+02
     -4.98436098E+02      7.39243949E+02      1.84460643E+01
     -9.18335325E+00     -1.77781543E+02      9.26734369E+02
     -3.35513788E+02     -3.90701681E+02     -1.20521252E+03
      1.26376794E+03     -3.65362348E+03      1.13485547E+03
  }
}

Hamiltonian = DFTB {
  SCC = Yes
  SCCTolerance = 1e-6
  MaxSCCIterations = 200
  ForceEvaluation = Dynamics
  MaxAngularMomentum = {
    C = "p"
    H = "s"
  }
  Charge = 0.0
  SpinPolarisation = {}
  Eigensolver = Standard {}
  Filling = Fermi {
    Temperature [Kelvin] = 300.0
  }
  SlaterKosterFiles = Type2FileNames {
    Prefix = "../../pbc-0-3/"
    Separator = "-"
    Suffix = ".skf"
    LowerCaseTypeName = No
  }
  KPointsAndWeights = {
    0.0000000000000 0.0000000000000 0.0000000000000 1.00000000000000
  }
  Dispersion = LennardJones { 
    Parameters = UFFParameters {}
  }
}

ParserOptions = {
  ParserVersion = 3
}
