Geometry = GenFormat {
<<< "system.gen"
}

Driver = VelocityVerlet{
  Steps = 50000
  TimeStep [fs] = 0.2
  MDRestartFrequency = 25
  Thermostat = None {
    #InitialTemperature [Kelvin] = 300.0
  }
  Xlbomd{ 
    IntegrationSteps = 6 
    MinSccIterations = 2
    MaxSccIterations = 200
    SccTolerance = 1e-6 
  }
  Velocities [m/s] {
     -4.25542516E+02     -3.47502046E+02      1.64232105E+02
      2.02226887E+03     -5.06063102E+02      1.47029969E+03
     -4.72924180E+02      3.32158911E+02     -2.78545111E+03
      4.83523201E+02     -1.62032477E+02     -2.23362117E+02
      1.12392182E+03     -2.74696108E+03     -9.89456135E+02
     -6.40414228E+02     -1.15436405E+03     -5.82669643E+00
     -2.87317202E+02      3.34411665E+02      3.56037518E+01
      4.42709843E+02      6.95040309E+02     -1.12076171E+03
     -8.36377480E+02     -1.54974375E+03      8.90118004E+01
      3.97733873E+02     -1.78465331E+02     -3.11977763E+02
     -9.42643319E+02      2.12066436E+02     -1.46051031E+03
      1.15408948E+03      2.44615102E+03      1.36979312E+03
      7.61453384E+02     -3.32631353E+01     -4.22715536E+02
      7.54657743E+02     -1.53406744E+03     -4.71411816E+02
     -1.16767064E+03      7.01801751E+02      5.43543524E+02
     -2.44265059E+02     -6.20837581E+01      5.16118732E+02
     -3.11644667E+03     -1.18691228E+03     -1.33890488E+03
      4.23438233E+03      5.52714644E+02      2.16834959E+03
     -9.98208664E+01     -4.51866229E+02     -1.44819650E+02
     -2.08576801E+02     -1.36969080E+03      4.86178212E+02
      1.34742051E+03      1.51791497E+03      8.48689618E+02
      2.11234992E+02     -7.53785445E+02      2.93185253E+02
      2.17856750E+03     -4.53983459E+03     -3.05812967E+03
      3.75244409E+03      1.30672846E+03     -3.13317573E+02
     -6.03423651E+01      2.23861198E+02      4.03063309E+02
      4.58999705E+02      2.35889342E+03     -2.30282288E+02
      1.30110058E+03      5.27885331E+02      6.08003339E+02
      3.35773432E+03      1.57028103E+03     -1.14622340E+03
      3.13167947E+00     -8.13897422E+02      2.62188570E+02
      1.36312770E+02     -1.72300104E+03     -1.23794987E+03
      7.76409238E+02      2.72907246E+02     -9.81267253E+02
      1.16862986E+03     -7.46149772E+02     -1.46290576E+03
      3.07794816E+02      9.93012855E+01      1.61602823E+01
      1.04200583E+03     -1.57098378E+03     -7.44185473E+02
     -6.51972663E+02      2.41645440E+03      5.72046203E+02
     -2.71444642E+02     -6.28828704E+02     -4.72864832E+02
      2.65435554E+03      9.92637489E+01      2.66997686E+03
     -3.46653574E+02     -1.45746450E+03     -1.22618738E+03
      1.15672025E+02     -5.30467154E+02     -3.73078298E+02
     -7.25834431E+02     -6.61107345E+02     -1.37958599E+01
     -5.78558391E+02     -1.20234000E+03      1.58307616E+03
      2.24090646E+02      1.39700731E+02      2.01260706E+02
     -1.25706768E+03      6.74165155E+02      8.27867635E+01
     -3.55938501E+02      7.77820082E+02      1.23311519E+03
      5.42100060E+02      1.88240765E+01      7.19385980E+01
      1.17791515E+03      2.90817373E+03     -1.07605619E+03
      1.83810151E+02     -5.65619834E+01     -1.08810901E+03
     -1.50489030E+02      5.59420477E+02     -4.79412612E+02
     -6.84198634E+02     -4.75378355E+02     -3.18584879E+02
      4.84134639E+02     -6.75876255E+02     -2.97752274E+03
      1.22778396E+02     -2.05201191E+02     -1.05105627E+01
      1.37360808E+03     -2.48007548E+03      2.68815441E+03
      1.54693490E+03      2.90239404E+03      3.73910623E+02
      5.57114649E+02      1.78359235E+02     -1.85765175E+02
      1.01242162E+03      2.25839722E+03     -2.64008542E+03
      1.36755076E+03      2.52911730E+03      3.02966073E+03
      4.42677864E+02     -2.13523128E+02      1.93331494E+02
     -1.82296084E+03     -9.89048252E+02      4.96607123E+02
      2.08911800E+03     -9.36848659E+01      1.50676486E+02
      3.57413289E+03      1.54022491E+02     -2.99405445E+02
     -2.75159536E+02     -2.05731820E+02      1.84404711E+02
     -1.30173066E+03      1.84577756E+03      1.79669446E+02
      1.08757328E+03      2.51368956E+03     -1.52239211E+03
     -3.32445987E+03      7.71977986E+00     -2.22640566E+03
     -2.07683521E+02      1.63511977E+02     -9.74120913E+01
     -2.63929175E+03     -1.50338042E+03      1.86750588E+03
     -2.13019513E+03      5.83178507E+02     -5.62561073E+02
      6.85085475E+00      5.16209961E+02      4.47634124E+02
      4.39271272E+02     -1.42238872E+03     -1.33325137E+03
      1.74324207E+03      9.29796320E+02      1.95470004E+03
     -5.55773027E+02     -5.88156123E+02      3.39717582E+02
      2.15311749E+03      1.39718587E+03     -2.88165271E+03
     -2.50001058E+02     -1.30375610E+03      1.26349591E+02
      1.55716153E+02     -7.13458040E+02      1.82851680E+02
      7.64846835E+02      2.34085432E+03      1.62632486E+03
      2.52276717E+03     -4.09010913E+03     -4.13283791E+02
      1.71606595E+02     -2.71422263E+02      2.36936327E+02
      1.97964774E+03      2.37692523E+03      1.09497201E+03
      1.83214561E+03     -1.28638294E+03      1.49533289E+03
      5.09573187E+01      1.73377260E+02     -4.33988380E+02
      6.16716788E+02     -7.24413856E+02     -1.79686271E+03
     -2.90919913E+02     -1.39303343E+03      1.44728501E+03
     -3.97608754E+02     -2.09417650E+02      1.26083030E+02
      4.65338631E+02     -2.43309038E+03      2.78518176E+02
     -1.87664354E+03     -2.60322165E+03      1.42271974E+02
      8.53474898E+02      4.63905636E+02      8.13675870E+02
      2.58682721E+02     -2.60495354E+03     -4.20862317E+03
      1.35488953E+03     -6.53342965E+01      1.22115465E+03
      1.04094886E+03     -8.56626065E+02     -7.16458291E+02
      5.13548379E+02      2.03811625E+03     -1.36426484E+03
      1.57650311E+03      1.32293094E+03      5.50248592E+01
      2.48518602E+03      2.05685114E+02     -2.55959744E+03
      5.39974547E+02     -1.64709694E+02      6.46897614E+02
     -8.88548294E+02     -2.28099848E+02      1.01957770E+03
     -9.83627671E+02     -1.89229665E+03      1.81416116E+03
      1.17832493E+02     -1.89455516E+03      4.50068810E+03
      9.88903499E+01      9.34755282E+02      5.21891908E+01
     -2.43866339E+03     -2.34631637E+03     -3.31693583E+02
      1.86723040E+03     -5.84716808E+02      6.51640215E+02
     -6.95429321E+02     -4.54568958E+02     -2.25542335E+02
     -1.98642849E+03      1.64905753E+03     -2.86008819E+03
      2.88602299E+03      1.64048132E+03      9.20491454E-01
     -6.18427925E+02      2.56031830E+02      7.47432948E+02
      1.29935469E+03      1.68031904E+03      2.07803346E+03
      7.02555765E+02     -2.32042200E+03      3.43020654E+02
      4.74108063E+02     -1.04348627E+03     -4.38079737E+02
     -1.20725648E+03      3.28213122E+02      4.32087864E+02
     -7.08493432E+02      5.21379324E+02      2.07246314E+03
      5.12799583E+02      4.98040287E+02     -1.24214948E+02
      2.41756647E+01     -1.62396642E+03      1.03543181E+03
     -5.10349321E+02     -1.56528012E+03     -6.64941535E+01
     -1.43884241E+02      2.18158223E+02      4.44811388E+02
     -2.40798189E+03      3.77176922E+02      2.88967257E+02
      5.79358451E+02      2.78470274E+03     -2.30514095E+03
      3.71541968E+01      2.75750053E+02      3.99331042E+02
      6.40101893E+02      1.94897787E+03      2.29173217E+03
      3.15253361E+03     -1.33985249E+03     -7.05958117E+02
     -1.66961727E+04      4.50093777E+03      1.34726903E+04
     -5.10563180E+02     -1.84141891E+03      1.22572748E+03
     -3.44860288E+02     -9.01561246E+02      3.16090228E+02
      1.29113903E+03     -8.25714312E+00      6.64953569E+02
      4.97026948E+02      2.16948094E+03     -5.88268349E+02
      1.10048194E+03      1.11816153E+03     -5.80600209E+02
      5.55833640E+02     -3.94754408E+02     -1.52861603E+03
      1.81144381E+01      8.54642817E+02     -2.22330737E+01
      3.52125398E+02     -6.13309698E+02      3.39493003E+02
     -1.68483255E+03     -1.40615820E+03      1.88034832E+03
      3.63456955E+02      1.68186622E+03     -1.32978204E+03
     -1.21150112E+02     -1.55918544E+02     -1.67575134E+02
      2.11257235E+03     -2.31160597E+03     -1.11147340E+03
      3.93506957E+02      2.14228080E+03     -3.43400488E+03
     -4.11089062E+02     -4.14701738E+02     -5.29226559E+02
     -1.60402336E+03     -9.85376695E+02      7.67726273E+02
     -1.70273741E+03     -3.60878546E+02      8.59035400E+02
      4.22794573E+02      1.77293633E+01      2.81024901E+02
      1.83273455E+03      2.00101934E+03      2.10133308E+03
     -1.50819933E+02      3.90142847E+02     -2.78541062E+03
     -9.07532246E+00      2.39721382E+01      1.90724753E+02
     -1.84268402E+03      2.68896848E+02     -5.50360051E+02
     -8.48892093E+02      2.21858237E+03     -1.09567000E+03
     -4.50130208E+01      4.90282723E+02     -3.98877976E+02
      1.16553800E+03     -1.26779655E+03     -1.40673304E+03
      1.59876107E+02     -3.25396586E+03      1.24069463E+03
      4.59763923E+02      3.57593249E+02     -7.58294539E+02
      2.95345837E+02      2.63561333E+03     -1.95883586E+03
      1.21035306E+03     -8.19650805E+02     -2.58790230E+02
     -3.18817098E+02      2.06633304E+02      1.25039124E+01
      1.83930996E+02     -6.79019036E+02      9.96353450E+02
      2.80740334E+03      4.49814033E+02      3.70057139E+03
      7.60115824E+02      8.35475235E+02      8.04006813E+02
      4.78471090E+02      4.00621323E+02      1.47388568E+03
      1.42066370E+02      3.32191021E+01     -1.05884212E+03
      4.18150028E+02     -5.79776601E+02     -3.84991164E+02
      1.88842445E+02     -3.64224445E+03     -2.59154125E+03
      2.96692119E+03      6.42580196E+02     -7.56654895E+02
     -8.62343514E+00      6.44569297E+02     -2.21484142E+03
     -1.05566216E+03     -1.06602736E+03     -5.08433688E+02
      1.26966950E+03      1.45279900E+03      7.96882598E+02
     -5.54654801E+02      2.59231677E+03      3.11662921E+03
     -2.01525846E+03      3.90363169E+02      1.82721131E+02
      4.56140597E+02     -3.81035588E+02      5.26758870E+02
     -1.28624667E+03     -4.76121174E+02     -1.96753167E+03
     -3.81742679E+02     -1.10719319E+03     -6.54410439E+02
     -8.95444364E+01      1.04993146E+02      5.80260995E+01
      1.98145298E+03      1.39572373E+03     -1.23185663E+03
      1.79483492E+03     -1.68914798E+03     -4.56812087E+02
      7.82764776E+01      4.25687358E+02      3.38010236E+01
      2.08521268E+03     -4.62013854E+02     -1.46897012E+03
      8.61792829E+02     -2.55049670E+03     -8.97516507E+02
      3.77389059E+02      5.12423380E+01     -8.34870806E+01
     -7.12854329E+02     -1.65020979E+03     -1.36437986E+03
     -2.62044150E+02      1.29724194E+03     -1.08052422E+03
      2.07338862E+02      5.69532497E+02     -5.67048569E+02
     -7.21434317E+02      1.33461957E+03     -7.95081976E+02
      6.67473920E+02      8.82173497E+02      1.83716010E+03
      7.11687657E+02      2.77083465E+02     -6.83944873E+02
     -6.90238942E+02      3.03049698E+02      1.39138028E+03
     -3.15899009E+03     -2.85230191E+02     -2.95408178E+02
     -1.71422569E+02     -4.01783289E+01     -3.48462999E+02
      6.03148611E+02     -3.96641677E+03     -9.33888586E+02
     -6.96021131E+02      1.39046178E+03     -1.71569887E+03
     -2.21737569E+02     -9.41474514E+01     -1.38725801E+02
      1.91851142E+03     -1.99015929E+03     -1.58593333E+03
      2.70485033E+02      1.09568566E+03     -2.65993912E+02
     -4.68951280E+02     -6.54275199E+02     -8.29945135E+02
     -1.37495019E+03     -9.50772924E+01     -7.35679564E+02
     -9.39207369E+01     -1.04854151E+03      1.02308820E+03
      8.05861668E+02      5.71069658E+02      1.51432939E+03
     -4.39306995E+02      6.47907122E+02     -6.56714862E+02
     -9.36495974E+02     -3.52177684E+02      8.65142534E+02
      2.12859028E+03     -9.37612036E+02     -1.89049448E+02
      8.84063860E+02     -1.07352771E+03      1.09527950E+02
     -2.55769469E+02     -1.15696765E+02     -7.06878218E+02
     -3.83020140E+02     -4.40282224E+02      6.73790459E+02
      2.87426864E+03      9.05851706E+01      7.70029873E+02
     -2.60463041E+02     -1.19141825E+02     -3.98388106E+02
      1.72385275E+03     -1.56977118E+02     -3.52625031E+03
     -8.58502761E+02      7.55975039E+02     -8.73879052E+02
      2.54353613E+02     -2.81827955E+02      2.05110044E+02
      8.88169175E+02      1.78574863E+03      4.97512505E+02
      5.61781695E+02      7.13022946E+02      5.72270331E+02
      3.34139362E+02      5.91062206E+00      6.25259256E+02
      1.05452581E+03      1.45851889E+03     -3.10006920E+03
     -9.30496155E+02      2.70678527E+03      1.91570374E+03
     -3.47919662E+02      6.78417358E+02     -5.28402262E+02
      2.83478434E+02      3.63077907E+02     -4.02380768E+02
      9.91904485E+02      3.60224402E+03      4.10422929E+02
      2.29090517E+02     -1.79159567E+02      5.04476801E+01
     -2.35126242E+02     -1.60349329E+02     -5.21987553E+02
      2.51653652E+02      1.14974526E+03     -5.71006179E+02
     -1.66244153E+02      3.27775166E+02     -3.94402409E+02
     -5.17061913E+02      6.62321950E+02      2.41651148E+03
     -1.92243397E+02     -2.16223364E+03      3.97683981E+02
      5.62285782E+00     -3.65299889E+02      9.38973804E+01
      9.11776063E+01     -2.82389231E+03     -2.98872970E+03
      1.01671192E+03      1.59259974E+03     -7.68738064E+02
      6.64591237E+01     -9.46029795E+00     -3.00888903E+02
     -1.24904346E+03     -4.02666361E+01      3.58416084E+02
      1.32414629E+03      1.60640743E+01     -2.66420933E+03
     -2.79651851E+02     -1.03691424E+03     -1.32433442E+03
      1.75363641E+02      1.81539593E+02     -2.00339886E+02
     -1.03990976E+03      2.42904103E+03     -4.84841287E+02
     -2.85302339E+03      1.32376611E+03      8.61843096E+02
      3.13274844E+02     -1.58896023E+03     -6.85317663E+02
     -1.48112758E+02      2.44029812E+02     -1.17128346E+03
      1.98396405E+03     -2.08046156E+02      4.92410569E+02
      2.28725612E+02     -2.77794868E+02     -3.58457693E+03
     -2.96900721E+02     -3.15272487E+02     -3.20237395E+02
     -1.01094921E+03      5.20072135E+02     -3.84783277E+02
      7.82201149E+02     -7.59553274E+02     -1.58439249E+03
      2.38459752E+02     -5.04987133E+02      1.03621818E+02
      1.97701716E+03      3.66069769E+02      1.30133074E+03
     -5.56205381E+01     -5.64630165E+01     -1.35111802E+03
      6.01620837E+01     -2.73656736E+02      2.05558604E+02
      2.14879627E+03      9.06250136E+02      1.84424688E+03
     -2.08723043E+02      4.86573491E+02     -1.05003401E+03
      4.26988558E+02      1.99337949E+02     -1.32661617E+02
     -1.99494638E+01     -3.35533689E+02      2.04731523E+02
      1.05685284E+03      3.54782404E+03     -1.84730484E+03
     -6.65874602E+02      2.23574239E+02     -4.03561768E+02
      1.40940863E+03      1.28124541E+03      1.29382532E+03
      2.37185822E+02      2.44298997E+03     -9.21095905E+02
      3.89842146E+02      2.05754620E+02      2.94328392E+02
     -7.94370820E+02     -1.70846945E+03      1.30517554E+03
     -2.04039242E+01      2.76979076E+03      1.50032415E+03
     -1.11826428E+02     -1.43262953E+02      5.60421491E+02
     -1.30887103E+03      8.85276405E+01     -2.08762070E+03
     -2.35094801E+03     -5.09305100E+02      1.37721507E+03
      3.24406099E+02      4.80424370E+02     -3.96886706E+00
      8.84318255E+02     -2.20834446E+03      1.21483297E+03
      1.15757053E+03      8.21720619E+02      5.02751649E+02
      9.32198661E+02      2.86084823E+03     -4.34957877E+03
      2.96080509E+02     -1.97239335E+02     -4.45527511E+02
      5.49157470E+02      7.03263910E+01     -6.03632651E+01
     -5.34254423E+02     -2.87897630E+02     -4.10090527E+02
      1.25469137E+03      1.63959493E+03      1.33537640E+03
      6.99314284E+02     -1.51175252E+02     -6.40222876E+01
      1.41152160E+03     -2.19261885E+03     -3.75018333E+03
     -2.42574015E+02      5.17665883E+01      1.40498213E+03
      7.54726479E+02     -9.33599051E+02     -7.48621747E+01
     -1.00220868E+02      4.08806864E+02      3.36273612E+00
      1.10210601E+03      4.11980637E+03     -2.69362060E+03
     -2.91400236E+02     -4.61743237E+02     -5.55167026E+02
     -1.88258164E+02     -1.91307576E+03     -2.54767279E+02
     -1.15564268E+02     -2.65657892E+03     -1.79355686E+03
     -3.15898188E+02     -2.24121858E+01     -1.42125820E+02
      2.88447373E+02     -4.78585024E+01      4.65106987E+02
      2.23311942E+02     -5.54277377E+02      1.87247001E+03
      1.36701901E+02      7.85813945E+02     -2.40675652E+02
     -1.82057740E+03      2.11636880E+03     -1.71701660E+03
     -9.97924001E+01     -2.64395157E+02     -2.01794567E+03
     -9.58706883E+01     -1.07526036E+03     -5.34029853E+02
      2.93734977E+03      5.22025872E+02     -6.84551927E+02
     -1.61115567E+03     -1.99722312E+03     -2.49026254E+03
     -8.16359343E+01     -2.21294732E+02     -2.56292307E+02
     -2.22613620E+03      3.82531680E+02      4.45184468E+02
      2.43341985E+03      7.35811783E+02      1.47885519E+03
     -1.55069165E+02      7.07035292E+02     -1.63239218E+02
      7.14803958E+02      6.18295541E+02     -2.15988631E+03
     -3.69233795E+02     -6.95462768E+02      1.26334366E+03
     -2.26477793E+02     -5.68357652E+02     -4.24240828E+02
     -3.93368592E+02      7.12719393E+02     -1.44718510E+03
      1.79439770E+03     -3.56973708E+03     -1.94555507E+03
     -1.15127479E+02     -1.39112754E+03     -2.08765000E+03
      1.73328974E+02      4.70096873E+02     -6.91534258E+01
      4.22685394E+02     -1.41710118E+03     -3.23429901E+02
     -7.28830803E+02      2.18059390E+02      2.44001886E+01
      7.44589786E+02      2.01556474E+03      3.45708801E+03
      6.13427910E+01      5.80862670E+02     -2.51288764E+01
      1.19526789E+03      3.43142467E+02     -1.53503261E+03
     -2.61488762E+03      2.30853008E+01     -1.04143510E+03
     -3.85277181E+02     -1.55516503E+02     -1.94752528E+02
      1.45177677E+03      7.98397223E+01      1.52541010E+03
     -4.98216198E+02      1.66301212E+03     -2.49194421E+03
     -1.75991554E+02     -2.15528434E+02      2.64253817E+02
     -1.44834950E+03     -3.07670114E+02     -7.55073682E+02
     -3.49131994E+02      2.00736984E+03      6.72183942E+02
      7.93591623E+02     -4.10043178E+02     -1.66710242E+02
     -1.31922741E+03     -8.37563300E+01     -1.80775199E+03
     -1.39289600E+03      1.60652267E+03      8.50802144E+02
      2.02272212E+02     -1.84439040E+02      1.92008303E+02
     -9.01468478E+02      1.65778790E+02      7.79672624E+02
     -1.28040755E+03      6.26770708E+01      9.44945546E+02
      6.53054850E+01      2.09519343E+02     -1.33003508E+03
     -2.62817095E+03      1.21923303E+03      5.65661549E+02
      2.24031966E+03     -5.62217211E+01     -2.70131711E+03
      1.62846678E+02     -4.45953365E+02      1.30264802E+02
     -1.28648958E+03      6.86448310E+02     -2.11229375E+03
     -1.49878350E+03     -3.30912399E+03     -5.15744860E+02
      8.78723017E+01     -4.45927244E+02      5.25257745E+02
      1.13436871E+03      2.17907435E+03     -2.43566290E+03
      1.11443643E+03     -1.74693865E+03     -8.12392943E+02
      7.23975526E+02      4.90802577E+01     -4.61068271E+02
      1.64112878E+03     -1.38893578E+01      1.81090699E+03
      1.25488303E+03      2.91488331E+03     -1.30077807E+03
      7.68463055E+02     -3.21829580E+03      2.88131006E+03
      6.30337421E+02     -4.74016638E+02     -1.45588457E+02
     -2.90776695E+03     -3.20275464E+02      9.05848128E+02
      1.91240441E+03      2.90353005E+02     -1.48673539E+03
     -1.34883576E+03      2.16304000E+03      1.92618978E+02
      1.75382488E+02     -2.68872325E+02     -1.25341296E+02
     -3.96558482E+02     -2.82998193E+02     -1.93891127E+03
      3.57746220E+02      8.22826235E+02      1.15871727E+03
     -4.06981207E+02      1.36835553E+01     -5.90509931E+02
     -3.65104646E+02      1.85353318E+03     -1.38013150E+02
      3.15330647E+01      9.53485779E+02      5.19597194E+02
      2.11390988E+01     -4.16217399E+02      5.02239178E+02
     -1.93350240E+02     -3.82576084E+02     -1.27752467E+03
      1.74206870E+03     -3.07258231E+03      1.99547466E+03
      6.54447586E+02      3.55869014E+02      1.77004596E+02
     -7.48128845E+01      1.78076200E+03     -3.63688847E+03
      2.72696060E+03     -4.58787069E+03     -2.33855910E+03
     -2.19515220E+02     -5.59265008E+02      4.15182629E+02
     -1.33996327E+02      1.59666184E+03     -1.75381577E+03
      1.78868147E+03     -9.18871555E+02      3.12131493E+02
      6.36927906E+02     -5.09537413E+02     -4.83438738E+02
      3.69436506E+02      1.02321864E+03     -7.73571548E+02
      1.04970919E+03      1.39366746E+02     -8.24473921E+02
      2.69767251E+02      4.92815706E+02     -5.21022210E+02
      5.21210384E+02      1.15106454E+03      6.59602164E+01
     -1.86615140E+03     -1.86360731E+02     -6.52973007E+02
      2.48981047E+02      3.12979796E+02     -1.10289222E+02
     -7.53399380E+02     -2.78167843E+03     -1.08405567E+03
      1.00073616E+03     -2.31999984E+03      2.75683745E+03
      4.82222363E+02      7.55484473E+02     -2.52747626E+02
      9.26749026E+02      2.83785586E+03     -2.24796341E+03
      4.19257926E+02      5.53875842E+02     -6.74159558E+02
      1.32457017E+03     -4.34694298E+03     -2.01802542E+03
      4.19826353E+02      2.30611210E+01      5.77219684E+02
      1.22889267E+03      2.14700623E+03     -5.39898427E+01
      4.37733061E+03      2.42567069E+02      2.16018012E+03
     -1.60760771E+03      4.24852560E+02      1.92782142E+03
  }
}

Hamiltonian = DFTB {
  SCC = Yes
  SCCTolerance = 1e-6
  MaxSCCIterations = 200
  ForceEvaluation = Dynamics
  MaxAngularMomentum = {
    C = "p"
    H = "s"
  }
  Charge = 0.0
  SpinPolarisation = {}
  Eigensolver = Standard {}
  Filling = Fermi {
    Temperature [Kelvin] = 300.0
  }
  SlaterKosterFiles = Type2FileNames {
    Prefix = "../../pbc-0-3/"
    Separator = "-"
    Suffix = ".skf"
    LowerCaseTypeName = No
  }
  KPointsAndWeights = {
    0.0000000000000 0.0000000000000 0.0000000000000 1.00000000000000
  }
  Dispersion = LennardJones { 
    Parameters = UFFParameters {}
  }
}

ParserOptions = {
  ParserVersion = 3
}
