Geometry = GenFormat {
352  S
C  H
1 1    0.4048246348E+02    0.2797951938E+02    0.3851183143E+02
2 2    0.4021843839E+02    0.2881739873E+02    0.3783494942E+02
3 2    0.4056329871E+02    0.2726498195E+02    0.3759377785E+02
4 1    0.4182775314E+02    0.4358036779E+02    0.3922488929E+02
5 2    0.4210135428E+02    0.4259803008E+02    0.3976111113E+02
6 2    0.2648932594E+02    0.4422830926E+02    0.4017059312E+02
7 1    0.4291218876E+02    0.4420956320E+02    0.3821582295E+02
8 2    0.2705586259E+02    0.4485600650E+02    0.3751253363E+02
9 2    0.4345872059E+02    0.4329952325E+02    0.3773159467E+02
10 1    0.2867740545E+02    0.4509634074E+02    0.3882446396E+02
11 2    0.2815825954E+02    0.4601986379E+02    0.3932447967E+02
12 2    0.2886418231E+02    0.4565058744E+02    0.3786899788E+02
13 1    0.4547032063E+02    0.4467383964E+02    0.3944369130E+02
14 2    0.4615379363E+02    0.4569465746E+02    0.3925990967E+02
15 2    0.4574123300E+02    0.4385552919E+02    0.3880116655E+02
16 1    0.2998810026E+02    0.4432541665E+02    0.4089599236E+02
17 2    0.2931151476E+02    0.4342208296E+02    0.4097557884E+02
18 2    0.2949839341E+02    0.4527264425E+02    0.4140721586E+02
19 1    0.4668314241E+02    0.4417261547E+02    0.4162363886E+02
20 2    0.4733918463E+02    0.4503419261E+02    0.4126058009E+02
21 2    0.4710451715E+02    0.4330128796E+02    0.4117140799E+02
22 1    0.4666342828E+02    0.4430603856E+02    0.4325770041E+02
23 2    0.3085918620E+02    0.4339004295E+02    0.4365894050E+02
24 2    0.3073906316E+02    0.4516396982E+02    0.4344536923E+02
25 1    0.3947234700E+02    0.2748115413E+02    0.3950934518E+02
26 2    0.3853086195E+02    0.2735789219E+02    0.3898798364E+02
27 2    0.3992995602E+02    0.2661614897E+02    0.3986117334E+02
28 2    0.3953462385E+02    0.2819711090E+02    0.4033389470E+02
29 1    0.4806887721E+02    0.4439539715E+02    0.4382164427E+02
30 2    0.4879683550E+02    0.4357104232E+02    0.4405889624E+02
31 2    0.4941509339E+02    0.4603389329E+02    0.4408331278E+02
32 2    0.2980494686E+02    0.3933010688E+02    0.4160357550E+02
33 1    0.2782339841E+02    0.3126639338E+02    0.2999430171E+02
34 2    0.2887754493E+02    0.3089821272E+02    0.3034125149E+02
35 2    0.2811304102E+02    0.3195928359E+02    0.2914766531E+02
36 1    0.2692624798E+02    0.3007340303E+02    0.2970534306E+02
37 2    0.2593461285E+02    0.3033728335E+02    0.2941707705E+02
38 2    0.2671387135E+02    0.2968958748E+02    0.3067072976E+02
39 1    0.2757016088E+02    0.2904562052E+02    0.2878042113E+02
40 2    0.2850688891E+02    0.2866623087E+02    0.2932586898E+02
41 2    0.2777248048E+02    0.2961559478E+02    0.2778209890E+02
42 1    0.2663307736E+02    0.2780889748E+02    0.2847737504E+02
43 2    0.4094840438E+02    0.2811921579E+02    0.2821705638E+02
44 2    0.2673372891E+02    0.2712331669E+02    0.2944257683E+02
45 1    0.2722106122E+02    0.2705152398E+02    0.2723032481E+02
46 2    0.2836836407E+02    0.2711615556E+02    0.2733423937E+02
47 2    0.4237179100E+02    0.2755499979E+02    0.2631608419E+02
48 1    0.4196325550E+02    0.2570370268E+02    0.2707672341E+02
49 2    0.4195129954E+02    0.2535243998E+02    0.2600832686E+02
50 2    0.4079023811E+02    0.2582821718E+02    0.2718479239E+02
51 1    0.2727028002E+02    0.2445992740E+02    0.2780062809E+02
52 2    0.2732375338E+02    0.2455113621E+02    0.2893093926E+02
53 2    0.2829322960E+02    0.2441627460E+02    0.2743373487E+02
54 1    0.4190668662E+02    0.2311773109E+02    0.4283096513E+02
55 2    0.4263738355E+02    0.2240362863E+02    0.4325241175E+02
56 2    0.4165621726E+02    0.2300464233E+02    0.4176566494E+02
57 1    0.2732921252E+02    0.3222885729E+02    0.3107196893E+02
58 2    0.2812012184E+02    0.3293727579E+02    0.3135452875E+02
59 2    0.2643922130E+02    0.3278034875E+02    0.3071641594E+02
60 2    0.2707079077E+02    0.3164965975E+02    0.3197720769E+02
61 1    0.2543311307E+02    0.2289653463E+02    0.4375617533E+02
62 2    0.2567549325E+02    0.2230151836E+02    0.4474598721E+02
63 2    0.2507618003E+02    0.2392400634E+02    0.4410077231E+02
64 2    0.2457828655E+02    0.2250057989E+02    0.4323437346E+02
65 1    0.3963872071E+02    0.3255390988E+02    0.3515954562E+02
66 2    0.3883398751E+02    0.3286845078E+02    0.3583597343E+02
67 2    0.3920009091E+02    0.3166248528E+02    0.3461775482E+02
68 1    0.3986156196E+02    0.3356386064E+02    0.3397977633E+02
69 2    0.3899665038E+02    0.3343535300E+02    0.3332489632E+02
70 2    0.4083629821E+02    0.3318507916E+02    0.3354718511E+02
71 1    0.3993537947E+02    0.3509939723E+02    0.3424516061E+02
72 2    0.3917503811E+02    0.3554357399E+02    0.3494355708E+02
73 2    0.3972260576E+02    0.3563025142E+02    0.3326110293E+02
74 1    0.4129611953E+02    0.2026312480E+02    0.3472651069E+02
75 2    0.4206814454E+02    0.1951559639E+02    0.3436153865E+02
76 2    0.4130366906E+02    0.2028169798E+02    0.3583729937E+02
77 1    0.4176873070E+02    0.2157795287E+02    0.3410111281E+02
78 2    0.4269787617E+02    0.3698314739E+02    0.3468905187E+02
79 2    0.4099042920E+02    0.3759609943E+02    0.3426623819E+02
80 1    0.4220010445E+02    0.2142650238E+02    0.3266860889E+02
81 2    0.4129087421E+02    0.2089643081E+02    0.3215052526E+02
82 2    0.4303268998E+02    0.2066202251E+02    0.3262824859E+02
83 1    0.4266312543E+02    0.2265066911E+02    0.3186155577E+02
84 2    0.4176840792E+02    0.2311879231E+02    0.3136946856E+02
85 2    0.4335586720E+02    0.2240530055E+02    0.3099689943E+02
86 1    0.4335697492E+02    0.2365563647E+02    0.3280874411E+02
87 2    0.4404976680E+02    0.2307257895E+02    0.3347837797E+02
88 2    0.4270934589E+02    0.2423912169E+02    0.3344811450E+02
89 1    0.4075302414E+02    0.3209236305E+02    0.3611712886E+02
90 2    0.4154400130E+02    0.3138353021E+02    0.3561342959E+02
91 2    0.4127767555E+02    0.3302893220E+02    0.3645354656E+02
92 2    0.4032415155E+02    0.3151826272E+02    0.3695925360E+02
93 1    0.4431656850E+02    0.2460557872E+02    0.3213307232E+02
94 2    0.4524128690E+02    0.2415709679E+02    0.3183837750E+02
95 2    0.4385326445E+02    0.2534384206E+02    0.3146341201E+02
96 2    0.4464161632E+02    0.2533268420E+02    0.3298011389E+02
97 1    0.2555130356E+02    0.3368880788E+02    0.4141762979E+02
98 2    0.2456388569E+02    0.3394535858E+02    0.4179868716E+02
99 2    0.2557143302E+02    0.3387198601E+02    0.4032084742E+02
100 1    0.2646569736E+02    0.3448044770E+02    0.4231996773E+02
101 2    0.2596490408E+02    0.3446341254E+02    0.4319768374E+02
102 2    0.2633866067E+02    0.3553802626E+02    0.4190366150E+02
103 1    0.2793911107E+02    0.3415972076E+02    0.4264552079E+02
104 2    0.2843388961E+02    0.3436638725E+02    0.4168059441E+02
105 2    0.2805464629E+02    0.3309322870E+02    0.4302335883E+02
106 1    0.2857313644E+02    0.3502605196E+02    0.2839886602E+02
107 2    0.2846374375E+02    0.3473711176E+02    0.2949318199E+02
108 2    0.2796024984E+02    0.3593870733E+02    0.2853154409E+02
109 1    0.2997027611E+02    0.3535596606E+02    0.2811182665E+02
110 2    0.3011557320E+02    0.3559763259E+02    0.2710429280E+02
111 2    0.3064064158E+02    0.3450095821E+02    0.2838496574E+02
112 1    0.3041498846E+02    0.3660175611E+02    0.2894615185E+02
113 2    0.3024147963E+02    0.3629030493E+02    0.2990544055E+02
114 2    0.2973299004E+02    0.3746588966E+02    0.2875792940E+02
115 1    0.3171903780E+02    0.3712262381E+02    0.2842847148E+02
116 2    0.3155360887E+02    0.3741747178E+02    0.2738221743E+02
117 2    0.3243239644E+02    0.3627277250E+02    0.2838052047E+02
118 1    0.3249577404E+02    0.3820427539E+02    0.2916902114E+02
119 2    0.3184234822E+02    0.3915196552E+02    0.2933685984E+02
120 2    0.3311383231E+02    0.3874133893E+02    0.2843702967E+02
121 1    0.2550616917E+02    0.3216796884E+02    0.4182060043E+02
122 2    0.2638008018E+02    0.3147116589E+02    0.4153763628E+02
123 2    0.2543014512E+02    0.3205478489E+02    0.4289708072E+02
124 2    0.2458593532E+02    0.3165546072E+02    0.4142855817E+02
125 1    0.3313054542E+02    0.3793212227E+02    0.3049544612E+02
126 2    0.3343465861E+02    0.3684964044E+02    0.3053371879E+02
127 2    0.3401613428E+02    0.3859566819E+02    0.3068402614E+02
128 2    0.3239567900E+02    0.3809756155E+02    0.3138239533E+02
129 1    0.3197278367E+02    0.4154238969E+02    0.3258640700E+02
130 2    0.3184433110E+02    0.4049393598E+02    0.3231404267E+02
131 2    0.3106439580E+02    0.4191582024E+02    0.3312869100E+02
132 1    0.3304058388E+02    0.4177125123E+02    0.3351861554E+02
133 2    0.3272650947E+02    0.4148075086E+02    0.3443412237E+02
134 2    0.3335275107E+02    0.4281978516E+02    0.3357075999E+02
135 1    0.3432785898E+02    0.4088724282E+02    0.3335014540E+02
136 2    0.3514904508E+02    0.4164830467E+02    0.3350840266E+02
137 2    0.3459548913E+02    0.4051683602E+02    0.3229004719E+02
138 1    0.3434562644E+02    0.3955745376E+02    0.3420864167E+02
139 2    0.3360037082E+02    0.3886831387E+02    0.3381107419E+02
140 2    0.3415308387E+02    0.3985317575E+02    0.3522427648E+02
141 1    0.3582305720E+02    0.3873585975E+02    0.3423407130E+02
142 2    0.3640764769E+02    0.3885420349E+02    0.3324486517E+02
143 2    0.3567378406E+02    0.3768256273E+02    0.3420517863E+02
144 1    0.3671687211E+02    0.3924544745E+02    0.3539243883E+02
145 2    0.3767886196E+02    0.3875754084E+02    0.3503144625E+02
146 2    0.3641273819E+02    0.3877777220E+02    0.3646113765E+02
147 1    0.3674472639E+02    0.4077181719E+02    0.3555145669E+02
148 2    0.3536779806E+02    0.2930930589E+02    0.3303976343E+02
149 2    0.3575188555E+02    0.4108977548E+02    0.3595211031E+02
150 1    0.3781173771E+02    0.4158704942E+02    0.3537688783E+02
151 2    0.3763119382E+02    0.4261103742E+02    0.3548476515E+02
152 2    0.3882954913E+02    0.4154176567E+02    0.3502696657E+02
153 1    0.3211098743E+02    0.4220941333E+02    0.3127421963E+02
154 2    0.3295802777E+02    0.2665349226E+02    0.3054161813E+02
155 2    0.3117794910E+02    0.4190556651E+02    0.3067363712E+02
156 2    0.3216841315E+02    0.4337732373E+02    0.3131021109E+02
157 1    0.3322208286E+02    0.4563133638E+02    0.4364290840E+02
158 2    0.1400234046E+02    0.3953662044E+02    0.4106468362E+02
159 2    0.3516040936E+02    0.2942494171E+02    0.3248916634E+02
160 2    0.3241410281E+02    0.4645677950E+02    0.4334359555E+02
161 1    0.4057518754E+02    0.2735646801E+02    0.3262561134E+02
162 2    0.4073176504E+02    0.2788490646E+02    0.3170978649E+02
163 2    0.3950521558E+02    0.2742944633E+02    0.3289157963E+02
164 1    0.4085136548E+02    0.2592504784E+02    0.3230444303E+02
165 2    0.4078922839E+02    0.2523963073E+02    0.3311318621E+02
166 2    0.4190414128E+02    0.2582127080E+02    0.3185634708E+02
167 1    0.3988759282E+02    0.2534804078E+02    0.3117889364E+02
168 2    0.4035454140E+02    0.2438926916E+02    0.3096916756E+02
169 2    0.3982596075E+02    0.2584918521E+02    0.3024517723E+02
170 1    0.3835205643E+02    0.2519247629E+02    0.3147879915E+02
171 2    0.3783355609E+02    0.2617458963E+02    0.3139552167E+02
172 2    0.3829907006E+02    0.2474590713E+02    0.3249087571E+02
173 1    0.3778954976E+02    0.3941749868E+02    0.3054680344E+02
174 2    0.3837985386E+02    0.3940324937E+02    0.2965043275E+02
175 2    0.3681893891E+02    0.2432838879E+02    0.3035138279E+02
176 1    0.3789232295E+02    0.3797615420E+02    0.3126886277E+02
177 2    0.3782565812E+02    0.3820202184E+02    0.3233229395E+02
178 2    0.3896517795E+02    0.3769100349E+02    0.3127722202E+02
179 1    0.3700046734E+02    0.3684317624E+02    0.3067725942E+02
180 2    0.3731605165E+02    0.3674620279E+02    0.2961800556E+02
181 2    0.3600303127E+02    0.3709962610E+02    0.3102412332E+02
182 1    0.3719602608E+02    0.3542229319E+02    0.3122557728E+02
183 2    0.3619942993E+02    0.3493577268E+02    0.3104858475E+02
184 2    0.3729744897E+02    0.3545517314E+02    0.3230669025E+02
185 1    0.4150538112E+02    0.2795215010E+02    0.3370095570E+02
186 2    0.4186351638E+02    0.2897550952E+02    0.3348299555E+02
187 2    0.4103923289E+02    0.2804990635E+02    0.3476820138E+02
188 2    0.4246442033E+02    0.2734599141E+02    0.4916534648E+02
189 1    0.3825757162E+02    0.3457614786E+02    0.3053450503E+02
190 2    0.3823665743E+02    0.3491273288E+02    0.2939545991E+02
191 2    0.3933102103E+02    0.3448684375E+02    0.3088312754E+02
192 2    0.3776719732E+02    0.3354624874E+02    0.3058838000E+02
193 1    0.3824629746E+02    0.2962780020E+02    0.4432687936E+02
194 2    0.3932380166E+02    0.3014027852E+02    0.4420002370E+02
195 2    0.3753091809E+02    0.4578906327E+02    0.4395917696E+02
196 1    0.3802078119E+02    0.2846901884E+02    0.4335941181E+02
197 2    0.3876275829E+02    0.2773345898E+02    0.4362385046E+02
198 2    0.3844363110E+02    0.4419506816E+02    0.4245748257E+02
199 1    0.3661234160E+02    0.2783785779E+02    0.4328075895E+02
200 2    0.3579151232E+02    0.2852116803E+02    0.4313568982E+02
201 2    0.3633744013E+02    0.2751408915E+02    0.4436366871E+02
202 1    0.3649360626E+02    0.2652731626E+02    0.4255904268E+02
203 2    0.3734286145E+02    0.2597966783E+02    0.4293754048E+02
204 2    0.3651053253E+02    0.2669794414E+02    0.4146287889E+02
205 1    0.3514896884E+02    0.2584049941E+02    0.4302819322E+02
206 2    0.3445670371E+02    0.2662669671E+02    0.4341689949E+02
207 2    0.3536458090E+02    0.2526075358E+02    0.4397817264E+02
208 1    0.3459628886E+02    0.2483466687E+02    0.4197199739E+02
209 2    0.3351408368E+02    0.2472863557E+02    0.4209256917E+02
210 2    0.3489137914E+02    0.2373463550E+02    0.4210628562E+02
211 1    0.3479122570E+02    0.4031607073E+02    0.4042704269E+02
212 2    0.3455129979E+02    0.3930154150E+02    0.4001369921E+02
213 2    0.3584152104E+02    0.4049107394E+02    0.4022062144E+02
214 1    0.3411698930E+02    0.4153293766E+02    0.3963362919E+02
215 2    0.3427242721E+02    0.4250649660E+02    0.4011623147E+02
216 2    0.3295573793E+02    0.4150651112E+02    0.3964611718E+02
217 1    0.3798561002E+02    0.2958334778E+02    0.4583967560E+02
218 2    0.3802228016E+02    0.3055840382E+02    0.3106603043E+02
219 2    0.3687072914E+02    0.2940560627E+02    0.3061482175E+02
220 2    0.3860555477E+02    0.2888513744E+02    0.4645199005E+02
221 1    0.3473363200E+02    0.4161284880E+02    0.3828213279E+02
222 2    0.3418055683E+02    0.4211876928E+02    0.3755434396E+02
223 2    0.3586987361E+02    0.4191122330E+02    0.3829417298E+02
224 2    0.3481481473E+02    0.4057557676E+02    0.3779788639E+02
225 1    0.3700542265E+02    0.4608902498E+02    0.3975099872E+02
226 2    0.3720910542E+02    0.4633918485E+02    0.4084102300E+02
227 2    0.3740461904E+02    0.4504983136E+02    0.3973569059E+02
228 1    0.3556500604E+02    0.3076959983E+02    0.3933647778E+02
229 2    0.3514679677E+02    0.3189473742E+02    0.3933675356E+02
230 2    0.3490078141E+02    0.3031270330E+02    0.4005776793E+02
231 1    0.3534339981E+02    0.4553712879E+02    0.3785926415E+02
232 2    0.3530151866E+02    0.4439250974E+02    0.3795879347E+02
233 2    0.3607420582E+02    0.4586197214E+02    0.3711824640E+02
234 1    0.3392578900E+02    0.4608466901E+02    0.3744013072E+02
235 2    0.3380091435E+02    0.4719627000E+02    0.3756518180E+02
236 2    0.3313736945E+02    0.4560329774E+02    0.3807437069E+02
237 1    0.3354471991E+02    0.4590837022E+02    0.3597377885E+02
238 2    0.3342185980E+02    0.4475675447E+02    0.3566505565E+02
239 2    0.3448868541E+02    0.3076949741E+02    0.3536627923E+02
240 1    0.3240193366E+02    0.4681364530E+02    0.3563447486E+02
241 2    0.3244451194E+02    0.3179869426E+02    0.3453980136E+02
242 2    0.3270624499E+02    0.3251620212E+02    0.3618058527E+02
243 1    0.3088570567E+02    0.4641274164E+02    0.3599956054E+02
244 2    0.3037381287E+02    0.4728826764E+02    0.3557945071E+02
245 2    0.3072951579E+02    0.4631330633E+02    0.3714426260E+02
246 1    0.3056448249E+02    0.4508040560E+02    0.3528662413E+02
247 2    0.2959914536E+02    0.4464434309E+02    0.3561262038E+02
248 2    0.3133632975E+02    0.4435317406E+02    0.3559358779E+02
249 1    0.3797220302E+02    0.3149597804E+02    0.3877889525E+02
250 2    0.3855762420E+02    0.3235769775E+02    0.3909881307E+02
251 2    0.3862325232E+02    0.3064341520E+02    0.3826647865E+02
252 2    0.3737322037E+02    0.3184601100E+02    0.3794583659E+02
253 1    0.3054284137E+02    0.4509464441E+02    0.3373549515E+02
254 2    0.3011720011E+02    0.4427373425E+02    0.3321337325E+02
255 2    0.3028488450E+02    0.4604477258E+02    0.3334316554E+02
256 2    0.3160930821E+02    0.4516808019E+02    0.4875360588E+02
257 1    0.3995283834E+02    0.3848631033E+02    0.3748148700E+02
258 2    0.3939599525E+02    0.3765396670E+02    0.3709341712E+02
259 2    0.3933139974E+02    0.3936128404E+02    0.3759270418E+02
260 1    0.4049447639E+02    0.3808965461E+02    0.3892235068E+02
261 2    0.4074994838E+02    0.3909200882E+02    0.3937896106E+02
262 2    0.4139342488E+02    0.3743164568E+02    0.3876778084E+02
263 1    0.3951162176E+02    0.3753896517E+02    0.3991997089E+02
264 2    0.3871452577E+02    0.3837006707E+02    0.4016038072E+02
265 2    0.3989784480E+02    0.3725857141E+02    0.4090826298E+02
266 1    0.3868427407E+02    0.3635087434E+02    0.3925218461E+02
267 2    0.3868844749E+02    0.3552336432E+02    0.3997469600E+02
268 2    0.3924049591E+02    0.3592683410E+02    0.3829654886E+02
269 1    0.3735038322E+02    0.3685073257E+02    0.3868279459E+02
270 2    0.3744918667E+02    0.3761022616E+02    0.3789273140E+02
271 2    0.3682316391E+02    0.3734363222E+02    0.3957067109E+02
272 1    0.3642366788E+02    0.3585896602E+02    0.3804158240E+02
273 2    0.3550961400E+02    0.3643580075E+02    0.3772232869E+02
274 2    0.3591130589E+02    0.3524405972E+02    0.3879713871E+02
275 1    0.3689037235E+02    0.3505248754E+02    0.3688983925E+02
276 2    0.3785565352E+02    0.3442577048E+02    0.3701332762E+02
277 2    0.3725746711E+02    0.3575200847E+02    0.3606930206E+02
278 1    0.3573210277E+02    0.3415079439E+02    0.3635295715E+02
279 2    0.3476036893E+02    0.3454576069E+02    0.3674067130E+02
280 2    0.3589345852E+02    0.3313873210E+02    0.3681161378E+02
281 1    0.4118575150E+02    0.3881313731E+02    0.3661219300E+02
282 2    0.4188182019E+02    0.3797285532E+02    0.3660227421E+02
283 2    0.4090703272E+02    0.3920053064E+02    0.3564034241E+02
284 2    0.4160804112E+02    0.3960305458E+02    0.3724025437E+02
285 1    0.3575221012E+02    0.3397094787E+02    0.3484545737E+02
286 2    0.3482999071E+02    0.3342392613E+02    0.3443740298E+02
287 2    0.3586761889E+02    0.3493264442E+02    0.3438449238E+02
288 2    0.3668560566E+02    0.3338838331E+02    0.3459832523E+02
289 1    0.2874487611E+02    0.3408048464E+02    0.3829564807E+02
290 2    0.2862725838E+02    0.3306393697E+02    0.3784288692E+02
291 2    0.2804192583E+02    0.3400496757E+02    0.3912068570E+02
292 1    0.3018862380E+02    0.3418618468E+02    0.3894122464E+02
293 2    0.3024335759E+02    0.3324164220E+02    0.3945285453E+02
294 2    0.3032943334E+02    0.3499050038E+02    0.3965196467E+02
295 1    0.3140463081E+02    0.3432467556E+02    0.3811156728E+02
296 2    0.3158489585E+02    0.3532465624E+02    0.3763289947E+02
297 2    0.3125765607E+02    0.3370181089E+02    0.2180377979E+02
298 1    0.3267047435E+02    0.3378879753E+02    0.2350025032E+02
299 2    0.3350571729E+02    0.3376033650E+02    0.3808618194E+02
300 2    0.3257157127E+02    0.3280068326E+02    0.2397584246E+02
301 1    0.3307507384E+02    0.3482852119E+02    0.2461888131E+02
302 2    0.3218081274E+02    0.3539596726E+02    0.2491575171E+02
303 2    0.3376520997E+02    0.3560470349E+02    0.3948473420E+02
304 1    0.3353924024E+02    0.3388984353E+02    0.2586053978E+02
305 2    0.3400545895E+02    0.3304962152E+02    0.2539366269E+02
306 2    0.3265914161E+02    0.3350393249E+02    0.2644154723E+02
307 1    0.3453759176E+02    0.3451600739E+02    0.2681208178E+02
308 2    0.3410811246E+02    0.3535803364E+02    0.2741021907E+02
309 2    0.3536779380E+02    0.3509885040E+02    0.2622780396E+02
310 1    0.3533820691E+02    0.3351738085E+02    0.2770401285E+02
311 2    0.3488478876E+02    0.3253595080E+02    0.2753312623E+02
312 2    0.3511074024E+02    0.3364681309E+02    0.2880025513E+02
313 1    0.2837046109E+02    0.3524124288E+02    0.3731513320E+02
314 2    0.2851784529E+02    0.3616921990E+02    0.3782060105E+02
315 2    0.2893518410E+02    0.3527163590E+02    0.3639929704E+02
316 2    0.2733107792E+02    0.3514079246E+02    0.3697288586E+02
317 1    0.3678750413E+02    0.3346806314E+02    0.2739172697E+02
318 2    0.3731192331E+02    0.3254562410E+02    0.2769236195E+02
319 2    0.3682329181E+02    0.3334325189E+02    0.2621145417E+02
320 2    0.3733942857E+02    0.3441346722E+02    0.2766261325E+02
321 1    0.3031839857E+02    0.4013510975E+02    0.2042987185E+02
322 2    0.3063033888E+02    0.4118726444E+02    0.2064925163E+02
323 2    0.3058162202E+02    0.4002789379E+02    0.1936995764E+02
324 1    0.3094626530E+02    0.3914584509E+02    0.3672906743E+02
325 2    0.3036319673E+02    0.3924648454E+02    0.3772386399E+02
326 2    0.3199360895E+02    0.3934697968E+02    0.3674387712E+02
327 1    0.3070863518E+02    0.3771144950E+02    0.3622911900E+02
328 2    0.2959980222E+02    0.3752596903E+02    0.3613366323E+02
329 2    0.3110852054E+02    0.3700514633E+02    0.3710375948E+02
330 1    0.3137462446E+02    0.3733541925E+02    0.3493687549E+02
331 2    0.3242677704E+02    0.3707750305E+02    0.3510247859E+02
332 2    0.3130870014E+02    0.3820538926E+02    0.3428680564E+02
333 1    0.3072115796E+02    0.3622227111E+02    0.3416084684E+02
334 2    0.2978172419E+02    0.3647508737E+02    0.3373435176E+02
335 2    0.3056921132E+02    0.3540785376E+02    0.3491795486E+02
336 1    0.3162309888E+02    0.3563990787E+02    0.3299723020E+02
337 2    0.3268167453E+02    0.3546606586E+02    0.3321795798E+02
338 2    0.3154274864E+02    0.3630017975E+02    0.3213713760E+02
339 1    0.3106487917E+02    0.3434582375E+02    0.3249191301E+02
340 2    0.2994403910E+02    0.3449603261E+02    0.3229499303E+02
341 2    0.3096190730E+02    0.3352456383E+02    0.3317556671E+02
342 1    0.3173668981E+02    0.3391852985E+02    0.3117175380E+02
343 2    0.3225410163E+02    0.3477639085E+02    0.3069867823E+02
344 2    0.3088613890E+02    0.3366396829E+02    0.3041432125E+02
345 1    0.2876169725E+02    0.4032797519E+02    0.2046461551E+02
346 2    0.2843777509E+02    0.4026519841E+02    0.2152800577E+02
347 2    0.2843411605E+02    0.4122728430E+02    0.2001808865E+02
348 2    0.2830822860E+02    0.3952086776E+02    0.1985542054E+02
349 1    0.3272190455E+02    0.3277642674E+02    0.3134211969E+02
350 2    0.3346112912E+02    0.3293394301E+02    0.3217714972E+02
351 2    0.3213195315E+02    0.3186867513E+02    0.3168220534E+02
352 2    0.3320952174E+02    0.3246052664E+02    0.3039599716E+02
0.0000000000E+00    0.0000000000E+00    0.0000000000E+00
0.1532620600E+02    0.0000000000E+00    0.0000000000E+00
0.0000000000E+00    0.1532620600E+02    0.0000000000E+00
0.0000000000E+00    0.0000000000E+00    0.1532620600E+02
}
Driver = VelocityVerlet {
  Steps = 50000
  TimeStep [fs] = 0.2
  MDRestartFrequency = 5
  Thermostat = None {}
  Xlbomd = {
    IntegrationSteps = 6
    MinSccIterations = 2
    MaxSccIterations = 200
    SccTolerance = 1e-6
    PreSteps = 0
  }
  Velocities [AA/Ps] = {
9.51381542 -3.91390635 -9.49319579
-10.52084571 0.06601088 50.86577163
0.36125718 -24.92593102 -12.95821028
6.51879227 1.41048502 11.89456892
49.14640701 -35.48263050 -4.15713210
-34.25818082 40.03858786 -24.14209312
1.14741131 9.55041296 -3.75162240
-4.74137878 67.73561271 -0.34414304
9.24663085 2.91755953 -2.30378832
-0.21473349 -1.63713961 -11.48386929
-25.26157740 -15.25067920 64.74175618
-14.39988216 -3.64107934 -13.64367987
-17.99738982 10.68791297 -6.45852702
-21.64068176 -41.24237012 -15.24058473
20.02944655 -1.39885502 -13.00881310
7.05524734 13.81514782 -13.25647949
-35.97553154 -7.78402926 25.19182706
2.91480057 7.50559922 13.44010020
-12.31203720 9.67801746 1.47656068
-30.18695007 -20.71601496 -14.19144734
66.68328792 -24.10357861 -9.73863199
1.34156748 -7.05705398 -4.65984759
-54.75017332 -37.44569131 -11.93125540
50.73974524 -20.91711238 38.65737115
-8.82759634 -5.68333837 2.21404429
53.03582527 -33.70956330 -18.37716184
-27.07077218 25.99472231 64.91640776
1.42869454 9.45689521 -14.94115728
-2.53216193 4.42596266 8.32680954
-11.92100496 6.99148546 -3.59285776
-10.84566469 39.13504722 19.65967033
4.60084400 125.54016333 -38.67698355
-1.01725162 -16.16772116 6.40921655
12.00443428 -33.34073293 12.83402910
-8.89270133 -2.69333899 -7.62964730
-1.01671360 -8.09544888 7.59882021
-2.10902835 8.64069531 -6.30898711
-27.58874333 -25.32333420 6.22838366
10.77722033 -11.92799829 -8.60492079
-24.48031375 -14.18505328 -13.41406113
-3.77612461 0.94335662 -25.80523983
-2.18111453 -9.58990140 -12.82241165
5.82744296 -23.13705333 -25.81500530
14.83637483 -21.33063009 -20.89764118
-3.06916055 -4.95571935 -9.30756723
7.70023077 -51.69726781 -18.51279075
-1.12250981 1.45618650 -36.48205904
-0.98005798 -1.29576432 -1.72683417
-16.82026553 16.99557148 -18.29306485
-14.28295413 -12.67599352 37.77814993
-0.94414319 -1.29972236 -5.95934899
-15.49670940 22.98538453 0.83657044
6.34703855 -1.30062574 -13.91445118
-1.14903245 -1.07428845 10.13889983
-21.63164406 14.60890088 -18.44527443
-13.41001105 -12.33417805 -18.72767140
7.62629237 -4.80749128 0.86875354
-6.93691109 3.03424209 -11.79795770
-21.97948507 -17.21518621 -17.18169535
-2.11032169 20.20040655 38.10260692
-4.19673579 -1.53246360 3.41030257
2.40873867 8.40234322 -25.11429017
5.70040201 8.81734102 7.22104733
-17.29848321 2.20758102 -5.84313214
0.78858811 1.43034686 2.76812372
26.29102313 -2.68051838 5.06658837
6.79595378 0.51278076 -9.25416706
2.17390728 -2.64341296 -4.29258594
-22.41295807 7.70869311 -18.22764244
6.83701604 13.53290686 46.08146720
-0.08115675 6.80677372 -9.65513130
-6.40268713 -21.88046366 9.66653977
-18.98853921 -12.59865689 5.54435834
1.73819666 -2.27098418 -13.70663396
15.43279473 12.83824509 -31.08992604
-14.62659250 -30.59583884 4.13469748
4.36210348 -10.20212142 10.59669148
19.67293502 -28.66724188 24.92281292
-0.09134497 29.89520014 -12.95220486
-6.70962108 -3.61211201 3.39714481
0.67444912 -26.28120544 -28.27800167
1.85559626 -17.59014017 -39.69276405
-2.50923987 3.69470158 1.02143183
21.41254586 38.95464562 -6.52010932
-19.03485054 -19.71311753 -25.67342845
-8.84067123 3.22021202 1.58974746
34.25579760 36.86553938 36.28180722
-3.72284212 -24.09194160 -4.34667861
-1.06748523 7.89846007 -3.54052963
8.69577430 -9.82320981 -4.69899637
14.42593076 14.07234076 11.03673782
-12.95165382 8.41042258 -5.22708587
10.43697746 4.10633438 2.41098432
9.46439806 1.76556844 -5.00689823
-16.07826260 33.81034528 33.67424516
-7.75134933 6.63919305 8.36586228
-0.80297041 -4.57088608 -0.88717113
7.71889195 -29.93526873 -2.58646590
47.42067746 30.96487251 17.36794420
-2.02184549 -0.34227861 22.43571737
18.69084604 -23.98299239 0.56401607
15.14021226 18.98651039 -39.28169406
-3.66782355 10.32693962 -0.94419421
-18.53234840 6.20526595 -18.27861616
12.20307534 16.68348300 -18.15611487
-1.86895466 -2.67528323 12.12058691
27.44639821 -24.18267934 23.77939468
-63.51770316 -11.98905898 16.18136219
-5.03904053 -1.04165765 0.23729054
18.28929778 31.44169188 -21.35034063
-15.17887407 20.45517283 15.95390107
6.40691170 0.24081027 -0.47755146
10.18833909 6.89432063 4.95001905
16.72317848 -21.04745626 20.18313002
8.01420148 5.05586750 4.29099036
-12.47041075 15.16329741 -6.28091500
-41.50468195 -6.35078552 -19.37960539
6.10074864 -5.85708416 0.48671422
42.04698322 26.10250627 -1.43611550
5.29220383 2.99089733 -22.59827186
8.47813892 12.07856335 12.01594787
10.27338962 24.34148854 -7.91412617
-1.45513144 -38.13613996 42.69632639
41.53031341 -32.49299659 30.90458125
-11.69619060 -0.02825817 2.40011637
-6.10031974 -40.83391630 9.98694448
-37.82277092 -29.13727332 -35.13239601
-6.89100993 21.10567235 1.41417336
22.98779951 1.43319235 -7.35245639
-34.31534144 -11.27611873 0.14651216
-47.04214571 -43.27523969 16.42645435
1.50540781 10.56790224 3.98989441
-2.06346612 17.27028387 0.08799100
-4.45199402 -7.61228875 -18.70857262
-0.64701660 -7.20070005 -2.58551003
0.90487066 12.88261083 -8.73014592
12.71040105 -21.46981642 -15.40442073
-5.09430925 -5.29477335 -6.53635765
-38.32351801 -4.89689446 7.24608498
-23.51561140 20.56677551 19.90714411
1.65717365 -3.51982631 10.57648525
3.52844036 16.21763851 -27.34945766
9.61576560 21.83081698 26.66501303
-1.51992228 3.39417026 -7.43094320
13.57440467 -4.29302483 -12.28619758
-57.71287176 -13.03565793 41.71983901
-0.97168154 -7.19576481 -5.40935322
-0.41647645 -7.48984577 -37.75726144
-24.02080566 -38.81703608 -12.61964138
1.47327651 3.58106729 -6.68352590
-7.86408252 52.27320380 -5.60065710
-26.31810386 9.39198435 -11.04791446
-4.48844375 0.96710765 0.91646414
-46.88365522 -15.54201593 8.36396546
-2.54149329 20.78804722 8.10479874
-4.30256740 -28.33450610 7.04655021
7.28425466 1.47817982 -0.11289110
-7.04961965 -117.45887573 20.15116631
4.20023611 34.26362028 -24.15801468
32.11964478 -18.35995497 4.17446325
0.18446546 8.89816084 -6.55947799
19.15678790 -15.17352767 -10.43319982
0.49053294 14.64584909 44.78428752
0.00164176 -5.80841077 4.72873746
6.36777924 1.21718917 -5.38273769
12.28926290 -8.38961389 29.01387366
-3.16626733 2.79899523 -6.37782331
18.74950810 5.57100771 -10.66393843
-6.68234566 13.58813406 2.40308309
-11.88748162 9.23963241 3.00590143
4.99714392 2.50217597 -13.35273372
-43.51441055 32.67717491 7.72792237
-7.44022295 0.33644222 -6.86538649
-0.65547583 -11.69525861 23.80887746
9.74643403 16.12605843 -25.82106469