Geometry = GenFormat {
<<< "system.gen"
}

Driver = VelocityVerlet{
  Steps = 100000
  TimeStep [fs] = 0.2
  MDRestartFrequency = 5
  Thermostat = None {
    #InitialTemperature [Kelvin] = 300.0
  }
  Xlbomd{ 
    IntegrationSteps = 6 
    MinSccIterations = 2
    MaxSccIterations = 200
    SccTolerance = 1e-6 
  }
  Velocities [m/s] {
     -7.33770473E+02     -3.09178547E+02      5.50633649E+02
     -3.69576339E+03      1.23991810E+03      5.98758339E+01
     -2.60523518E+03     -7.10950736E+02     -2.20586096E+03
     -4.29565582E+02     -2.95262436E+02      4.49324371E+02
     -2.04801412E+03     -6.09450973E+01     -4.05909240E+02
      1.20548194E+03      5.92184732E+02     -9.31009148E+02
     -3.36730295E+02     -6.34614032E+02      2.82984399E+02
      1.17999688E+03     -2.99936516E+02      8.80725221E+02
     -2.46457010E+02      1.87890848E+03      2.88361771E+03
     -6.90447387E+02      5.19483666E+02      8.79941102E+02
      2.06907907E+03     -5.69569934E+02     -2.09437780E+03
      2.10430279E+03     -2.18555606E+03     -2.99325863E+02
      5.04639532E+02      1.94351728E+02      1.09794234E+02
      2.13591997E+02     -5.18806850E+02     -8.53148403E+02
      2.99532795E+02      3.61486381E+03     -1.90163926E+03
     -1.01018617E+03     -2.39358187E+02     -1.31741868E+02
      2.10933985E+03      1.22261227E+03     -1.05141981E+03
     -4.49636305E+02     -4.62966197E+02     -2.43119204E+03
      1.52140069E+02      4.92069616E+02     -2.15909957E+00
     -2.51351794E+03     -1.44070961E+03      7.72459080E+02
      1.90258879E+02      1.30232038E+02     -3.27415904E+01
     -4.50222751E+02      3.28153240E+02     -3.24968379E+02
     -7.47138488E+02     -2.14887979E+03     -1.64482692E+02
      2.85998501E+03      1.50228736E+03     -3.47965401E+03
     -6.38652599E+02     -3.31749775E+02      2.34039758E+02
     -3.50208843E+02      4.26736136E+02     -1.02311589E+03
     -2.23120439E+03      7.83742199E+02     -2.90549792E+03
      8.41824478E+02     -1.01937136E+03     -4.84144650E+03
     -6.37524949E+02      3.65886710E+02      3.00921045E+02
     -1.98480233E+03     -3.73798342E+02      1.44462803E+03
     -9.37650401E+02     -9.16820175E+02      1.03205247E+03
     -3.87244608E+02      1.43297031E+02     -1.89968113E+03
      2.36066725E+02      8.31791180E+02      2.02440986E+02
      1.07767310E+03      2.34431572E+02      2.61361258E+02
     -1.88801294E+03     -4.02415089E+02     -1.34453185E+03
     -6.25255765E+02     -1.57024932E+02      3.37978291E+02
      4.18379852E+02     -5.56515323E+02     -6.47329040E+02
     -2.61269213E+03     -9.45885246E+02      1.22569752E+03
     -3.61593842E+02     -5.09555038E+02      1.06182986E+03
     -1.48103868E+03      6.83977247E+02     -1.30566439E+03
      1.46059471E+03     -3.55951333E+02     -2.25086254E+02
     -6.13958645E+02      9.59639487E+02      6.35054327E+01
     -1.32472676E+03      4.70114948E+02      8.84991179E+02
     -1.04085408E+03     -2.83499856E+02      6.47874041E+02
     -5.97693487E+02      7.65196476E+01     -6.18982337E+02
     -1.11988586E+03     -2.24453448E+03      5.52029134E+02
     -1.61992917E+03     -6.66489351E+02     -4.36520858E+02
     -1.58142020E+03      4.03617426E+02     -1.30420603E+02
      1.13928967E+03     -1.77565871E+03      1.51062210E+03
      1.06455090E+03      2.43683653E+02     -1.40317183E+03
     -7.90793759E+01      3.91150690E+01      7.63674703E+02
     -2.06962685E+03     -1.95112052E+03     -1.19055747E+03
      7.74079072E+02      4.24260969E+03      2.58795700E+03
      4.44416931E+02     -2.87754529E+02      7.66294885E+00
      1.37651144E+02      2.12753798E+03      1.04854885E+03
      3.41391914E+03     -1.98518059E+02     -1.43039085E+02
     -4.25747618E+02     -1.00116000E+03      1.87995869E+02
      4.75043664E+02      8.04912102E+02     -5.42142035E+02
      3.01896219E+00     -2.26678133E+02      1.60382292E+03
      1.17990657E+03     -1.06906408E+03      8.89656991E+02
     -3.63989986E+02      2.67692569E+02      2.59784394E+02
      5.39549987E+02     -1.11924386E+03     -1.62197220E+03
     -1.54550260E+03      2.17653378E+02     -1.13768436E+02
      1.97165455E+03     -1.54871099E+03     -3.04049690E+02
      2.71520401E+02      1.79507708E+02      6.55372701E+02
      1.47809687E+03     -1.21325388E+03     -4.79557274E+02
     -7.85563139E+02      1.27181423E+03     -4.04558131E+02
     -1.34720980E+02     -1.26075525E+02      1.34654905E+02
     -1.20241290E+02      1.06072236E+03      1.42453828E+03
      4.18943208E+02      8.84303796E+02     -2.47954323E+02
      3.87835037E+02     -5.88039115E+02     -4.04683539E+02
     -7.80208074E+02     -2.54550531E+03      2.55783261E+02
     -2.67947953E+03     -5.44896224E+02      7.39127859E+02
     -4.26020841E+02      1.82710682E+02      2.78985691E+02
     -2.31398940E+02      2.62480084E+03      3.62295878E+03
      2.71136790E+03      4.11097984E+01     -9.03614556E+02
     -9.92219242E+02      7.20802945E+02      7.88859431E+01
      2.44058717E+03      9.07041620E+01     -6.36123833E+02
     -1.36129646E+02      2.31693398E+03      6.08760233E+02
     -3.71609345E+02     -6.13338221E+02     -6.85059537E+01
      9.00985030E+02     -5.81749386E+02     -1.20837897E+03
      5.62063922E+02     -1.28393033E+03      5.68795460E+02
      2.48399429E+04     -6.86836699E+03     -1.13563415E+04
      2.62574338E+03     -1.55360057E+02     -3.62918338E+03
     -2.98531930E+03      6.75152779E+02     -2.05031013E+03
     -2.98193493E+02     -2.89520961E+02      4.04245340E+02
     -9.20160493E+01      3.04374135E+03     -3.53803262E+02
     -3.56825566E+03      1.13184673E+02      2.11523207E+03
     -8.89829452E+02     -6.63242314E+01      9.33572179E+02
     -1.05447500E+03     -3.58594631E+02     -7.20492906E+02
      6.71541913E+02     -3.12032431E+03     -2.51240429E+03
     -2.64678145E+03     -1.85795192E+03      8.63881008E+02
      1.69835625E+02     -3.32972127E+01     -5.06612218E+02
     -4.82463247E+02     -1.19445166E+02     -2.04561229E+01
      1.23258265E+01     -2.28224568E+03      3.54869570E+03
      6.48943954E+02     -1.59855120E+03      1.78846420E+03
     -1.38847014E+03      4.06877616E+02      5.08518486E+02
      1.43785694E+03      2.63231565E+03      1.20590029E+03
      5.41311221E+02     -2.00477145E+03     -1.36070248E+03
      1.09086681E+02      1.42579367E+02     -6.06011657E+02
     -1.00675275E+03      1.32023783E+03      1.20873028E+02
      3.93342615E+02      9.95328120E+02     -5.53702640E+02
      2.73533105E+02     -5.33689056E+02      6.64312868E+02
     -7.78324410E+02     -5.18723524E+02     -9.91133934E+01
     -1.35033427E+03     -2.18547202E+03     -1.40323582E+03
      2.49216705E+02      1.38119325E+02     -8.04167759E+02
      1.30446853E+03      2.26034553E+03      1.33391318E+03
      1.18064028E+03      1.81965275E+03     -2.28673682E+03
      2.48203445E+01     -2.20367985E+02      2.74589392E+01
      9.17542763E+02     -6.48129428E+02     -5.86238131E+02
      2.93562629E+03     -6.76080719E+02      1.56670610E+03
     -2.00191467E+02      5.11183698E+02     -6.15726209E+02
      4.04517516E+02     -8.95763626E+02     -1.96137117E+03
     -1.00877970E+03      8.68741890E+02     -2.07554594E+03
     -4.75339034E+02      1.73024141E+02     -1.40841102E+02
     -6.94124510E+02     -9.49346314E+02      1.62736607E+03
      2.90735515E+02     -1.33076044E+03     -2.25775314E+02
     -3.51803915E+02      1.82687649E+02     -4.91733714E+02
      1.48949944E+03      3.92516041E+02     -2.07352353E+03
     -3.13581686E+02     -7.36056488E+01     -1.90543268E+03
     -1.15797191E+02      1.51691282E+02     -5.46207346E+01
     -2.12634767E+03     -1.76411150E+02      4.63086916E+02
      7.48320921E+02      9.45099833E+02     -1.75490008E+03
      4.43548814E+03     -9.37462430E+02      1.04990198E+03
     -6.40906273E+02      1.10531471E+03     -4.08179397E+01
     -2.77197876E+03      9.10507755E+02     -7.62957287E+01
     -2.33346729E+03      2.16754599E+03      1.22605930E+03
      2.24620843E+03      1.07392417E+03      5.66954335E+02
      4.80197308E+02      6.29244919E+02     -2.19021305E-01
      8.87448820E+02      2.90282323E+02      1.39462843E+03
     -1.59805418E+03     -3.55195591E+02      8.49192542E+02
     -1.79172261E+02      6.11739044E+02      3.97770594E+02
      7.09029317E+02     -6.52622068E+02     -9.93929264E+02
     -4.93471953E+02     -7.41475783E+02      1.98097697E+03
      4.70571295E+02     -6.49717152E-03     -4.47229604E+02
      6.34658665E+02     -6.08404635E+01     -6.02759916E+02
     -1.67519113E+02     -1.21543966E+02      4.48952158E+02
     -2.03596347E+02     -2.11966772E+02      4.94080131E+02
      1.68723204E+03      7.00592074E+02      2.28426597E+03
     -5.19818953E+02      2.55493232E+03     -2.61186395E+03
     -8.11836783E+01      8.25727485E+02     -1.31854368E+02
     -1.10919616E+03     -2.17259840E+02     -3.09438198E+03
     -2.58076514E+02      4.41176397E+01      6.89927375E+02
     -7.94345496E+02     -1.26515755E+02      5.39895444E+02
     -8.98842636E+02      8.43304755E+01     -3.49265477E+01
      3.13832103E+03      7.87047480E+02     -2.59320960E+02
     -1.26460186E+02     -1.29041431E+02     -9.07841191E+01
      3.45047079E+02     -1.12823135E+03     -3.89498191E+02
      4.54289197E+01     -8.91546108E+01     -3.09856772E+02
     -9.45407785E-01     -1.00493652E+02      7.55626462E+02
      9.13197735E+02     -6.39510229E+02      1.49710770E+02
      9.63130656E+02      2.25712980E+03     -1.63623807E+03
     -4.48830870E+02      6.97285042E+02     -3.30150992E+02
      2.12969346E+03      1.83201531E+02      9.76503094E+02
      8.65325805E+02      2.18173442E+03      8.91676462E+02
     -3.16033894E+03      2.76231807E+03      1.27113184E+03
      1.39038483E+02      7.87143696E+01      5.04414208E+02
     -2.07416182E+02      2.53442487E+03     -1.38166629E+03
     -2.76521977E+02      1.87724346E+03     -1.20325959E+03
     -3.30877567E+03      1.11189223E+03     -1.15540585E+03
      1.21061854E+02      8.08697612E+02      5.98072365E+02
     -7.82608523E+01     -2.41788181E+03      1.32316974E+03
      1.29528086E+03      1.07026461E+03      1.39168654E+02
     -6.25768014E+02      3.97387533E+02     -1.63740273E+02
      5.89597133E+02     -1.40957175E+03     -1.09114935E+03
      5.08147458E+02      6.07946451E+02     -1.26747932E+03
      9.44395067E+00      4.68934779E+02     -1.71207007E+02
      8.85092944E+02      2.07792384E+03      4.28114030E+02
     -1.36226724E+03     -3.60136454E+02      1.69031572E+03
      2.49883577E+02     -5.15397961E+02     -2.82813777E+02
      2.48706026E+03     -4.26344513E+02      2.30804757E+02
     -3.65757976E+02      1.64853154E+03     -7.89315659E+02
     -1.00816355E+03      5.08611720E+02     -1.22921035E+02
      1.22934193E+03      1.98270194E+03     -1.01996465E+02
     -2.00247305E+03     -1.79712497E+03     -6.81256674E+02
      1.13334635E+01      1.63844276E+02     -7.59420670E+02
      9.03862721E+02      8.75884421E+02     -2.83074253E+02
     -1.08041615E+03      6.62011287E+02     -5.20214511E+02
     -3.69668631E+02      1.38789608E+02     -4.74775364E+02
      5.82736263E+02      8.82793107E+02      3.66362476E+02
     -3.23453968E+03      7.97227619E+02     -2.55190648E+03
     -2.83622956E+02     -4.41017486E+02      5.69717577E+02
     -1.18010636E+03     -1.97435019E+02     -1.49052992E+03
     -6.71001078E+01      2.54829645E+03     -2.26185220E+03
     -7.31510374E+02      6.65349747E+02     -4.94873094E+01
     -2.78022541E+02      6.14571595E+02     -2.24282824E+02
     -3.28819279E+03      1.78459588E+02      8.51169389E+02
     -1.41189259E+03     -2.58552702E+03      2.75881082E+03
     -4.20877566E+02     -2.22238025E+02     -6.05857308E+02
      1.94526661E+03     -1.18898672E+03     -3.75908062E+03
     -2.13272326E+02      1.90119701E+01     -7.63179380E+02
      2.14962196E+03      1.28161842E+03     -1.29072481E+03
      6.77990883E+01     -3.81448094E+02      1.12079036E+03
      1.16640151E+03     -2.15901068E+02     -4.99520444E+02
      7.25154546E+02      5.95851411E+02     -6.40313803E+02
      1.94680948E+02      1.26952363E+01      3.97419267E+02
     -5.20062551E+02     -5.39751886E+02      1.79031350E+03
      1.22825774E+03     -6.93376610E+01     -4.01156018E+02
      6.42237444E+01      4.01842915E+02     -5.25455822E+02
     -2.89249985E+03     -1.88302600E+03     -6.31939325E+02
     -1.24999393E+03     -4.19524221E+02      3.60182971E+02
      5.35107475E+02      6.75762730E+02     -3.03520837E+00
     -7.84281867E+02      1.01893600E+03      5.83153139E+02
      9.84024285E+01      2.33071801E+02     -6.27880081E+02
     -3.31342430E+02     -5.20347487E+02      5.21885598E+02
     -1.05514797E+03      1.35611842E+03      8.88226299E+02
      2.99044839E+02     -1.91068359E+03     -4.30294186E+02
     -3.45555333E+02      3.82342188E+02     -7.92000272E+01
     -1.30724238E+03     -1.03314650E+03      1.49389501E+03
     -1.39015598E+02     -3.20754697E+03     -1.56319822E+03
     -1.81056682E+02      2.19098346E+02     -2.80257773E+01
      3.22169784E+03     -4.71013070E+01     -4.70304472E+02
      1.10880641E+03     -3.68701597E+02     -1.55105117E+03
     -6.32599596E+02     -1.17613501E+01     -5.21914963E+02
     -4.52790851E+02      5.82317469E+02     -5.92122175E+01
      2.52266258E+03     -3.37956810E+03     -1.21683081E+03
     -4.95293240E+02     -4.49042170E+01      3.29343550E+02
      5.55626962E+02     -1.00575446E+02     -9.94180404E+02
      2.89710995E+03      1.18062681E+02     -2.79723923E+03
     -1.21834724E+03      1.49484275E+02     -1.90853973E+03
     -4.80045155E+02      6.11104991E+01     -2.58975398E+02
     -1.06472981E+03      1.39213245E+03      1.53139580E+03
     -1.51698208E+03      8.66869690E+02     -2.70934424E+03
     -1.84752586E+03      2.17780641E+03     -2.45855848E+03
     -4.63996155E+02      2.63514227E+02      4.36701676E+01
     -2.74357936E+03      2.15986672E+02      7.30549438E+02
     -1.26546572E+03      2.93277248E+03      1.45364540E+03
     -1.20589389E+02     -8.68378727E+02      4.71289896E+02
     -3.94552136E+03      8.47295037E+02      2.03080674E+02
     -1.60000030E+03     -1.26041362E+03     -2.28792413E+02
      1.41108795E+02      7.40190933E+02      5.64542455E+02
     -5.68810699E+02     -1.48866769E+03      8.60341764E+02
     -2.13221396E+03      1.51998682E+03      2.30619865E+03
      2.50834793E+02     -8.01752343E+01      1.41251813E+02
      2.51251731E+03      2.17616262E+03      1.45520102E+03
     -2.14477764E+03      1.30715714E+03     -2.73353831E+03
     -3.70698840E+02     -2.86800035E+02     -1.69506055E+02
      2.42932340E+03      6.09603777E+02      2.58901064E+01
     -1.01289882E+02      6.55652063E+02      2.17222036E+02
     -1.04273819E+02     -1.84208432E+02      2.90983777E+02
     -6.72067774E+02     -2.27603601E+03     -1.52945959E+03
      1.68726103E+03      1.08566150E+03      1.46071021E+03
     -6.39794423E+02     -3.46603072E+02     -1.37797844E+02
     -1.60928385E+03      2.36899384E+03      5.30822036E+02
     -1.91308999E+03     -1.75012529E+03      6.35186950E+02
      1.59188459E+02     -5.77767873E+02      2.92521364E+02
      5.76697882E+02      1.09840718E+03      7.54134953E+02
      1.02054958E+03     -1.13373557E+03     -6.85974071E+02
      8.05232086E+02     -4.42294783E+02      7.00572705E+02
     -2.15194597E+03     -1.63066954E+03     -2.13708957E+03
      5.19509939E+02     -5.06307885E+02      1.41181164E+03
     -4.61355401E+03      7.25043513E+02      1.83955295E+03
      1.35782779E+02      5.64852864E+01      9.15589206E+01
     -2.19760414E+03      6.54079748E+02     -1.62286466E+03
     -4.46020602E+02      4.14457205E+02      3.20879404E+03
     -1.25385043E+03     -1.56255152E+03     -1.77178444E+03
     -5.17900136E+02     -2.25157705E+02     -8.30658794E+02
     -7.11805146E+02     -3.93847607E+02      1.67603352E+03
     -1.16473964E+02      5.13954832E+02     -4.36560610E+02
     -7.28989989E+02     -2.75019393E+02     -8.42131835E+00
      5.17795812E+02      3.12264809E+02     -1.91071034E+03
      2.29441997E+03      1.64592556E+02     -1.51760410E+03
     -1.45408916E+02     -5.28857476E+02      2.18648307E+02
     -8.24639179E+02     -1.73918930E+03     -5.90105576E+02
     -7.99081293E+02     -1.42732935E+03     -2.89873777E+03
      5.45588849E+02     -6.01389014E+02     -4.11388302E+02
     -8.22817146E+02     -8.27931738E+02      1.38963890E+03
     -2.44595334E+03      2.65371721E+03      2.23098688E+03
     -8.46663470E+02      7.45287106E+02      1.33924707E+03
     -1.50871653E+02      2.62864072E+03      5.43900102E+02
     -8.50712126E+02      3.27032032E+02     -1.43281582E+03
      4.03810509E+02      1.13826540E+03      1.38812654E+02
      2.36034063E+03      8.42032528E+02     -4.90001853E+02
      4.44601119E+02     -1.69498756E+03     -6.49727365E+02
     -4.54434184E+01     -1.36929310E+02      6.24605241E+02
     -2.73597216E+03     -6.18656936E+01      5.28954886E+02
      1.15271988E+03     -2.78971550E+02     -3.80076817E+01
     -7.78223585E+01      3.41721953E+02      9.38580264E+02
      2.83128420E+03      1.00516479E+03     -1.32613431E+02
     -1.44372760E+03      1.97845301E+03     -1.46363129E+03
      1.32476209E+02      6.64576135E+02      4.81240584E+02
     -4.40760459E+03      1.41491009E+03     -2.10974312E+03
      1.04152089E+03     -2.69281000E+03      7.57832678E+02
      2.38374112E+03     -1.66095590E+03     -1.39107443E+02
      5.54902106E+02     -9.65329082E-01     -8.07452655E+02
      1.49392547E+03      1.28531339E+03      2.62956466E+03
      2.14045984E+03      1.71279176E+02      2.35439945E+03
      2.21858960E+03      2.32226089E+03     -1.04598163E+03
     -2.34349306E+02      9.64704721E+02      9.73658439E+02
      5.20788680E+01     -2.63636163E+03     -1.25563412E+03
     -5.70874999E+02     -1.54250279E+02     -1.37637226E+03
      2.53361371E+02      1.84905825E+02     -1.03668852E+01
      1.30517407E+03     -1.28419739E+03     -5.13751657E+02
      3.71281822E+01      1.78239682E+03      5.46543295E+02
      7.01475433E+01     -1.48115374E+02      3.38311971E+02
      4.43104737E+01      1.32003598E+03      2.37562904E+03
      1.54787694E+02     -9.00884318E+02      4.72674638E+02
     -2.15267783E+01      2.22356808E+02      4.54161968E+02
     -8.85767311E+02     -1.44933574E+02      2.40880795E+03
      5.98246592E+02      8.95799971E+02      2.84357068E+02
     -5.71507905E+02     -2.89396754E+02     -5.49652932E+01
     -1.23259201E+03      2.85926520E+03      2.12463833E+03
     -9.05494075E+02     -5.78012487E+02     -2.27519685E+02
     -4.08655470E+01      4.57904787E+02     -2.27675085E+02
     -1.97878905E+03     -2.07864865E+03      1.81527498E+03
      8.84303483E+02      1.59278887E+02      1.19871661E+03
      3.83635620E+01      5.02820309E+02      1.45410362E+02
     -5.71931900E+02     -3.61474915E+02      1.21170448E+03
     -1.27978340E+03     -3.12629381E+02     -5.39937264E+02
     -7.88110122E+01      2.43318993E+02     -6.24797407E+02
     -9.38198704E+02     -1.50023792E+03      5.81633632E+02
      1.26397258E+03     -2.88635974E+01      2.16631688E+03
      3.71056099E+02     -2.12305851E+02      2.32003244E+02
     -9.48480715E+02      3.04246483E+03      4.63636260E+02
     -1.62058008E+03     -1.06390670E+03      3.99446980E+02
     -2.55686800E+03     -7.23385438E+02      1.47512981E+03
     -5.10534903E+02     -2.65360813E+02     -2.46551929E+02
     -2.19857712E+03      3.24616953E+01     -9.15337315E+02
      4.41486558E+03      1.16490174E+03      1.15995257E+03
     -2.81377774E+01     -1.28795536E+03     -9.49792914E+02
     -2.87118157E+02      5.96049495E+01      6.47039886E+02
     -2.61841477E+03     -4.81315290E+02      1.77246557E+03
     -1.00110685E+03      1.24720862E+03      2.41218727E+03
     -4.55096105E+02     -6.95316623E+02      3.57072593E+02
     -7.37619648E+02     -1.09040488E+03      6.71897491E+02
     -8.73765258E+01     -6.59697470E+02     -5.73863503E+02
     -5.16341063E+01     -5.00147315E+02      1.34686681E+02
     -1.89936399E+02      3.84602820E+02     -2.45663200E+01
     -2.21258703E+03      9.38862866E+02      1.98866060E+03
      1.16738994E+02      5.36882885E+02     -3.31974386E+02
     -6.23080923E+02     -1.91156584E+03     -3.19677270E+03
     -5.90187188E+02      8.74814380E+02      1.83179293E+03
     -3.46416227E+02      2.40182912E+02      2.16254116E+02
      7.83855213E+02     -2.02692972E+03      2.56968298E+01
     -1.94739624E+03      1.28339456E+03      1.16660824E+03
      2.03861671E+02      8.67517063E+01      5.73728881E+02
     -2.31798477E+03     -2.49283512E+03      5.79067924E+02
      1.49992529E+03     -8.24008301E+02     -1.74359019E+03
     -6.27193785E+01     -4.61029113E+02      1.01691067E+02
      2.44999727E+03     -3.24559087E+03      4.84856744E+02
     -8.47751473E+02     -1.31928856E+03      3.80180102E+02
     -1.22507463E+02     -6.66895550E+02      5.75547841E+01
     -1.47796405E+03     -5.73051151E+02      9.78596960E+02
     -9.35363838E+02     -2.20442090E+03      6.95288062E+02
     -2.55266542E+02      2.03026249E+02      2.33506942E+02
     -6.15559579E+02     -2.40410557E+03      5.88602100E+01
      8.59917830E+02     -1.26100889E+03      5.31040140E+01
     -2.89224002E+02     -8.07181582E+02     -2.03465233E+03
      4.70800439E+02     -8.03529238E+02      8.43372389E+02
     -9.21574762E+02      8.12489922E+02      1.95144101E+03
     -4.41788998E+03      1.20466891E+03      1.38456758E+02
     -1.72212500E+03      2.56393775E+03     -1.86842738E+03
  }
}

Hamiltonian = DFTB {
  SCC = Yes
  SCCTolerance = 1e-6
  MaxSCCIterations = 200
  ForceEvaluation = Dynamics
  MaxAngularMomentum = {
    C = "p"
    H = "s"
  }
  Charge = 0.0
  SpinPolarisation = {}
  Eigensolver = Standard {}
  Filling = Fermi {
    Temperature [Kelvin] = 300.0
  }
  SlaterKosterFiles = Type2FileNames {
    Prefix = "../../pbc-0-3/"
    Separator = "-"
    Suffix = ".skf"
    LowerCaseTypeName = No
  }
  KPointsAndWeights = {
    0.0000000000000 0.0000000000000 0.0000000000000 1.00000000000000
  }
  Dispersion = LennardJones { 
    Parameters = UFFParameters {}
  }
}

ParserOptions = {
  ParserVersion = 3
}
