Geometry = GenFormat {
<<< "system.gen"
}

Driver = VelocityVerlet{
  Steps = 100000
  TimeStep [fs] = 0.2
  MDRestartFrequency = 5
  Thermostat = None {
    #InitialTemperature [Kelvin] = 300.0
  }
  Xlbomd{ 
    IntegrationSteps = 6 
    MinSccIterations = 2
    MaxSccIterations = 200
    SccTolerance = 1e-6 
  }
  Velocities [m/s] {
      1.04205198E+03      1.27978814E+02      1.78942977E+02
     -2.78763693E+03     -1.01162754E+03      2.63424131E+03
      3.58827814E+03      9.47698794E+02      2.41927431E+03
      2.59568169E+02      1.84297884E+01      4.04279596E+01
      6.79566203E+02      9.29079669E+02      3.54230388E+02
      3.04042556E+02      3.54092617E+02      9.51173100E+02
      5.15850858E+02     -5.41111985E+02     -6.46736099E+02
      2.35663644E+01     -6.27476995E+00      2.26336644E+03
     -2.41874957E+02     -1.85549913E+03     -3.46740081E+02
     -7.34910208E+02      3.22500366E+02      1.80909631E+02
      4.79185219E+02     -1.20575537E+02     -8.59719434E+01
      8.52443749E+02      2.75720656E+02      5.73261241E+02
      2.41017619E+02     -8.74069424E+02      2.23903567E+02
      3.14274085E+03     -5.77746293E+02      1.00814359E+03
     -1.00054358E+03     -9.03869285E+02      5.08103237E+01
      2.97595631E+02     -1.20983983E+02      1.21594536E+02
     -1.09643799E+03      2.91378487E+03     -1.55681662E+03
     -7.92887700E+02      1.89707484E+03      5.57369084E+02
      2.76731079E+00     -2.32595893E+02      5.34241774E+02
     -8.10571253E+02      1.28672807E+03      6.35903671E+01
     -1.24287499E+03     -1.32215641E+02     -3.16294865E+03
     -1.88067412E+02     -5.41644907E+02      6.20287733E+02
     -8.31479942E+02      1.99133068E+03     -4.97422607E+01
      2.52505425E+01      2.27662933E+02     -2.28565854E+03
     -1.07128835E+03     -5.59896554E+01     -3.80406925E+02
     -7.44385811E+02     -2.04075907E+03     -1.48194525E+03
      1.30801934E+03      2.62775040E+02     -2.48380992E+03
      5.90446879E+02     -5.35584006E+02      1.30556726E+03
      5.43407729E+02      1.74499258E+02      2.56392542E+02
     -7.75128746E+02      3.88293302E+02     -1.59360767E+03
     -2.90808043E+02      1.11646007E+03      2.24413531E+03
      6.14439428E+02     -4.26075840E+03      2.60716582E+03
      9.23277795E+01      6.20007119E+02      8.62998352E+02
      5.17738177E+02      2.68426655E+03     -3.29172209E+02
     -9.60424353E+02     -1.76504625E+02     -1.01326253E+03
     -2.82820181E+02      4.77420164E+02      4.47010549E+02
     -1.77080647E+03     -2.71029082E+03      2.80566976E+03
      1.57625816E+03      2.03058250E+03      2.64794220E+03
      6.40338356E+02     -7.12627733E+02      2.58559571E+02
      2.01966410E+03      9.92632383E+02      1.92122227E+03
     -1.66531984E+03     -2.02301112E+03     -9.07170330E+02
     -3.43288366E+01      4.09998906E+02     -9.88796289E+01
     -1.79613675E+03      4.99711352E+02      9.31639340E+02
     -1.82973957E+03     -9.81472984E+00      2.92430678E+03
     -7.89428926E+02     -1.16515785E+02      2.15432151E+02
     -3.91922111E+00     -3.52014334E+03      1.51250872E+03
     -1.19853417E+03     -2.99195425E+03      2.72984142E+03
     -6.21403466E+02     -1.05571775E+02     -3.49273743E+02
      1.77030816E+03      3.18933135E+03      2.44540121E+03
     -3.26882970E+03      1.78044765E+03      3.09972687E+03
     -1.97143703E+02      5.29247350E+02      5.59260363E+02
      4.56526714E+02      1.82187440E+03      2.04857270E+03
     -7.60294535E+02      2.75445296E+01      2.15891139E+03
     -1.36178999E+02     -4.87375676E+01      2.67788162E+02
      6.00453902E+02     -3.62048441E+03     -1.38328202E+02
      2.62305410E+02      1.66788367E+03     -3.83242346E+02
      2.44838735E+02      2.69803877E+02     -4.94679769E+02
      8.79038369E+02     -5.02774559E+02     -3.75626897E+02
      3.00923188E+03     -2.60264736E+03     -2.40553004E+03
      8.48406739E+02      5.23705395E+02      1.77446947E+01
     -1.27374483E+02     -8.16588135E+02     -6.47719934E+02
     -1.06251666E+03     -2.35347505E+03     -2.80319155E+03
      8.64543121E+02      2.02227568E+03     -9.09537647E+02
      4.57147155E+02      1.76842206E+03     -8.30782461E+02
      1.05622762E+03      6.68363701E+02     -6.56318771E+01
     -2.99661967E+03     -4.40464051E+02     -1.00134950E+03
     -2.26574463E+02     -1.76045913E+03      3.40835182E+03
     -4.66346686E+02      2.89657695E+02     -5.48567732E+02
     -1.32202434E+03     -1.48440710E+03      1.84814911E+02
     -2.52378126E+03     -2.64850111E+03     -5.09528391E+02
      1.25405330E+02     -7.99961310E+01      2.55806570E+01
     -1.00212883E+03     -3.46517638E+02      1.00256130E+03
      6.28472401E+02      1.79391471E+03      1.01147468E+03
     -1.17906755E+02     -2.56832611E+02      7.67317982E+02
      2.07335233E+03     -2.03717722E+03      2.82237199E+02
      7.74130152E+02     -1.49226554E+03     -3.05731614E+03
     -1.07965891E+02     -4.08426700E+02      2.35036848E+02
     -2.61852569E+03     -3.18580967E+03      1.90011244E+03
     -1.07010466E+03     -1.97393295E+01     -1.25500610E+03
      2.60824017E+02     -1.70002014E+02      9.07263225E+02
     -2.34004698E+02     -5.65897660E+02     -1.73584125E+03
      7.84803140E+02     -1.18785815E+03      1.32791566E+03
     -1.50302059E+02      1.03153934E+03      1.14352761E+02
     -1.08202221E+02      6.55725402E+02     -6.21356424E+02
      1.44299940E+03     -4.81587727E+02     -7.40417979E+02
     -2.98465705E+02     -1.58983756E+02     -6.93586159E+02
      1.52836086E+03      5.26940869E+02     -2.55711462E+03
      1.22807988E+03     -1.03670005E+03      1.47836170E+03
     -2.85154270E+02     -3.52938327E+01      9.61222408E+02
     -2.12090552E+03      1.78051712E+03     -6.82751957E+02
      8.53229649E+02      9.10994498E+02      4.82533756E+01
      5.36371348E+02      7.71222613E+02      5.15983942E+02
     -5.21005919E+02     -7.82290487E+02      2.75239015E+02
      1.74508838E+03     -1.82319960E+02      9.79802539E+02
      8.64143873E+02      2.37491079E+03     -2.78982866E+03
      2.69561637E+03      1.03231209E+03      1.23575152E+03
     -3.42084260E+02     -7.68458086E+01      5.64348811E+02
     -1.03632056E+03     -1.58592630E+03     -8.74869571E+02
     -5.10477914E+02     -1.63159813E+03     -1.56719859E+03
     -2.85528952E+02      7.92164755E+01      5.06439076E+02
      6.67924282E+02      2.39349402E+02     -2.79282638E+02
     -1.66943479E+01     -2.47511265E+02      1.65879672E+03
      1.51738002E+02      8.26996286E+02      3.43704148E+02
     -5.80164660E+02      1.69203565E+03      1.21113388E+03
      8.06924328E+02     -1.92356850E+03      1.24196134E+03
     -3.21547903E+02      1.40619774E+02      6.37123605E+02
      8.11213664E+02      2.04578740E+03     -3.79309925E+02
     -9.01748493E+02      2.80356454E+03      3.81092208E+03
     -2.53139031E+01      2.69121208E+02      2.12524694E+02
     -9.90808024E+02      6.98450308E+02      3.08246788E+02
      1.19725812E+03      1.62388130E+03      2.84707507E+03
     -6.39789739E+02      3.96672759E+02      3.31122565E+02
     -1.16495487E+03      6.88119886E+02      2.00984402E+03
      2.98443383E+03      3.86755892E+02      9.15024536E+02
      1.39860388E+01      1.88990135E+02     -1.00803780E+03
     -2.02428781E+03     -2.81061623E+03     -1.66188962E+03
     -7.35880883E+02      9.74283992E+02      1.73580637E+03
     -4.02130881E+02      2.02205925E+02     -4.49572780E+02
     -7.83555788E+01      1.07430900E+03      1.93624059E+03
     -8.84892811E+02      3.79746180E+03      8.14476100E+02
     -3.76526964E+01      1.47853560E+02      8.45259267E+02
      8.88505177E+02     -1.03344311E+03      2.45275821E+03
      9.47786590E+02     -2.30538134E+03      2.84955080E+03
     -1.87396334E+03      1.73613119E+03     -2.39489423E+02
      2.39668419E+01     -7.10547108E+02      2.11610393E+01
      1.58357546E+03      4.40903626E+02     -5.37856158E+02
     -2.49383669E+03     -1.36903736E+03      1.60196332E+02
     -8.46433007E+02     -3.75783683E+02     -8.71649189E+01
     -1.35024071E+02     -8.58981560E+01      4.26212369E+02
     -7.08684550E+02     -7.43457782E+02      7.18048106E+02
      2.00448855E+02      9.35914334E+02     -6.90244463E+02
     -7.13661810E+02      2.09994766E+02      5.15797722E+02
      1.51695031E+03      1.73058829E+03     -5.72493736E+02
     -2.68698186E+02      3.90279186E+02     -5.90313923E+02
      1.46670788E+02     -1.31728049E+02      8.78966226E+02
      2.11793406E+03      7.08810108E+02      1.89395190E+03
      1.04672213E+03      1.68353265E+03     -1.21699758E+03
     -1.33824921E+03     -9.58074899E+02      5.79837359E+02
     -7.55296431E+02      2.12964712E+03      8.30387273E+01
      1.01853664E+03     -2.34127776E+03     -1.97337686E+02
      7.43209798E+02      2.75191856E+02      3.27673040E+02
     -3.64783460E+01     -2.74975729E+02     -1.43840938E+03
      1.65263417E+03      5.68597756E+02      3.19726236E+03
     -3.48526156E+02      6.99260953E+02     -5.65190013E+02
     -1.00024418E+03      3.82692184E+02      1.74731443E+03
     -4.43863597E+02     -1.79998598E+03     -2.15315616E+03
     -3.11741995E+02      2.91397435E+02      6.09305622E+02
     -3.90173885E+02      1.53371078E+03     -8.25729000E-01
      1.59108265E+02      4.45487821E+02      1.56998084E+03
      2.98913285E+02      7.85359811E+02     -6.32225322E+01
      6.25063395E+02     -1.80659860E+03      8.25881516E+02
      1.10005029E+01     -7.36585940E-01     -1.48265934E+03
     -2.93298662E+02     -1.79084621E+02     -2.44912266E+02
     -1.30951081E+03     -1.65174665E+03     -1.35297389E+03
      1.40903184E+02     -1.59745241E+01      3.90570582E+02
     -1.26262858E+02     -1.52788887E+03     -5.86670383E+01
     -2.02577048E+02      3.50028989E+02      5.67101943E+01
     -8.59204044E+02      1.99235559E+03     -7.75591167E+02
     -1.05110152E+03      2.20341726E+02      7.06255292E+02
      8.12837410E+02      6.97034522E+02      4.10234127E+02
     -2.55664146E+02      7.56879071E+01      1.13157907E+02
     -2.44918605E+03     -1.58033032E+03     -1.23008238E+02
     -2.26912775E+03     -8.70576086E+02     -6.20809399E+02
     -3.24628380E+02     -1.81818212E+02     -2.44357311E+02
     -1.07642660E+03      2.71667302E+03      2.92435446E+01
      1.08379686E+03     -2.45329928E+03      2.49679233E+03
      4.47945480E+02      1.31172845E+02      7.88872499E+02
      2.59592075E+02     -9.59407080E+02      2.57383190E+02
      1.04120716E+03     -2.66873811E+03      9.54215536E+02
      1.04821584E+02     -5.27335410E+02      6.98337793E+02
      2.13200309E+03     -4.39672405E+02      6.33914173E+02
      3.09229844E+03     -8.72444139E+01      2.83309764E+03
     -2.99521784E+02     -1.76769486E+02      5.47646176E+02
      8.23833958E+02     -1.34592503E+03      2.74325134E+01
     -1.10759992E+02     -2.82134702E+03      5.45911440E+02
     -2.68879918E+02     -1.41274498E+01      5.10117651E+02
      9.16411318E+02     -1.23580050E+03      3.59217914E+02
      8.88024199E+02     -2.11269442E+03      2.28674717E+03
     -5.09052829E+02      2.64661106E+02      7.89897313E+02
     -1.29634053E+03     -2.37883244E+03     -2.55616438E+02
     -1.31612845E+03     -4.00445042E+02      1.42393330E+02
      3.14625556E+02     -1.54972556E+02     -4.93134106E+02
     -1.18648087E+03      2.12513570E+03      5.13361019E+03
     -7.06211247E+02      2.34183572E+03      1.80817916E+03
     -3.07687230E+02      2.06637455E+02      3.87221566E+02
      2.15944135E+03     -2.02070474E+03      8.36317588E+02
     -6.18331321E+02     -8.80992829E+02      8.06737349E+02
      2.72108758E+03     -2.07717661E+02     -6.59187922E+02
      2.86221496E+02     -3.92171508E+02      4.41568302E+02
      1.25980782E+03     -2.19465265E+03      8.72148425E+02
     -1.23202257E+03     -9.46082396E+02     -6.00609148E+02
      2.83890064E+02      2.46968446E+03     -1.07211664E+03
     -6.32616130E+01     -2.05390470E+02     -2.11861660E+02
     -1.74168540E+03      4.86487690E+02     -1.33296972E+02
      6.82229486E+02     -6.09864363E+02      3.78351630E+02
     -2.68708515E+02      3.37736732E+02     -4.42369219E+02
     -1.03225064E+03      7.51771678E+01      2.99307091E+02
     -1.27609342E+03      2.73142585E+03     -1.30973902E+03
     -2.01750097E+02     -2.38137764E+02      5.98472052E+02
     -9.80862230E+02     -3.53939889E+02      7.75964827E+02
      1.54864636E+03      1.32910395E+03      2.64693498E+03
      1.13034387E+03      2.71367267E+02      4.81817749E+01
      1.03166622E+03      1.10394694E+03     -2.05504905E+02
      2.87023123E+02     -1.54685520E+03      1.48912290E+03
      3.95998178E+02      8.06345189E+02      5.43320920E-01
      4.81659598E+02     -1.33327548E+03      9.33155602E+02
     -1.19788853E+02     -2.54542544E+02      6.22410563E+02
      2.95493133E+02      3.10409239E+01     -4.29636526E+02
     -8.32065643E+02     -2.12267896E+03     -6.20031073E+02
      1.52474706E+03     -8.26725226E+02      3.76753102E+03
     -1.79358830E+02     -2.89573818E+01     -5.06660075E+02
     -3.20107136E+03     -5.30572473E+02      2.05196439E+03
      1.90472894E+03     -9.00908696E+02      2.36613679E+03
     -4.37466660E+02      2.99934471E+02      6.04938216E+02
      1.55871541E+03     -2.80712691E+02     -4.82613411E+02
      3.92811939E+02     -8.37317405E+02      1.51953604E+03
      3.05566606E+02     -4.08573588E+00     -2.46365651E+02
      8.66759367E+02     -5.23051685E+02     -2.18010362E+03
     -1.40995393E+03     -1.49526558E+01     -1.28597141E+03
      2.40626014E+03      1.80328877E+03      1.31735911E+03
     -8.86827189E+02      3.87301826E+02     -1.63973001E+02
     -6.40427396E+02     -6.66589809E+02      4.81626728E+02
     -2.46753974E+03     -1.83642328E+03     -3.52574644E+02
     -1.30388233E+03      9.37014833E+02      1.75431611E+03
     -5.15794181E+02      1.02693068E+03      6.79354079E+02
      1.91025119E+03     -1.06961547E+03     -1.53894568E+03
      2.09374562E+03     -9.61580185E+01     -2.11704213E+02
      1.03316788E+02     -5.63341977E+01      3.18130710E+02
      1.08399923E+03      2.70791924E+02     -2.23321006E+01
      5.86046449E+02      3.54815224E+02     -2.40122209E+02
     -4.80719210E+01      2.19882187E+02     -1.41747649E+02
      4.26819951E+02      8.83208448E+02     -7.77220222E+02
      4.00541094E+02     -5.83650573E+00     -3.44295651E+02
      2.65734445E+02      1.89135766E+02      1.64471527E+03
      3.42707412E+02     -6.85574072E+02      3.11583225E+02
      7.86203120E+02      2.38020222E+03     -4.68095624E+02
     -2.55339120E+02      2.57384509E+00     -2.98122981E+02
      1.17266756E+03      2.58686471E+02      1.30552126E+03
     -5.59312753E+02     -4.21584557E+03      5.33327110E+01
     -5.27558685E+01      1.23699681E+02      2.70889144E+02
      8.05097514E+02     -6.93097202E+02      7.70269167E+01
     -1.16383014E+03      1.59441207E+03      2.21168389E+03
     -4.78690784E+02      1.25032811E+03      6.01540752E+02
      2.71267117E+03      7.56591756E+02     -1.28535711E+03
      2.51392730E+00      2.97522249E+03      8.80687766E+02
     -3.44924875E+02     -4.91985248E+02      1.17468414E+02
      7.44990284E+02      6.82555662E+02      1.69718608E+03
     -1.78948049E+03      7.86058711E+02      1.63352712E+03
     -6.95251609E+02      5.69439011E+02     -5.71314429E+02
     -3.33376176E+02     -3.37549234E+02      1.43888713E+03
     -2.40225435E+03      1.57838485E+03     -1.49147300E+02
     -1.90093960E+03      3.16016050E+03     -8.45120282E+02
     -2.69350206E+02      3.49573089E+02      7.78410330E+02
      7.14971252E+02      9.11850210E+02     -1.00647690E+03
      8.07884499E+02      1.54204932E+03     -6.69177455E+02
     -3.14399723E+03      1.65434120E+03     -4.48192143E+03
      7.03810171E+02     -2.17142017E+02      3.85936553E+02
     -6.81835846E+02      7.65116014E+02     -2.18632358E+03
     -2.36739347E+03     -1.63904851E+03     -1.49607167E+03
     -3.23284603E+02     -4.61021363E+02      4.51653352E+02
     -1.27654555E+02     -1.63202087E+03      4.71099691E+02
      1.51130447E+02     -9.52982416E+02     -2.18652777E+03
     -4.62737140E+02      1.06718154E+03      3.39669560E+02
     -1.40055749E+03     -2.73457374E+03     -1.55392234E+03
      2.06894713E+02      1.93443969E+03     -1.72751835E+03
      1.48678878E+02      3.77035105E+02     -3.47531260E+02
     -1.25316895E+03     -8.10237644E+02      2.26804136E+02
      4.16668370E+01     -3.80213706E+02      4.33274899E+02
     -3.37929505E+02      4.27442391E+01      4.80680311E+02
      8.83980327E+02     -2.31899920E+02      2.11445560E+02
     -9.65925876E+02      4.13949083E+03      3.12600403E+03
     -1.46481068E+01      5.63436494E-01     -4.51223466E+02
     -3.03731749E+03     -5.47279910E+02      1.48683019E+03
     -1.01282507E+03     -2.20751005E+02      1.00861183E+03
      1.62050766E+02      2.64207064E+01      5.79121248E+02
      1.87039504E+03     -1.67520619E+03     -1.75684820E+03
     -3.82051684E+02     -2.20467415E+03      1.42670047E+03
      6.83165445E+02     -9.84466539E+02     -4.88823621E+01
     -9.33432717E+02     -4.28568369E+02      1.59700675E+03
      2.70156203E+03      3.04279543E+02     -4.19617969E+03
     -2.71419816E+02      1.42910695E+02      3.63782092E+02
     -2.66794261E+03      2.19623000E+03      5.32772479E+02
     -4.45023277E+02     -1.87980556E+03     -1.77642617E+03
     -1.48744779E+02     -5.37573189E+02      1.25894257E+03
     -1.77469890E+02     -4.77957289E+01      2.35987732E+02
      6.26768985E+02     -1.79355457E+03      6.70204644E+02
      6.89587628E+01     -6.70279126E+01     -4.17148555E+01
     -9.81433921E+02      1.32039604E+03      6.06437028E+02
      7.48476502E+02      1.73118200E+01      6.22920533E+02
      1.65608514E+03     -9.23105078E+02     -7.30882049E+01
      1.47041720E+03      9.64455946E+02      2.97157887E+03
     -8.05547825E+02     -6.91901484E+02      4.74206922E+02
     -2.80571329E+03     -1.56734784E+03      3.83662453E+03
      7.11737082E+02     -3.68335430E+02      8.15258506E+02
      6.92054028E+03     -2.13061625E+03     -2.05144350E+04
     -5.81178080E+02      3.10925729E+03     -3.23673604E+03
     -1.69356818E+02     -2.14293245E+02      1.71766921E+03
     -2.05067596E+02     -5.55833252E+01     -6.29613629E+02
      8.53597867E+02     -2.62471937E+03      1.18139650E+03
      8.69430494E+02     -2.65066300E+02     -3.77871940E+03
     -2.48936164E+02     -2.56277140E+01      1.55890786E+01
     -2.37928351E+03     -1.45428946E+03      1.48756804E+03
     -5.80627006E+02      7.34040897E+01     -3.51316778E+01
     -1.35120816E+02     -5.62351923E+02      3.84100653E+02
      1.08322267E+02      2.00592281E+03     -3.01853663E+02
     -9.92065060E+02     -9.93161582E+02      1.86325199E+02
      4.10940476E+02     -8.24785723E+02     -3.96904434E+02
      1.51375754E+03     -1.58975074E+03      2.95028216E+03
      9.70694090E+02      1.95001085E+03     -1.04627792E+03
     -3.09946521E+01     -2.90874197E+01      4.28106610E+02
      1.05411206E+03     -2.43622842E+02     -9.96339880E+02
     -1.40632729E+03     -6.12065190E+02     -3.50221293E+02
      5.30425244E+02      8.23710935E+02     -1.89402455E+02
      9.08629933E+02      1.58419424E+03      1.13174491E+03
     -1.98380448E+03     -1.75095493E+02     -1.43921831E+03
     -2.42903661E+02      7.38009666E+02      1.50367920E+03
      7.60931994E+02     -1.79645690E+02     -1.38870656E+03
      2.22164587E+03      2.22980149E+03     -2.65498240E+03
      2.15744817E+03     -5.70964987E+02     -8.45149036E+01
      6.12601999E+02     -2.44156309E+02     -1.44007406E+03
      3.83070977E+02     -1.12623769E+02     -1.87271338E+02
     -1.47096009E+03     -3.32666011E+02     -1.42874299E+02
     -1.78230681E+03     -5.80647101E+02     -3.00289255E+03
      9.89949189E+02      2.75040851E+02     -1.46856983E+02
     -3.97360973E+02      1.81115502E+01     -8.47175561E+02
     -5.94505693E+02      1.18851401E+03     -7.21103689E+02
      7.24600295E+02     -9.01987593E+01      5.32757045E+02
     -8.72383318E+01     -7.20604881E+02      1.30176671E+03
     -2.78178482E+03      1.94192691E+03     -3.36667483E+03
      2.15512287E+02     -1.08246563E+02     -2.79068694E+02
      1.40621007E+03     -2.18630619E+03     -1.80689167E+03
      1.01524043E+03      1.02044050E+02      1.07347096E+03
     -5.59489346E+02     -2.98145408E+02     -3.71634835E+02
     -2.64921414E+03      6.98088095E+02      1.03004887E+02
      1.68051185E+03      8.98589359E+02      9.03565953E+02
     -1.81642984E-02      5.28999304E+02      1.45912789E+02
      1.26606725E+02      5.24219073E+02      1.91187545E+03
     -3.35289132E+03      1.37943974E+03     -2.56561561E+02
      1.09938418E+02     -2.87653542E+02     -2.78611626E+02
     -3.08920168E+03      1.53421295E+03     -2.95261616E+02
      5.12389601E+02      3.03885323E+03      1.46118845E+03
     -6.90762102E+01     -2.67480442E+02     -4.09262179E+02
     -1.04475595E+03     -7.55792674E+02      2.77612492E+02
      2.31754860E+03     -8.14046283E+02     -5.73562394E+02
     -6.49909486E+02      3.94594463E+01     -3.37806807E+02
     -6.04914777E+02     -8.30790471E+02      1.02150334E+03
      7.79425724E+02     -1.11931661E+02      8.30193997E+02
      1.55157032E+03     -1.79561024E+03      1.51847552E+03
     -4.26883631E+02     -8.51751394E+02      2.46529201E+02
      2.75434397E+03      1.00582646E+03      2.57446018E+02
     -1.91103614E+03     -2.30262293E+03      1.04213153E+03
     -1.97236767E+03      1.61348826E+03      7.48922835E+02
  }
}

Hamiltonian = DFTB {
  SCC = Yes
  SCCTolerance = 1e-6
  MaxSCCIterations = 200
  ForceEvaluation = Dynamics
  MaxAngularMomentum = {
    C = "p"
    H = "s"
  }
  Charge = 0.0
  SpinPolarisation = {}
  Eigensolver = Standard {}
  Filling = Fermi {
    Temperature [Kelvin] = 300.0
  }
  SlaterKosterFiles = Type2FileNames {
    Prefix = "../../pbc-0-3/"
    Separator = "-"
    Suffix = ".skf"
    LowerCaseTypeName = No
  }
  KPointsAndWeights = {
    0.0000000000000 0.0000000000000 0.0000000000000 1.00000000000000
  }
  Dispersion = LennardJones { 
    Parameters = UFFParameters {}
  }
}

ParserOptions = {
  ParserVersion = 3
}
