Geometry = GenFormat {
<<< "system.gen"
}

Driver = VelocityVerlet{
  Steps = 50000
  TimeStep [fs] = 0.2
  MDRestartFrequency = 5
  Thermostat = None {
    #InitialTemperature [Kelvin] = 300.0
  }
  Xlbomd{ 
    IntegrationSteps = 6 
    MinSccIterations = 2
    MaxSccIterations = 200
    SccTolerance = 1e-6 
  }
  Velocities [m/s] {
      6.87619063E+02     -9.48032611E+02      1.10128163E+02
      2.28345036E+03      1.85198717E+03      1.69141825E+03
     -1.33019075E+02     -2.79343970E+03      4.66128420E+02
     -5.27041156E+02      3.50653347E+02     -4.89579427E+02
     -4.51588550E+02     -7.00796641E+02      1.77163973E+03
     -2.38974632E+03      4.55333877E+03     -8.16273672E+02
     -1.43334644E+02      1.16962124E+03     -9.78748647E+02
     -1.03425202E+03      1.90185228E+03      7.09012828E+02
     -8.52467854E+02      1.81397536E+02     -1.62541842E+02
     -5.48170839E+02      4.66771296E+02      3.88386685E+00
     -4.38769043E+02     -1.32790957E+03     -5.91838233E+02
      2.27269776E+03     -3.37643052E+03      1.41594527E+03
     -1.54565918E+02      1.70696514E+02     -8.13568930E+02
     -3.23098994E+03     -7.29443658E+02      8.78352995E+02
      2.11968839E+02     -6.98804264E+02      2.97245076E+03
      3.42835080E+01     -5.61346300E+02     -4.49654838E+02
     -4.25120408E+02      6.82184836E+02     -1.13041359E+02
      2.40992763E+03      2.02507586E+03      2.72109759E+03
     -3.56270824E+01     -5.35943494E+02      2.03006622E+02
     -6.08545518E+02     -7.89474520E+02     -7.84804109E+02
     -1.52719178E+03     -1.24393641E+03      1.38908968E+03
      3.38750064E+02      9.26666562E+02     -1.25868809E+02
     -1.34871540E+03     -7.88380911E+02      2.03260079E+02
     -1.90427205E+02     -1.68038259E+03     -1.08869997E+03
     -3.53941043E+02     -1.42937088E+02     -2.08352214E+02
     -3.49578458E+02     -1.50072853E+03     -1.68410202E+02
      9.76819724E+02      2.44696412E+03      2.26396709E+03
      4.87853782E+02      1.39516414E+03      3.08018099E+02
     -5.81125448E+02     -1.08647399E+02      4.46696958E+02
      2.16527019E+03      4.81848757E+02     -8.81710575E+02
      1.08629582E+03      2.45368516E+03      7.38734348E+02
      1.12661888E+03     -9.64584669E+02     -8.11940831E+02
     -6.45949640E+01      6.68083116E+01      8.32882341E+02
     -1.63374344E+03     -9.40664100E+02      1.65995257E+03
     -2.39779063E+02      7.54375025E+02     -4.92405175E+02
     -3.87592312E+02      3.70313432E+02      7.21448926E+02
     -1.26742579E+02      1.22098554E+02      2.01452745E+03
     -7.05921770E+01     -3.02701232E+03      1.06537981E+03
      3.86632007E+02     -2.93521752E+02     -2.76853748E+01
      2.29039455E+03      4.87574854E+02     -7.80882136E+02
     -8.99855448E+02     -1.85535895E+03      7.11567874E+02
     -1.54066078E+02      5.74659128E+02      8.56352312E+02
      2.24464309E+02     -3.37993447E+03     -2.86260046E+02
      3.59977216E+02      1.32505767E+03      2.43497736E+02
     -5.75651197E+02     -1.51344530E+02     -1.23912613E+03
      2.97917284E+03     -2.46899126E+03      4.01661076E+02
     -1.10702264E+03     -9.00553882E+02      1.99298534E+03
      1.24188074E+04     -1.36878503E+04     -1.16317163E+04
     -5.72351004E+02      5.04855594E+02      2.79244604E+03
      9.47297349E+02     -8.53010561E+02      2.10194283E+03
     -1.34575235E+03     -6.63513259E+02      7.48926606E+02
     -7.71977850E+02     -5.57200738E+02      2.04843377E+03
      1.45919285E+03      1.87209068E+03     -8.55199424E+02
     -8.62594834E+02      1.47834236E+02     -3.49362160E+02
      1.70475546E+03      1.53133189E+03      3.74865542E+02
     -5.32625171E+02      8.92617090E+02      2.88507576E+03
      1.86218267E+02     -6.24263283E+02     -7.84086104E+02
     -2.34531860E+03      7.45535887E+02     -1.56488416E+03
      3.53505648E+02      2.96877773E+02      5.18578446E+02
      8.93845079E+02     -1.02375451E+01      2.85269263E+03
      1.69356420E+02     -3.28932647E+02      3.12138056E+02
      2.09707829E+03     -1.05025722E+03      1.39960141E+02
      2.19288216E+03     -2.06952223E+03      1.84328374E+03
      2.36447481E+02     -6.61535346E+02     -2.57316802E+03
     -8.55619926E+02     -7.63965778E+01     -9.87990093E+00
      9.48700568E+02     -4.16770847E+02     -1.55901618E+03
     -8.42624732E+02      2.56184915E+03      5.18743198E+02
      2.56880821E+02      1.72644223E+02      6.33142318E+02
      4.83102973E+02     -3.28014710E+01      9.56441235E+02
     -4.13684905E+02      2.64692342E+03      1.42430506E+02
     -1.69317082E+02     -5.34113740E+01      8.04846766E+02
      4.88718759E+02      1.49154847E+03     -3.47776876E+03
      6.10789190E+01     -1.71936257E+03     -4.97176375E+01
     -6.11649062E+02     -4.77391566E+01      1.57811499E+02
     -1.26040355E+03     -1.15440503E+02      6.35782105E+02
      1.45743358E+03     -1.59962379E+03     -1.31435488E+03
      4.86069317E+02     -2.81021891E+02      6.15684001E+02
     -6.92655452E+02      4.80202436E+02      1.34280520E+02
     -1.45975000E+03      9.51964097E+02     -1.30058489E+03
      5.23227921E+02     -3.46439882E+00      1.09902677E+03
     -1.25668769E+02      1.66734190E+03      2.61704336E+02
     -2.63945988E+03     -2.06644616E+03     -1.47898145E+03
      1.28071405E+03      2.35684755E+02     -2.84280799E+01
     -1.48028143E+02     -1.17728156E+02     -2.51734983E+03
      2.38628824E+03     -1.54989841E+03     -2.70015045E+03
     -3.22781968E+02      3.03456347E+02     -1.88766631E+02
      4.40214062E+02      1.83069959E+01      5.13679332E+02
      2.50735013E+03     -3.94014567E+01      1.63539807E+03
     -1.95601515E+02      4.49530116E+02      2.87225696E+02
      2.73138939E+02     -2.29587279E+02     -1.51421471E+03
      1.84406265E+03      2.50004883E+03      5.74273963E+01
      6.71885369E+02      1.09856968E+03     -4.18805164E+02
      3.47356831E+02     -1.33614868E+02      5.61844582E+02
     -1.09190674E+03     -2.24643767E+03      2.94088812E+03
     -8.62030949E+02     -1.86134489E+02      2.13714908E+03
     -3.36167891E+01     -2.93866007E+02      1.42310172E+03
      1.29062945E+02      2.97995455E+02      1.67505107E+02
     -5.13292581E+02     -1.84396792E+03      8.63080851E+02
      8.29091554E+02      3.78864249E+03      1.79574513E+03
     -5.88437573E+02      2.28936660E+02      2.62415655E+02
     -1.25556183E+02     -7.81135205E+02     -3.24146424E+02
      1.01967277E+03     -1.72997433E+03      2.22972250E+03
      4.94882058E+02      2.53731049E+02     -3.69417884E+02
     -3.14659382E+03     -1.11033687E+03     -2.77188881E+03
     -8.44437995E+01      1.57953544E+03     -1.87935155E+03
     -2.47444765E+02      6.00322358E+02      5.28005961E+02
     -4.21825509E+03      3.98611421E+02      1.34130407E+03
     -2.64688569E+02     -1.74686692E+03     -3.06248758E+02
      2.99369655E+02      8.84450365E+02     -3.77400481E+02
     -2.55730171E+03      7.92153581E+02     -2.86845452E+03
     -2.96334155E+03      3.24097141E+03      1.51529498E+03
     -3.48214851E+02      5.55349030E+02      7.15767986E+01
      1.77945879E+02      8.49718484E+01      7.24110529E+02
      4.68690076E+02     -8.76574264E+02      4.96455226E+02
      1.40682700E+03     -2.92687556E+02      3.80456685E+02
      2.48432542E+01     -7.64062050E+02     -2.89609225E+02
      1.58604920E+03      8.22816931E+02      6.96102262E+02
     -7.66736102E+01     -4.98575314E+02      1.68398430E+02
     -1.09001252E+03      1.44234724E+03      3.21722710E+03
     -1.15739185E+03     -1.05289869E+02      2.10175999E+03
      3.28254367E+02     -5.23811498E+02      8.63962047E+02
     -2.09428416E+03      4.85789578E+02      5.17824989E+02
     -7.32314977E+02     -1.21900382E+03     -1.06019666E+03
     -1.18800719E+03     -2.09070832E+03     -3.16845853E+02
     -5.73918717E+01     -1.54949433E+02     -7.86682060E+01
     -1.56128456E+02     -3.26853587E+02     -2.35813542E+03
      2.14840428E+03     -4.02539359E+02      9.97618200E+02
      1.66736481E+03     -1.44433946E+03      1.30528099E+03
     -5.64248317E+02     -5.39465227E+02     -6.55017736E+02
     -9.22555760E+02     -3.53956312E+02      3.29375602E+03
     -2.79653414E+02      1.98650176E+02     -3.81387270E+03
     -2.78846027E+02      3.77083569E+02     -4.88264222E+02
      4.76577105E+02      2.88383751E+03      1.03295304E+03
     -8.29067666E+02      2.97674612E+02      1.17648632E+03
      3.02192782E+02      7.19420190E+01     -2.95119157E+02
      9.16870369E+02      3.69652521E+02     -4.11333039E+02
     -1.46960507E+03     -1.79134707E+03      3.18596729E+03
      1.73561482E+02     -3.42337119E+01     -1.70994730E+02
      1.03564585E+02     -1.81941182E+03      2.73031173E+02
     -1.63154006E+03      3.09811818E+03      9.05115487E+02
      3.46597603E+02      9.40336969E+01      7.18913912E+01
     -9.14841939E+01      2.04641767E+03      1.42793353E+03
      5.72548809E+02      3.47963987E+02     -9.55533159E+02
     -3.17771023E+02      4.16649450E+02      4.65452316E+02
     -1.84478686E+03     -1.82405535E+02     -2.75426834E+03
     -6.64670701E+02      8.98632360E+02      3.23766852E+03
     -3.64099474E+02     -4.66996813E+02      1.23614305E+02
     -2.35548572E+02      7.35949128E+02      6.24956399E+02
      2.86818858E+03     -1.91038447E+02      6.86969394E+02
     -2.28627253E+02      1.03404706E+02      1.13230136E+03
      1.18579175E+01      8.95615840E+02     -5.40286751E+03
      6.75462424E+02     -2.07897279E+02      1.59375932E+03
      2.19681890E+02      4.35593296E+02      6.17377403E+02
      2.25502863E+03      2.02941296E+03      1.82398960E+02
     -4.01011837E+03     -2.07514055E+03     -1.54453807E+03
     -4.46336522E+02      1.11693531E+03     -1.77954014E+03
     -8.99317634E+02      4.16750466E+02     -1.82343452E+02
     -8.14782680E+01      1.19428673E+02     -2.31018637E+03
      2.97096359E+03     -9.52595376E+02      6.09536455E+02
      1.62259813E+03     -3.16436155E+03     -3.26302964E+02
     -4.47288296E+02     -3.80132556E+02     -9.42054180E+00
     -3.36122685E+03      8.87381509E+02     -9.38394503E+01
      4.94722204E+02      1.00023365E+03      3.34968215E+02
     -2.74775121E+02      5.13270892E+02     -1.77087591E+02
      8.61699423E+02     -4.51131743E+02     -2.05350023E+03
      1.24890252E+03     -6.08493120E+02      7.87361088E+02
     -1.04800452E+03      2.12133445E+02     -1.37947596E+02
     -1.80727309E+03      4.22203892E+03      3.72845524E+02
     -4.20403880E+03      2.98369512E+03     -8.12249216E+02
     -5.43381630E+02     -1.21698811E+01     -6.91382793E+01
     -9.79206435E+02     -1.52509504E+03      2.00162214E+03
     -2.22598986E+02      6.40014143E+02     -3.18531744E+02
      3.51194072E+02      5.91878827E+02      8.76120733E+01
     -7.07069639E+02      1.02382513E+03     -1.65611423E+03
     -3.16399204E+03     -4.24805785E+02     -8.77282177E+02
     -4.39289626E+02      2.81626313E+02     -6.37459905E+02
     -6.36362057E+02     -1.67854186E+03     -1.22015382E+03
     -7.90370984E+01     -4.40628832E+01      3.46459129E+01
     -3.04658379E+02      6.97009744E+02      5.62852174E+02
     -1.81684954E+02      6.56436935E+02      7.64072621E+02
      1.38487345E+03     -1.43819273E+03      1.96151785E+03
     -2.20547017E+02     -1.76803328E+02      2.57490284E+02
      3.30537943E+02      2.42099303E+03      4.71175624E+01
      1.83543196E+03     -2.48096403E+03      2.27758224E+03
      1.43553830E+02      2.18850308E+02     -8.89082622E+01
      8.93484189E+02      1.00134921E+03     -1.10854944E+03
      7.22846949E+02     -2.15297699E+03     -2.15444360E+02
     -1.74299986E+03      1.33131294E+03      2.49699537E+03
      4.04783331E+01      8.65795378E+02      7.20704714E+02
     -4.51228993E+02     -3.59920026E+02      1.08598000E+03
     -9.45230265E+02     -9.69875904E+02     -9.79885929E+01
      1.18662455E+03      5.10689263E+02      1.99629968E+03
      9.88536539E+01      2.01858738E+02      2.80820282E+02
     -1.85415388E+03      2.32868494E+03      1.01617615E+03
      6.33846455E+02     -4.31105888E+02     -1.73840918E+02
      6.94167539E+01      3.54406866E+02     -4.92046886E+02
      2.60643028E+03      2.29395221E+03      8.34919822E+02
     -7.08657465E+02      4.18535366E+02     -1.34651741E+02
      3.59619580E+02     -7.67916455E+01     -6.10557566E+02
     -1.65549683E+02      7.69696922E+02     -1.48352863E+03
      1.96186605E+03     -9.34256125E+02     -8.96576779E+02
     -6.74551954E+02     -4.66844983E+02      5.39225133E+02
     -2.78062030E+03     -3.21217591E+03     -2.67306633E+03
      3.34552825E+03      2.32056053E+03      2.36979954E+02
     -1.07173302E+01     -2.33080565E+01     -3.53007524E+02
     -1.42979001E+03     -1.26344033E+03      2.61235803E+02
     -1.22507490E+03      6.40002586E+02     -4.74936584E+02
      2.36252876E+02     -3.02559578E+02     -3.21239901E+02
      3.78088357E+03     -1.09111542E+03     -1.99849210E+03
     -3.99828306E+02      2.06173357E+03      1.07375827E+03
     -3.57271855E+02     -7.69975725E+01      9.47156570E+00
     -2.77320950E+03     -1.96518072E+01     -8.39282140E+02
     -1.04813633E+03      1.27002535E+03     -8.98539499E+02
      3.85421004E+02      2.35391491E+02     -3.65578984E+02
     -1.22101406E+03     -5.49986654E+02      1.21292281E+03
      1.47648157E+02     -2.18098521E+03     -1.75192607E+03
     -4.78530581E+02      4.85716789E+02      6.51720925E+01
      5.17768925E+02      2.56473816E+03      3.06179837E+03
      2.99741238E+03      2.87489677E+01     -1.63834296E+03
     -1.44316266E+03      3.47386701E+02      9.35969341E+02
      2.57342435E+02      6.89847119E+02      2.17974835E+02
      1.08730016E+03     -6.02730791E+01     -6.62359841E+02
     -1.56132398E+03     -7.13257245E+02      2.24606881E+03
      2.15103040E+02      3.44017050E+03      7.23980032E+02
      2.00506583E+00      5.10338118E+02      3.43011795E+02
     -3.40381015E+03     -3.25841071E+02     -1.21967682E+03
     -5.14713452E+02     -6.41508050E+02     -2.17029711E+03
      4.06002030E+02     -5.01258535E+02      3.38410055E+02
      1.91732813E+03      2.88158833E+03      5.82288862E+02
     -2.48852449E+03     -1.31500691E+02     -1.02296691E+03
      7.78531711E+02     -4.17999942E+02     -3.13260839E+02
     -8.10946092E+02     -1.15733328E+03      7.01294178E+02
      1.58407813E+01     -1.66755710E+03      6.74934627E+02
      5.32758326E+02      5.61775619E+02      2.28502509E+02
      2.84561234E+02     -1.50718204E+03      2.58248616E+02
      2.06108600E+03     -2.83483904E+02      1.78851581E+03
     -5.11372091E+02      1.39130386E+02     -1.89259195E+02
     -9.08569283E+02      4.39939208E+02      9.71339002E+01
     -1.54936276E+03     -2.66821144E+03      1.81172572E+03
     -1.08993907E+03      2.83418444E+01     -9.11069300E+01
      1.34920520E+03      1.59380439E+03      3.92688468E+02
      1.29127867E+03      9.03832612E+02      1.74022877E+03
     -2.95623648E+02      8.08233471E+01      7.08843342E+02
      2.17740818E+03      1.72142132E+02      3.00029634E+02
      1.63774098E+03     -3.69150326E+03      5.80226935E+02
     -8.48308174E+01      8.63805557E+02      4.76703849E+02
     -6.45252669E+02      1.52820990E+03      2.58507862E+02
      8.20201501E+02     -1.93901319E+03      3.43540084E+03
     -3.79804280E+02      3.95623413E+02     -1.53618461E+02
     -3.03604271E+03     -1.60123129E+02      3.01846962E+02
     -2.02903754E+03      3.55011937E+02      9.88738398E+02
     -9.85732456E+02     -1.07943265E+03      2.56080858E+03
     -5.58433785E+02     -1.36451855E+02      2.50040008E+02
     -1.82585423E+02      1.83099820E+03      3.57599297E+02
     -1.92235749E+03     -1.25677085E+03      9.79657289E+02
      1.76837068E+03     -1.05654643E+02      8.91703408E+02
     -2.97103528E+02     -3.86426272E+01     -2.17563511E+01
     -2.59773148E+03     -2.81445458E+02      6.81663852E+02
     -3.19314482E+03     -1.23615383E+03     -1.69927553E+03
      1.78595860E+02      6.86521071E+02     -3.65128242E+01
     -5.89338945E+02     -3.94120435E+03      3.55239911E+02
      7.18975409E+01     -2.10653534E+03     -8.83387089E+02
      1.68196336E+02      4.86785654E+02     -8.44749320E+01
     -3.65620462E+02     -1.52170661E+03     -1.12948032E+03
      5.07587279E+02     -9.86219540E+02     -3.77418817E+03
      6.23513768E+02      1.65351019E+02      4.49559398E+02
     -4.59627382E+02     -7.04734507E+02      7.86445667E+02
      9.09758874E+02     -1.03585245E+03      2.03735293E+03
     -1.86472122E+02     -2.07995496E+02      6.33031534E+01
      7.43013730E+01     -1.43912521E+03      1.43106319E+02
      5.75885502E+01     -1.19817556E+03      1.49695181E+03
     -1.43858288E+03      2.10662259E+02      1.04451651E+03
      2.27310467E+02      4.77253452E+02      8.31033382E+02
      1.72998753E+02      4.85200552E+02      2.61810433E+03
      6.52978616E+01     -5.55508421E+02      6.39138135E+02
     -3.80096054E+03     -5.56856767E+02      2.72929043E+03
     -2.14395366E+03     -1.80975346E+03      2.87385745E+03
     -3.05513841E+01     -1.47584708E+02     -1.18618159E+02
      9.24067086E+02      8.28872294E+02     -1.62657771E+03
      1.91194176E+03      1.20731939E+03      3.51930032E+03
     -3.70813525E+02      6.67441116E+02     -5.30063092E+02
     -3.22611122E+03      2.09074921E+03     -6.57860972E+02
      1.83420180E+03     -4.24886955E+02     -1.08846458E+03
     -1.08045004E+03      1.78756672E+03     -1.37318393E+03
      7.63707635E+01     -3.32784391E+02     -1.34473564E+02
     -2.28867295E+03     -1.88683683E+03     -9.74215743E+02
     -8.51111493E+02      1.02484748E+03     -2.75179489E+03
      5.56897282E+02      1.54980308E+03     -3.96479755E+03
      7.39184402E+01     -7.73247834E+02      4.42706486E+01
     -8.17030913E+02      9.99888823E+01      3.07819709E+03
      1.65689382E+03      1.32517666E+03      1.11523896E+03
      1.07135142E+02     -1.66668580E+02     -9.19680917E+01
     -6.30643242E+02     -3.21788887E+03      2.18968485E+03
     -7.25452201E+01      2.38387647E+03      8.90300683E+02
      1.76341802E+02      2.29813331E+02      6.76180714E+02
      2.44566703E+02      2.96338392E+03     -2.13502337E+03
      1.24953275E+03     -2.48450076E+02      2.07361683E+03
     -9.86754807E+00     -8.85255703E+01     -4.81372566E+02
      1.49925955E+03     -2.42639772E+02      9.12601058E+02
      9.79515670E+02      2.89891098E+03     -3.79948215E+03
     -2.88163039E+02      6.47399090E+02      1.75923631E+02
      6.06532287E+02     -1.17597506E+03     -2.02561489E+03
     -3.66877197E+02     -6.23424395E+02     -1.04463633E+03
      7.55617492E+02      9.53223010E+02      3.12658121E+02
      2.03850567E+03     -2.35608495E+01     -1.78330960E+03
     -2.23752461E+03      2.07690386E+03     -2.23442547E+03
     -2.24249564E+02      2.51381406E+02     -3.58957484E+02
     -1.30370925E+03      1.07155255E+03     -2.21243532E+02
     -2.32121007E+03      4.55465953E+02     -1.32600946E+03
      7.76083523E+02      9.24467743E+02      1.46791876E+02
     -2.99858915E+03      4.92471733E+02     -1.97204245E+02
      1.33638095E+03      2.45776175E+03     -6.38707682E+02
      3.60156658E+02     -3.35654698E+02     -7.83715569E+01
     -2.12522359E+03     -2.53226126E+03      1.37271482E+03
      5.16843857E+02      2.24581550E+03     -4.80757551E+01
     -2.21002164E+03     -1.23651236E+03     -1.52964893E+03
      2.20054197E+02      5.90021974E+02     -4.10122467E+02
     -3.32275366E+03      4.31194577E+03      7.74936015E+02
     -1.62410846E+03      1.12231867E+03      2.27151685E+03
     -2.02296572E+03      3.39341972E+02      1.50510009E+03
     -1.01127526E+03      3.21650100E+02     -1.99718098E+02
      1.85634913E+03      1.24095745E+03      1.18698672E+03
     -4.13138439E+02      5.79666457E+02     -9.03199737E+02
     -5.31615238E+00     -5.61040993E+02      1.89418597E+02
     -9.21160030E+01      8.16612612E+02      8.52807587E+02
     -1.40656069E+03      1.09618198E+02      5.20763086E+01
      5.51273797E+02      5.94111383E+02     -5.98535907E+01
     -2.29295374E+03      2.24754592E+02      2.73981729E+03
     -1.07894257E+03      1.73999540E+03      5.94275125E+02
     -3.16798051E+00      2.09071715E+01      2.36533949E+02
     -1.66738168E+03      2.56248782E+03      1.18988980E+03
      1.82966734E+03      2.29124328E+03     -5.56719278E+02
     -3.69246019E+02      5.38879221E+02      7.29216936E+02
      2.50876668E+02      2.96494502E+03      6.20838014E+02
      5.91740334E+02     -3.37893439E+02      4.32216756E+02
     -5.64070850E+02      3.89963168E+02      3.73994160E+02
      9.07161046E+02     -1.87526596E+02     -7.43032295E+02
      1.70659064E+03      4.79250171E+02     -1.92013300E+03
      3.86580903E+02      2.92690304E+02     -3.74992925E+02
      1.45487237E+03     -5.02376595E+02      3.01539615E+03
     -6.57522336E+02      1.66860448E+03     -7.59130221E+02
      2.54657229E+02     -4.36324393E+02     -1.17672790E+02
     -3.36075490E+03     -1.78131098E+03     -9.18682870E+02
      1.06676983E+03     -8.21631849E+02     -1.30657338E+03
     -5.79967823E+01     -1.30711720E+02     -3.05140232E+02
      1.25563775E+03     -1.72692073E+03     -3.19062365E+02
     -2.07568237E+03      3.85213803E+01     -2.63443629E+03
     -9.17502138E+02      1.34180364E+02      6.95244275E+02
     -8.19297884E+02      1.60133346E+02      2.59807047E+02
     -7.32134547E+02      7.32348708E+02     -1.85044605E+02
      8.21306870E+02     -2.17297286E+03     -4.33978500E+02
     -2.47140337E+03     -9.46823481E+02     -9.62847819E+02
  }
}

Hamiltonian = DFTB {
  SCC = Yes
  SCCTolerance = 1e-6
  MaxSCCIterations = 200
  ForceEvaluation = Dynamics
  MaxAngularMomentum = {
    C = "p"
    H = "s"
  }
  Charge = 0.0
  SpinPolarisation = {}
  Eigensolver = Standard {}
  Filling = Fermi {
    Temperature [Kelvin] = 300.0
  }
  SlaterKosterFiles = Type2FileNames {
    Prefix = "../../pbc-0-3/"
    Separator = "-"
    Suffix = ".skf"
    LowerCaseTypeName = No
  }
  KPointsAndWeights = {
    0.0000000000000 0.0000000000000 0.0000000000000 1.00000000000000
  }
  Dispersion = LennardJones { 
    Parameters = UFFParameters {}
  }
}

ParserOptions = {
  ParserVersion = 3
}
