Geometry = GenFormat {
<<< "system.gen"
}

Driver = VelocityVerlet{
  Steps = 100000
  TimeStep [fs] = 0.2
  MDRestartFrequency = 5
  Thermostat = None {
    #InitialTemperature [Kelvin] = 300.0
  }
  Xlbomd{ 
    IntegrationSteps = 6 
    MinSccIterations = 2
    MaxSccIterations = 200
    SccTolerance = 1e-6 
  }
  Velocities [m/s] {
     -5.68438795E+02      2.24408145E+02     -3.85598801E+01
     -1.13882638E+02      4.82748982E+02     -8.92788536E+01
     -1.24621968E+03      1.34383282E+03     -1.27084790E+03
      1.72659966E+02     -7.29135447E+02     -1.30365615E+02
      6.72067176E+02     -1.52172080E+03      6.67394237E+02
     -1.30264325E+01     -1.32237208E+03      1.61707992E+02
     -2.99850848E+02      2.55869497E+02      1.37519009E+02
      3.26786881E+03      3.04882728E+02      1.81027380E+03
      1.59922355E+03      2.53040888E+03      1.10695982E+03
      9.47279771E+02     -1.34512629E+01     -1.04700164E+01
     -3.11009583E+02     -1.03114977E+03     -3.41733932E+03
     -1.83514301E+03     -1.80189073E+03     -8.67799010E+02
      2.42846346E+02      1.27318538E+03     -3.48076997E+02
     -3.79451813E+03     -2.17275304E+03      3.68878646E+03
     -6.24202759E+02      9.37606427E+02      2.01167024E+03
     -6.00995023E+01      1.86888024E+02      6.98200144E+02
     -2.11219300E+03     -2.49940505E+03     -1.57410965E+02
      2.75471503E+02      1.09168491E+03      1.03535896E+03
      5.97025516E+01     -3.85207664E+02     -6.38154461E+02
      1.68087760E+03      1.16617926E+03     -7.08169360E+02
      9.84533497E+02      9.57292511E+02      5.29050592E+02
      1.06334836E+02      2.76734188E+02     -5.19727214E+02
      1.51092078E+03      3.04565631E+01      1.09152619E+03
      1.12920802E+03     -1.00440883E+02     -9.35214468E+02
      3.94413840E+02      8.67673415E+02     -1.10771206E+02
     -6.62258557E+02      2.55492998E+03     -8.65993670E+02
     -2.25631405E+03      1.50520571E+03     -1.79781380E+03
      1.14444686E+03     -1.67793308E+03     -2.43763826E+02
     -1.43906355E+02     -1.39392969E+02     -3.41680061E+02
      8.65206014E+01     -2.01559089E+03      1.48157909E+03
     -3.13612010E+03      1.05582026E+03     -1.77670533E+03
     -8.93785095E+01      7.04193514E+02      7.72547175E+01
     -5.17774370E+02     -3.40406149E+02      4.26011136E+02
      1.06404130E+03     -1.13424072E+03     -3.92257474E+02
      2.50308342E+03      3.38064736E+03      1.16801701E+02
      6.00042754E+02      1.77992932E+02     -6.67186786E+02
     -7.29890282E+02      2.45569343E+03     -1.71724855E+03
     -9.37862402E+02      1.35329986E+03      5.37477095E+02
     -7.67046959E+02     -3.58637915E+02      1.48074112E+02
     -2.10389098E+03     -2.15577981E+02     -1.62859815E+03
     -1.37265025E+03      1.80066305E+03      1.42746368E+03
     -3.88256021E+02      8.58586093E+01     -5.40158758E+01
     -1.27546778E+03      3.59931459E+03     -1.64969236E+02
     -1.44644429E+03     -5.59525431E+02     -1.40952994E+03
      1.14476127E+01      4.00830542E+02     -5.36504012E+02
      4.77311257E+03     -1.08772673E+03     -1.56288962E+03
      3.17471664E+03      2.56604162E+03     -1.86990109E+03
     -5.16302977E+02      1.38217947E+02     -2.81565700E+02
      3.21140446E+03     -2.64568822E+02     -3.74015209E+01
      4.31405103E+02     -1.82779203E+03     -3.61973516E+02
     -4.24064860E+02      1.48271959E+02     -1.27636412E+02
      2.23467853E+03      3.76979558E+03      1.10127788E+03
     -1.39537404E+03     -6.42691327E+02      1.21955227E+03
     -7.53994270E+01      3.27199322E+02     -2.81092622E+02
      2.52261545E+03      6.18773588E+02      8.62699476E+02
     -2.97460230E+02      8.69320978E+02     -7.89407460E+02
      8.88594444E+02      4.54256266E+02     -3.79733039E+02
     -1.80180463E+03      1.61150573E+02     -8.85353026E+02
      3.62650566E+02     -2.85459133E+03     -1.77652792E+03
      4.57328815E+02     -1.50815127E+03     -1.06094418E+03
      1.02582968E+03     -3.14362958E+02      1.26719727E+02
      7.09745738E+02     -1.69703040E+03     -4.63912747E+02
     -4.73026452E+02      2.88582176E+03     -1.77072737E+03
     -1.77248725E+03     -3.19614609E+03     -1.21904003E+03
      4.70910863E+02     -2.55246761E+02     -3.85326304E+02
      3.17390725E+03     -2.10032408E+03     -2.19094986E+03
      5.11718917E+03      1.68146599E+03      1.44091908E+03
     -5.45478550E+02      6.22187845E+02      4.18580019E+02
     -1.37796867E+03      3.36903524E+03     -1.00298907E+03
      2.12782519E+03      1.40075953E+02      8.53575349E+02
      3.03477026E+02     -1.08438005E+02     -2.14122585E+02
      2.35125623E+02      1.63941817E+02     -4.13621244E+02
      1.28063272E+03     -1.85959235E+03      3.08348736E+02
     -3.70929250E+01      4.61945350E+02      3.78731188E+02
     -7.96842889E+02     -4.24655168E+03      6.47809007E+02
     -1.09280090E+02      2.64386335E+03      2.04776763E+03
      1.55710613E+02     -1.08873761E+01      4.01291533E+01
     -2.30182208E+03      9.77452413E+01     -1.53894325E+02
     -1.47888341E+03      3.48271277E+02      6.31859074E+02
     -2.86283792E+01      4.36253118E+01     -1.54194120E+02
     -5.91563203E+01     -2.49350350E+03     -5.07158553E+02
     -2.70322253E+03      4.00264223E+02     -4.92138143E+02
      1.13833094E+02     -2.48031571E+02     -3.00309648E+01
      1.30920360E+03      1.89301011E+03     -8.97700167E+02
     -1.37896680E+03     -1.79423877E+02     -7.93361301E+02
     -3.27696910E+02      4.20440542E+02     -4.17441737E+01
      9.00402329E+02      1.30853012E+03      1.01751174E+03
     -2.37336770E+03      1.08036572E+03     -1.07352882E+03
     -5.23139168E+02     -4.23305925E+02     -4.75533575E+02
      1.54892996E+03     -3.59589008E+02     -2.50920227E+03
      2.45463274E+03      1.76690330E+03     -3.14112901E+03
     -8.09901138E+02      1.33241577E+03      3.11591284E+03
     -6.83085950E+02      6.32075699E+02     -1.55236359E+02
      2.87301341E+02      2.62304394E+03     -2.05709705E+03
     -4.05554112E+01      1.78571391E+03      1.45880441E+03
      2.21144710E+03     -3.19276048E+03     -1.01016305E+01
      2.91683207E+02      3.55195868E+02     -1.80373772E+02
      6.12546064E+02     -1.52121862E+03     -1.97070296E+01
     -9.12977422E+02      2.18880736E+03      1.26198106E+03
     -1.67405142E+02      9.72756056E+02     -4.91625266E+02
     -3.00688148E+03     -1.80816775E+03     -2.12402045E+03
      1.75881038E+03      3.06879209E+02     -1.07992172E+03
     -1.10086017E+02     -5.77606387E+02      2.02250225E+02
      3.48298267E+03     -1.26929422E+03      5.50810511E+02
     -1.06001847E+03      2.24223234E+03     -1.90643613E+03
     -3.46685762E+02     -5.41628261E+02      4.71010712E+02
     -2.08588153E+03     -1.25880014E+03     -1.63945139E+03
      2.42618263E+03      6.86119225E+02      3.89126156E+02
     -1.17774486E+02      8.33768539E+02     -3.98111327E+02
     -1.71691554E+03     -2.77151846E+03      3.47460171E+03
     -2.48506213E+03      8.22892867E+01     -1.85445836E+03
     -1.71708341E+02      4.60474920E+01     -6.61493400E+01
      2.06419226E+03     -1.27356514E+03      2.80611093E+03
     -1.38855530E+03     -6.10840717E+02      2.75745982E+03
     -5.32409727E+00      2.82851826E+02     -1.21564251E+02
      3.22611193E+03      1.49398064E+03     -5.37724276E+02
     -4.69663995E+02     -3.86808591E+03     -1.00174084E+03
      5.13450107E+02      3.89673179E+01      1.10025845E+01
      7.12160671E+02      2.75375977E+02     -8.02240951E+02
      1.12482787E+03     -9.38161864E+02      1.96992396E+03
     -3.52784180E+02      4.80161402E+02     -6.89083177E+02
     -3.02976904E+02      1.62668697E+03     -5.71197082E+02
     -9.34099095E+02     -1.17049022E+02     -2.29702200E+03
      7.36959601E+02     -1.00421069E+03     -6.64083174E+02
     -5.26607748E+02     -5.37069552E+02      5.90111480E+02
      3.20716628E+03     -4.04117019E+03      1.13058660E+02
     -7.20613181E+02     -6.59204926E+02      1.35516094E+03
      4.12627183E+02     -5.96433592E+02      6.61889539E+01
     -7.94605585E+01      6.81388914E+01     -1.34845425E+03
      1.48923981E+03      1.00587128E+03     -9.96945427E+02
      2.20527170E+02      1.74958494E+03     -2.18780076E+01
     -1.14149297E+02     -4.98590766E+02     -6.00237929E+02
     -2.44992666E+03      1.81365054E+03      7.34371546E+02
     -7.37631240E+02     -1.83290108E+02     -2.20907640E+03
      1.53682043E+00      9.35353875E+02      3.78895650E+02
      3.49625108E+02      1.99103620E+03     -1.61764640E+03
      1.31005239E+03     -1.29972451E+03      8.12701094E+02
     -2.12912007E+02      1.57926900E+02     -1.05048851E+01
      1.36769893E+03     -2.15644009E+03      6.61453787E+02
      3.53941257E+02      4.81266300E+02      9.88454811E+02
     -3.56869698E+01      1.21008869E+02     -6.62891821E+01
     -2.71498824E+03     -2.64258663E+02      3.48423161E+02
      8.81893256E+02     -1.88875821E+03     -1.79946698E+03
     -7.12021748E+02     -8.26926439E+01     -1.30990633E+02
      2.30046732E+02      8.57964272E+02     -2.71577757E+03
      1.44228591E+03     -2.05051801E+02      1.69307200E+03
     -1.44289343E+02      5.16820740E+02      1.70798595E+02
     -1.58725251E+03     -5.35812045E+02     -6.34470271E+02
      1.59979454E+02      1.63667434E+03     -1.73877411E+03
     -4.23750061E+01     -3.48077059E+02      6.64888692E+02
     -2.25287210E+03     -1.56225296E+02      8.06869507E+00
     -8.18361598E+02      9.19033887E+02      6.17168897E+02
     -2.14520204E+02      4.27683971E+02      3.23044524E+02
      3.03122654E+02      1.81833654E+03     -1.94704473E+03
     -1.19554020E+03      5.63598361E+02     -1.33535031E+03
      1.07874604E+03      6.55027434E+02      9.42742735E+01
     -1.14062783E+03      7.14524249E+02     -1.11793344E+02
     -1.93221867E+03      1.80644973E+03     -1.38576866E+03
     -3.15572780E+03      7.76342675E+02      5.88922267E+02
     -6.86727257E+02      1.21976037E+03     -4.16828831E+03
     -7.60182031E+01      3.02129043E+02     -1.08190380E+02
     -1.59248216E+03     -1.67897033E+03      7.95053111E+02
      1.46181306E+03      1.28229591E+01     -3.14105713E+03
     -3.29207304E+02      8.53632595E+02      2.43686041E+02
      8.02459694E+02      2.53131192E+03      8.50972663E+02
     -7.15778642E+02      3.66779596E+02      1.06649950E+03
      8.38801121E+02      2.60179614E+02      1.07972360E+02
     -2.23112212E+03      1.43969744E+03      1.05031982E+03
      3.21656436E+03     -1.07032761E+02     -1.41074085E+03
      8.05137408E+02     -6.03994189E+02      2.70232487E+02
     -1.81997076E+03      2.77622677E+03      8.99676753E+02
     -8.52383011E+01      1.49334760E+03     -3.02793768E+02
      3.61796868E+02      9.05707394E+00     -5.24597160E+01
     -1.56420736E+03      9.06501361E+02     -1.73707379E+03
      1.25797211E+03      1.28204738E+03     -1.27365952E+03
     -1.32793769E+02      1.25801501E+03      4.68244453E+02
     -2.86692725E+03      6.64386619E+01      1.79577591E+03
     -2.85751307E+03      2.14867588E+02      3.92558259E+02
     -1.86027447E+02      6.25789442E+02     -1.24052594E+02
      1.16208566E+03     -3.13761277E+01     -4.38428156E+02
     -2.84983718E+03      6.00780318E+02      1.74258479E+03
      5.06412994E+02      2.53865317E+02     -3.27785004E+02
      1.11916566E+03      1.12135772E+03      1.00298763E+03
      5.59003208E+02      3.96918166E+02     -6.50868122E+02
      3.57146590E+02     -3.92014498E+01      8.31871997E+01
      2.13592001E+03      1.26043069E+03     -2.19386900E+03
     -3.15918529E+02      1.72313548E+03     -1.73462693E+02
      8.30854294E+02      3.78999702E+01     -8.00365161E+01
      6.60027164E+02     -3.46506550E+02     -4.47778360E+02
      2.25429401E+03      2.37564874E+02      1.81596209E+03
     -4.11855739E+02      7.40961782E+02     -9.82391734E+02
     -8.98857002E+02     -3.14044032E+02      1.09294566E+03
      4.96711215E+02      4.08016232E+01      1.96857657E+02
      4.41484789E+02     -5.92551600E+02     -1.16349409E+02
      2.59752939E+03      2.09488632E+03      5.57200330E+02
      1.07818788E+02      2.65124785E+02     -1.68364995E+01
      5.69698695E+02     -3.90408994E+02      7.98202293E+02
      3.95022050E+02     -1.16827409E+03      1.69494245E+03
      1.15152266E+02     -2.12566681E+02     -9.55638446E+02
      2.16407174E+03     -1.23207173E+03     -1.06082794E+03
      2.26469760E+03     -2.56034480E+03     -8.96149123E+02
      2.03940513E+02      2.46703837E+02     -3.39077736E+02
      9.97043954E+01      1.71650782E+03      8.27211706E+02
      8.34383519E+02      1.02396294E+01     -3.56042844E+02
     -1.51509588E+02     -1.65008932E+02     -1.61734431E+02
     -5.84756346E+02      2.96720627E+02      9.74638358E+02
      2.39113808E+02      2.93852260E+03      4.52118892E+02
      4.11410851E+02      8.73899842E+02     -8.19788492E+01
     -1.45820162E+03      2.00240508E+02      3.53535816E+02
     -1.07125716E+03      2.60415889E+03     -5.08363861E+02
     -6.09459865E+02     -8.02847730E+02     -1.00317930E+03
     -3.36639293E+03     -2.58057119E+03     -2.30018106E+03
      2.90243085E+03      2.04017725E+03      2.77867746E+02
     -3.08452945E+02      7.41734929E+02     -2.62079355E+02
      1.04370098E+03     -3.28892577E+02      1.92237601E+02
      7.92862635E+02      1.76945522E+03     -1.31429470E+03
      5.90926736E+02      1.20667367E+02      5.38031276E+01
     -4.49852551E+02     -1.62524868E+03      1.12548488E+03
     -3.51039399E+03      1.42397774E+02     -1.05630223E+03
      5.11084334E+02      2.52926515E+03      2.15471582E+03
      3.44008458E+02      6.06630727E+01      1.64917491E+02
      5.40914203E+02      7.76382359E+02      1.15328239E+03
      1.49335258E+02     -1.15266109E+03     -7.36717732E+02
     -2.74857135E+03     -4.37247348E+02     -3.06074541E+03
     -9.55114459E+01      1.78019969E+02     -1.02775223E+03
     -1.48301621E+03      9.60826153E+02      2.47689666E+03
      4.84288256E+02     -5.03681563E+02      5.36923014E+01
      3.64357810E+02      7.41332734E+02      6.47450976E+02
      1.96698363E+03      6.83626514E+02     -3.95510313E+03
      1.77789333E+03     -1.42245519E+03     -4.16064207E+02
     -4.71669322E+02      2.19616938E+02     -9.49898081E+01
     -9.28393041E+02     -1.70515216E+03      1.14965189E+03
      2.39124951E+03     -1.03267011E+02      6.18477845E+02
     -2.99898580E+02     -2.55627636E+02      1.29385231E+02
     -2.03777782E+03      1.60644293E+02     -1.06604656E+02
     -7.64406162E+02      3.33685852E+02     -1.09650708E+03
      2.27291281E+02      7.92512516E+02      6.11931038E+01
     -2.34800525E+03     -7.75329831E+02     -1.64550851E+03
      1.13500905E+02      4.37814885E+03     -4.75783929E+02
     -1.01467851E+03     -2.18194941E+02     -3.14098685E+01
      1.78361836E+03      7.41916898E+01      2.45152094E+02
     -3.99074056E+03      5.35951370E+02      4.66236865E+02
     -2.43933018E+02      7.24805932E+02     -3.15972711E+01
     -1.19180735E+03     -1.33306625E+03     -7.57158027E+01
      2.65817841E+03     -4.80083313E+01     -1.03610645E+03
     -6.19612982E+02     -7.91898221E+01     -4.25848911E+02
     -1.88583914E+03     -2.63178309E+02     -3.14474778E+03
     -1.99600433E+03      2.03983960E+03      1.20033833E+03
     -2.93417937E+02     -1.85697434E+02     -7.13156130E+02
      1.02756008E+03     -2.38415193E+03     -2.58153471E+03
      3.77232721E+02      2.74657491E+03      3.29326952E+02
      2.34217894E+02     -1.07335676E+03      9.14971473E+01
     -5.73369790E+01      2.89189155E+02     -1.03766957E+03
      3.14761807E+03     -1.95689967E+03     -7.25195719E+02
     -5.47795831E+02      3.22774777E+03      7.26741013E+02
      1.19271925E+03      2.93009741E+02     -1.56616282E+02
      7.08411845E+02     -4.71282418E+02     -3.76592737E+02
     -1.63077872E+03     -1.90382067E+03      5.38655464E+02
      7.77963122E+01      2.09134655E+03     -4.51388107E+02
      7.42798720E+02     -2.11100281E+04      1.86243968E+04
     -7.03637313E+02     -2.28540137E+03     -1.93799146E+03
      1.36487165E+03      3.93917008E+02      1.00093501E+03
     -2.55887292E+01      7.22409810E+01      4.18067927E+02
      7.09230306E+02      8.30744548E+02      1.13680824E+03
     -8.13690208E+02      3.62473883E+02     -1.64462623E+02
     -2.71424348E+02      5.49747656E+02     -8.65719988E+02
     -9.44744802E+02      2.41130322E+03     -9.94466970E+02
      2.56106325E+03      1.59420638E+03      7.84567021E+02
     -6.05871499E+01     -1.29548141E+01      8.45878392E+02
      4.95848592E+02      2.35873826E+03     -4.89743922E+02
      2.65159902E+02      3.48578429E+03     -1.38842516E+02
      7.66331123E+01     -5.95174404E+02      2.21338404E+02
      4.67910275E+02     -7.41633065E+02     -1.48086402E+03
     -1.59519696E+03      1.86368290E+02      3.25629576E+02
      1.16487518E+02      9.33619953E+02     -4.23859654E+01
     -4.18166972E+02     -2.80933516E+03     -3.42802533E+03
     -1.19493689E+03      7.68296657E+02     -7.86503111E+01
      3.66545581E+02      2.98950960E+02      9.91033291E+01
      2.17806846E+03      2.81326358E+02      1.80914681E+01
     -1.29914890E+03      6.27578023E+02      5.59141849E+02
     -2.66615606E+02      1.81001755E+01     -3.21262702E+02
      2.56586283E+03      1.26645592E+03     -1.06970886E+03
      1.26002736E+03      1.63917004E+03      8.57195410E+02
      1.60643498E+03     -2.19399341E+03     -2.01563001E+01
      1.20495219E+02     -3.38608600E+02     -5.75782366E+02
     -1.08154208E+02     -1.28027506E+03     -2.26994505E+03
      2.48447846E+03     -2.36224255E+03      2.54482249E+03
      9.87154598E+01     -1.06968818E+03     -2.09181766E+03
     -8.53081955E+02     -4.13092209E+02      4.74575214E+02
     -9.24412620E+02     -4.11556415E+02      9.72528320E+01
      1.15317093E+03     -2.38663174E+02      1.36334803E+03
      4.50774789E+02     -6.99027221E-01     -5.48582381E+02
     -1.39064535E+03      2.99458556E+03      1.88264596E+03
     -5.20435699E+02      3.53751050E+02     -4.27894624E+03
     -1.49806461E+02     -1.01598584E+02      5.45928475E+02
      2.01077956E+03     -8.00819138E+02     -1.26309585E+03
     -6.95309746E+02     -7.41162922E+02     -1.87280847E+03
      3.25167172E+02      8.54684659E+01     -3.94644535E+02
     -6.19544772E+02      5.41695847E+00     -1.56139362E+02
      2.55305010E+03      1.71517157E+03      2.19324880E+03
     -2.30963017E+02      4.34300745E+01      7.82502729E+01
     -3.46657164E+02      8.61132073E+02      6.94161068E+02
     -9.70166333E+02      9.55618367E+02     -2.77210814E+02
     -4.28809759E+01     -1.81520870E+02     -7.42591006E+02
     -1.24510817E+03      1.09154686E+01      1.13539511E+03
      6.25426581E+02     -1.10278370E+03      2.98965504E+02
     -2.58730965E+02      5.55655817E+02     -7.10960243E+02
     -9.30667121E+02     -1.65469908E+03     -8.77238009E+02
      9.73305588E+02      6.86228484E+02     -1.79199629E+03
     -2.98946322E+02     -5.90820602E+02     -5.15935969E+02
     -8.86130007E+02      7.52874665E+02      2.35285314E+03
     -2.15716039E+03     -2.27282933E+02     -6.30694618E+02
      8.95983714E+02      5.75783408E+01      3.66015725E+02
      2.51776340E+02      2.11676218E+03      2.75450943E+03
      2.44774278E+03      1.90003134E+03     -1.31161865E+03
     -9.21812674E+02      4.86589019E+02     -2.53413676E+03
      5.28314244E+02      4.35261676E+02     -1.47590012E+02
     -3.70062009E+03     -6.55449802E+01      2.74456879E+03
     -3.77110501E+02      5.23465641E+02     -1.94333507E+03
     -2.09081125E+03     -1.05763099E+03      2.13246151E+03
      4.25805624E+02      3.03544453E+01      3.21081272E+01
     -1.18836399E+02      9.11271239E+02     -5.16033317E+02
      2.00397704E+03     -2.11698681E+03     -6.71314242E+02
     -1.09514315E+03      5.91062531E+02     -4.81896354E+02
      8.45337537E+02     -2.52080522E+02     -1.53502417E+03
     -3.30884728E+01      2.02858955E+03     -2.29105083E+03
      2.71537617E+02      3.35024416E+02      1.02035085E+02
     -1.48710834E+03     -6.59609458E+02     -3.94662163E+03
      4.25799432E+02      1.89990187E+03      1.62660354E+03
     -6.17073373E-01      2.92932625E+02     -8.83122453E+02
      1.11018552E+02      2.44221077E+03     -1.70001942E+02
     -7.20205241E+02     -1.09500188E+03      4.23394324E+02
      1.29621491E+02      5.88764605E+02      3.58521733E+02
     -1.42055738E+03      7.95876181E+02     -6.16621834E+02
      9.14906310E+02     -1.44706358E+03     -8.37464506E+02
     -3.28681587E+02      5.40332700E+02     -2.83467935E+02
      1.52155637E+03     -9.85355094E+02     -6.65189058E+02
      2.25780252E+03     -1.32868068E+03     -1.63899405E+03
     -1.78115156E+02      1.94613268E+02     -5.44751574E+02
      2.60563433E+03     -4.62021933E+03      2.22181622E+03
     -1.97614231E+02      1.57283462E+03     -9.27515924E+02
      1.46245353E+02      3.23365402E+02     -4.71791018E+02
      1.09093296E+03      2.54912768E+03     -9.46424885E+02
      2.41340943E+02      5.73418306E+02     -3.51817473E+01
     -1.90885821E+01     -3.51582402E+01      1.54934730E+02
      3.95767509E+02      7.79512761E+02     -1.91645726E+03
      6.45212258E+02      7.85001718E+02     -1.56996178E+03
     -1.50753202E+03      3.82774272E+03     -1.51685902E+03
      2.49571818E+02      6.05873905E+02     -7.87666211E+00
      1.94877789E+03      5.61203340E+02      9.75817682E+02
     -2.24685760E+03     -2.39833496E+02      1.01615758E+03
     -7.86570188E+00     -2.25980043E+03      9.85684619E+02
  }
}

Hamiltonian = DFTB {
  SCC = Yes
  SCCTolerance = 1e-6
  MaxSCCIterations = 200
  ForceEvaluation = Dynamics
  MaxAngularMomentum = {
    C = "p"
    H = "s"
  }
  Charge = 0.0
  SpinPolarisation = {}
  Eigensolver = Standard {}
  Filling = Fermi {
    Temperature [Kelvin] = 300.0
  }
  SlaterKosterFiles = Type2FileNames {
    Prefix = "../../pbc-0-3/"
    Separator = "-"
    Suffix = ".skf"
    LowerCaseTypeName = No
  }
  KPointsAndWeights = {
    0.0000000000000 0.0000000000000 0.0000000000000 1.00000000000000
  }
  Dispersion = LennardJones { 
    Parameters = UFFParameters {}
  }
}

ParserOptions = {
  ParserVersion = 3
}
