Geometry = GenFormat {
<<< "system.gen"
}

Driver = VelocityVerlet{
  Steps = 50000
  TimeStep [fs] = 0.2
  MDRestartFrequency = 25
  Thermostat = None {
    #InitialTemperature [Kelvin] = 300.0
  }
  Xlbomd{ 
    IntegrationSteps = 6 
    MinSccIterations = 2
    MaxSccIterations = 200
    SccTolerance = 1e-6 
  }
  Velocities [m/s] {
      9.23543529E+02     -7.24101993E+02      1.01992683E+03
      2.28907017E+02     -1.52531087E+03     -2.21549158E+03
     -1.49148190E+02     -2.99603872E+03      2.90035628E+02
      3.23687097E+02     -7.18286228E+02     -5.46926979E+02
     -2.14218904E+03     -1.31110157E+02     -3.08201357E+02
     -5.58304649E+01      2.57278461E+02      7.21718024E+02
     -2.52010950E+02      2.17097392E+02     -2.02420135E+02
      1.01596819E+02     -8.55052220E+02      1.48143144E+03
      9.12200974E+01     -6.98401481E+02      1.61989717E+03
      4.66526444E+01     -2.29293379E+02      2.50913133E+02
     -3.07927115E+02      1.47258681E+03     -2.52290483E+03
     -2.01917204E+03     -2.27895289E+03      1.92646376E+03
     -3.12855396E+02      5.21555131E+02     -6.52032135E+02
     -5.71357092E+02     -2.16769183E+03      3.28359710E+01
     -2.00130583E+02     -9.70366497E+01      2.04324029E+03
      8.93712745E+02      7.38617520E+02     -7.64724839E+02
      6.06103681E+02     -9.05849671E+02      2.53005604E+02
      4.79445298E+02      1.58508466E+03     -1.88700670E+03
      2.01703894E+02     -2.07004476E+02      3.27653651E+02
     -1.73940474E+03     -1.29376261E+03     -2.74812072E+02
     -4.31896048E+01      5.67255409E+02     -6.79186703E+01
      2.19487418E+02     -1.90976898E+02     -2.50546768E+02
      1.97325108E+02      1.14027445E+03      1.12069752E+03
     -1.82294516E+02      2.54553283E+03      1.32981775E+03
     -1.22971273E+02      2.36153865E+02      4.34928208E+02
      1.14124662E+03     -5.02779160E+02      1.79600882E+03
      2.42487956E+03     -4.64365801E+02      1.12460777E+03
     -1.23098373E+03      2.75857714E+03     -1.20112024E+03
      6.19999174E+02      2.58623824E+01     -3.63162637E+02
      4.23085472E+02      2.12017698E+03      3.10001968E+02
     -1.78215891E+03      4.87514220E+02     -2.70012916E+03
     -2.62443025E+03     -1.89100883E+03     -1.24389974E+03
      1.54066257E+02      9.33278946E+01      1.12212508E+02
     -8.62404129E+01      8.31792825E+02      1.07961712E+03
      1.53196542E+03     -7.90730696E+02     -1.93151837E+03
      7.40968947E+02      1.25948047E+02      5.46766512E+02
     -9.24854299E+02      1.00427584E+03      7.58644177E+02
     -1.93030929E+02      1.03192484E+02      1.12255789E+03
     -2.66395179E+02      2.84267160E+02     -2.47415272E+02
      2.98242785E+03      2.08047429E+03      1.65070158E+03
      3.84493718E+03     -9.85878403E+02      2.47785362E+03
      1.71988004E+02     -4.93310411E+02     -2.92155737E+02
      1.28543164E+03      2.03619289E+03      2.09401844E+03
     -2.21701012E+03      2.09673204E+02      2.33102774E+03
      2.19973329E+02     -1.01879313E+02      3.57475645E+02
     -1.55859940E+02      3.01244803E+03      1.24054571E+03
      2.95228518E+03     -1.32867159E+03      2.39274732E+03
     -4.24476915E+02     -4.61835910E+01     -2.16438640E+02
      3.79648816E+03      1.03013102E+03      8.31130665E+02
     -8.95683169E+02     -1.37973743E+03      7.16439113E+02
     -5.35204097E+02     -3.78045217E+01      3.72564948E+02
      6.10508016E+02      2.09606188E+03     -5.37426986E+02
      1.61253081E+02     -1.83114557E+02      1.92154774E+03
      9.72152397E+02      5.02309684E+02     -4.35729578E+02
      5.83663289E+02     -1.43216815E+03      1.63549205E+03
     -6.83505462E+02     -8.67284505E+02     -1.70846701E+03
      1.37699615E+02      4.52703315E+02     -5.66194924E+01
      2.55873790E+02      6.90708656E+02      1.27222344E+03
     -2.17295896E+03     -1.65902819E+02      2.92657976E+02
      6.13226308E+02      2.24920145E+03      2.17102108E+03
      6.61536409E+01     -1.90684883E+02      1.10699824E+02
     -1.04260045E+03      1.63911029E+03     -4.22310673E+03
     -3.39598173E+02     -1.87512388E+03     -2.95341653E+03
      1.72527129E+03     -1.40710166E+03      1.50907313E+03
      3.18208596E+02      6.73223384E+02     -7.07337111E+02
      1.30436062E+03      1.06819162E+03     -1.01235313E+02
      4.05408779E+02      7.83938614E+02      1.19081587E+03
      1.53730038E+02     -1.61339141E+02     -2.24700564E+02
      1.03909666E+03     -1.82806589E+03     -9.07678143E+02
      2.11522434E+01      1.19440704E+03     -1.37025844E+03
      1.57408238E+02      6.78113540E+02      8.17201320E+02
      1.08881704E+03     -1.10908413E+03      2.72483397E+02
      1.79167938E+03     -8.45044274E+02      2.06896977E+03
      1.57602808E+02      3.20350477E+02      6.55413289E+02
     -5.93780882E+02      9.47105249E+00      2.06674174E+03
      1.41583323E+03      5.90406591E+02     -1.53462703E+03
      2.23024056E+02     -8.04132829E+02     -3.44866648E+02
     -5.14723988E+01     -1.61496825E+03     -1.77321696E+03
     -1.43914366E+03     -6.06017435E+02     -2.75445489E+03
      7.64123143E+02     -2.69168196E+02      1.68188930E+03
     -9.17638983E+02      6.65673227E+02      9.47142689E+02
      8.26990211E+02     -2.02791234E+02      1.57133585E+03
      6.45123403E+02      2.94119564E+02     -5.55776759E+01
      2.00093683E+03      2.07765081E+03     -1.00162010E+03
      3.40364285E+03     -1.02212701E+03     -1.23806155E+03
      5.20669545E+01     -4.83023994E+01      8.52939942E+01
      8.05506640E+01      3.15212651E+02     -3.89199105E+02
      3.28067810E+02     -1.08014428E+03      2.32480374E+02
      1.76977412E+02     -4.76370218E+02     -6.51416854E+02
      2.77227420E+02      7.39779093E+02     -3.33733954E+02
     -9.24310946E+02      2.86325621E+03      2.18561522E+03
     -2.58719850E+03     -8.69847296E+02     -1.24876824E+03
      3.51363155E+02     -8.35493459E+02     -7.37921606E+02
     -1.15057263E+02      3.14536693E+02      1.10781504E+03
     -5.97361433E+01      2.24544347E+03     -1.06684070E+03
     -2.79935977E+03      2.47253724E+02      8.24314020E+01
     -5.34916297E+02      9.10430278E+02      7.17890478E+02
      2.72993297E+03      1.14574889E+03     -6.61046851E+02
      5.81627510E+02     -1.33819236E+03      4.46303199E+02
     -5.79822124E+01     -9.71183472E+01      6.46722611E+02
      2.54856496E+03     -2.00577398E+03      1.74445395E+03
     -9.10349209E+02     -2.06503205E+03      2.23984490E+03
      7.93587757E+02     -2.26074814E+02     -5.84004521E+02
      1.03784129E+01     -8.87670125E+02      5.96195552E+02
     -1.09924558E+03     -2.33048402E+03     -3.52589487E+02
      2.35889857E+02      6.38508104E+02     -7.21109281E+02
     -1.79587239E+03     -6.32592035E+02      2.63201721E+03
     -2.46467863E+03      6.26409258E+02     -1.86474558E+02
      3.04563047E+02     -6.20032974E+01     -6.39327022E+02
      3.79952858E+03     -8.23379191E+02     -1.72742742E+03
      1.93426105E+03     -1.13628998E+02     -4.32589202E+01
      1.78078356E+02      2.06491180E+02      9.11052849E+01
     -6.78234548E+02     -1.18176491E+02      7.16441892E+02
     -1.13671970E+03     -1.66180673E+03      1.89346644E+03
      7.55914550E+02      2.50843833E+02      4.73137597E+02
     -7.29493865E+02     -3.39688404E+02     -9.65008085E+02
      1.27796767E+02     -2.86340531E+02     -7.94073768E+02
      3.80902179E+02     -2.04935503E+02      5.97982779E+02
     -1.54013513E+03      5.07496650E+02      1.59835290E+03
      4.61673658E+03      1.50048244E+03     -2.09079962E+03
      3.63401761E+00      2.93501880E+02     -5.93535087E+01
     -1.33863402E+03     -2.08363997E+03      2.65075861E+03
      6.67124345E+02     -6.49448181E+02     -1.88891439E+03
      6.08574943E+02     -1.57098089E+03     -1.51671758E+03
      1.75316449E+02      8.36342876E+02      2.66101062E+02
      1.34133377E+03     -1.83125335E+02     -1.64796818E+03
     -8.37301419E+02      1.72400261E+03     -2.89197925E+02
     -9.30876507E+00      1.51368962E+03      3.97242959E+02
      2.49980788E+02     -5.65910822E+02     -7.29569006E+01
     -1.39065971E+03     -2.33329033E+03     -1.41525334E+03
      1.29854182E+03      2.71144382E+03      2.45130064E+03
      9.05793758E+02      2.07962584E+02      5.29408949E+02
     -8.76023599E+02     -3.22380578E+01      4.49136348E+02
      5.76452072E+02     -2.34368407E+02     -5.60304455E+02
      1.14680774E+03      1.72466535E+02      1.15038273E+03
     -1.28238950E+02      9.99688226E+02      8.03065159E+02
     -6.12890147E+02      2.21644671E+03      1.60644861E+03
      2.58021598E+02     -1.03392296E+02     -1.79849617E+02
     -1.69630944E+03      1.51360812E+03     -1.13776664E+03
      9.54520908E+01      9.25465886E+02      3.94373017E+02
      5.35036431E+02     -1.79457860E+02      7.24029067E+02
      1.16036511E+03      4.87908964E+01     -7.31183253E+02
      3.72845120E+00      8.82202882E+02      1.37682347E+03
     -6.31402017E+02      6.12433172E+02     -5.75544170E+01
      4.06146384E+03      2.54953391E+03      2.64320957E+02
      2.78908139E+03      3.86986669E+03     -1.17109142E+03
      9.80109598E+00      3.53730911E+02     -1.59068250E+02
     -2.19713735E+03      1.52958682E+03     -1.84533676E+03
      3.63241599E+02      8.13225001E+02     -1.41030535E+03
     -1.43378155E+02      6.99063474E+02      2.96912649E+02
      2.93645268E+03     -7.34237994E+02      1.01169449E+03
     -1.26901298E+03     -1.69032887E+03      5.23984042E+02
      1.68732824E+02     -3.09578558E+01      3.48248282E+01
      1.45664575E+03      1.17988465E+03     -1.37670784E+03
     -1.44269383E+02      1.16810096E+03      1.40206624E+03
     -5.95074594E+02      1.19802834E+03     -1.68366469E+03
     -3.39863652E+02      1.46038700E+02     -4.52908397E+02
     -1.06414693E+03     -1.87886066E+03     -3.09232692E+02
     -1.58865394E+02      2.35853190E+03      8.94454053E+02
     -5.84542862E+02     -5.70489929E+02      2.01675421E+03
     -2.36396792E+02      3.31607466E+02      5.02296553E+02
     -2.62699669E+03     -3.21358618E+03     -7.44368908E+01
      2.06921307E+03     -2.39738650E+03     -1.29568779E+03
      1.88691144E+02      8.37334362E+02     -1.46968011E+02
     -2.34923524E+03      2.25482702E+03     -1.32435116E+03
     -3.34748140E+03      1.37040472E+03      1.18204079E+03
      2.33522639E+02      4.02657232E+01      6.57742150E+02
      9.73972139E+02     -8.73990078E+02     -7.96119394E+02
      1.85638085E+02      5.74311238E+01      5.52538289E+02
      3.36106770E+02      1.39724535E+02      6.52414928E+02
      3.51232293E+02     -8.40634513E+02      1.42697915E+03
     -1.53449756E+03      1.14504632E+03     -5.71778763E+01
     -3.81147726E+02     -1.24611450E+02      4.43499023E+01
     -2.12244619E+03     -1.41719378E+03     -5.79830639E+02
      4.64825520E+02     -1.13760293E+03     -3.46952148E+02
      8.62730489E+02     -5.65379569E+02      3.81369115E+02
      1.88041265E+03      3.04813213E+03      6.69553677E+02
     -2.47527371E+01      9.68617787E+02     -5.27520414E+02
      2.97521274E+02      1.21932265E+02     -2.38618928E+02
      5.54894041E+02      5.48622819E+02      3.61547988E+01
     -8.83149019E+02     -1.94070947E+03      1.35281741E+03
     -1.00755189E+02      6.53615092E+00      4.21711243E+02
      1.96406340E+03      1.35692032E+03     -6.14484869E+02
      2.71984466E+03      1.71317681E+03      1.31964327E+03
     -6.74474151E+02      6.08711096E+02      4.15630292E+01
     -6.60831596E+02      6.76728341E+02     -1.49598415E+02
      7.91239841E+02      3.50476464E+02      5.43918397E+02
     -1.38112740E+02      1.79836976E+03      2.21945942E+03
      1.54307386E+03     -4.41607594E+01     -4.29685636E+02
     -1.41082732E+03     -1.02218149E+03      3.85262114E+02
     -2.30325018E+03      8.89223867E+02     -3.90361372E+02
      2.33266026E+03     -3.40240389E+02      4.99830977E+02
     -2.86748658E+02      8.94298000E+01      7.46181532E+01
     -2.54906719E+02     -7.36145939E+02     -1.52478765E+03
      1.78337987E+03      2.29569055E+02     -2.51421542E+02
      9.60986297E+02      6.48547968E+02     -6.46428967E+01
     -2.04007799E+02      3.64014374E+03      1.09116901E+03
     -4.75209268E+02     -1.69172777E+02     -8.59397967E+02
     -7.64326958E+02     -5.69107144E+02      2.81850798E+02
     -2.54469387E+01      2.94155020E+02     -7.77390890E+02
      1.28903007E+03      6.11371481E+02      1.55293027E+03
      6.94402919E+02     -3.77347596E+02      9.35032043E+02
      9.60404725E+02      1.49876033E+03     -9.76952398E+02
      1.00280331E+03      2.47608399E+03      2.06155192E+03
     -3.41052307E+02     -2.24547954E+02      4.36571241E+02
      2.60460836E+03      4.52453065E+03     -5.78941105E+02
     -1.63021908E+03     -7.25399204E+02      9.65273946E+02
      3.02674744E+02     -1.33964935E+02      1.09500328E+03
     -2.56708833E+03      1.40108187E+03      2.75736488E+02
      2.14440987E+03      1.73842727E+03     -2.56734305E+03
     -8.14048698E+02     -4.77075669E+01     -5.10440165E+02
      8.53509918E+02      2.07819323E+02      1.44833286E+02
      2.50089302E+02      1.56837251E+01      1.42382114E+03
     -1.59230713E+04     -5.68621206E+03     -1.37163744E+04
      8.66451556E+02      1.33231444E+03      1.98036351E+03
     -8.02935167E+02      3.27415979E+02     -6.17804016E+02
     -2.18018693E+01     -6.93557543E+02      5.50210497E+02
      8.57452978E+02     -2.25306875E+02      9.75046718E+02
     -3.21552512E+02      3.39495533E+01      9.84665122E+02
     -3.34825272E+02     -2.25773613E+03      1.83336323E+03
     -4.33921773E+02      2.98892725E+02      1.79086426E+02
     -1.30086195E+03     -6.75241422E+01      2.56973167E+03
     -4.87841806E+02      1.08871314E+03      4.52852030E+02
     -3.75412116E+03     -1.38680065E+03      2.78883341E+01
      2.19806187E+02     -4.32001891E+02      3.17722641E+02
      1.26146620E+03     -2.27664284E+03      5.47552163E+02
      1.69424006E+02     -1.17745150E+03      7.29788237E+02
      4.55851168E+02     -6.95443456E+02      9.75741565E+00
     -8.72468639E+02     -1.36624207E+03     -4.82541716E+02
     -6.16514993E+02     -7.73565271E+02      2.70952573E+02
      6.37703167E+02      5.96576193E+02      1.02943152E+03
     -1.96697063E+03      7.44365552E+02      6.18069164E+02
     -1.21950506E+03      1.96265368E+03     -1.37473886E+03
      2.86984751E+02      3.87805537E+02      6.02052694E+02
      3.10703863E+03     -1.56890355E+03      1.18033396E+02
      6.40639389E+02      5.01988497E+02     -3.59370161E+02
     -8.47424806E+02      1.83365335E+02     -2.92895193E+02
      3.25172373E+02      1.28754198E+03      2.00639482E+03
      9.16015735E+01     -7.22506572E+02     -4.88447169E+02
      6.55429354E+01     -5.07991846E+02     -3.47752392E+02
     -9.62418395E+02     -1.47070018E+03      1.22877410E+03
      1.89046437E+03     -5.27744839E+02     -1.26921638E+03
      3.15821810E+02      2.32113961E+02      1.42217761E+02
     -4.61021000E+02     -1.87291859E+03     -2.89782614E+03
      1.23655662E+03      1.86371170E+03     -1.29089962E+03
      1.54782813E+02     -2.38083148E+02      3.62175462E+02
      1.38300336E+03      1.70740425E+02      2.46265984E+03
     -5.57840502E+02      7.60112280E+02     -1.05292975E+03
      8.27897622E+02      5.53953787E+02      3.90470575E+02
     -2.40315385E+03      2.62819804E+03      9.02577030E+02
      1.95733340E+03     -2.80045782E+02     -2.94549150E+02
      1.85811655E+03     -1.16079761E+03      1.88230880E+03
      4.50322895E+01     -2.10810041E+02      2.12324692E+02
     -4.45845717E+02      6.10076426E+02      2.88941210E+02
     -1.59162989E+03      1.97478702E+02     -1.40871855E+03
      3.54517340E+02     -5.09340245E+02      1.02317838E+03
      3.14915720E+01     -5.02634394E+02     -2.94749158E+02
      2.15164146E+03     -8.81060084E+02      1.21113629E+03
      2.44639084E+02     -1.06864548E+03     -3.37832821E+02
      5.37351607E+02     -3.21781128E+02     -5.08728867E+01
      2.72097893E+02      8.98344139E+02     -1.46756278E+03
     -1.20873671E+03      5.37987848E+02      1.76727799E+02
     -6.53274399E+02     -2.24745628E+02      8.53455688E+02
     -2.53314579E+03     -1.41632182E+03     -1.31538814E+03
     -3.79383308E+02      5.72576107E+02      1.61357833E+03
      8.28129987E+02      5.72651731E+02      2.74573657E+02
      1.66099327E+03     -4.48902914E+02      2.64287500E+03
      5.40899921E+02     -1.67780227E+03      2.26310637E+02
      3.82777423E+02     -8.93060644E+01      1.19639538E+02
     -1.01611276E+03      1.32060539E+03      1.48257967E+03
     -6.29787062E+02     -1.98789834E+01      9.44962111E+02
      6.76319543E+02     -2.73976979E+02      4.40042959E+02
     -6.84867828E+02      3.71565977E+02      7.70191072E+02
      3.86021517E+02      1.27049975E+03      5.49680078E+02
     -3.89636843E+02      3.08475082E+02      1.10395803E+02
     -1.02234606E+03      1.10199768E+03      2.85121243E+03
     -1.78629630E+03      1.19514142E+03     -6.14488860E+02
      5.73307767E+02      2.36552229E+02     -2.03630516E+02
      2.36083199E+03      1.34377320E+03      1.74285201E+03
     -5.86235436E+02      2.23321674E+03     -5.01747887E+02
     -3.70993421E+02     -1.99513138E+02     -1.61385259E+02
      1.62183518E+03     -2.42787902E+03     -2.26147150E+03
      1.11215142E+03      2.44768356E+03      5.44784399E+03
     -1.20060388E+03      1.04709112E+03      4.43095584E+03
     -4.64411126E+02      3.55761147E+02     -3.04349977E+02
      8.29192912E+02     -1.45172035E+03     -2.48923025E+02
     -1.24526131E+02     -2.22797612E+02     -7.18364206E+02
     -1.56765956E+03     -7.62932007E+02     -2.08478527E+03
     -1.21456434E+02      9.70621972E+01      5.07185929E+02
      7.31260877E+02     -2.12583139E+03      1.47980298E+02
     -6.79103616E+02      3.18677964E+03      1.80948655E+03
      6.70907305E+02      4.50917426E+02     -3.76654889E+02
      2.51779648E+02     -1.76637167E+02     -3.42767782E+03
     -1.11908175E+03      1.22710602E+02      7.08199173E+02
      5.09709957E+02     -3.59053496E+02      2.31202005E+02
     -1.18049665E+03     -1.65033623E+03     -1.36132919E+03
     -1.64647801E+03     -2.24318976E+03      8.80902755E+02
     -2.83040650E+02      5.58477301E+02     -4.55325166E+02
      6.00721688E+02     -1.85812840E+03     -8.58723146E+02
     -8.63481820E+02     -7.94130559E+02     -1.20981576E+03
      6.21075064E+00     -2.95313077E+02      1.58087143E+02
      7.38639053E+02      6.84268959E+02     -4.45465878E+02
     -1.72695327E+03     -2.79584355E+03     -3.16438432E+03
      2.54471372E+02     -7.65184630E+02      1.01637699E+02
      2.62413236E+03     -1.50296639E+03      2.08032094E+03
     -5.97904430E+02      2.48997549E+02      1.28194672E+03
     -2.88621908E+02      1.04114612E+01      4.98921420E+02
      1.68937543E+03     -2.59739040E+02      1.36684095E+03
      4.39890595E+03      1.85711196E+02     -2.83733604E+02
      1.34141273E+02      4.62777450E+01      8.04728108E+01
      2.92363968E+02     -9.44522676E+02     -2.08502731E+03
      1.77429281E+03     -4.79759620E+02     -6.92037742E+02
     -1.02559422E+02      1.93157007E+01     -8.51791821E+02
     -6.19372642E+02     -6.33528097E+02     -2.51705517E+03
     -3.89565616E+02     -3.43167875E+03      1.59518948E+03
      3.04524655E+03      3.48701520E+02     -2.73102918E+03
     -5.72723592E+02     -6.52783699E+00      1.05228320E+02
     -1.53590690E+03      2.73899385E+02      1.29749962E+03
      4.71721460E+02     -6.83550102E+02      7.14740601E+02
     -1.82584841E+02      8.85763975E+02      2.58178414E+00
      6.59837073E+02     -6.03490141E+01      6.82124699E+02
      2.53045758E+02      1.58729190E+03      1.90989902E+03
      2.39511137E+03     -1.54542165E+03      4.02594090E+02
     -8.95037232E+01      3.11992353E+02     -6.49719927E+02
     -5.09838642E+02      7.93243318E+02     -7.97391629E+02
     -3.90973831E+03     -3.23743662E+02     -2.07491974E+03
     -1.04254666E+03      6.24857459E+02     -5.65844112E+02
      1.57170372E+01      2.32547280E+03     -2.84886991E+03
     -1.25557106E+03     -1.24928647E+02      1.95801048E+02
     -2.31351637E+01     -5.00368856E+02     -3.00505426E+01
      1.57860455E+03     -1.72954227E+01      3.39321269E+02
     -2.05365147E+03     -3.76691169E+03     -3.79103698E+02
      3.94780282E+01     -2.74664841E+00      5.60707233E+02
      8.87984719E+02     -5.22442051E+02     -1.96228484E+03
      3.00708634E+02     -1.91566032E+02      1.32998300E+02
     -1.23166126E+02     -2.58663789E+02      1.39095323E+02
      1.71651372E+03     -3.14096480E+03      2.43057131E+02
      1.07156509E+03      9.00404301E+02     -2.30926144E+03
     -1.51772037E+02      6.28736836E+02      2.87124351E+02
     -3.62847684E+02     -4.77386509E+02      1.23551961E+03
      7.94041438E+02     -8.21549431E+02     -2.49160779E+03
     -3.99888978E+02      2.49957023E+02     -4.86027868E+02
      1.01636356E+02     -1.07127791E+03     -1.87612095E+03
     -1.52235048E+03      6.84103048E+02      1.38342604E+03
     -5.44204564E+02     -5.39470948E+02     -9.11589241E+01
     -2.64813739E+03      7.15675672E+01      9.26426412E+02
      1.48751387E+03      8.18040720E+02      1.23746257E+03
      2.77050764E+02      1.05882165E+03      2.29161906E+03
     -2.57904981E+02      3.03622309E+02      2.40522982E+02
     -1.09988021E+03      2.25754286E+03     -9.89458907E+02
     -1.22934297E+03      4.41967986E+02      9.38018272E+02
      8.87581395E+02      2.03207505E+03      3.38273275E+02
  }
}

Hamiltonian = DFTB {
  SCC = Yes
  SCCTolerance = 1e-6
  MaxSCCIterations = 200
  ForceEvaluation = Dynamics
  MaxAngularMomentum = {
    C = "p"
    H = "s"
  }
  Charge = 0.0
  SpinPolarisation = {}
  Eigensolver = Standard {}
  Filling = Fermi {
    Temperature [Kelvin] = 300.0
  }
  SlaterKosterFiles = Type2FileNames {
    Prefix = "../../pbc-0-3/"
    Separator = "-"
    Suffix = ".skf"
    LowerCaseTypeName = No
  }
  KPointsAndWeights = {
    0.0000000000000 0.0000000000000 0.0000000000000 1.00000000000000
  }
  Dispersion = LennardJones { 
    Parameters = UFFParameters {}
  }
}

ParserOptions = {
  ParserVersion = 3
}
