Geometry = GenFormat {
<<< "system.gen"
}

Driver = VelocityVerlet{
  Steps = 100000
  TimeStep [fs] = 0.2
  MDRestartFrequency = 5
  Thermostat = None {
    #InitialTemperature [Kelvin] = 300.0
  }
  Xlbomd{ 
    IntegrationSteps = 6 
    MinSccIterations = 2
    MaxSccIterations = 200
    SccTolerance = 1e-6 
  }
  Velocities [m/s] {
     -9.44833520E+02      7.87922195E+02     -5.62416045E+02
      1.28600394E+03     -1.01671443E+03     -1.37186248E+02
      2.14435012E+03      2.31005474E+02      5.32622889E+02
      5.17533213E+02     -2.84789579E+02     -2.32609976E+02
      1.28558361E+03      5.23317936E+02     -7.62706559E+02
      2.59195966E+03      6.84461604E+02      2.85620386E+03
      1.06124667E+03      5.06767158E+02      2.22914454E+02
     -9.84626521E+02     -2.85588669E+02     -1.39902647E+03
     -7.05101934E+02     -9.39508976E+02      8.90278772E+02
      2.05874731E+02      6.94273094E+02     -3.66469984E+01
      2.85377524E+03     -7.50984399E+02     -3.80351269E+03
     -2.28699982E+03     -2.70124775E+03     -8.32711051E+02
     -2.78449485E+01      2.76287281E+02      1.13541216E+02
     -2.10489937E+03      2.52349784E+03     -9.42002123E+02
     -6.80887215E+02     -2.00730747E+03     -1.69732027E+03
      3.90651459E+02      1.28230591E+02      4.44048483E+02
     -6.77205341E+01      1.01924636E+03      2.13086624E+03
      2.43204445E+03     -1.03790827E+03     -4.61200873E+02
      3.20490411E+02     -4.74167689E+02     -3.99211661E+02
      1.41157323E+03      8.68872968E+02      3.09195952E+02
     -1.34583811E+03      4.64076192E+00      2.50121780E+03
     -7.54843535E+02      5.28541200E+02     -4.69720537E+02
     -1.55248263E+03      2.85918874E+03     -3.08382072E+02
     -1.63502489E+03     -2.36320031E+02     -1.00246365E+03
      2.26487834E+02     -1.00369996E+02      7.66067702E+00
      8.84545220E+02      1.55002520E+03      1.80317126E+03
     -1.20906887E+03     -1.20275236E+03      9.59508459E+01
      2.59504935E+03     -9.69242290E+02     -3.84559318E+03
     -1.43964544E+02      3.30007347E-01      3.56368873E+02
      1.83254378E+03      1.47522425E+03     -1.75907255E+03
     -6.43512769E+02     -2.15000078E+03     -5.57211173E+02
     -3.76904055E+03     -2.10585239E+03      7.81879689E+02
      4.19497904E+02      8.74057681E+02      6.19110232E+02
      1.13088251E+03      3.10714284E+02     -2.42520375E+03
      1.33925089E+02     -1.53718484E+03     -4.57438729E+03
      3.08320619E+02     -2.99022145E+02     -7.95753034E+02
      4.35150274E+01     -2.71953988E+02      1.72547852E+03
     -6.86071009E+02      1.77809753E+01     -3.26035813E+03
     -4.40722680E+02     -5.03050569E+02      3.99206979E+02
     -1.76578526E+03      2.20564685E+02     -8.14545056E+01
      6.54976321E+02      3.16488732E+02     -9.02429164E+02
     -1.70224573E+02      3.91805227E+02     -1.91175773E+02
     -1.35823701E+03      5.73420364E+02      2.84395470E+03
     -1.30748544E+03     -1.23259307E+03      1.17382962E+03
     -9.03534679E+02     -9.54045181E+02      2.14221197E+02
     -8.88819607E+02      7.76397798E+02      1.51156944E+03
      8.21135522E+02     -4.06535392E+02      5.75334459E+02
      1.36745017E+02      3.00352315E+02     -7.91684453E+02
      2.15195949E+03      2.01397160E+03      8.02065379E+01
      3.22922882E+03     -1.13154458E+03     -2.27083016E+03
      3.34928321E+02     -2.33328029E+02     -1.03372178E+01
     -2.33273188E+03     -1.05971645E+03     -3.07929952E+03
      2.81012033E+01     -1.80225444E+02     -5.60417062E+01
      1.94995938E+02     -6.56728927E+02     -7.43792168E+02
     -4.90817882E+02     -4.61289100E+02      3.54883901E+02
     -1.83612803E+02      1.02651901E+03      2.06170755E+03
      5.01718205E+02      3.62312419E+02      3.74444212E+02
      2.20977814E+03      3.51383654E+02      3.09758020E+03
      1.40654403E+03     -5.13079326E+02      1.28668131E+03
      6.90993697E+02     -2.26781869E+03      4.76352128E+02
      1.36699451E+02      8.37398269E+02     -2.06006233E+02
     -2.47171217E+03      8.90787900E+02      6.94872150E+02
     -3.51378686E+03      1.03508466E+03     -5.17313252E+02
      4.70316495E+03     -8.39556933E+02      9.64669684E+02
     -2.11151887E+02      9.75534915E+01      3.99943918E+02
      5.67736242E+02     -7.04142053E+02      1.25965617E+03
      2.22742561E+03     -9.77595315E+02      7.27625877E+02
      4.69771837E+02      3.36244121E+02     -3.14430484E+02
      3.42716764E+03      1.66093079E+03     -7.90462973E+02
      9.03462813E+02      1.55609000E+03     -4.06022663E+01
      3.77465964E+02     -1.70638800E+02     -6.56752815E+02
     -1.54948032E+02     -2.11444247E+03     -3.17371227E+03
      2.14698177E+03      3.45196395E+02      2.62157299E+02
     -4.68792306E+02      1.08574313E+03     -2.28303892E+02
     -1.49954816E+03     -6.81440009E+02     -6.48141536E+02
      1.91214171E+03      6.74983657E+02     -2.49982573E+03
      6.48934809E+02      3.18474929E+02      1.41920088E+02
      2.21440269E+03     -5.90441502E+02      2.08595626E+03
     -2.78096791E+03     -2.31528630E+03     -1.98137497E+03
      3.94051824E+02      9.79883779E+02     -1.91334956E+02
     -6.59832307E+02     -1.40770053E+03      4.40804171E+02
     -3.12814364E+03     -2.67708477E+02     -3.25072918E+03
      7.92685275E+01      2.88741135E+02      5.59140398E+01
      2.06786963E+03      6.91738920E+02     -1.36790673E+01
      2.53008682E+03      4.47480960E+02      7.79040197E+02
     -6.58178290E+00      3.90665090E+02     -4.67702293E+01
      1.31557895E+03      3.17706821E+03     -1.62543246E+02
      2.21486114E+01     -2.00128309E+03      4.59476601E+02
      4.38813899E+02     -3.11854669E+01     -4.25737221E+02
     -3.05391955E+03     -2.71136850E+03     -2.81200650E+03
     -1.58545527E+03      2.27187549E+03     -1.62826622E+03
      3.71943936E+03      2.01250164E+02     -9.21863949E+01
      3.66648326E+02      5.98320904E+02     -4.77838770E+02
      2.38529907E+03      1.22560367E+03     -3.40408566E+03
      9.67931331E+02     -6.56680934E+02     -1.76033702E+03
     -2.21557217E+03     -4.40421611E+02     -7.14772077E+02
     -1.13459793E+02      3.72831024E+02     -8.77537198E+01
     -2.43883433E+03      6.72154003E+02      1.18459930E+03
      1.07519086E+03      8.55615615E+02     -2.66760081E+02
      1.95713473E+02      1.10483566E+03      4.78378239E+01
      1.70080636E+03     -2.28106616E+03      3.92969845E+02
     -1.19719008E+03      8.30963473E+02      1.67247579E+02
      1.72159694E+02     -3.41648146E+01      8.51447692E+01
      4.34432749E+02      3.11906992E+03     -1.09454710E+03
      3.29736797E+01      2.30584070E+03      1.75780728E+03
      4.02847207E+02      1.50025037E+02      1.33449020E+00
     -4.03850141E+02     -3.93845093E+02      7.11294835E+01
     -2.13586727E+03      9.96813663E+02      9.49383121E+02
     -2.43503367E+02     -8.26040167E+00     -3.78155720E+02
     -3.87837825E+00      2.06452528E+03     -2.13743362E+03
      5.63890324E+02     -4.22503710E+02     -2.17335750E+03
     -4.70687318E+02     -2.16607431E+02      5.72495858E-01
      5.65999064E+02      2.03365242E+02     -2.46095050E+02
      1.14852615E+03     -5.34795291E+02      1.75497877E+03
     -9.06918681E+02     -4.15737995E+02      3.34545157E+02
     -2.28226519E+03      1.56601712E+03     -2.41974544E+03
      9.90191949E+02      1.02059133E+02     -2.94610339E+03
      1.30313943E+03      4.84141408E+02     -3.39575239E+02
      2.80092186E+02      7.83131404E+01      1.39671251E+02
      4.55220306E+02      1.79500169E+03     -4.17850705E+02
     -1.84687518E+02      4.84006653E+02     -8.05235998E+02
     -3.55277350E+02     -1.84744805E+02     -1.84301729E+03
     -1.87165192E+01     -2.12160432E+02      2.66014783E+03
      3.51079745E+03     -1.24564545E+02      6.47535937E+02
     -6.74416780E+02     -5.11772194E+02      3.66823894E+02
      1.61560675E+02      1.16855213E+03      1.57101411E+03
      2.54460622E+03      1.14469392E+03      3.45050638E+02
     -2.63129178E+03     -1.52122737E+02      2.98893207E+03
      6.42872586E+02      1.28060302E+02     -6.78872272E+02
      1.24854562E+03      6.14856524E+01      6.65436011E+02
     -1.24729908E+03     -1.92517608E+03      1.41961595E+03
     -7.84401163E+02      5.61088370E+02     -5.55582426E+02
      1.20406871E+03     -1.44846956E+03     -2.74363435E+03
      1.13210348E+03      3.31171898E+03      6.34665554E+02
      6.74461326E+02      4.57978918E+02     -4.05488148E+02
      9.93021864E+01      1.43370759E+03      1.81796227E+02
     -1.01159340E+03      1.07970072E+03     -1.70668851E+03
      4.65622901E+01     -4.71376824E+02     -2.63441612E+02
     -1.15019855E+03     -1.93458883E+03     -1.62326130E+03
      1.75024842E+03      4.01915401E+03     -8.73657741E+02
     -1.14499954E+03     -1.64169695E+04      1.41706372E+04
     -1.29537812E+02     -2.39033841E+02     -2.89305923E+02
     -1.14839240E+03     -8.79555072E+02     -3.08511974E+03
     -3.79755001E+02      3.80425236E+01      1.55155467E+02
      1.17087475E+03      1.97797193E+03     -5.06797177E+01
      5.25790796E+03     -9.56927062E+02      2.02180145E+03
      5.79255793E+02      1.19395311E+03      5.80706229E+02
     -4.92527586E+02      2.83829430E+02     -8.22008583E+01
      1.19755254E+03      2.72148550E+03     -1.13379475E+03
      3.91101565E+02      4.23313076E+02     -1.51425135E+03
     -9.16526871E+02     -1.63153852E+03      2.44136246E+01
     -1.65557960E+03     -1.21326788E+03     -2.23834503E+03
      2.41062104E+02     -7.35347309E+01     -4.67070948E+02
     -3.67194590E+03      2.02964859E+03     -2.07565031E+03
      1.81851036E+03     -9.64314561E+02     -4.82294384E+02
     -1.20402821E+03     -1.01865498E+03      2.13172476E+03
     -8.10977697E+00     -2.03657597E+01      2.61015387E+02
     -3.15816305E+02     -1.09360654E+02     -1.46995505E+02
      7.58978433E+02     -4.10561430E+01     -1.59373052E+03
     -6.48220133E+00      1.05265890E+03      1.04762374E+03
     -8.82481201E+02      3.74942223E+02     -4.93999720E+02
      9.02107962E+02      5.30852028E+02      2.65855175E+02
      1.68291786E+03      1.33262030E+03     -2.33558093E+03
     -3.38585695E+02      3.54335410E+02      1.68620390E+02
      1.17718054E+03     -1.59328184E+01     -1.42978653E+03
      4.38638275E+02      1.05013482E+03      2.70553071E+02
     -5.74187196E+01      8.70648903E+02     -3.41973015E+01
      9.63501924E+02      6.13877425E+01      1.99964208E+03
      3.42886657E+02      2.82563627E+03      6.94180032E+02
      5.12600382E+02      7.27998337E+01      1.65037067E+02
      5.31725336E+02     -2.12297344E+03      5.32411043E+02
      2.54774963E+03      5.60146718E+02     -3.18549037E+01
     -4.59018235E+02     -9.47378520E+02      2.40143707E+02
     -1.66716945E+03     -3.90216222E+01      6.24422140E-02
     -8.89688463E+02      1.00948681E+03      6.54883336E+02
     -8.79412939E+01     -1.49365295E+02     -9.21028584E+02
     -6.69461747E+01      1.51596586E+03     -6.49124348E+02
      1.40624111E+03     -2.87273615E+03     -8.30185469E+02
     -9.29390668E+00     -3.29663068E+02     -1.77297387E+02
      8.88440484E+02      3.60587168E+01     -3.01791101E+03
     -7.84236163E+02      1.70491197E+03      3.54900383E+03
      8.32213747E+02      4.64976295E+02     -4.23179670E+02
     -9.41401778E+02     -1.43420278E+03      1.37078066E+03
     -2.51085757E+03     -9.05428048E+02      7.76872234E+02
     -1.30245365E+03      2.12066455E+02      1.18430669E+02
      3.93149370E+03     -1.52276427E+03      7.01529746E+01
      1.29863709E+03     -1.16592858E+03      1.87994321E+03
     -1.10777408E+03      8.29646203E+02     -1.86243472E+03
     -4.75550526E+02     -1.58608857E+02     -5.13627841E+02
     -1.28013830E+03     -2.16708055E+03      2.52668555E+02
     -5.05402896E+02      1.61837594E+03     -3.48596202E+02
      6.07985887E+02     -1.61822897E+03      1.64218583E+03
     -8.13190492E+02      8.72801999E+02      1.08949089E+03
     -8.72886453E+02      6.23027027E+02      2.56236244E+02
      1.71754239E+02      1.88295924E+02     -6.47892433E+02
     -7.07133366E+01      5.72371079E+02      2.06428135E+02
      7.55487553E+02      8.53569099E+02      2.43614256E+03
     -4.43571940E+02      1.84744576E+03     -6.17055780E+02
      3.46498876E+02      4.86991592E+02     -6.94368057E+02
      3.74725882E+03     -9.27933817E+02     -4.00718771E+03
     -9.25874450E+02     -1.56263856E+02     -8.13158104E+02
      1.58008794E+02      3.08950522E+02     -4.23015280E+02
      2.17104032E+03     -6.37013116E+02     -1.74161721E+03
     -2.90121243E+03     -2.41619512E+03      2.86454352E+03
     -7.52268785E+02     -1.98964904E+02     -1.17629304E+02
     -2.22696652E+03     -7.91626530E+02     -1.29036628E+03
      1.99419749E+02     -1.18047493E+03     -1.96448262E+03
     -3.12082026E+02      1.52872603E+02     -4.39786608E+02
      5.82434349E+02     -5.59792956E+02      2.45373170E+03
     -3.80848085E+03     -9.52038739E+01     -1.32624863E+03
     -3.90637768E+02      6.22945426E+02     -3.68761118E+02
      2.71031034E+03      1.98329342E+03     -3.46542821E+02
     -1.56586982E+03      1.13030337E+01     -2.26549730E+02
      7.35646939E+02     -6.29749181E+02      6.50532119E+02
      3.67738167E+02     -3.01115812E+03     -2.72589566E+03
     -1.81063021E+03     -3.39201000E+02      5.75252869E+02
      5.99975644E+01     -3.23281519E+02      6.97620920E+02
     -3.13084129E+02      6.46276721E+02     -2.60938217E+02
      8.34805134E+00      1.45454524E+02      2.87033025E+03
     -4.79958961E+02      2.04598350E+03     -2.31419164E+03
      5.04990734E+01     -1.40057880E+02     -1.50989804E+01
      1.60225106E+03      1.43947645E+03     -1.29688218E+03
     -2.99941608E+02     -3.65820756E+00      1.34080923E+03
     -1.67383474E+03      3.95217286E+03      1.27634246E+03
     -4.03161144E+02     -1.74572304E+01     -7.51793049E+02
     -1.80693008E+03     -9.73027592E+02      3.54497242E+03
     -3.10916596E+01     -2.35309562E+02     -1.63938214E+02
      2.11477887E+02     -6.31467202E+01      3.88776149E+02
      6.20117261E+02     -3.90758927E+02     -8.82194810E+02
     -6.89214087E+02     -1.51240291E+02      7.23679631E+02
      1.29144390E+02      1.02488906E+03      3.34934105E+02
     -3.33566964E+02     -2.45945028E+03     -1.70851520E+03
     -1.29955309E+03      7.11900404E+02      1.78356367E+03
     -6.13610033E+01      5.01198728E+01      2.24072557E+02
      2.17893227E+03     -1.54704456E+03      1.19434817E+03
      2.58443469E+03     -4.58538124E+02     -1.28540670E+02
     -5.79641015E+02      9.55003052E+01     -8.91596110E+02
      9.63054073E+02     -6.80953781E+02      2.69785318E+02
     -4.88324492E+02      1.55307364E+02     -5.32984496E+01
      7.60140818E+02     -1.55945271E+03     -5.04742113E+02
      1.06205544E+03      5.16996804E+02      5.22976973E+02
     -2.97974502E+03      1.03418992E+03      1.03540149E+03
      6.90922377E+02     -1.47467442E+02     -4.68812213E+02
     -6.75077609E+02      8.39845671E+01     -2.94108174E+03
     -3.25824609E+00      1.52825006E+03      5.54869339E+02
      1.29070625E+02     -7.25990462E+02      1.97281437E+02
      9.60750792E+02      6.28617944E+02     -1.41074433E+03
      4.08711944E+02      8.05378396E+02     -1.26085860E+03
      5.37777848E+02     -7.61833434E+02      9.01699491E+02
      2.93862168E+02     -1.39645520E+03      8.04485185E+02
     -2.71651159E+02     -9.54514259E+02     -1.63081972E+03
     -1.44261844E+03      2.94292905E+03     -3.90907127E+03
      9.40776470E+01      3.43784997E+02     -2.16588333E+01
      2.53893624E+02     -2.49189525E+02     -3.19492333E+03
     -4.32292431E+02      1.97930262E+03     -2.06017233E+02
     -6.45369061E+02      1.11770546E+03      3.57532682E+02
     -9.52241667E+01      6.85147740E+02      5.98525618E+02
      9.02461359E+02     -3.51429859E+02      2.42024366E+00
     -1.35778062E+02     -1.85633994E+03      1.74665306E+02
      4.44629455E+02      4.34723237E+02     -1.41223659E+01
     -3.45558153E+01      2.09399526E+03     -1.65643383E+03
     -6.42161259E+02      1.23472950E+03      7.85684742E+02
     -6.11037961E+02      6.35311596E+02      7.15785641E+02
     -1.48721956E+03     -1.49781886E+03      2.27202044E+03
     -1.13992553E+00      2.54509944E+03     -4.33521997E+02
     -3.15032099E+02      1.99109148E+02      5.62246839E+02
      2.43101715E+03      1.92013043E+03     -2.88391743E+02
     -1.54384574E+01      4.08825319E+02      6.23229024E+02
     -2.00120557E+02     -1.46585060E+02      6.97151452E+01
      8.32022291E+02     -9.98028462E+02     -1.29173336E+03
     -1.16994379E+03      1.90807065E+03      2.51137118E+03
      1.00373897E+03     -4.57698579E+02      1.49235581E+02
     -1.64716325E+03     -3.34512609E+02     -2.44171131E+03
     -7.06856120E+02      1.00398785E+03     -7.79632208E+02
      5.84948787E+02     -2.61506564E+02      1.51557569E+02
     -1.96966318E+03      9.96979995E+02     -9.62328328E+02
     -3.43141442E+03     -1.15983760E+03     -7.34205047E+02
      1.36077904E+02      4.58468296E+02     -5.49225404E+02
     -1.95763528E+02      2.02233058E+03      1.56708048E+02
      5.21553331E+03      9.82921022E+02     -1.73756800E+01
     -1.39235579E+03      1.26684002E+03     -4.75873438E+02
     -5.15906043E+02      1.80200640E+03      1.33512909E+03
      1.51982410E+03     -6.19551571E+02      4.55620100E+02
      1.37613532E+03      8.99717523E+02      1.56868210E+02
     -1.41983800E+02      8.71120481E+01     -7.25814598E+02
     -1.37135285E+03      9.11565057E+02     -2.13433283E+03
     -3.34453953E+02     -1.03751604E+03      2.86852124E+02
     -1.13548834E+03     -9.62067017E+02      1.74810736E+02
     -7.02761206E+02     -7.42915940E+01     -3.04989843E+02
      1.29128564E+03      5.56400534E+02      1.18110598E+03
      5.01455564E+02     -1.19310527E+03     -4.77567582E+02
      4.05548864E+02     -3.30915270E+02     -8.08884885E+02
      5.10061653E+02     -2.16549487E+03     -1.66047304E+03
     -8.21940468E+02      8.40862948E+01     -5.90355865E+02
     -9.21749692E+02      2.82941684E+02     -2.52899686E+02
      8.50779499E+02     -1.96126065E+03      1.75536482E+02
     -1.67320260E+03      7.55332365E+02      4.21677221E+02
     -3.21938520E+01      2.16009832E+02      3.37924455E+02
      3.94801937E+02      5.37208123E+02      1.03759724E+03
     -1.52874153E+03     -1.57557069E+02      9.96239804E+02
      1.98046297E+02      1.27250018E+02     -1.48234546E+02
     -1.64891714E+03     -2.70234410E+03      1.79080920E+03
      2.31097820E+03     -7.74832409E+02      7.06100672E+02
      3.82035873E+02     -1.63921094E+02     -1.30993520E+02
     -2.95500364E+03      1.75153857E+03      1.05021408E+03
      7.20356279E+02     -2.03644023E+03     -2.29907430E+03
     -4.36154290E+02      3.39457462E+02     -2.30149769E+02
      1.37411877E+03     -1.65100297E+03     -3.74408880E+03
     -9.78178152E+02      8.06592531E+02     -4.23003081E+03
     -3.64770454E+02     -3.23652803E+02      5.13922015E+01
     -2.07273237E+03      1.62525394E+03     -5.39427770E+02
      7.98747413E+02      7.41259987E+02      1.34732452E+03
     -3.91388826E+02      3.39284542E+02     -1.71414427E+02
      7.31079845E+02      5.82390859E+02     -3.46146845E+03
      1.69045379E+03     -7.54109923E+02      2.12501407E+03
      1.38016770E+03     -2.68575256E+03      7.49952094E+02
     -5.76051447E+02     -2.78249746E+02      2.29676948E+02
      8.17455235E+02     -1.27528166E+03      3.67026707E+02
      1.57341380E+03     -1.98601863E+02     -6.70694228E+02
      1.11457964E+02     -4.45882902E+02      4.09028912E+02
     -2.66894411E+02     -4.68010850E+02     -4.32062255E+02
      1.47691637E+03     -1.31489370E+03     -1.18464753E+02
      2.60961091E+03      3.42384216E+02     -1.08537722E+03
      1.99754669E+01     -3.59970665E+02      1.84110350E+02
      3.19376311E+03      1.12944671E+03      7.06671025E+02
     -1.44461154E+03      2.06294008E+03     -3.28627575E+02
     -3.61775076E+02     -1.13542271E+02     -4.41089998E+02
     -1.70703573E+03     -1.00802260E+03     -9.94109122E+00
      7.90680203E+02      1.42883324E+03     -2.26947268E+03
     -5.09298958E+02      2.96734088E+01     -2.78487544E+02
      1.14702899E+03      6.78077272E+02      1.09910238E+03
     -6.88218391E+02      1.18049649E+03     -2.57269972E+03
      9.17990767E+00      3.64948228E+02     -2.73186013E+02
     -2.15228207E+03     -2.54913724E+02      9.97457280E+01
     -6.07444006E+02      1.81011561E+03     -3.65285786E+03
     -5.67518529E+02      5.25899870E+02      1.95265093E+02
     -6.62387786E+02     -4.95739531E+01     -1.43241394E+03
     -1.31337759E+03      6.03392543E+02      3.90786578E+02
      1.51635469E+02     -3.92240349E+02      4.28568947E+02
      3.00813249E+03     -4.56914835E+02      3.36950587E+01
     -4.06904916E+02     -4.16185910E+02      1.13599261E+03
      6.50127390E+01      5.20472185E+02      2.18553389E+01
      2.12810029E+03      2.11459400E+03     -1.29806165E+03
      2.21811884E+03      1.47918618E+02     -3.05066226E+03
      2.88902914E+02      4.68557464E+02      1.95871972E+02
      2.60986975E+03     -1.42235803E+03      1.49382497E+03
     -2.84550407E+02     -1.77088911E+02      3.22352395E+03
      2.63067688E+03     -4.45226459E+02     -1.33173472E+03
      2.70332127E+02      6.38758623E+02      8.88901617E+02
     -2.71439056E+03     -1.08530747E+03     -2.54953306E+03
     -1.00125376E+03     -2.87395232E+02      1.22736049E+03
     -8.98774377E+02      2.12230810E+03      1.43796186E+03
  }
}

Hamiltonian = DFTB {
  SCC = Yes
  SCCTolerance = 1e-6
  MaxSCCIterations = 200
  ForceEvaluation = Dynamics
  MaxAngularMomentum = {
    C = "p"
    H = "s"
  }
  Charge = 0.0
  SpinPolarisation = {}
  Eigensolver = Standard {}
  Filling = Fermi {
    Temperature [Kelvin] = 300.0
  }
  SlaterKosterFiles = Type2FileNames {
    Prefix = "../../pbc-0-3/"
    Separator = "-"
    Suffix = ".skf"
    LowerCaseTypeName = No
  }
  KPointsAndWeights = {
    0.0000000000000 0.0000000000000 0.0000000000000 1.00000000000000
  }
  Dispersion = LennardJones { 
    Parameters = UFFParameters {}
  }
}

ParserOptions = {
  ParserVersion = 3
}
