Geometry = GenFormat {
<<< "system.gen"
}

Driver = VelocityVerlet{
  Steps = 50000
  TimeStep [fs] = 0.2
  MDRestartFrequency = 5
  Thermostat = None {
    #InitialTemperature [Kelvin] = 300.0
  }
  Xlbomd{ 
    IntegrationSteps = 6 
    MinSccIterations = 2
    MaxSccIterations = 200
    SccTolerance = 1e-6 
  }
  Velocities [m/s] {
     -3.63866818E+02     -3.63429771E+02     -8.04089564E+02
      3.42389411E+02      1.59022199E+03      2.42848512E+02
      7.59514290E+02     -1.52186293E+03      6.79961495E+02
      6.37421573E+01     -4.61171890E+02      3.14170880E+02
     -2.07045047E+03     -1.37238384E+03      3.05646460E+03
     -7.70271861E+02      1.79890936E+03     -1.47997152E+03
      5.22998866E+02     -8.77714283E+02      8.82393942E+01
     -6.74933322E+02     -1.38869489E+03     -2.66965400E+02
     -2.30573760E+03     -7.54819100E+02      3.67681797E+02
      1.24634000E+02     -1.26673819E+03      2.16855860E+02
      6.99739075E+02      2.23122236E+02      3.84379900E+02
      9.60904082E+02      2.64936246E+03     -1.90833558E+03
     -8.17749230E+02      2.42808995E+02     -2.85423443E+02
     -9.09538265E+02     -1.32500167E+03     -5.36604777E+02
      2.32870461E+03     -2.05822243E+03      1.86776277E+03
     -3.02856935E+02     -5.84225744E+02     -2.35651848E+02
      1.87686049E+03      1.06229666E+03     -1.23700318E+03
     -1.25485647E+03      2.76078586E+03     -3.68933533E+02
      2.15537286E+02     -5.01105136E+02     -1.33745714E+02
     -1.01732983E+03     -1.87120403E+03     -1.85001299E+03
     -1.51892925E+03      2.04188578E+03     -2.49316964E+03
     -1.74501499E+02     -6.12226537E+01     -3.50737525E+02
      1.41550249E+03      1.21419642E+03      1.86081531E+03
      4.49202261E+02     -1.81028721E+03     -1.48329118E+03
     -8.13231376E+02      4.57642043E+02     -6.17621265E+01
      2.31362140E+02      2.33461259E+03      1.27260831E+03
     -5.21411616E+02     -2.30342741E+02      9.46589375E+01
     -3.95647575E+02      2.01158177E+02      7.79581548E+02
     -7.43712938E+02      2.21027079E+02     -1.05003054E+03
     -1.07200648E+03     -7.35051395E+02      1.28727683E+03
     -7.80246851E+02     -2.05938682E+03      1.27590487E+03
     -7.50753851E+02     -1.80590786E+03     -1.64401239E+03
     -4.93878396E+02     -1.32005747E+02      6.74753707E+01
      8.95720107E+02     -1.11480074E+03     -1.89565901E+03
     -1.51330858E+03     -1.25694086E+02      2.42111765E+03
     -9.50119502E+02     -5.29982813E+02      4.90443851E+02
      1.18279673E+03      1.35306889E+03      6.56716309E+02
      4.46411364E+02     -9.86704584E+02      7.28398337E+02
     -5.96800637E+02      3.05376601E+02     -6.19899141E-01
     -4.52735044E+02      7.69244069E+02     -1.30718217E+03
      1.57335114E+03     -1.46542519E+02     -2.45383143E+03
     -3.51595679E+02      4.94741763E+01     -1.03849854E+02
      4.93106244E+02     -5.07852090E+02     -6.04623357E+01
     -2.60080787E+03     -2.16423336E+02     -3.90631854E+01
     -3.37919945E+02      7.35573857E+02     -1.09562547E+02
     -1.47407664E+03     -1.14156435E+02     -9.04824908E+00
     -1.29680878E+03     -2.80910068E+03     -1.43688324E+03
     -4.06582337E+02      2.41978643E+02      6.47185526E+02
      9.99928749E+01     -4.00843859E+02     -3.17258941E+03
     -1.23985810E+03      9.33375292E+02      1.30783433E+03
     -3.47971493E+02     -6.04211741E+01      2.04009965E+02
      7.40415750E+02      1.71577103E+03      2.38539450E+02
     -5.31668612E+02      1.14353698E+03      2.15160682E+03
      3.11587320E+02     -3.35673058E+02     -5.25952183E+02
      5.44309670E+02      3.43396698E+01      1.25481085E+02
     -3.78004292E+02      4.09846885E+02     -1.84741022E+03
      1.13437000E+03     -3.19037353E+02     -3.95305361E+02
      1.59369912E+02     -6.36091047E+01      2.23674187E+03
     -7.00757328E+02     -3.99365116E+03      2.39651820E+03
     -7.35064356E+02     -3.84751003E+02     -4.93025494E+02
     -5.71413322E+02     -1.17788592E+02     -3.26580222E+01
      9.29215356E+02     -2.35128940E+03      3.53918859E+03
      1.02419912E+03      2.44247369E+03      2.34178681E+03
     -7.73357715E+02      6.21843771E+02      1.61015736E+03
     -2.24053984E+02      3.22473890E+02     -1.66121254E+02
      1.38455344E+03      1.14575605E+03     -1.85182113E+03
     -6.88069052E+02     -4.41944682E+01      6.24634680E+02
      7.16544858E+02      6.09885051E+02     -7.70655670E+01
      1.66353441E+02      7.66520585E+02     -6.72207971E+02
     -1.04514900E+03      4.62835116E+02      2.73250392E+02
      7.11040622E+02     -2.51569501E+02      7.55796380E+02
      1.25035719E+03     -1.40592760E+03     -6.55249065E+02
     -2.33814808E+03      2.75878411E+02      2.02240687E+03
     -4.49944666E+02      6.15012510E+02      2.59035958E+02
      2.27768107E+03      1.31020635E+03     -8.40789927E+02
     -3.71311294E+02      3.22757787E+02     -1.32849521E+03
     -3.07080118E+02     -6.37045167E+02     -5.14151406E+02
      2.58571178E+02     -1.12647960E+02      1.80806042E+03
     -7.25280138E+02     -2.14901827E+03     -2.25505771E+03
     -4.60190509E+02      6.50443572E+02      3.48767684E+02
     -7.97013362E+02      4.39857235E+02      2.44990819E+03
     -1.73402128E+03     -3.77463313E+03      5.69021269E+02
      2.53731039E+02      1.87731285E+02      3.07289708E+02
     -1.15124906E+03      3.35294264E+03     -2.79227056E+03
      2.70326115E+03      9.16610626E+02      3.04304993E+03
      4.08700755E+02     -5.66147702E+02     -2.29322585E+02
     -2.93924949E+02      3.91050854E+02     -1.80911844E+03
      2.46058017E+02     -1.07428801E+03      3.19168732E+02
     -7.74897039E+02      2.50211455E+02      3.81810107E+02
      1.18094090E+02     -1.45314839E+03     -1.96696342E+03
     -1.21580724E+03     -2.13711276E+03      6.45339544E+02
     -4.40018647E+03      1.18608857E+03      4.66487447E+02
      5.26701927E+02     -2.21841603E+02      1.57596462E+02
     -2.65383719E+03      5.42932618E+02     -2.06109076E+03
      1.30226169E+02     -5.00988782E+02     -1.27051481E+03
      3.82443201E+03      9.79962258E+02     -1.41208448E+03
     -3.31183255E+02      5.58735387E+02     -9.59487628E+01
      6.43300170E+02      3.65512152E+03      6.06685816E+02
     -2.60353452E+03     -2.93789781E+03     -8.98228350E+01
      1.85405295E+02      1.72635693E+02      5.28213182E+02
      4.80637224E+02      2.33316501E+03     -1.78700185E+03
     -1.05209522E+03     -3.44193290E+03     -1.85836477E+03
     -2.88432606E+02     -4.11706951E+01     -3.23877094E+02
      2.31975339E+03      5.14730827E+02     -2.37212755E+02
      6.61605092E+02      2.99645247E+03      2.09476889E+03
      5.25426124E+01     -4.01930900E+02     -3.85699347E+02
      3.36693933E+03      1.53228948E+02      4.15285838E+02
     -9.18711310E+02      5.19612090E+02      5.09950797E+01
     -3.00396067E+02     -4.91615801E+00      2.73157310E+02
      1.63298063E+03     -1.57520884E+03     -1.71302686E+01
     -3.61440018E+02     -1.83179908E+03     -2.47662778E+03
      6.99122559E+02     -2.97593777E+02     -6.88900980E+01
     -2.12466768E+02     -6.56865433E+02     -1.39605553E+03
     -2.88274014E+03     -3.82656820E+02      1.32085008E+03
      2.77547576E+02     -9.70360261E+02     -5.49132241E+02
      1.37152466E+03     -1.33488809E+02     -1.84987368E+03
      2.05533873E+03      1.40532655E+03     -2.44831191E+03
     -8.14769240E+02     -1.13023939E+02      1.62301754E+02
     -5.60702665E+02      1.94182407E+03     -2.27657656E+03
      4.14819285E+02      2.71763236E+02      1.03307275E+03
     -4.72655858E+02      8.30477746E+01      2.57834361E+01
     -8.17132407E+02      3.32862929E+03      8.83767924E+02
      3.65969311E+02      1.54107905E+03     -1.61012288E+03
      1.22271701E+03     -1.37156322E+03      4.91691674E+02
      7.44293265E+02      1.87092623E+01     -5.11408552E+02
      2.39734475E+03     -2.15342064E+02     -1.78856213E+03
      8.44633242E+02      6.23763646E+02      3.27596859E+02
      7.15721140E+02     -2.78814458E+02     -1.02674004E+02
     -3.95464003E+02      1.88143007E+02     -1.48637427E+02
     -9.22880109E+02      2.11443483E+03     -2.24793613E+03
      1.16670286E+03     -6.40611482E+02      1.81914509E+02
      6.82140466E+02      4.73605797E+02      2.64313545E+02
     -4.58497451E+03      2.93703287E+02     -4.71965517E+02
     -1.57047323E+03      9.49278662E+02      3.46324157E+03
     -3.45217364E+02      7.65502503E+02      2.97401832E+02
     -1.04754782E+03     -1.90795539E+03      4.34305479E+02
     -3.12933011E+02     -4.10243149E+02      8.95648616E+02
     -1.07601771E+03     -3.82246770E+01     -6.89922467E+02
     -2.72111116E+02     -2.05171926E+02     -2.14893639E+03
     -6.71412219E+02      7.91291482E+02      7.38734667E+02
      8.84394919E+01      6.41518501E+02     -6.90467670E+00
     -4.23680485E+02      1.74930880E+02     -3.50844761E+03
     -5.03002792E+02     -7.91549531E+01      6.28206003E+02
     -7.47739004E+02      2.94332866E+02     -6.09638144E+02
     -4.85013504E+02     -2.97976346E+03      7.07079903E+02
      1.17088365E+03     -6.62923358E+02     -4.29564957E+02
      1.90606836E+01      4.58881696E+02     -9.57426293E+01
      1.11254455E+02     -2.13436102E+02     -3.47032674E+02
     -2.48192861E+03      1.98260610E+03      1.91765628E+03
     -1.13162250E+02     -6.91621008E+02      7.91288271E+02
     -1.72693634E+03     -3.81083743E+02     -1.51728633E+03
      2.06599704E+03      1.81632092E+03     -1.16173296E+03
     -2.81011045E+02      1.48513628E+02      4.90968592E+02
      2.59674267E+02     -1.11237851E+03     -2.98264489E+03
     -2.44303925E+03      3.40502890E+03     -1.08368037E+03
      2.35533166E+02      7.64707270E+02     -1.03082703E+03
      1.90968177E+04      1.27706254E+03      1.04617153E+04
     -2.64548088E+02      4.45540024E+02      7.30625155E+02
     -2.56926712E+02      8.38326180E+02     -6.38920387E+02
     -1.14222042E+03      6.64635851E+02      8.17702542E+02
     -4.70737096E+02      3.39541465E+02      2.48531901E+02
     -2.17107265E+03     -7.06552747E+02      2.59566837E+02
     -2.05700774E+03     -5.24870940E+02      1.97213620E+03
      5.05813265E+02     -7.01004635E+01      2.36821647E+02
      8.87284040E+01     -1.53122493E+03     -1.71363515E+03
     -1.45564048E+03      4.23544229E+02      2.00078552E+03
      5.75428654E+02     -2.45284850E+02     -1.05605782E+03
      3.09428493E+03     -1.09353780E+03     -4.72465396E+02
     -8.18782387E+01      2.65183313E+02      9.57901402E+02
      5.21952736E+02      7.84060819E+00     -6.22781463E+02
     -1.10948502E+03     -2.81147952E+03      1.44819588E+03
      1.02095173E+03     -2.99361418E+03      8.59655996E+00
     -6.16135947E+02      1.09021214E+02      1.06185306E+02
     -4.53911397E+02      2.22432658E+02      1.75502621E+03
     -1.09936614E+02      1.36320255E+03      2.14853935E+03
     -5.71770722E+02     -8.38719296E+02     -2.00232454E+02
     -7.57645388E+02     -2.44407505E+03     -1.01418439E+03
      3.38102024E+02      1.49280146E+03     -4.31942503E+01
     -1.28854051E+02     -2.90811712E+02     -8.00646351E+01
     -7.29842763E+02      3.41363366E+03      2.50069927E+03
     -1.45406804E+03     -2.80396672E+03     -5.18643123E+02
     -5.68946553E+02     -3.73881067E+02     -2.44235296E+02
     -1.19668460E+03      1.30241933E+03     -1.75524934E+02
      2.35343688E+03     -1.07454602E+03      6.83815417E+02
     -6.89148993E+01      2.80702549E+02     -4.48623487E+02
     -4.13604099E+02     -4.51685837E+02     -9.48096223E+02
      1.57629982E+03     -9.80722908E+02      2.64999980E+03
     -2.26897091E+03     -6.47525613E+02     -1.97678542E+02
     -2.70381320E+02     -2.12392706E+02     -6.72420228E+02
     -1.57466554E+03      1.45750085E+03      6.68221192E+02
     -1.48258408E+03      3.77489911E+03      7.80897455E+02
     -1.69904278E+03     -3.76684222E+02      4.23938311E+03
     -9.35699014E+02     -3.85384267E+02      9.33339815E+02
     -7.04966512E+02      2.12305249E+03     -1.41216560E+03
      1.75085598E+02     -4.15334659E+02     -9.91627591E+02
      5.55645903E+00     -6.92301608E+02     -4.91452131E+02
     -2.73992863E+03     -3.41980416E+02      1.83376626E+02
      3.57332006E+02      5.80145288E+01     -4.19564997E+03
     -6.88879784E+02     -1.51393782E+02     -2.90621146E+02
     -5.95651691E+02      1.18318012E+02      4.28783442E+03
      2.54359952E+02     -1.78112264E+02      1.37155496E+03
     -4.22179573E+02      9.42823690E+01     -2.47686045E+02
     -2.52929272E+02     -1.78464330E+02     -2.82240609E+03
     -2.97883481E+03      8.69453456E+02     -2.80057057E+03
      1.33633588E+02      1.24770941E+02      9.29924902E+01
      2.58164734E+02     -6.17703761E+02      1.92775098E+02
      1.76985806E+03     -2.45410592E+00     -2.87428179E+03
      1.07864925E+03     -9.23285974E+01     -2.32722416E+01
      9.14039358E+02      9.22140217E+02      2.97796320E+02
     -1.18859457E+02     -2.53646490E+03     -9.05127390E+01
      2.91210089E+02     -4.63369399E+02     -1.79266761E+02
     -3.79564496E+02     -1.90057412E+03     -3.41693254E+01
      2.83457004E+03      1.76807160E+03     -1.61977061E+02
     -6.35704694E+01     -3.42550037E+02     -1.07414612E+02
     -2.60864636E+03     -3.52341280E+03     -6.64163399E+02
     -1.96306083E+02      1.97665394E+03      1.11611938E+03
     -5.14530206E+02     -3.23212813E+02     -1.83939310E+02
      3.14349676E+03     -6.01108394E+02      3.39036108E+03
      1.92283870E+02     -1.13695084E+02     -5.45045511E+01
     -3.55695650E+03      1.84302391E+03      1.26008779E+03
      5.40585489E+02      6.14462962E+02     -6.09522440E+02
      5.76842403E+02     -4.67215517E+02      1.53615859E+03
      4.26899920E+03      6.12336415E+02     -1.01003399E+03
     -3.17902612E+02      2.22897150E+03     -7.04317929E+02
      8.10833811E+02      7.41605376E+01     -1.43108137E+02
      2.42768651E+03      4.31129687E+03      2.82772272E+03
      7.13926003E+02     -3.87037816E+02     -2.31090521E+03
     -5.68099085E+02      2.87615719E+00     -1.50963325E+03
     -5.14647566E+01      2.70125291E+02      1.55805888E+03
     -2.33953167E+03     -1.07703663E+03     -5.85514653E+02
      2.73496115E+02      3.61716396E+02      1.16290420E+02
      7.75443108E+02      9.13722627E+02      7.83571723E+02
      1.89686357E+02      2.71068903E+01     -1.05792862E+02
     -1.04540264E+03      3.78675784E+01      2.40811812E+02
     -2.99131104E+03      1.68809545E+03      1.04945165E+03
     -1.49062250E+03      8.79897907E+02     -9.98647093E+01
     -1.56099025E+01      1.26472318E+01      5.78123436E+01
      4.69271038E+01     -1.17484903E+03      2.23576060E+01
     -1.54420449E+03     -8.44851135E+02     -1.54599548E+02
     -1.24718033E+03     -6.01167561E+02     -5.21020871E+02
     -2.11843005E+03      1.75119362E+02     -1.48781958E+03
      3.07721364E+02      1.00826798E+03     -1.99682855E+03
      9.91299323E+01      1.59135109E+02      4.96177453E+02
     -1.24228138E+02     -2.05036830E+03      1.72442088E+03
     -6.87849848E+02     -1.30452463E+03     -1.56272628E+01
      6.07967616E+02      2.33864368E+01      3.42649409E+02
      1.21497617E+03     -6.20027874E+02      4.97296908E+02
     -7.30279219E+02     -8.60526090E+02     -5.34221388E+02
      1.58245336E+01      5.28748648E+02      3.74468522E+02
     -8.32637271E+02     -8.71187201E+01     -1.06967162E+03
     -1.43868350E+03      1.93353708E+03      2.18323522E+03
     -4.39978513E+02      3.18445807E+02     -4.27831369E+02
      9.72723466E+01      5.50469990E+02      9.41683606E+02
      9.87433832E+02      1.38717413E+03     -1.84972585E+03
     -2.32887051E+03      5.86507179E+02      2.63834269E+03
     -2.23849395E+02      2.72824849E+03     -5.50790808E+01
     -5.67375105E+02      6.89435924E+02      4.91876846E+02
     -2.31248771E+03     -2.29099859E+03      1.16140029E+03
     -1.11746968E+03     -6.69971318E+02     -6.57155270E+02
     -3.02481599E+02     -5.26858195E+02     -4.31325415E+02
     -4.24690076E+02     -2.78495302E+03      2.07666001E+03
     -6.33343041E+02     -4.90186435E+02      9.66634383E+01
      1.47142515E+00     -5.66625944E+02      3.73620293E+02
      2.29731954E+02      8.35400094E+02     -1.94965576E+03
     -1.24213914E+03      2.44438437E+02      6.17560967E+02
     -6.71471271E+02     -5.03156096E+02     -9.88902708E+02
      1.49164997E+03      8.16700427E+02     -5.30303660E+03
     -5.05494854E+02      5.11183831E+02     -2.89209938E+02
      3.13556519E+02     -5.65588185E+02      4.17120468E+02
     -1.39923040E+03     -1.32565213E+03      4.13723202E+02
     -1.36075992E+03      2.18105922E+03     -1.43730524E+03
     -8.75391667E+01      2.14153750E+02     -7.87420247E+01
     -1.60267080E+03      6.14638646E+02     -2.49319503E+03
     -2.86964123E+03     -2.01291130E+03      1.30300347E+03
      1.60095428E+02      4.54334763E+02     -1.44432372E+03
      1.45782973E+03      1.97615513E+03     -6.05624360E+02
     -1.69862327E+02     -6.40741033E+02     -1.78229727E+03
     -4.16561790E+02     -4.94848653E+02      5.44691327E+01
     -4.65131516E+02     -5.75271776E+02     -8.03244987E+02
     -3.68121197E+03     -2.74275919E+03     -3.00838834E+03
      2.91423355E+02     -1.33775721E+01     -3.94925678E+02
     -4.00641740E+02      5.03478661E+02      4.28732835E+01
     -3.72116781E+03     -1.32479230E+03      6.82245145E+02
      1.34741435E+03      2.94589134E+03     -2.96908716E+02
     -6.56172366E+01      3.75382027E+02     -1.69884477E+02
      9.78726506E+02     -3.16670141E+03      1.63788534E+03
     -9.62073581E+02      1.06178067E+03      1.69437237E+03
     -1.07596822E+03      4.83310568E+02     -3.45666974E+02
      2.23744178E+02      5.14622107E+02      2.45912352E+02
      9.14940201E+02      4.75020528E+02     -1.42979080E+03
     -1.24166796E+03     -7.07232073E+02     -1.76146517E+03
      4.16176144E+02      1.98886342E+02      3.85396458E+02
     -1.50035145E+03     -2.96110582E+02      1.52055318E+03
     -3.96176078E+02     -6.80241634E+02     -7.88373575E+02
     -5.65423652E+02     -5.68268912E+02     -4.92413244E+02
      3.28171093E+02      1.22302871E+02     -1.66887437E+03
      6.46056399E+02     -4.98292286E+02     -4.96132029E+02
     -4.21543246E+02      1.39188399E+02     -3.53334567E+02
      3.20313983E+03      1.92661388E+03     -1.34491653E+03
      1.16543784E+03     -5.10830912E+01      5.43048189E+02
      1.35723170E+02     -1.84723758E+02      2.58444977E+02
     -1.36493273E+03     -4.20859785E+01      2.58439955E+02
     -1.80974418E+03      5.93527214E+02      1.31736691E+03
     -1.74463257E+02     -2.77703810E+02      6.04569878E+02
     -3.64925413E+03     -2.09863826E+03      7.25962886E+02
     -2.72485886E+02      1.64534294E+03     -1.70233705E+03
     -1.21159628E+03      5.64738152E+02      2.03299999E+02
      2.39840828E+03      3.75956368E+03      1.23050632E+03
      7.86508516E+02     -1.78095974E+03      1.21201172E+02
     -1.93768561E+02      3.15020766E+02     -6.32518731E+02
      3.18170309E+02     -5.72809709E+02      9.04267187E+01
     -8.40842672E+02     -2.51693803E+03      1.99121584E+03
     -5.83206850E+02     -1.97395195E+01      1.55470520E+02
      6.46888596E+02     -4.92438237E+02     -5.18974712E+02
     -2.94063987E+02     -2.17256648E+03      5.63484390E+02
     -3.35044675E+03      7.12379497E+02      5.76866447E+02
     -6.51450037E+02      2.18365855E+02      1.22153455E+03
     -1.11831574E+03     -8.35262910E+02     -8.50653820E+02
     -3.45496057E+03     -3.96002189E+02     -1.47426132E+03
      8.58436269E+02      7.51339735E+02      1.58460106E+02
     -3.88494951E+02      1.56323011E+02      2.14511492E+02
      1.95665424E+02     -1.30909241E+03      7.77808571E+02
      1.75235747E+03      6.85438265E+02     -2.66121699E+03
     -1.19872461E+02      2.55368591E+02     -1.14875151E+03
      8.54477194E+01      1.86223383E+03     -4.14805030E+02
      2.71351848E+02     -1.07141566E+03     -1.56183796E+03
     -4.43368271E+02      1.93029607E+02     -6.59662508E+02
      1.30917210E+03     -3.68015280E+02      1.15714415E+03
     -1.51582005E+03      5.22464214E+02     -4.28926196E+03
     -2.69380672E+02      4.36181422E+01      1.44845613E+02
     -2.28505138E+03      5.20156556E+02      3.99320313E+02
      5.27959753E+02     -6.02261031E+02     -2.72943473E+03
     -3.26344763E+02      1.31589543E+02     -6.10701678E+01
      3.79919834E+03     -1.58460680E+02      4.54037421E+02
      6.92676753E+02      6.52828384E+02      1.47856108E+03
     -2.48927935E+01      6.28116672E+01      1.67396307E+02
      2.40260982E+02     -5.79234785E+02     -5.78131917E+02
     -2.07159452E+03      8.79751839E+02     -2.40387645E+03
      6.15964187E+02      5.56584035E+02     -3.17107609E+02
     -1.34706301E+03      2.80279149E+02      2.59852010E+03
     -7.03155270E+02     -5.77257926E+02     -3.02068944E+02
      6.66815921E+02     -1.69700123E+01     -8.31884681E+02
      1.26456469E+03     -1.14587908E+03     -8.23961941E+02
      3.24028578E+02      8.66917222E+02     -2.18577001E+02
      5.96998889E+02      3.94256611E+02     -5.43911751E+01
     -1.08158379E+03     -1.26033099E+03     -2.46141137E+03
     -1.20024870E+03     -9.54060122E+02     -7.49864752E+02
      6.54419460E+02     -1.00405379E+03     -6.21384854E+02
     -1.35998779E+02     -8.25014398E+01      9.26104516E+01
     -2.10212814E+02     -1.24448522E+03      1.55086852E+03
     -4.27533209E+02      2.83973143E+03     -1.96757080E+03
      2.11245971E+03     -1.51339316E+03     -2.12386788E+03
  }
}

Hamiltonian = DFTB {
  SCC = Yes
  SCCTolerance = 1e-6
  MaxSCCIterations = 200
  ForceEvaluation = Dynamics
  MaxAngularMomentum = {
    C = "p"
    H = "s"
  }
  Charge = 0.0
  SpinPolarisation = {}
  Eigensolver = Standard {}
  Filling = Fermi {
    Temperature [Kelvin] = 300.0
  }
  SlaterKosterFiles = Type2FileNames {
    Prefix = "../../pbc-0-3/"
    Separator = "-"
    Suffix = ".skf"
    LowerCaseTypeName = No
  }
  KPointsAndWeights = {
    0.0000000000000 0.0000000000000 0.0000000000000 1.00000000000000
  }
  Dispersion = LennardJones { 
    Parameters = UFFParameters {}
  }
}

ParserOptions = {
  ParserVersion = 3
}
