Geometry = GenFormat {
<<< "system.gen"
}

Driver = VelocityVerlet{
  Steps = 100000
  TimeStep [fs] = 0.2
  MDRestartFrequency = 5
  Thermostat = None {
    #InitialTemperature [Kelvin] = 300.0
  }
  Xlbomd{ 
    IntegrationSteps = 6 
    MinSccIterations = 2
    MaxSccIterations = 200
    SccTolerance = 1e-6 
  }
  Velocities [m/s] {
      9.13091973E+02      2.89812380E+02     -6.10633498E+02
      1.15325313E+03     -2.41988961E+01      5.79963793E+01
     -1.94577317E+03      1.62643517E+03      1.24302327E+03
      8.51849541E+02     -4.10108772E+02      1.46226044E+02
     -1.42126980E+03      6.43644388E+02      1.93742752E+03
     -6.30351814E+02      1.39609093E+02     -1.14042746E+03
     -1.42537187E+02      5.49005935E+02      1.57345039E+02
     -8.73396940E+01      2.59228493E+02     -8.79562849E+02
     -1.04477006E+02      7.08268149E+02      2.37163161E+03
      3.03961475E+02      1.11194861E+03      4.13996959E+02
      3.71424588E+02      1.53444469E+03      1.62803048E+02
     -2.35623313E+03     -1.24988626E+03     -2.99751528E+03
      7.12100798E+02      3.29224364E+02     -6.41307986E+02
      9.97773798E+02      4.73564516E+02      1.76029823E+03
     -6.77015226E+02      5.07776091E+02      1.53277470E+03
      7.21684547E+02     -2.16683247E+02     -2.98090376E+02
      1.58467353E+02      1.34802934E+03     -1.29204132E+03
     -8.36859314E+02     -1.08618243E+03     -7.38815707E+02
      3.58288962E+02     -5.26070042E+02      6.35523233E+02
     -7.53949386E+02      5.52966645E+02     -1.00162767E+03
      1.53868947E+03     -3.05456500E+03      6.04138672E+02
      3.25071695E+02     -7.65506877E+02     -1.27479122E+02
      1.18768509E+03      3.97215370E+02     -3.60862690E+02
      7.66448702E+02      1.19605472E+03      3.30100582E+02
     -3.49951715E+02     -2.66186682E+02      8.92520464E+01
     -9.82228807E+02     -1.77270771E+03     -1.56378570E+03
      2.96654583E+03      1.94345500E+03     -1.37968899E+03
     -1.05310684E+03      2.45098213E+03      1.55814945E+03
      5.91398321E+02      1.96532907E+02      9.99926594E+02
      1.65080343E+03      5.58901111E+02     -4.27345567E+02
      2.53492329E+03      5.27675560E+02      2.17030411E+03
      1.55964615E+03     -1.84048781E+03     -1.61954039E+03
     -1.81570438E+02     -6.14943161E+02      7.79946854E+02
      2.38929152E+03      2.45953055E+03     -2.55216856E+01
     -9.77422158E+02      1.90645219E+03     -1.53104643E+03
     -5.98452771E+02      5.37650296E+02      1.12163045E+01
      3.68349226E+02      1.17547119E+03      1.98100797E+03
      2.23279562E+03      9.91574670E+02      1.41299108E+03
     -2.50626292E+02      3.66111395E+02      1.20401174E+02
      1.07114740E+02     -1.23514709E+03     -2.80445084E+02
     -3.24456827E+03      9.72580056E+02     -4.31556473E+03
      9.41661993E+02     -9.55313406E+01      5.20534346E+02
      7.95661607E+02     -3.21964796E+03      1.07212799E+03
      1.11855101E+03      1.31644607E+03      1.88185326E+03
      2.80072765E+02     -6.83430451E+02      7.57824212E+02
     -2.85533259E+02     -2.15117151E+03     -1.79660247E+03
      7.08164258E+02      5.68620160E+02      1.70147768E+03
     -2.28021368E+02     -1.92233183E+02     -2.55989997E+02
      3.02093800E+03      1.19751901E+03      8.74177869E+02
      1.38106880E+03      1.57016265E+03     -8.04989336E+02
     -8.31384053E+01      1.15166022E+02      5.84945064E+02
      2.09003592E+03     -6.49416721E+02     -5.34498325E+02
     -1.03082911E+03     -3.74404009E+03      6.79362202E+02
     -7.04955464E+02     -8.41742372E+02      1.84687653E+02
      6.97474291E+02     -1.76457546E+03      8.26535257E+02
     -5.72197572E+02     -3.09569375E+03     -3.71786840E+03
     -1.08149970E+03      4.48238169E+02      3.33464163E+02
      1.40658617E+03     -6.19063919E+02      3.62202331E+02
      1.58418088E+03      7.66037215E+02      1.28276812E+03
     -1.05902647E+03     -2.54762719E+03     -7.50591070E+02
      6.82449310E+02      7.34257969E+02     -2.88914743E+02
     -3.87861072E+02      3.04295670E+03     -6.90536559E+02
      6.06022021E+02     -1.28609062E+03      1.20374853E+03
     -7.31313899E+02     -8.33086914E+02      4.79225754E+02
      5.39755598E+02     -7.83185012E+02      2.03618750E+02
     -6.88342377E+02     -6.01362606E+02     -4.01842804E+03
      3.31124591E+03      4.34688549E+02     -3.39963147E+03
      3.93452682E+02     -1.43315402E+02      7.62147424E+02
     -7.45792037E+02      2.94806580E+02     -1.11832581E+03
      1.30520290E+03      7.68509270E+02      1.15460801E+03
      4.70957903E+02     -9.24665176E+01      3.64164004E+02
      9.56846803E+02      2.16887703E+02     -3.51439423E+01
      2.37436802E+02      1.65616202E+03     -3.43196602E+03
     -8.19062322E+01      3.30859799E+02      4.64274980E+02
      1.72972789E+03      2.99070053E+03     -1.56354296E+02
      7.29479581E+02      2.35156171E+02     -8.60582082E+02
      1.54076041E+02     -5.01769680E+02      5.95317958E+02
     -1.93291153E+03      1.70267950E+03      1.67528308E+03
     -8.40603532E+01     -2.76569850E+03     -5.72880654E+02
     -8.93983105E+02     -9.07325457E+02      4.78440250E+02
      9.26349432E+02     -2.93300248E+02      1.74718386E+03
      9.09380265E+02      1.67891562E+03     -4.56202838E+00
      2.48057434E+02     -4.05147037E+01      1.29154225E+03
     -2.66866440E+03      8.51196702E+02      2.17200867E+03
     -3.34381815E+02     -3.15259485E+02      4.75861492E+02
     -3.69397156E+02      5.71425243E+02      7.46124349E+02
     -1.20064264E+02      9.86456583E+02     -1.99527750E+03
     -1.79562544E+03      1.83361118E+02     -5.99854909E+02
      9.34233100E+00     -6.31748884E+02      2.07879717E+01
     -2.00531863E+03      5.35678226E+02      1.88254882E+03
     -4.50089719E+02     -2.59093990E+03     -7.55546625E+02
      1.98845940E+03      6.74178910E+02      3.99532607E+02
      2.08882849E+02     -3.75386825E+02     -3.51057177E+02
      5.93880236E+02      2.29549423E+03     -6.05460637E+01
      2.33981250E+03     -1.91628838E+03      1.26950554E+03
      5.63039815E+02     -5.19078196E+02     -1.04669496E+03
     -8.86604108E+02     -4.48915633E+01      2.56468847E+02
     -4.23338688E+01     -8.18462344E+02     -2.22529133E+02
     -6.68566739E+02     -3.46613104E+02      1.90026167E+03
     -2.91848063E+02     -6.64997623E+02     -3.15901075E+02
      2.19304820E+02      5.30637945E+02     -1.49408752E+03
      3.23304678E+03      1.89228227E+03      1.97593091E+03
     -1.89700626E+02     -3.79392031E+02      7.21492295E+02
     -2.32369821E+03      9.62430672E+02     -6.09988223E+02
     -1.08426693E+03      1.96733846E+03     -9.59205120E+02
     -1.00304136E+02      6.11941619E+02      2.51000128E+02
      3.70284836E+03      3.70341816E+03     -2.02564030E+03
     -3.33186391E+03      1.00804217E+03     -2.27788434E+03
      1.35304079E+02     -1.28459114E+03      1.63303789E+02
      2.00650479E+02     -1.00772418E+02      7.51417543E+02
      6.98261945E+02      2.34648940E+02     -1.09712519E+03
      1.99120539E+02     -6.33833988E+01      4.62520637E+02
     -1.60663437E+03      1.36218397E+03     -4.42810807E+02
     -4.44059810E+02     -4.56054073E+01     -1.04354877E+03
      2.61071381E+02      6.75714095E+02      1.11806697E+03
      7.90561049E+02      1.51165976E+03      3.31880080E+03
     -7.19178299E+02      4.54253884E+01      3.16473737E+02
     -5.68336288E+02     -3.10685173E+02      2.91961198E+02
     -5.18088266E+02      1.26704326E+03      1.10506912E+03
      2.67714558E+03      2.62575790E+03      1.24529707E+03
      7.99855218E+02     -3.59174186E+02      5.90392836E+02
      3.48839749E+01     -1.09135446E+03     -1.07488304E+03
      6.50236904E+02     -1.43580720E+03      2.94055256E+03
     -4.60936344E+02      5.26631633E+02     -1.77346403E+03
     -1.76023542E+01     -2.71876370E+02      4.35120138E+02
      2.87772514E+02     -3.41165921E+03      1.99367911E+03
      2.71580102E+03     -9.29293217E+01      1.48014768E+03
      9.02462876E+02     -1.57409123E+03     -6.07120272E+02
      4.65957580E+02     -7.32092242E+02     -1.18460251E+02
     -3.65687248E+02     -4.63917784E+02      1.67916920E+03
      2.54816455E+03     -1.82897244E+03      1.90859285E+03
      7.02656789E+01     -4.31610517E+02     -2.38584375E+02
      2.52859754E+03      2.41296674E+03      1.67466017E+02
     -6.79427769E+01     -8.09213057E+01      1.84892159E+03
     -5.11405317E+02     -4.21407592E+02     -1.03486797E+01
     -7.55509028E+02     -1.50018615E+03      2.17301231E+03
      1.22768060E+03     -1.80940327E+03     -1.61244782E+03
     -4.10567355E+02      2.05370366E+02     -8.64205067E+02
     -3.72766277E+02      3.69298041E+02      1.02640136E+03
     -5.48266464E+02      4.45773100E+02      1.64611160E+03
      2.27043456E+01     -1.07300411E+02      6.25353926E+02
      3.37923421E+02      6.27005629E+02     -9.00517948E+02
     -1.11628992E+03     -1.43506466E+02     -1.59162971E+03
     -4.30847762E+02      3.48099570E+02     -2.81391113E+02
      5.82080788E+02     -1.75268893E+03      1.07862794E+03
      1.90962135E+02     -7.99471014E+02      9.55684279E+02
      2.17883506E+02      2.24436845E+02      1.72745926E+02
      2.68171467E+02     -4.22269548E+02      4.54566894E+03
     -1.77706590E+03      1.55910988E+03      3.56905282E+03
      2.44355059E+02     -9.63110977E+02      1.67033272E+02
      1.24240240E+03      1.33903756E+03     -6.51285727E+02
     -7.77768587E+02     -2.62197818E+03      6.90912900E+01
      8.32145247E+02     -2.01741746E+02     -4.87929586E+02
     -1.39562487E+03     -1.28695000E+03     -1.36373646E+03
     -1.52400267E+03      1.80669124E+03      4.48155704E+02
     -1.16965621E+03     -2.07987476E+03      1.22186141E+03
      2.63341568E+02      2.26321174E+02      4.54031851E+01
     -1.87240241E+03      2.23865161E+02      1.39986198E+03
      2.06934317E+03      9.02839706E+02     -2.98820087E+02
     -5.25060177E+02      2.27481930E+02     -2.77895638E+02
      5.60573549E+01     -1.31894414E+02      1.39766240E+02
     -1.44714044E+03     -1.81053832E+02      1.90120640E+02
     -2.04910207E+03     -2.37397229E+03      3.10108906E+02
     -4.82262955E+02     -3.78997202E+02      5.90517903E+02
      2.08846860E+03      2.11603008E+02      6.91595083E+02
     -1.93127868E+03     -1.52991516E+02     -2.74910098E+02
     -7.55828705E+01      1.39886243E+03     -1.30510999E+02
      1.62897704E+03     -1.30521261E+03     -3.82330652E+03
     -3.34614270E+03     -8.12968467E+02     -1.60303875E+03
     -1.03759541E+03      2.94029098E+02     -3.37772350E+02
     -4.41086205E+02     -1.32208148E+03      2.44159666E+03
     -5.64859288E+02      5.63436711E+02     -2.64116246E+01
     -7.03655916E+02     -2.59707829E+02      3.48217905E+02
      2.84869274E+02     -9.39837816E+01      3.58286139E+03
     -8.92798768E+02      1.10943042E+03     -1.66750868E+03
     -3.24677548E+02      5.39937748E+02      1.01771360E+03
      2.48773352E+03      1.31254099E+03      1.08399243E+03
      6.84280516E+02     -8.79899763E+02     -3.75215656E+02
     -2.50444216E+02      2.54639652E+02     -8.35950369E+02
      5.02942283E+02      1.90401596E+03      9.16185793E+02
     -8.59530878E+02      1.38800371E+03     -2.76217689E+02
      4.84173955E+02      1.06991940E+02      1.94508068E+02
      4.51638009E+02     -3.37412489E+02     -9.69673163E+02
     -3.66506389E+02     -1.59234939E+03      3.93470507E+03
      9.58651107E+02     -7.49843451E+02      6.04257475E+02
      8.70367771E+02     -4.89900472E+02      4.78369743E+02
      1.05042580E+03     -2.64243993E+03      1.19954585E+03
      4.30000427E+02      3.73648627E+01     -9.92381876E+02
     -3.54161518E+02     -1.70792688E+02     -4.11143359E+02
     -9.50713860E+01      1.65241738E+03     -8.97650894E+02
      1.38407810E+03     -1.06338081E+03     -4.66661400E+03
     -5.08347886E+02      1.48630820E+03     -4.02490962E+02
     -5.78092296E+03      6.29419219E+03     -2.67651036E+04
     -5.62177585E+02     -1.98323230E+03      1.22289925E+03
      3.58269762E+03     -3.33458280E+03     -1.24128492E+03
     -1.47249047E+02      7.76136460E+01      3.48461582E+02
     -2.06151203E+02     -6.72181916E+01     -5.95849931E+02
     -4.94577164E+03     -4.94873890E+01      2.08845147E+03
     -8.40518644E+02      5.74368879E+02      8.79286370E+01
     -1.39863245E+03     -3.28322724E+03     -1.08034450E+03
     -5.36097754E+02     -4.61618756E+02     -1.70720997E+03
     -3.04216562E+02      3.58008722E+02     -4.10881035E+02
     -1.09376412E+03     -2.70983167E+02      2.38706341E+02
     -9.91944249E+02      7.60101037E+02     -9.52924129E+02
     -1.55266559E+02      4.96440659E+01      3.45590168E+02
      2.41956088E+03     -1.26357470E+03      2.59384097E+03
      1.37748803E+02      1.88664603E+02     -1.08597727E+03
     -8.85510704E+02      6.76016996E+01      2.54023268E+02
      2.12067345E+03     -4.27547274E+02      4.48768941E+02
      2.48372679E+02      1.30514424E+03      1.53146929E+03
      1.46196770E+02      9.92098457E+02      4.92453351E+02
      1.00126039E+02     -1.31707287E+03     -2.16035914E+02
     -2.05771252E+02      7.34608740E+02     -2.18299595E+03
     -1.81486005E+02     -6.93925622E+02      3.96277572E+02
     -4.16715091E+02     -1.39262719E+03      7.41970795E+02
      1.66792059E+03     -9.14592927E+02     -2.14361903E+03
     -5.07228129E+02     -1.69662488E+01     -1.14539688E+02
      2.29062632E+03     -1.39268285E+03     -1.15469158E+03
     -6.31085747E+02     -7.16573306E+01     -2.84405269E+01
     -2.73339481E+02     -3.40284401E+02      1.65960470E+03
     -4.81972592E+01     -2.18175906E+02      3.41529643E+02
      2.71805426E+03      1.87156884E+03      1.94612439E+03
     -3.57856218E+02     -1.58849026E+03      1.16699356E+03
     -1.44081687E+02     -2.46433958E+03      7.35820534E+02
      2.00914822E+02      4.53954902E+02      3.10026460E+01
     -4.34459448E+02     -3.60211972E+02     -1.15853431E+02
      3.11453023E+02     -9.67680736E+02     -4.83144485E+02
     -2.83186233E+02      9.35388939E+01      1.07163747E+03
      1.43098356E+03      9.69521853E+02     -2.00082772E+03
     -4.00917425E+03     -3.69866291E+03      1.49299708E+03
     -8.54407747E+01     -1.28930839E+02      5.48993017E+02
      9.80120531E+01      1.39194801E+03     -3.86579378E+02
      2.33465360E+01     -2.45486577E+03      7.75429445E+02
     -2.01282190E+02     -3.60468899E+02      2.52688808E+02
     -3.29282037E+03      1.32703732E+03      2.36956944E+03
      8.27101938E+02      6.91731903E+02      1.64057122E+03
      5.96531964E+02      8.07122483E+02      4.26880881E+02
     -8.98363938E+02      6.92583019E+02     -6.36692382E+02
     -7.87367777E-01      1.51486314E+03     -2.10659827E+03
     -9.75479279E+01      8.11682986E+02      1.10218736E+02
      1.50328578E+03      8.77238587E+02     -7.53507080E+02
     -8.16621688E+02      3.20724883E+02      3.07551224E+02
     -5.10939526E+02     -5.26695696E+02      3.93597847E+02
      7.02174277E+02     -1.29243476E+03      1.16561202E+03
      2.52803243E+02     -3.13856107E+03     -1.62429930E+02
      1.06461085E+03     -5.63101957E+02      1.58998456E+02
     -3.03736208E+03      6.71657436E+02     -3.88726876E+02
      2.56476893E+03     -1.60180615E+03      2.16584733E+03
      7.06166671E+02     -4.33719231E+02      9.39118276E+01
      1.51397487E+02      2.11666215E+03      9.47662137E+02
     -2.29295927E+03     -1.48903596E+02      1.13381388E+03
     -2.62403076E+02     -1.74432452E+03     -5.37067485E+02
     -6.90662430E+02     -4.96504488E+01      2.37425493E+02
      6.02464269E+02      8.26604352E+02     -1.11340397E+03
     -2.75943509E+03     -3.16900412E+02      1.32365142E+03
      2.84334487E+03      1.82695208E+02     -1.05335759E+03
      1.69136219E+02     -3.99164576E+02      2.46175867E+02
      5.63002029E+02      8.33829892E+02      2.47285280E+03
     -5.68462398E+02      8.22763788E+02      1.75259454E+03
     -1.55430206E+01      1.69767256E+02      2.65522835E+02
      2.76086588E+02     -2.04692807E+02      4.51044813E+02
      3.21840399E+02      5.33686725E+01     -9.85186229E+02
     -7.19063446E+02     -2.36241681E+02     -2.57503624E+02
      4.17558462E+02      6.85829810E+02      1.98881644E+02
     -3.31389151E+03     -1.51456145E+03      2.59736574E+03
     -3.88302013E+02      1.03464064E+03     -6.28802195E+01
      7.21108601E+02     -1.16776469E+03     -2.98451171E+03
      1.75424124E+03      3.00348262E+03     -9.64061096E+02
     -6.29139791E+01     -3.97906913E+01     -2.22643748E+02
      7.88329589E+01      5.64888528E+02     -2.47756819E+03
      2.21193819E+03      1.30283358E+03     -1.24969277E+02
      3.74258761E+02     -3.98174220E+01      6.45586014E+02
     -1.45531998E+03     -2.82058526E+02     -2.53082138E+03
      1.64479346E+03      1.85058081E+03     -1.94861030E+03
     -2.40877327E+02     -1.02030759E+02      1.38600489E+02
     -4.51464497E+02     -1.74441128E+03      3.30321052E+02
     -1.08894320E+03      8.83879057E+02      1.16118164E+03
     -4.24323859E+02      5.87599999E+01      1.63525762E+02
      4.00255449E+03     -5.41670853E+01     -5.48267864E+02
     -7.16254923E+01     -1.97868685E+03      1.96097014E+03
      7.47131927E+02      2.99246208E+02      4.20493405E+02
     -1.04681831E+03     -5.87689645E+02     -1.39797386E+03
      9.59706582E+02      2.00276248E+03     -3.67619603E+02
     -1.67673686E+03      2.20518889E+01      8.89848808E+02
      3.19098943E+02     -1.89193257E+02     -2.64035701E+02
      5.38013031E+02      1.06546026E+03     -1.20673060E+03
      1.58717077E+03     -4.33916368E+00     -7.89274532E+02
      1.83348523E+03      1.25908338E+03     -2.59243640E+03
     -8.86323480E+02     -6.48746924E+02      7.72637096E+02
     -1.77853540E+01      3.92478944E+03      1.66368477E+03
      7.77959434E+02     -3.00604157E+03     -2.23063835E+03
      7.28423561E+02     -1.39412298E+02     -6.39390161E+01
     -1.66844380E+03      1.25464855E+03     -6.75426212E+01
     -1.01834227E+02     -1.62322600E+03     -8.03321575E+02
     -2.72544255E+02     -4.06134741E+02      8.82657194E+02
      1.46737785E+03     -2.59106754E+03      5.44785011E+02
      2.00310534E+03     -5.96514371E+02      5.47917109E+02
     -3.68467898E+01     -9.50983068E+01     -3.56265559E+02
     -1.95495367E+03      1.23708553E+03     -3.42900897E+02
     -4.84190587E+02      3.65920673E+03     -1.59440093E+02
     -3.69750740E+02     -1.40368010E+02      5.32790844E+02
      1.75396301E+03     -9.00129392E+02     -1.69563330E+03
     -1.08137429E+03      3.11225589E+02     -1.87090242E+03
      4.82641561E+02     -1.41509189E+03      5.34176820E+02
      8.96126922E+02      1.22386971E+03     -2.37435797E+03
     -6.68813554E+02     -4.43437143E+02      3.97309888E+02
      2.48461031E+01     -7.93624780E+02     -6.56388445E+01
     -7.69378545E+02     -5.85661302E+02      1.31370924E+03
     -6.35808284E+02     -4.25129454E+03      7.91131433E+02
      8.68279641E+02      8.65068361E+02      5.58659412E+01
      1.13464018E+03     -1.17455295E+03      1.94962390E+03
     -3.16865228E+02      7.99287492E+02     -1.77074244E+01
      6.98200711E+02     -1.73237138E+02      7.52013346E+02
     -6.82087328E+02      6.69234838E+02      4.11178336E+02
      1.79297242E+03     -9.58396321E+02      3.44696911E+03
     -1.04481588E+03      1.46253035E+03      1.77540283E+02
     -1.46210697E+02     -2.81999030E+02      4.25513889E+02
      1.80389419E+03      1.02511900E+03      1.68245990E+03
      1.61394917E+03      2.75559031E+02      1.03655861E+02
     -2.01413755E+02      2.32845313E+02      2.45307574E+03
      3.17751605E+02      1.35502042E+02      3.96433693E+01
      4.85947584E+02     -1.68083855E+03     -8.07071327E+02
      3.26155697E+02      1.35257609E+02      8.70854652E+02
      1.43276828E+02      1.17260656E+02      4.64463512E+02
     -2.82820129E+03      9.11733980E+02     -2.21399922E+03
     -1.19311132E+03      6.21732891E+02      1.59909452E+03
      5.81679950E+02     -9.56266465E+01      4.19780577E+02
      5.75159896E+02      1.12682671E+03      1.12637176E+03
      1.08194864E+03      6.44211337E+02      1.34731676E+03
     -8.72181984E+01      2.08131233E+02      6.00882182E+02
      2.53205465E+02     -1.36185928E+01      1.84654445E+03
     -1.54796469E+01     -2.27117018E+02      1.71899466E+03
      6.09222286E+01      5.85407848E+02      1.50137374E+02
      1.19828132E+03     -1.18777111E+03     -5.82268486E+02
     -1.61313732E+02      1.14901032E+03      7.28872161E+02
      9.44199781E+02      1.21341787E+02      2.00053936E+02
      2.45682383E+03      2.78086883E+02      2.36437723E+03
      1.27976937E+03      1.21787591E+03     -1.73371152E+03
     -5.21498159E-01      8.57906225E+00     -4.50277625E+02
      3.79384155E+02      1.74442562E+02      2.78155946E+03
      1.47818007E+03     -1.73468785E+03     -2.22889817E+03
     -2.61569223E+02      1.91982316E+02      6.99741766E+02
      1.53908008E+02     -2.88166289E+03      8.32534718E+01
     -1.42929382E+03     -3.74126092E+03      4.72141434E+01
     -1.72183851E+02      6.44339547E+02      9.32080834E+02
     -4.59675464E+02      1.36305050E+03     -1.08147714E+02
     -4.22340582E+02     -6.33246760E+02      1.08110389E+03
     -1.38042524E+03     -1.27708406E+02     -7.82138980E+02
      5.39231908E+02     -6.17096869E+02     -1.98330112E+02
      1.58517807E+03      5.42956223E+02      1.75078694E+03
      2.13712386E+03     -1.84905263E+03     -1.91228718E+02
      4.55737663E+01      3.68953032E+03     -3.54429185E+02
  }
}

Hamiltonian = DFTB {
  SCC = Yes
  SCCTolerance = 1e-6
  MaxSCCIterations = 200
  ForceEvaluation = Dynamics
  MaxAngularMomentum = {
    C = "p"
    H = "s"
  }
  Charge = 0.0
  SpinPolarisation = {}
  Eigensolver = Standard {}
  Filling = Fermi {
    Temperature [Kelvin] = 300.0
  }
  SlaterKosterFiles = Type2FileNames {
    Prefix = "../../pbc-0-3/"
    Separator = "-"
    Suffix = ".skf"
    LowerCaseTypeName = No
  }
  KPointsAndWeights = {
    0.0000000000000 0.0000000000000 0.0000000000000 1.00000000000000
  }
  Dispersion = LennardJones { 
    Parameters = UFFParameters {}
  }
}

ParserOptions = {
  ParserVersion = 3
}
