Geometry = GenFormat {
<<< "system.gen"
}

Driver = VelocityVerlet{
  Steps = 50000
  TimeStep [fs] = 0.2
  MDRestartFrequency = 5
  Thermostat = None {
    #InitialTemperature [Kelvin] = 300.0
  }
  Xlbomd{ 
    IntegrationSteps = 6 
    MinSccIterations = 2
    MaxSccIterations = 200
    SccTolerance = 1e-6 
  }
  Velocities [m/s] {
     -9.14767845E+02     -3.57201495E+02     -2.61967669E+02
      6.90055929E+02      4.16012023E+02      1.73475611E+03
      9.01911385E+02     -3.24004545E+02      1.42741963E+03
     -3.49590490E+02      2.51565640E+02      8.65099807E+01
     -1.59211129E+03      3.74769404E+02     -1.56856236E+03
     -2.64784359E+02      1.05723218E+03     -2.53486003E+03
     -7.26288789E+01     -7.17295121E+02     -4.34504040E+02
     -2.40786450E+02      3.94614051E+02      2.43976351E+02
      2.38967991E+03     -1.51838026E+03      1.71781126E+03
     -1.80243185E+02      4.43026109E+00     -5.36737826E+00
     -2.15851362E+03     -6.55729284E+01      3.06681564E+03
      8.53684175E+02     -1.92267942E+03      1.10947236E+03
     -7.53894731E+02     -1.68766267E+02      3.40298965E+02
     -4.71659329E+01      1.24789573E+03      9.72645146E+02
      2.89230375E+02     -1.34825874E+03      5.43184801E+02
      2.31482141E+02     -2.94585388E+02     -3.46256266E+02
     -4.28144078E+01      3.43441640E+02      3.30352320E+01
     -9.00355193E+02      3.44867722E+02     -1.26961681E+03
     -3.52195098E+02     -4.93625240E+02      2.23130243E+02
     -6.94025411E+02     -5.94379009E+02      2.08572843E+02
     -1.35130758E+03     -3.80600444E+02     -2.95809774E+03
      4.23222556E+02     -2.46518864E+01      2.26074162E+02
     -5.18885499E+02      2.40252454E+02     -1.77837070E+03
     -6.08958202E+02      6.03877096E+02      1.51838318E+02
      5.03817012E+02      2.55731275E+02     -6.57957725E+02
      1.14922197E+03     -1.91181655E+01      7.07590020E+02
      2.78850910E+03     -8.61476793E+02     -1.91533037E+03
     -3.37587780E+02     -1.54276725E+03     -5.60773255E+02
     -5.17526531E+02     -5.03292190E+02     -4.62967255E+02
     -1.56916130E+03     -1.16100129E+03     -2.53056545E+03
     -7.39209676E+02      4.45535297E+02      4.64578851E+02
      6.67884259E+01      9.29165323E+02      2.40621951E+02
      3.80466589E+02     -9.64166970E+02      1.82829069E+02
     -8.99410953E+02      1.89353792E+03     -2.71612125E+03
     -9.08625690E+02     -1.42079794E+03      1.99286997E+03
     -3.45334701E+02     -6.28636830E+02      4.27353870E+02
      7.62171462E+02      8.68457871E+02      9.59493649E+02
      2.02629088E+03     -8.74866458E+02     -4.79605476E+02
      2.94933502E+02     -5.51521295E+02      1.90016521E+02
     -2.49091905E+03      8.62904435E+02      1.26431277E+03
     -1.01904442E+03     -8.41520570E+02     -4.62189403E+02
     -1.09984179E+02     -1.16513001E+02      4.94573307E+02
      1.67582230E+03     -1.38393626E+03      9.29992179E+02
     -3.25298435E+02     -1.50419462E+03      5.64081870E+02
      1.13478767E+02      2.35235575E+01     -1.66761985E+02
     -1.77593919E+03      3.01406031E+03     -1.89058447E+02
      9.46680436E+02      1.26619245E+03      2.36464849E+02
      7.79730359E+01      6.97488128E+01     -2.41797214E+02
     -3.70591373E+02      8.80300229E+02      2.83329961E+03
      6.63254050E+02     -2.42166786E+02      1.25746570E+03
     -3.04625283E+02     -9.90201245E+01     -1.94320922E+02
     -1.40038634E+03     -1.42687261E+02     -1.66547535E+03
     -9.17343278E+02     -3.13682204E+02      2.91290520E+03
     -1.04151316E+03     -3.41775462E+02     -6.15718312E+01
      2.81883478E+03      3.09272827E+03      7.78164695E+02
     -1.08161370E+02      1.78783118E+03     -2.66716641E+03
      5.99483953E+02     -5.50721813E+02      7.44550941E+01
      2.64158758E+03      3.47352752E+02     -3.82785509E+03
     -3.22798751E+03     -1.12811846E+03     -1.00747700E+03
      1.15982778E+03     -1.43556224E+03      1.77936497E+02
     -1.90298748E+02      1.83478424E+02      1.45060734E+02
      1.20116854E+02      4.02347664E+02     -4.24061700E+02
      9.24866205E+02      1.41346816E+02     -6.29430776E+02
     -1.20533692E+03      5.40533934E+02     -1.12731686E+03
      5.50706928E+02      9.58263338E+02     -8.28902539E+01
      3.84848892E+02     -4.78332502E+02      3.38198491E+01
      9.35526632E+02     -9.51891881E+02     -1.44431054E+03
     -7.27587554E+02     -6.11225066E+02     -9.88521640E+02
     -1.60514661E+02      4.53164936E+02     -1.52957993E+03
      1.24015907E+03      1.26681615E+03     -5.20647873E+02
     -6.17524135E+02     -1.35519024E+02      2.37892608E+02
      9.10618122E+02      1.16702485E+03     -1.58952919E+03
     -4.56907012E+01      1.60124726E+03      2.30351406E+03
      4.15133713E+02      5.77319248E+02     -3.67482797E+01
     -2.24592396E+03     -1.23377997E+03      2.96782550E+02
     -3.87634496E+03     -1.83471595E+03     -5.46462260E+02
     -3.61830302E+02      8.78967390E+02     -3.57522028E+01
      3.55070883E+02     -7.62312732E+02      4.29988895E+03
      1.09936750E+03     -1.34434158E+03      9.03541928E+02
     -1.56521837E+02     -2.12693457E+02      4.30839092E+02
     -1.48967948E+03      1.39408848E+03     -1.49070313E+03
      1.46960199E+03     -4.60837115E+02     -4.35161365E+01
     -2.06427016E+02      3.56254883E+02      3.38305327E+02
      4.45424763E+02     -9.76552416E+02      9.07131095E+01
      3.52062617E+03     -5.05759547E+02      1.48474734E+03
     -5.29699768E+02      3.73873576E+02     -1.21711012E+03
     -1.63336908E+03     -1.04972212E+02     -5.14973604E+02
      2.63475205E+02      3.93333254E+02     -2.21424331E+03
      2.27842051E+02     -9.15971613E+02     -1.48344291E+03
      1.41386871E+03     -1.14004150E+03     -6.06276644E+02
     -2.68778838E+02      1.13915556E+03      9.38969694E+01
     -1.64483020E+03     -1.65689074E+03     -4.40074225E+02
      4.45071188E+02      2.87018536E+02      4.61083656E+02
     -1.29654907E+03     -2.65611706E+03     -3.57612819E+03
     -1.29838904E+02     -9.56197795E+02     -1.55996891E+03
     -3.71850426E+03      1.77141368E+03      1.41950449E+03
     -2.23770856E+02     -2.45039294E+02      1.29738401E+02
     -2.69891411E+02      8.20094289E+02      8.14408888E+02
     -8.60478069E+02      1.09155408E+03     -7.89528933E+02
     -2.43182305E+01     -1.55396405E+02      8.84949672E+02
      3.88625726E+02      1.00059981E+03     -5.76954734E+02
     -5.30996738E+02      1.90215727E+03     -9.70807913E+01
      3.39771515E+01     -5.94650376E+02     -1.45565805E+02
     -2.78003693E+03     -6.50941406E+02     -1.63222415E+01
      1.17161032E+03      7.10266300E+02     -1.93566278E+03
     -1.18022030E+03      3.04767946E+02     -4.95778579E+02
     -2.85204046E+03     -2.82152319E+03      1.12156475E+03
     -3.03835115E+03      1.05427394E+03     -3.38198324E+03
     -1.98645106E+02     -4.68292485E+02      6.87327002E+02
     -1.23496712E+03      1.00313966E+03      8.24945307E+02
      1.90563410E+03     -5.15936602E+01     -1.30571858E+02
     -2.15032371E+02     -6.23051236E+02      3.53719772E+02
      1.59349851E+03      2.72511164E+03      2.22790064E+03
      1.70752242E+03     -8.80575851E+02      2.11940996E+03
     -2.71185832E+02      2.23012175E+02     -1.31782222E+02
     -1.16016673E+03      9.96308123E+02     -5.41522514E+02
     -1.82976102E+03      1.85947917E+02     -1.36559968E+03
     -2.14102648E+02     -5.58742202E+00     -1.43993445E+02
     -2.75332304E+01      1.76394851E+03      1.58865770E+02
      2.58937372E+03      2.49193009E+03      5.69248760E+02
     -8.29537569E+02      1.22483073E+02      2.31421823E+02
     -3.56452720E+03      2.59861402E+03      1.53929441E+03
      1.49425055E+03     -1.64118572E+03     -6.96920301E+02
     -8.87977418E+02     -9.48186794E+02     -1.85070071E+01
      3.46111134E+02     -6.77907738E+02     -3.74700285E+02
      1.29782204E+02      1.06268889E+03      1.66793688E+03
     -1.08685452E+03     -1.38568737E+03     -1.53733637E+03
      5.31129572E+02     -2.17043092E+03      1.26516358E+03
     -4.74357154E+02     -3.59150723E+02     -2.65378055E+02
     -4.53305903E+02      8.28578584E+02     -2.91452962E+03
     -2.38554096E+02     -1.25325561E+03     -5.31724852E+02
     -1.86956074E+02     -3.19533547E-01      1.43339262E+02
      7.57679419E+02     -1.27790181E+03      4.57799523E+00
     -7.24090720E+02     -1.08921337E+03     -1.11549894E+03
      1.41156500E+03     -2.06347682E+02      2.72921024E+02
      1.45645708E+02      1.06172015E+03     -1.88528037E+03
     -1.39243119E+03     -1.73431592E+03      1.60088662E+03
      4.18582425E+02     -5.65361087E+02     -6.60015472E+01
     -5.87794757E+02     -1.08824632E+03     -9.21345217E+02
     -4.94872972E+02     -1.60278890E+03      1.92539988E+03
      5.46004103E+01     -1.61583494E+02     -5.96648609E+01
      5.23845937E+02     -2.43585259E+02     -1.20933118E+03
      2.66877143E+03      1.52823928E+03     -5.25463031E+02
      5.05696262E+02     -8.96793567E+02     -2.86836331E+02
      1.10014115E+03     -2.51382259E+03     -1.04162408E+02
     -8.77246450E+02     -1.82777269E+02      7.89449768E+02
      1.54268684E+01      2.67770141E+02     -2.34206524E+02
     -2.70006555E+02     -7.18757944E+02      2.06369756E+03
     -2.01615105E+03      6.39597785E+02      5.78139991E+02
      3.38027564E+02      5.67024671E+02     -5.83309286E+02
     -2.06549338E+03     -2.43135281E+02      1.14654548E+03
      1.36647482E+03     -1.49805552E+03      5.45206263E+01
      1.10701640E+01      1.63779887E+02      4.64363446E+02
     -9.09597151E+02      1.05875267E+03     -3.06531343E+02
      3.58001693E+03     -9.68033631E+02      3.18070857E+02
      1.25851219E+03      6.88648875E+02     -1.60717650E+03
      1.19456566E+03      1.03874081E+02      2.12231318E+02
      7.17459478E+02      8.98887665E+02     -1.10639542E+03
      1.54743666E+03     -5.79271892E+02     -1.15049732E+03
      1.07508147E+02      2.02276397E+03     -6.92964041E+02
      8.51285364E+02     -6.08394526E+02      8.59985205E+02
      2.97426270E+02     -2.60343888E+03     -1.97594653E+03
     -2.47715334E+03      2.23810783E+03      1.77364624E+03
      7.49110937E+02     -2.15640713E+02     -3.61179567E+02
     -1.47765964E+03      6.20695331E+02     -6.65767753E+02
     -1.01707182E+03     -2.05124519E+03      3.47380512E+02
      1.13627759E+02     -4.89856398E+01      1.03595324E+02
     -1.46389769E+03      6.24535441E+02     -3.62056184E+03
      1.86806745E+02      3.25505598E+02      2.05646245E+03
     -7.46298402E+02     -9.85263412E+02     -5.42664595E+01
     -1.90270908E+03     -1.84434054E+03     -3.28994901E+03
      1.07635037E+00     -1.52873676E+02      1.08996641E+02
      1.12871139E+02      2.94621763E+02      1.30159636E+02
     -1.99549661E+03     -1.35065793E+03      1.51167577E+03
     -1.19277962E+03     -6.87520381E+02     -5.80442646E+02
      1.02290567E+02      3.56881677E+02     -6.11503232E+02
     -1.41052352E+03      1.67368750E+03     -2.24194848E+03
     -6.92109288E+02     -4.71599655E+02      2.58443251E+03
      2.45553836E+02      2.34609501E+02     -2.30657332E+01
     -1.40606400E+03     -1.60940883E+03      1.00921029E+03
     -3.65195080E+02     -1.82460458E+02      9.78979783E+01
     -6.01179818E+01     -3.83747837E+02     -2.16870407E+02
     -1.48202359E+03     -1.27152855E+03      1.30992923E+03
      1.11530735E+03     -1.19495871E+03      1.01077533E+03
     -1.28948216E+02     -3.97404464E+02      6.95290025E+02
      7.56889552E+02      3.57337962E+02      2.05999444E+03
     -1.64121516E+03      7.01123664E+02     -2.08437826E+03
      6.94097861E+02      8.30401583E+01     -1.33887527E+03
     -1.47172808E+02     -6.16109959E+02      1.87911946E+02
     -1.22411973E+03      5.03394453E+01      9.13715526E+02
      2.13531749E+02      1.64291042E+03     -1.31287800E+03
      1.77108367E+03     -1.68330621E+03      6.12113698E+02
      7.00668093E+02      2.45463578E+02     -5.98427907E+02
     -9.09821915E+02     -1.77665378E+03     -3.75969352E+02
     -2.38317208E+03      2.33686558E+03      8.77584682E+02
      2.00907198E+02     -4.71587964E+02     -5.23243628E+02
      1.73331123E+03     -5.41351690E+02     -1.48008948E+03
     -3.13266064E+02     -6.56734493E+02      2.48564202E+03
      1.65066227E+02     -7.66127836E+02     -3.68350500E+02
      3.55294978E+03      1.41901117E+03     -2.32978778E+03
     -1.08925058E+02     -7.28807766E+02     -1.20257213E+03
     -3.81361499E+02     -3.96125676E+02     -7.01929203E+02
      3.72435725E+03      1.17853432E+03     -7.37288817E+00
     -9.96369339E+01      3.18221229E+02     -4.91151496E+01
      8.27237856E+02     -1.22065043E+02      5.30797209E+02
     -1.58459692E+03      8.82061359E+02      2.60716952E+03
      8.25331612E+02     -6.52437583E+02     -2.06668985E+03
     -1.22211447E+02     -4.88544438E+02     -5.74171673E+02
     -3.17557844E+03      8.57716515E+02     -1.91696093E+03
     -5.75296170E+02     -2.63308811E+02     -2.26873619E+02
     -3.63364984E+02     -1.39902080E+02     -5.05088613E+02
      1.19374248E+03      1.15534711E+03     -3.97383389E+02
      3.49129136E+03      2.48486252E+03     -4.71747436E+02
      4.06231273E+02     -4.97097304E+02      2.45176880E+01
      1.23853292E+03     -8.03062074E+02     -1.21010652E+03
     -1.72745635E+03     -4.55948683E+02     -9.31860360E+02
      2.47254840E+02      2.31546101E+02     -5.27446471E+02
     -6.12534910E+02      1.02013769E+03     -2.68371227E+03
      7.27665117E+02     -1.10436514E+02     -2.81636299E+03
     -2.42579500E+03      2.65425347E+03     -2.13703068E+03
      4.35872979E+01      6.84467097E+02     -1.11708894E+03
     -9.26039862E+02      1.36030368E+03     -1.45767646E+02
     -1.22548854E+03     -1.94449599E+03     -1.34503305E+03
      4.91059184E+02      1.36630207E+03     -6.15594460E+02
      6.23112343E+02     -9.03726535E+02      1.40500418E+01
      1.19511703E+03     -6.32567702E+02      3.57970049E+02
      1.95920769E+03      1.65610861E+03     -1.21922308E+03
     -4.30760496E+02     -4.67278035E+02      3.94786723E+02
     -2.73965534E+02     -2.96257129E+03      1.68254006E+02
     -6.14191444E+02     -1.06610393E+03     -1.69012163E+03
      4.76921289E+01     -1.13880574E+03      3.55464707E+02
     -1.26299437E+03     -8.64990647E+02      1.39495231E+03
     -6.78850470E+01     -2.55496455E+03     -1.09107408E+03
     -1.36052236E+03      4.39947974E+01      8.19653734E+01
      3.97815403E+03     -1.91971451E+03      3.07952550E+02
     -6.41831777E+02     -5.46177029E+02      1.01554654E+03
      9.02804145E+02      1.14158775E+02     -1.23062495E+02
     -1.83152818E+03     -1.44855183E+03     -2.20762797E+03
     -7.59455151E+02      2.71902704E+03      1.26546093E+02
      3.61552808E+01      2.56057757E+02      1.49519962E+02
     -9.80334679E+02     -1.15364074E+03      1.98399668E+03
     -2.73519944E+03      1.44669465E+03     -1.22603968E+03
      6.74795599E+02     -3.17169779E+02      2.62363498E+02
      2.84217590E+02      2.17808560E+02     -1.62944698E+02
     -3.20593634E+02     -3.38780368E+03     -9.71348919E+02
     -5.78357964E+01     -2.07729667E+02     -4.43213798E+02
      1.81497828E+03      9.78245545E+02      1.72130858E+03
     -9.38661602E+02      2.14011249E+03     -1.41802040E+03
      5.00188136E+02     -3.55776108E+02      7.46897861E+01
     -2.49170818E+03      2.29270820E+03     -5.28309670E+02
      1.25876900E+03      1.93962281E+03     -9.04205497E+02
      1.42449500E+03      2.54681315E+02      1.91372427E+03
     -2.01867624E+02      9.96475536E+01      3.32522593E+02
      1.30206545E+03     -9.80152101E+02      1.04068545E+03
      2.49216113E+01     -2.08340612E+03     -4.94465824E+02
      3.11665240E+03      9.02805046E+02     -1.11835526E+03
      1.75937498E+02     -2.19144332E+02     -3.37129084E+02
      3.06053096E+02      1.05033083E+03      2.03757948E+03
      8.82481347E+02      2.35577379E+03     -1.08898171E+02
      1.33678644E+02      4.62820761E+02     -3.01925926E+01
     -1.70007860E+02      6.97453560E+01      7.20593668E+02
      3.13728242E+02      7.94173779E+01     -4.58725260E+02
      1.22329664E+02     -1.01448583E+02      1.50069553E+02
     -3.27819021E+02     -1.95127421E+03      2.65983431E+03
      2.63249399E+02     -2.78002342E+03     -8.24966074E+02
     -4.45987512E+02      2.83160626E+02      6.43613008E+01
      1.91348572E+02     -1.47987089E+03     -9.68398936E+02
      2.99954105E+03     -9.28064241E+02      2.87556224E+03
      4.36339006E+02     -2.02792681E+02     -4.36225019E+02
      2.74946195E+03     -1.18278759E+03     -1.54646793E+03
     -6.75058014E+02      4.99524121E+02     -1.10633539E+03
      8.10412041E+01      6.76828510E+02      1.87353229E+02
     -5.85955950E+02     -3.48323786E+03     -7.28714091E+01
      1.19297050E+03     -2.68718146E+03     -1.48933003E+03
      5.76821924E+02      1.68761851E+02     -6.32175799E+02
      2.99418585E+03      5.57833828E+02     -3.20937383E+03
      2.61988841E+02     -1.49489485E+03      3.28894886E+02
     -5.55767246E+02      2.00183239E+02     -5.34509294E+02
      3.27841646E+03     -9.03532775E+02     -8.06968415E+02
      1.95538476E+03     -1.39676425E+03      1.48628325E+03
     -2.47486796E+02     -6.56773011E+02      4.11882908E+02
     -1.27631675E+03      2.69394783E+02     -1.58608668E+02
     -2.35030209E+03     -3.15061944E+03     -2.40063121E+03
      1.48770078E+03      1.29711771E+03      1.37826819E+03
      3.28103409E+02     -5.96609916E-01     -1.95820449E+02
      4.82886319E+02     -3.95757267E+02     -1.43652681E+03
      2.19501648E+02      9.80463246E+02      2.11961410E+03
      9.55711836E+02      1.11380432E+03      6.26619989E+02
     -3.91657037E+02      7.34826412E+02     -8.71780773E+01
     -1.53520490E+03      2.08389202E+02      6.42095008E+01
      2.93544513E+03     -1.96439802E+02     -4.65848373E+02
     -5.56833446E+02     -7.40850399E+02     -3.37750975E+02
      1.12791705E+03     -2.78368228E+03      2.64103649E+03
     -1.89881818E+03     -5.09002129E+02     -1.66112189E+03
      4.90377644E+01     -2.86158310E+02      4.87016672E+02
     -2.95135948E+03      8.35041976E+02      2.23235934E+03
      2.50830316E+03     -8.34494259E+02     -4.75067482E+02
      1.81203663E+02     -7.69473133E+02     -1.80069492E+02
      2.90192220E+02      1.18368678E+02      6.76796985E+02
      1.79015753E+03      4.53884890E+02      5.02414360E+02
      6.96254777E+02      9.40463152E+01     -2.15588476E+02
      3.71245428E+03      2.16897917E+03      1.38383464E+03
      1.36766128E+03      1.47009151E+03     -3.46864029E+03
     -4.39271524E+02      1.20722133E+02     -4.49893966E+02
      1.06384895E+02      1.95471626E+03     -2.44237838E+03
      7.99550072E+02     -2.73552311E+03     -1.09450527E+03
      6.50695314E+02     -2.34252477E+02     -7.03157488E+02
      5.30036288E+01      2.18046037E+02     -1.47274002E+03
     -1.14298347E+03      7.74895684E+02      9.40555493E+01
     -7.23490148E+02      6.02071437E+02     -4.28959170E+02
      1.39238594E+03      1.89662849E+03     -2.03795130E+02
      3.69778716E+03      5.03674754E+02      1.45566257E+03
      6.59054293E+02     -1.01320573E+02      1.87710033E+02
     -1.22478377E+03     -1.69032267E+03     -4.25355391E+03
      8.38388494E+02      1.14497240E+03     -5.44935025E+02
      2.99271190E+02     -1.81074338E+03      1.02927509E+03
      4.05735718E+01     -4.98067015E+01     -4.63715526E+02
     -6.48404025E+02     -1.13494054E+03      5.70918852E+01
     -1.98560395E+02     -1.74220279E+03     -1.24693483E+03
      9.49268432E+02      1.23341994E+03     -2.02446832E+03
      4.90766430E+02     -3.33621232E+01      1.00238100E+02
      7.33831138E+02     -7.05574547E+02     -1.78365891E+03
     -7.78830224E+02      1.81124211E+03      1.74435435E+03
     -1.33997677E+02     -5.83257462E+02     -1.93912302E+02
     -1.68655688E+03      1.01504070E+03     -9.65921927E+02
     -1.61489325E+03     -1.72228212E+03      1.07867305E+03
      6.16518845E+02     -2.07997754E+02     -5.33268613E+02
     -2.75012369E+03      2.55845801E+02      2.05249763E+02
     -1.20300217E+02     -8.82097839E+02     -2.14896521E+03
      5.34765717E+02     -1.02577758E+01      1.70571823E+02
      6.01822675E+02      2.41157381E+03      2.21377993E+02
      9.73296976E+02      1.38160068E+03      2.30541424E+03
     -2.18631869E+03      1.69652009E+04      1.34689172E+04
      3.96820235E+03      1.37280918E+03      1.58620878E+03
      3.83877049E+02      3.67227715E+02     -7.94891833E+01
     -8.00434171E+02     -1.25184672E+03     -3.41654556E+02
      4.30333797E+01     -1.82658398E+03      6.59894389E+02
      1.29196530E+03      2.34604248E+03      2.60052869E+03
     -2.08143330E+02      5.82626602E+02     -4.74645758E+02
      2.62244648E+03      1.18898851E+03     -5.37694777E+01
     -2.23612559E+02      2.23958580E+03     -4.53391787E+01
      2.13171062E+02     -1.62046861E+01     -9.74688661E+02
     -2.61239125E+03     -9.87760517E+02     -6.79247768E+02
     -4.89535912E+01     -7.36780112E+02     -1.70679109E+03
      3.41652267E+02     -3.88815516E+02      5.45617196E+02
     -1.90578943E+02     -8.01610029E+02      5.00426082E+02
      1.21818871E+03      1.84125565E+03      1.62696379E+03
     -4.30187693E+02     -1.78536078E+02      1.23500575E+03
     -7.45819631E+02     -7.83286183E+02     -9.99014930E+01
     -1.25765885E+03     -1.68095751E+03     -4.12738622E+01
     -7.10252868E+02      2.00397876E+03     -7.34582439E+02
      1.84689143E+03      1.54433326E+03     -1.36187220E+03
  }
}

Hamiltonian = DFTB {
  SCC = Yes
  SCCTolerance = 1e-6
  MaxSCCIterations = 200
  ForceEvaluation = Dynamics
  MaxAngularMomentum = {
    C = "p"
    H = "s"
  }
  Charge = 0.0
  SpinPolarisation = {}
  Eigensolver = Standard {}
  Filling = Fermi {
    Temperature [Kelvin] = 300.0
  }
  SlaterKosterFiles = Type2FileNames {
    Prefix = "../../pbc-0-3/"
    Separator = "-"
    Suffix = ".skf"
    LowerCaseTypeName = No
  }
  KPointsAndWeights = {
    0.0000000000000 0.0000000000000 0.0000000000000 1.00000000000000
  }
  Dispersion = LennardJones { 
    Parameters = UFFParameters {}
  }
}

ParserOptions = {
  ParserVersion = 3
}
