Geometry = GenFormat {
<<< "system.gen"
}

Driver = VelocityVerlet{
  Steps = 100000
  TimeStep [fs] = 0.2
  MDRestartFrequency = 5
  Thermostat = None {
    #InitialTemperature [Kelvin] = 300.0
  }
  Xlbomd{ 
    IntegrationSteps = 6 
    MinSccIterations = 2
    MaxSccIterations = 200
    SccTolerance = 1e-6 
  }
  Velocities [m/s] {
     -6.91544423E+02     -6.06845914E+02     -3.63846757E+02
      2.22045409E+03     -1.30263210E+03     -1.62928638E+03
     -1.91803670E+02     -2.24229743E+02      1.95888707E+03
      9.06328695E+01     -7.54237787E+02      3.19216500E+02
      9.53564433E+02     -6.53080598E+02      2.67389193E+03
      1.00243634E+03      2.07918258E+03      2.20760704E+03
      3.41408812E+02     -3.41263396E+02     -1.56514537E+02
     -1.34275057E+02     -1.10308501E+03     -8.45384916E+02
      1.36390874E+02     -7.16410001E+02     -2.02104487E+03
     -2.88385542E+02     -4.52125385E+02     -2.16000685E+02
     -2.69030364E+03     -7.92294134E+02      1.19147493E+03
      2.75416196E+03      1.52695384E+03     -2.70903153E+02
     -4.64545683E+02      7.89374134E+02     -8.17753698E+02
     -2.20488509E+03     -4.42798698E+02     -1.26691535E+03
     -2.44799911E+02     -4.96139194E+02     -4.57477227E+02
     -5.73452313E+02     -3.68455976E+02      2.41684228E+02
     -1.44172999E+03      2.59004064E+03      3.80409236E+02
      9.26012733E+01      2.84293156E+03      2.88450716E+02
     -4.95506990E+02      4.65537497E+02      6.29289092E+02
     -1.53393120E+03     -2.54940799E+03      2.44300517E+03
     -1.75257956E+02     -9.99535868E+02      3.78310256E+02
      7.74124928E+01     -2.05171614E+01     -3.88159795E+02
      9.91967281E+02      1.21797472E+03      9.46353513E+02
     -2.61106536E+03      1.02464445E+03     -1.69036075E+03
      7.61182900E+01     -2.83964500E+02      6.75677317E+01
      1.75983625E+03      8.33116391E+02     -4.13265112E+02
      1.95492080E+03     -1.81628293E+03      6.81789303E+02
      9.58372319E+02      3.13719223E+03      3.69949236E+03
      1.05023274E+03     -6.13232088E+01      3.19305159E+02
     -1.09283131E+03     -3.38814427E+02     -8.85327234E+02
     -4.47177754E+02     -7.85108794E+02      7.37544089E+02
     -3.99751883E+03     -1.46548361E+02      1.02026519E+03
     -3.30270972E+02     -3.82079078E+02     -3.94988940E+02
     -1.01888367E+03     -6.86255126E+02      4.95925231E+02
     -5.17840935E+02     -1.51386667E+03     -1.31145246E+03
      1.52511841E+02     -1.07465477E+03     -3.32409360E+02
      3.32087807E+02      4.78433663E+02      2.20625718E+03
      3.07255287E+03     -3.48280590E+02     -1.88039346E+03
      1.75503282E+02      4.91674856E+02     -7.24449196E+02
      2.67880258E+03     -8.01280176E+01     -1.08819311E+03
     -2.19353727E+03      1.75283149E+03      4.61709974E+02
     -2.99648560E+02     -2.38189051E+01     -9.36710882E+02
     -1.09272637E+03     -1.14221647E+03     -5.14608959E+02
     -2.70367195E+02     -1.03322054E+01      2.31917222E+02
     -3.02646939E+02     -3.52125203E+02     -5.39446394E+02
      7.72710212E+02      1.52243529E+03     -8.56066087E+01
      2.55634010E+03      4.35463035E+02     -8.02480171E+02
     -2.25992638E+02      3.78148756E+02     -4.21912782E+02
     -9.08412689E+02     -2.44861791E+03     -2.67350864E+02
     -2.05076551E+02     -1.89149505E+03      1.81186690E+02
      1.59912358E+02     -7.13518071E+02      1.25100210E+02
     -2.11942489E+03     -5.65892498E+02     -2.02444970E+03
     -1.08161337E+03     -2.10695738E+03     -2.12596886E+02
      7.92802955E+02     -3.80376285E+02      6.58896624E+01
      1.23044736E+03     -2.70805131E+03      8.57918336E+02
     -1.52412118E+02      6.81886025E+01     -8.12231568E+02
     -7.73824774E+02      3.32433751E+02     -3.51083046E+02
      1.77411952E+03     -3.34113936E+02     -6.85077706E+02
     -7.36681714E+02      9.33317692E+02      2.40733469E+03
     -2.27081981E+03      8.05274272E+01      2.19975234E+03
     -1.27103013E+02     -8.17486467E+02     -2.33449961E+02
     -1.01749866E+03      2.16300069E+03      1.76434891E+02
     -1.51327377E+03     -1.40387231E+02      7.53476447E+02
     -4.10210870E+02      1.23116809E+03     -2.75605863E+02
      9.95744238E+01     -7.89337229E+02      5.39973377E+01
      4.21158537E+02      1.36349276E+03      1.61265845E+03
     -3.36754826E+03     -7.46352383E+02     -4.90609899E+02
      7.84386048E+02     -4.67208979E+02      1.88079356E+01
      3.37579161E+03     -2.25687663E+03     -1.52153977E+03
     -6.05942180E+02     -1.24790160E+03      2.04092608E+03
     -9.73525523E+02     -2.64257167E+02      6.96890698E+02
     -1.49467589E+03     -5.20721883E+02      1.59333191E+03
      1.81620561E+03      1.61228475E+03      2.05679479E+02
      4.05121699E+02     -3.69128722E+02     -8.05883455E+02
      1.19765326E+03     -2.28693776E+03      6.34120945E+02
      9.90294396E+02      3.52326163E+03      5.00227881E+02
      2.82356778E+02     -4.65275842E+02      3.01743974E+02
      5.88771323E+02     -9.92578951E+02     -1.37818372E+03
      1.80789865E+03     -1.61388996E+01      3.67676957E+03
      2.38783246E+02      5.77322554E+02      3.96180084E+02
      2.23065194E+03      1.43590450E+03     -3.78546783E+01
      1.42429201E+03     -2.26688014E+03      2.64008329E+03
     -8.06647299E+03      8.26632530E+03     -5.04299783E+03
     -6.43983944E+02      2.15197288E+03     -2.34368492E+03
      6.45138478E+02      2.56127203E+03      1.05071072E+03
     -8.27571022E+01     -4.80458056E+02     -4.22277375E+00
      8.70171798E+02     -1.35689663E+03      2.30567516E+03
      7.98728738E+02      1.85818140E+03      5.62050692E+02
      4.83049428E+02      4.94764363E+02      3.47047365E+02
     -5.93468325E+02      1.43194132E+02      3.66395631E+02
     -6.32640702E+02      1.98587300E+03     -3.05152901E+03
      3.73763041E+03     -3.41426273E+03     -1.19369043E+03
     -1.67026302E+02      2.77267191E+01      1.22531664E+02
      1.66379404E+03      9.92909767E+02     -9.87999762E+01
     -3.01815147E+03     -2.55805096E+02     -7.61239985E+02
      4.09748704E+03     -3.13527348E+02      1.78996910E+02
      4.16478220E+02     -3.81121191E+01      2.04783779E+02
     -1.81220801E+03     -1.07182648E+03     -2.45383683E+03
      2.98540605E+03      1.03324073E+03      3.41338794E+03
     -1.60014309E+01     -1.72734709E+02      3.55401574E+02
      9.55561866E+02     -6.39396255E+02      3.78188606E+03
     -7.88457504E+02     -1.62535993E+03     -1.65507598E+03
      1.17233314E+02      1.37296844E+02     -4.88668836E+01
      1.37424652E+03      1.58670635E+03      2.85260646E+02
      2.40774851E+03     -9.85571875E+02     -7.02055806E+02
     -4.20492053E+02     -2.47789934E+01      6.10319793E+02
     -2.38256862E+02      7.14515978E+02      1.46448282E+03
     -6.24217001E+02      1.54981214E+03      2.61345519E+03
     -2.49564705E+02     -5.77661381E+02     -3.33180116E+02
      2.88926043E+03     -5.23339562E+02     -2.49970710E+03
     -1.75614813E+03     -4.86864793E+02     -8.11303598E+02
      4.57914366E+02     -3.37963630E+02      3.91813230E+02
      3.94590465E+02     -1.31269424E+03     -2.61012697E+03
      1.02906575E+03     -1.45441950E+03     -1.42907981E+03
      7.17867450E+02      8.41584570E+00      4.98953309E+02
     -5.40531073E+02      6.74277254E+02      2.74398245E+03
     -1.38934003E+01      2.87715247E+02      2.47515640E+03
      7.79506720E+01     -2.81701433E+02     -3.77632450E+02
     -1.79358659E+03     -1.11695073E+03     -3.42376343E+03
      2.33720979E+03     -2.74245062E+02     -1.54606432E+03
      4.08748445E+01     -5.47285899E+01      2.29520201E+02
     -2.40852519E+03     -6.94672187E+02      6.23714630E+02
     -2.34719040E+02     -5.08100237E+02     -3.74746984E+02
      5.35008747E+02     -5.04950561E+02      4.66109541E+02
      4.02906209E+02      1.46147939E+02      6.34244464E+02
     -5.08358155E+02      4.56028146E+02      8.61722011E+01
     -2.26423283E+02     -2.97242067E+02      1.52698868E+03
     -1.29729788E+03     -2.06358916E+02     -2.71546880E+03
     -7.45341184E+02     -9.55891925E+01     -1.35494376E+03
     -2.42209641E+02     -1.14143842E+03     -7.11243597E+02
     -3.19405948E+03      9.69608852E+02     -5.22709298E+02
     -1.69625286E+02     -5.91439390E+01      7.66215054E+02
     -2.16893387E+03      8.15408396E+02      4.84572343E+02
      3.81370486E+02      1.38895110E+03     -2.61614640E+02
     -3.46999380E+02     -6.30807180E+01     -3.16139508E+02
     -1.86253972E+03     -9.17300293E+02      2.84009830E+03
     -2.37325556E+02     -1.53585075E+02     -8.88942628E+02
     -1.62791044E+02     -3.74572970E+02     -1.65917092E+02
     -2.08819745E+03      3.94299707E+03      3.13684522E+03
      9.22419825E+02      1.57083620E+03      5.26901262E+02
      1.90650920E+02     -4.03141288E+02     -1.34238464E+02
     -9.47330259E+01     -1.70915694E+03     -1.52618792E+03
     -1.27771460E+03     -1.13824434E+02      8.63191581E+02
      1.58987184E+02     -1.10593717E+02     -1.55570188E+02
      3.54737260E+03     -1.15956095E+03     -1.77657460E+03
     -3.39530536E+02     -2.00635336E+03      1.02180716E+03
     -2.70871503E+01      6.38737833E+02      1.81963816E+02
      1.60660087E+03     -1.30712894E+02      1.32505864E+02
      7.29754289E+02      1.52559523E+03      2.21779082E+01
      3.21532865E+02     -4.09698887E+02      1.31952703E+02
      2.48595474E+02      9.50233687E+02     -1.47439247E+03
      1.01528462E+03     -1.02200061E+03      2.79411274E+03
      5.79104284E+02      4.32251139E+02     -2.50146255E+02
     -2.02513850E+03     -1.28881817E+02     -4.79595097E+02
     -1.89101727E+03     -2.67220730E+03     -8.14698629E+02
      3.97206147E+02      1.63855099E+03      1.44631379E+03
      4.07211667E+02      7.93351505E+02     -1.31734816E+02
     -2.77566205E+03     -4.67618729E+03      1.30126129E+03
      2.17232898E+03      1.91976035E+03      5.04778322E+02
     -1.72124837E+02      8.87088736E+02     -1.48487121E+03
     -3.69771811E+01      1.46800504E+02      9.22708921E+01
     -1.83878698E+01     -5.99278968E+02      1.13942178E+03
      5.21923139E+02     -1.18564139E+03     -3.62124161E+02
      2.89240030E+02     -4.38174970E+02     -5.50195163E+02
     -1.27595651E+03     -1.33269271E+03     -2.01894822E+03
      1.84244394E+03      1.16720283E+03      1.70471109E+03
     -4.64395211E+01      9.94200524E+00      4.79155686E+02
     -4.53699959E+02     -9.87885222E+02     -7.33492502E+02
      3.80823457E+03     -1.46794651E+03      2.11823485E+03
      1.39229261E+02      4.23197041E+01     -9.91246518E+01
      1.92132799E+03     -1.67813931E+03      9.75690902E+02
     -1.35305181E+03      4.67005781E+02     -2.28640432E+03
      4.23736759E+02     -4.09903886E+02     -3.35954927E+02
      1.98588502E+03     -9.41691940E+02      1.70936906E+03
      6.87242793E+01     -2.93435030E+02     -2.72356430E+02
     -2.16914380E+02     -1.02837810E+03      8.93736403E+02
     -1.01863908E+03      3.45004680E+02      1.14643338E+03
     -1.90450910E+03     -1.21005435E+03     -3.81977905E+02
     -2.28704603E+02     -3.69992211E+02      6.20612231E+02
     -2.24238778E+03      2.08750848E+01      2.58487374E+03
      4.24801531E+02      1.95242935E+03     -6.85679689E+02
      5.41023202E+02      2.38396143E+02      3.55102193E+02
     -8.31209070E+02      2.46243327E+03      1.62996108E+03
      2.32390803E+03      9.15709777E+02      2.67749786E+02
      7.33357092E+02      3.49459808E+00      3.82423603E+02
     -1.65660284E+03     -7.00398900E+01      2.78549456E+03
      1.75221946E+03     -1.00578097E+03      2.87613783E+02
     -4.93180559E+02     -2.87791800E+02      2.29047501E+03
     -2.00322210E+02     -2.01442650E+02      1.54988461E+02
     -6.47895021E+02     -2.20949477E+03     -1.99192452E+03
      3.46143105E+02     -8.04849203E+02     -3.86625678E+03
     -8.50436650E+02     -1.46125058E+03      9.47310287E+02
      4.77533402E+02      1.59835719E+02     -4.82061479E+02
      7.48644579E+01      5.75710109E+02      1.53222097E+03
      2.29662197E+03     -3.89137344E+03      1.39869005E+03
     -7.39669835E+02     -2.86966532E+02     -2.73818897E+01
     -6.79716904E+02     -8.56745934E+02     -3.17313407E+02
      1.12744257E+03     -9.12679872E+02     -2.91378897E+03
     -1.74261633E+02      3.16069472E+02     -8.32766129E+01
     -2.64370011E+03     -4.62383756E+02     -2.46919883E+03
     -1.83870487E+03     -2.92386762E+02      1.41127810E+03
     -1.45640539E+02      4.02104708E+02      1.99385695E+02
      2.00392589E+03     -2.56984408E+02     -2.82462640E+03
     -9.89532275E+02      8.31741636E+02     -1.38375830E+03
     -4.27077304E+02      2.09718134E+02     -4.94917817E+02
      2.48018360E+03      4.35351354E+03      9.41394752E+02
      5.46544976E+02      1.35328676E+03      1.36556871E+03
      3.54465372E+02     -4.11190819E+02     -2.17282333E+02
     -1.18281689E+02      1.98777132E+02      6.58017889E+02
      2.86140437E+03     -2.77139163E+02      6.44069173E+02
      4.52722449E+02      3.03806757E+02      3.96583085E+02
      1.03379179E+03     -1.02635587E+03      2.54343102E+02
      8.41812366E+02      1.39182241E+02      1.83303700E+03
     -6.03223500E+01     -1.40807620E+02      1.31843634E+02
      1.89150799E+02      1.38679387E+03      9.93180521E+02
     -1.51967419E+03     -1.87426930E+03      1.04761046E+03
     -5.60519492E+02     -2.15489608E+02     -8.68793895E+01
     -8.58282023E+02     -1.49988152E+03      6.71159753E+02
      7.63418824E+02     -1.58265975E+02     -3.67121480E+02
      1.86443900E+03      1.58870671E+03     -1.07980117E+03
      7.56622411E+02      8.32680992E+02     -2.99277410E+02
      8.23115159E+02     -4.13254077E+02      1.62506798E+03
     -3.52818305E+02      1.00634412E+03      8.97893465E+02
     -1.41141837E+03      3.05736332E+03     -7.08281515E+02
     -2.57781145E+01      5.00354664E+02      4.40776420E+02
      1.02022004E+03     -3.29139100E+02      1.33750755E+02
     -1.62013507E+03     -9.62522518E+02      9.67633512E+02
      3.82249714E+01      1.48366048E+02      1.00785743E+01
      1.03160030E+03      3.03287805E+03     -7.34902032E+01
     -1.41878075E+03     -9.50580197E+02      2.04086424E+03
     -4.36019888E+02      5.89179665E+02      1.29886130E+02
      1.75111110E+02     -1.63646659E+03     -2.33764044E+02
     -2.52410106E+03     -3.31882848E+03     -8.80883484E+02
      7.09253898E+02      2.68328990E+02      5.88475564E+02
      4.57706387E+03      3.12485325E+03      6.82427517E+02
     -2.49884962E+03      6.77555754E+01      1.04728318E+03
      1.37146253E+02     -2.67082980E+02      1.08467157E+03
     -8.53541853E+02      7.11700055E+02     -8.05975031E+02
     -8.03885859E+00      2.31446203E+03      2.96828935E+03
      5.68225918E+02      9.09204794E+01     -1.19895987E+02
     -6.30246433E+02     -9.47396048E+02      1.55551580E+03
     -1.98575141E+03      1.32465953E+03     -6.48483806E+02
     -5.81808211E+02     -3.24674917E+02      8.23856536E+01
      4.81567551E+02     -2.10389579E+03      2.75490742E+03
      2.29420732E+03      6.06631478E+02      7.52529152E+01
      4.37339187E+02     -5.87349034E+01      2.18419776E+01
      3.51510038E+02     -1.44816253E+03     -1.77182601E+03
      4.38972407E+03     -1.89881519E+03      2.24827942E+03
     -3.52200742E+02      2.70673415E+02      5.20925373E+02
      1.74622571E+03      2.00347451E+03      1.84459467E+03
     -1.52148485E+03      2.63031114E+03     -6.63611159E+01
      1.42456368E+03      2.57546168E+03      6.10751420E+02
     -1.38500368E+02     -2.85294885E+02      4.88539080E+02
     -1.33231885E+03      2.26619009E+03      1.22443371E+03
      9.98506708E+02     -1.50647670E+03      2.01344622E+03
      3.85278024E+01     -5.36889104E+02     -1.12169005E+03
      1.02124980E+03     -4.98741390E+02      9.53743503E+01
     -1.27277987E+01     -7.45224423E+02      3.78875044E+02
      7.64994232E+02      1.65815594E+03     -4.83039301E+02
     -4.73577820E+02     -5.49721767E+02      3.60294340E+02
      2.04739673E+03     -6.82357954E+02      8.44741714E+02
      1.48464113E+03      7.19420407E+02      8.32184108E+01
      5.29582067E+02      2.18324963E+02      4.58163222E+02
      3.71182122E+02     -1.88235749E+03      2.15468246E+01
      1.08572534E+03     -8.16417757E+02     -2.91865080E+02
     -4.79465004E+02     -1.90885525E+02     -7.16010806E+01
      4.19912792E+01      4.42537790E+02      8.71867900E+02
      1.44395500E+03      3.05799533E+02      2.00469031E+03
     -4.67681090E+02     -3.53812521E+02      2.11908833E+02
      1.60626629E+03      2.34296327E+03      4.66293366E+03
      3.03917219E+02      5.79581578E+01      1.69626017E+03
      3.29283842E+02      4.56048819E+02     -2.37344302E+02
     -1.73311789E+03     -1.49831411E+03      1.16180074E+03
      4.41825164E+03      1.18321515E+03     -5.29573143E+02
     -1.66244547E+02      3.91452485E+02     -6.50962184E+00
     -1.51479637E+03     -1.09008997E+03     -3.45431868E+02
      1.44774302E+03     -4.42638448E+03     -1.49130042E+03
      2.36157417E+02     -5.58410297E+02      3.43461683E+02
     -1.66596068E+03      6.69966938E+02      3.11658331E+02
      1.24213474E+03      5.76797234E+02     -1.16899098E+03
     -1.40863420E+02     -1.43612059E+02     -6.73197422E+02
     -1.60090160E+03      1.66763555E+03      5.30570675E+02
      1.70975573E+02      1.71634954E+03     -1.37939008E+03
      7.93795441E+02     -1.20638450E+03     -2.13910826E+03
      4.87161212E+02      1.24056295E+02      3.73737654E+02
      1.68964171E+02     -8.82632660E+02     -3.40053342E+03
     -2.37453752E+03     -3.52847963E+03     -9.63665165E+01
     -2.62066520E+03     -6.36529031E+02      1.66582995E+03
      2.43921360E+01      8.29163610E+02      8.20773489E+02
     -4.95766694E+02     -3.20618251E+03     -1.64349119E+03
     -2.00702493E+03     -1.31336178E+02     -6.61399480E+02
     -1.56954136E+02      1.82691193E+02     -4.17876501E+02
     -1.27771803E+03     -7.04392867E+02     -1.48468630E+03
      5.61853358E+02     -1.50873698E+03      1.09095249E+03
     -2.93635455E+01      1.40171385E+02      1.36920183E+02
      1.97907296E+03      1.09357629E+03     -1.34450581E+03
      7.41552502E+02      3.50344904E+03      1.78604871E+03
     -8.02017766E+02      7.79208129E+02      6.71546936E+02
     -1.62364647E+03      4.35293836E+02      1.41243445E+03
     -1.49370502E+03     -9.27407835E+02      2.01426033E+02
      1.56470239E+02     -2.97081071E+02      6.50456664E+01
      2.55777681E+03     -1.86223627E+03      3.50168674E+02
     -2.51600373E+03      1.34368161E+03     -1.48960033E+02
      2.27773790E+02      5.34589231E+02     -4.02324058E+01
     -9.83576914E+02     -6.77567115E+02     -1.67557380E+03
      2.78612069E+03      3.39580199E+01      2.38250173E+03
     -7.50257524E+02     -5.51545208E+02      1.20985305E+02
     -2.54856309E+03      2.12873947E+03     -1.28577031E+03
      1.15896362E+03      8.40245287E+02      2.99364557E+02
     -3.11521560E+02     -3.20906927E+02     -1.08428652E+03
      1.10775040E+03      1.71219790E+03      3.24648810E+03
     -1.21427919E+03      1.22984116E+03      2.46136574E+03
     -1.20856585E+02     -2.44747370E+02     -4.20265764E+02
     -1.54857535E+03     -3.91733677E+02      1.28727649E+03
      2.03561113E+03     -1.79611231E+03      2.54703185E+02
     -2.60813604E+03     -5.04275903E+02     -7.32812310E+02
      1.99885218E+02     -6.25706240E+00      3.94975357E+01
      4.37972922E+02      2.55378399E+03      2.19950059E+03
      1.67445466E+03     -2.62478290E+02      4.66748245E+02
      7.51260897E+01     -4.99518999E+02      2.33924906E+03
      9.69764810E+02      2.48370947E+02      1.25320733E+02
      3.08501270E+02     -2.13933259E+03      2.33664850E+03
      3.58672755E+03     -1.35499479E+03     -5.29289381E+02
      8.05773469E+02      3.66101282E+02     -2.42137070E+01
      2.06759189E+02     -6.80235827E+02     -1.64136623E+03
      2.26120799E+03      1.32207279E+02     -1.34703374E+03
      1.69298375E+02      1.56836132E+02     -3.92492705E+02
      5.61487364E+02      7.10111600E+00      2.63162014E+02
      1.61272645E+03     -4.73363435E+02     -3.20295997E+03
      9.46315061E+02      3.10906923E+02      1.31852520E+02
      6.58725544E+02     -1.76904119E+03     -1.41634117E+03
     -9.41341267E+02      4.88782304E+02      1.12433307E+02
     -2.38147156E+02      1.97273867E+02     -4.53389763E+02
      1.16496237E+03      2.11813782E+03     -1.60428975E+02
      8.06541636E+02     -2.91390285E+03      9.36546078E+02
     -1.08122742E+02     -8.37291856E+02     -5.21866883E+02
     -5.24240469E+02     -1.35586824E+02     -1.21863746E+03
      2.58363096E+03      2.03005238E+02      8.66394797E+02
     -5.55293133E+02     -1.75139829E+02      9.12002818E+01
     -1.63821613E+03     -4.19456960E+02     -4.52751069E+02
      8.61190047E+02      2.23570884E+03     -8.70924845E+02
      4.71731991E+02     -2.35934606E+02     -3.67348403E+02
      8.23377768E+01      8.39414254E+02     -7.06018894E+02
     -1.78075947E+03      4.17934165E+02     -1.96246956E+02
      3.66424676E+02     -3.27818649E+02     -3.23626089E+02
     -5.56562067E+01      3.40156670E+03     -2.38094410E+02
     -6.18812096E+02     -1.32497260E+03     -4.89604315E+02
     -3.79859592E+02      8.99101238E+02     -4.83074190E+02
      4.11929012E+02      2.44621999E+01     -3.37425621E+02
      2.07427831E+03     -1.74528731E+03      8.35700296E+02
      1.24271633E+03      6.43276843E+02      1.56050770E+03
      5.11096460E+02     -3.20439911E+03     -7.83025097E+02
  }
}

Hamiltonian = DFTB {
  SCC = Yes
  SCCTolerance = 1e-6
  MaxSCCIterations = 200
  ForceEvaluation = Dynamics
  MaxAngularMomentum = {
    C = "p"
    H = "s"
  }
  Charge = 0.0
  SpinPolarisation = {}
  Eigensolver = Standard {}
  Filling = Fermi {
    Temperature [Kelvin] = 300.0
  }
  SlaterKosterFiles = Type2FileNames {
    Prefix = "../../pbc-0-3/"
    Separator = "-"
    Suffix = ".skf"
    LowerCaseTypeName = No
  }
  KPointsAndWeights = {
    0.0000000000000 0.0000000000000 0.0000000000000 1.00000000000000
  }
  Dispersion = LennardJones { 
    Parameters = UFFParameters {}
  }
}

ParserOptions = {
  ParserVersion = 3
}
