Geometry = GenFormat {
<<< "system.gen"
}

Driver = VelocityVerlet{
  Steps = 100000
  TimeStep [fs] = 0.2
  MDRestartFrequency = 5
  Thermostat = None {
    #InitialTemperature [Kelvin] = 300.0
  }
  Xlbomd{ 
    IntegrationSteps = 6 
    MinSccIterations = 2
    MaxSccIterations = 200
    SccTolerance = 1e-6 
  }
  Velocities [m/s] {
     -6.88925230E+02      6.50447762E+02     -4.32027468E+02
     -3.76754715E+02      1.05043400E+03     -5.27021436E+01
     -2.12148488E+03      3.05904738E+03      7.32308757E+02
      3.43529370E+02     -3.75102692E+02     -2.18357461E+02
     -1.44747542E+03      6.62635906E+02      9.70978396E+02
      9.78797497E+02     -1.50855796E+03     -4.21310204E+02
      1.85347517E+02      7.19201752E+02      3.04680478E+02
     -3.70824302E+03     -1.77492358E+03      1.63479075E+03
     -3.28116392E+02     -1.22017450E+03     -6.19008530E+02
      2.87136425E+02      5.04363124E+01      8.79709564E+02
     -9.03980791E+02      1.07943163E+03      1.84989666E+03
     -7.64035953E+02      5.62847517E+02     -1.89233942E+03
      2.38426821E+02     -6.26311027E+02      3.33363742E+02
     -6.28448004E+01     -3.05394055E+03      9.05564860E+02
     -4.18326475E+02      4.46099484E+02      5.06094446E+02
     -9.10308636E+02      6.31207531E+02      8.94408864E+01
     -1.06746309E+03     -1.66577655E+03     -1.77950644E+02
     -6.89319129E+02     -1.36393581E+03     -1.78798522E+03
      1.18420013E+03      1.10807987E+03      1.14131664E+01
     -2.64639363E+02      1.10472633E+03      2.42432854E+00
      2.50148571E+02      2.42658926E+03      1.81482930E+03
      4.52440434E+02      2.02383160E+01      2.56783197E+01
      3.52951788E+03     -1.85819830E+02      7.19881480E+02
     -2.33832252E+03      7.96420484E+02     -1.00966580E+03
      6.34408025E+02     -4.87007313E+02     -5.50987120E+02
      6.50876786E+02     -2.25078174E+03      1.79951973E+03
      2.07650440E+02      2.05575760E+03      4.15177260E+02
      3.01893711E+03     -1.89421569E+03     -3.61224437E+02
     -2.57705522E+02     -4.02861703E+01      5.52501867E+02
      1.44252466E+03     -5.84767059E+02      1.30997027E+03
     -3.25909542E+03     -1.89914196E+02      1.99813754E+02
     -4.78311778E+02     -1.28438395E+03     -1.77597918E+03
      1.60036427E+02     -5.23519856E+02      4.22117346E+02
     -7.03825458E+02     -6.19269902E+02     -5.04958017E+02
     -7.74790782E+02     -7.21650530E+02     -8.56616642E+02
      5.01175770E+02     -2.46580708E+01      1.92694439E+01
      3.41855481E+03     -1.34911982E+02      2.95530208E+03
     -1.77352391E+03     -8.41573296E+02     -6.93471730E+01
     -1.85010382E+02      6.07199405E+01     -1.36772804E+02
      1.22689712E+03     -1.32705639E+03      8.72397372E+02
      1.16076752E+03      1.88320413E+03     -1.39477106E+03
      9.10953724E+01     -1.25109353E+03      7.71362425E+02
     -1.51509852E+03      1.15823119E+03      1.87640886E+03
     -6.95620327E+01      3.02710080E+01      1.31975137E+03
     -1.05038535E+01      8.86403565E+02      5.08063895E+02
     -1.31184388E+03      2.33159787E+03     -9.96615703E+02
      1.90849043E+03      3.64690091E+02      1.69783226E+03
      3.35598859E+02      6.38583479E+02     -1.93279490E+02
      4.05239626E+02      3.89264445E+03     -3.55982361E+02
      6.13218483E+02     -2.52550790E+02     -1.76576770E+03
      2.66034821E+02      6.94256617E+02     -2.82371882E+02
     -7.42429957E+02     -1.33472215E+03      1.17728300E+03
     -1.11146748E+03     -5.14132826E+02     -4.95421287E+02
     -4.37843458E+02      9.94802470E+02      4.53146829E+02
     -5.71198049E+02     -6.34596311E+02     -2.60294584E+02
     -1.63919912E+03     -6.10648901E+02      2.13124345E+03
      1.82716364E+02      6.02515282E+02     -2.65042874E+02
     -1.85719734E+03     -1.80516986E+03      3.34496696E+02
     -1.98120704E+03      9.00162457E+02      1.18423146E+03
      2.09123941E+02     -1.30541281E+03     -2.70678411E+03
      8.27303690E+02      1.12262445E+03     -5.15340046E+02
     -3.77417366E+03      1.59857212E+03      1.42530892E+03
     -7.67309431E+02     -1.31424236E+03      2.00459440E+03
      3.19187797E+03     -2.22140825E+03      1.16907464E+03
      3.19514887E+02      1.23379051E+03     -8.51047942E+02
      4.19639004E+02     -1.22609803E+03      1.74847352E+03
     -2.11110876E+03     -1.09847200E+03      1.03728672E+03
      1.23821257E+02      2.38293827E+02      3.98563972E+02
      4.76873449E+02     -9.19661927E+01      5.37780768E+02
      9.17662366E+02      1.46897800E+03     -1.22298263E+03
      4.63758879E+02      5.30626404E+02     -1.83332022E+02
      4.81214988E+02      2.03211884E+02     -2.12205205E+03
     -8.53857384E+01      1.59085406E+03      2.43592604E+03
      5.09469311E+02     -1.55731878E+01      1.38112103E+02
      1.92256612E+03     -1.08278504E+03      1.09771520E+03
      3.14902788E+03      6.26022855E+02      3.11811383E+03
      5.74240229E+02      7.14590950E+02     -3.25566370E+02
     -7.10032520E+02     -8.72297755E+02     -4.23335973E+02
      7.95634031E+01     -1.61307228E+02     -8.04293824E+02
     -1.88889147E+02      2.39272711E+02     -2.84837120E+02
      2.80812729E+03      8.29167670E+02     -8.18569237E+02
      7.41053780E+02      8.73408838E+02     -5.60124145E+02
     -6.59633522E+02      5.45949473E+02      5.99160270E+01
     -3.40896884E+02      9.92507806E+02      4.82800285E+02
      9.17477598E+01     -4.75596131E+02      2.65215405E+03
     -1.04857956E+02     -3.88667884E+01      8.19712009E+01
      3.48954329E+03      9.67509189E+02     -4.61816860E+02
      3.22247844E+02     -2.97563794E+02     -1.07627077E+03
      3.58882093E+01     -2.25956401E+02      4.84712642E+02
      7.27573322E+02     -1.89573807E+03      1.76574112E+03
     -1.60814644E+03     -3.52734005E+02      1.03142797E+03
      2.13133448E+03     -1.56944570E+02     -1.34731147E+03
     -5.01584301E+01     -5.14273993E+02      5.34145617E+02
      1.12569103E+03     -1.14699267E+03     -2.26956029E+03
      2.85837241E+03      1.81200003E+03      3.86050273E+02
     -1.45544822E+03     -4.58344013E+02      1.52911807E+03
     -5.36069374E+02      7.60803676E+02      6.77325740E+01
     -3.82575747E+02     -1.30917385E+03      6.46978873E+02
     -3.43170778E+00     -2.34779624E+03      1.01616965E+03
      2.59121144E+02      8.56485591E+02      1.01203235E+02
     -7.74404263E+02      1.58655987E+02      8.77959880E+02
     -5.85604553E+02      8.97483991E+02     -2.45195706E+03
     -3.38444481E+02      1.16506646E+02      2.61250328E+02
     -7.94784454E+02     -3.02742630E+03      5.38012344E+02
     -1.17894493E+03      9.97212797E+02      1.56408213E+03
     -6.60440453E+02      8.74486139E+00     -3.03807677E+02
      2.71184511E+02     -1.35515681E+03     -2.14796209E+02
     -1.84224468E+03      1.30556170E+03      7.01345092E+02
     -2.74539782E+02      1.04255618E+02     -7.93452734E+02
      1.52687994E+03      3.90412578E+02      7.49453137E+02
     -1.05046468E+03      1.34344593E+03      2.40296645E+03
     -3.64564895E+02      4.12733699E+01     -8.53381366E+02
     -1.76801237E+03     -1.51245111E+03      1.50811531E+03
      3.42288540E+03     -2.54698941E+02     -2.51060600E+03
      4.55839479E+01      2.89361725E+02     -8.52342814E+02
      1.10156053E+02     -1.38180937E+03     -1.29785203E+03
      1.92888040E+03     -1.40287318E+03      2.46162559E+02
      4.11971284E+02     -2.92081442E+02     -1.10704327E+03
      1.42463082E+03     -5.51429562E+01     -1.47286087E+03
     -3.70333043E+02      8.47129931E+01     -4.44676509E+03
     -2.90076440E+02      4.82174211E+02     -1.33297084E+02
     -2.86013142E+03      1.62056559E+03      1.71172582E+02
     -5.26682749E+02      4.93278642E+02      5.63107120E+02
     -3.65608560E+02     -1.58762823E+03     -7.67775175E+02
     -2.42140758E+02     -3.98866538E+02      9.13151350E+02
     -2.11970597E+03     -4.86225096E+02      4.79499428E+02
      1.66380090E+03      2.22042787E+03     -1.29581446E+02
      3.27626647E+03      1.94222633E+03     -1.91238819E+03
      6.07671445E+02     -6.34813726E+01     -6.52676447E+01
     -2.74572063E+03     -2.68801803E+02     -6.80071683E+02
     -6.47261596E+02      4.46975245E+03     -4.47425023E+03
     -1.35177342E+04     -3.02431296E+04      3.25901452E+03
     -1.06662381E+03      4.20102552E+02     -2.62122912E+03
      1.72185884E+03     -1.91493070E+03      2.53495058E+02
     -1.02833912E+02      6.50822107E+02      1.24839603E+02
      1.66455032E+03      1.88632130E+03     -5.93504091E+02
     -2.50682988E+02      6.71881349E+02     -1.30406949E+00
     -5.54218517E+01      9.48464843E+02      7.05107974E+01
     -5.14857980E+02      2.75204645E+03     -2.39849004E+02
      1.22962513E+03     -2.59900196E+02      1.50326491E+03
      1.85071776E+02      4.40526553E+01     -3.07563702E+02
      2.29370213E+02      9.18584983E+02      1.04155530E+03
     -6.21294787E+02      7.07488725E+02      2.67039832E+03
      5.47677439E+02     -3.71510271E+02     -2.70048625E+02
      6.95594736E+02      2.34198996E+03      8.23709015E+02
     -1.42517315E+03      3.25829691E+02     -1.23489478E+03
      2.64264728E+01      6.53138024E+01     -7.44637604E+02
     -1.23880398E+03      1.68268460E+03      2.27153660E+03
      3.15268323E+03     -7.27392253E+02     -1.61103233E+03
     -1.47419498E+01     -7.99339300E+01     -5.67475744E+02
     -5.22279110E+02      1.29849926E+03      5.06193558E+02
     -4.68772391E+02     -1.65167784E+02     -1.01707033E+03
     -3.22338061E+01     -1.60082700E+02      2.47102649E+02
     -5.65851755E+02      5.38123644E+02      3.33853673E+03
      8.59706888E+02      2.36595207E+03      1.92688307E+03
      1.23912572E+03     -9.29748693E+02     -2.08243482E+03
     -1.61071348E+02      7.02777142E+02     -3.24727837E+02
     -1.07874844E+03     -1.43125817E+03     -7.45357022E+02
      1.68444356E+03      1.98707404E+03     -8.95252788E+02
      4.07839688E+02     -5.35074508E+02      1.70038648E+03
      7.76257567E+01     -1.75543212E+02     -2.76361590E+02
      2.39888894E+03      2.30448422E+03      1.54034299E+03
     -1.20050894E+03      2.00915855E+03      2.10730405E+03
      1.40559954E+02      2.47072265E+02     -2.44265744E+02
      1.78134940E+03      3.22485870E+02     -1.91076396E+03
      8.72497837E+01     -1.44764169E+03      6.32284782E+02
      1.38956037E+02      4.71627701E+02      2.95702739E+02
      3.21192633E+02     -1.76122068E+03      1.38280386E+03
      5.99169871E+02      1.41344273E+03      3.96591453E+02
     -1.52513846E+02      4.12611502E+02     -4.34133158E+02
     -2.38195176E+03     -2.48083239E+03     -2.71629972E+03
     -5.04491093E+02      2.87572837E+03     -2.75317036E+03
      6.33080015E+02     -3.44592644E+02     -5.58681519E+02
      3.83885812E+03     -5.37890232E+01      8.40669081E+02
      6.00882290E+02     -1.98001103E+02     -2.07281446E+03
      5.40731658E+02      4.50661398E+02     -1.30354285E+02
      7.04072904E+02      3.09467369E+03     -1.10284529E+03
      2.27377219E+02      3.16601709E+02     -6.87394112E+01
      5.63569482E+02      3.23587471E+02      3.96210614E+02
      6.15321382E+01      2.43182825E+03      8.73514499E+02
     -8.89382148E+02     -1.58104460E+03     -2.58694731E+03
     -6.87276830E+02      3.31440991E+02     -3.30696114E+01
      2.70466532E+03      1.87084221E+03     -1.44537995E+03
      3.54715695E+02      9.13577985E+02     -1.15197582E+03
     -6.51130463E+02     -4.41234428E+02     -8.79084389E+02
      1.57925659E+03     -1.39537666E+03     -1.51319554E+03
     -3.24310327E+03     -2.10845119E+03      1.29943617E+03
     -1.32867510E+03      1.24673868E+03     -1.76359108E+03
      6.72637178E+02      1.70133955E+03     -4.45050910E+01
     -1.03785649E+03     -3.07669837E+03     -7.44714405E+02
     -9.82069348E+02      1.06028276E+02      1.20562234E+03
     -3.23846860E+02     -5.62363200E+02     -5.53252825E+02
      1.03069448E+03      2.42417478E+02      2.09805046E+02
      2.68840328E+03     -1.22349906E+03      8.54675276E+02
      4.93454041E+02     -3.14812813E+03     -8.67995534E+02
     -3.18475973E+02      9.24270792E+02      8.47162913E+01
     -1.13293682E+03      1.55992011E+03     -7.18194521E+01
      3.39900607E+03     -5.99349883E+02     -5.61207433E+02
      6.14938142E+01      3.79058720E+02     -7.97229517E+01
     -1.61877536E+03      1.60961254E+03      1.03728836E+02
      2.29584731E+02     -2.07957584E+03     -1.84583822E+03
     -4.68898654E+02     -1.44827720E+02     -2.58844152E+01
      3.40739230E+03     -2.08597851E+03     -1.08102081E+03
      2.57428414E+02      9.70138334E+02      3.20583870E+03
      1.68403896E+02     -3.86472099E+02      2.72931204E+02
      2.35273483E+03     -4.29644431E+02     -7.72789447E+02
     -2.37554307E+03      2.02735644E+02      1.24311849E+03
      6.18232365E+02     -4.11765546E+02     -1.12545385E+03
     -2.47930170E+02      1.09237625E+03     -8.15696018E+02
     -1.02884736E+03      1.70629857E+03      1.99365046E+03
     -4.08870231E+02      8.61300054E+01      2.19244300E+02
      1.34005614E+03      5.83817529E+02      2.01750540E+03
      1.45603912E+02      6.71116321E+02      7.62843865E+02
     -7.68542326E+02      5.42737412E+02     -4.71371629E+02
     -1.57076194E+03      2.53056495E+02     -1.13271648E+03
      1.61163704E+03     -6.55863711E+02      3.94057573E+03
      5.00787985E+02      7.59556390E+02     -3.49518211E+02
      1.05464027E+03     -2.70261064E+03      1.91651356E+02
      1.98831110E+03      1.56980141E+02     -5.05693778E+02
      4.83338449E+02      1.28798727E+03     -1.46895878E+03
      2.67505236E+02     -7.78385459E+02      2.45758593E+01
     -9.95082150E+00     -4.28856879E+02      9.14201769E+01
      1.08803428E+03     -1.11907877E+03      1.04437977E+03
      2.17211091E+03      1.05031100E+03     -1.20242310E+03
      7.79218053E+01      4.08486344E+02     -7.52208250E+02
      1.67094097E+03      1.08614686E+03      7.02637168E+02
     -1.23349356E+03      3.90461951E+03     -3.61418868E+03
      7.95897613E+02      8.73036241E+02     -1.58856649E+01
      9.91793294E+02     -1.59495256E+03     -9.21563570E+02
     -2.08777409E+03     -1.44079443E+03      1.02793052E+03
      3.93014627E+02     -2.78236724E+02      2.71287472E+02
      8.47645254E+02      1.30319328E+03      2.42271123E+03
      3.91151748E+03      1.81569824E+02      2.15765601E+03
     -9.31532549E+01      3.19334699E+02     -6.89931603E+00
     -1.59378593E+01     -1.46947928E+03     -1.09116695E+03
      4.94543600E+01      2.75339415E+03     -8.07840303E+02
     -3.87148278E+02      3.94431179E+02     -2.45841517E+02
      6.95512890E+02      6.89130912E+02      2.59831208E+03
      1.98661632E+03      9.73641405E+02      9.88783957E+02
      2.18346244E+02     -5.61173697E+02      4.99272936E+02
      6.41744849E+02     -1.95906076E+03      3.90026835E+03
      5.36293355E+02      1.19067981E+02     -2.48138417E+03
      6.62122408E+00      7.37184136E+01      6.92033800E+02
      1.51655956E+03     -7.08323706E+02     -1.24218965E+02
     -9.39613707E+02      3.26810861E+02     -7.87854325E+02
      5.45930833E+01      1.59664074E+01     -2.61130967E+02
     -3.11981688E+02      1.72395540E+03     -4.72718514E+02
      3.04873225E+02      3.36388068E+02      2.14491885E+02
     -1.79625882E+02      3.95122882E+01      3.64331532E+02
      3.27400746E+03      2.09253140E+03     -5.58731772E+02
     -2.02566347E+03      1.80333714E+03     -1.01698627E+03
      6.80777509E+02      6.77022573E+02      3.24112809E+02
      2.95091734E+02     -1.37262401E+00      3.61120331E+02
      2.13536350E+03     -8.26673383E+02      1.02823080E+03
     -5.06862553E+02     -2.71372230E+02      3.55070985E+02
     -5.50566289E+02      1.37101389E+03     -9.02186431E+02
     -4.04136650E+02     -9.92418007E+02     -1.05381660E+02
      8.94657210E+02      1.14037021E+03      1.51398040E+03
      1.17961992E+03     -1.69426854E+03      1.92165004E+03
      9.48533704E+02      5.97080759E+02     -3.45423058E+02
     -8.70486070E+02      2.61931444E+03      1.69688522E+03
     -5.22330144E+01      7.91177462E+02     -8.64559606E+02
      6.41250693E+02      8.73902052E+02     -5.86207980E+01
     -1.29158210E+03      2.66247698E+02     -1.49236607E+03
      2.20324468E+03      3.97114027E+02      3.83907302E+02
     -2.99191809E+02      5.29930073E+02     -6.78115548E+02
     -1.51905113E+03      2.54250653E+03     -1.29066209E+03
      1.58299500E+03      1.93428688E+03      1.63332316E+02
     -2.96819265E+02      9.13913431E+02      9.40043187E+02
     -1.27984771E+03     -2.17597522E+02     -1.49032226E+03
      2.66031816E+03      1.01976136E+03     -2.20957256E+03
      6.08491057E+02      8.56027639E+02     -2.14297528E+02
     -2.36769313E+03      2.16695892E+02      2.59895692E+02
      7.12754896E+02      1.08178931E+02     -3.97843515E+02
     -2.54110793E+02      2.14110793E+02     -6.00769031E+02
     -1.18983044E+03      2.30142880E+03      2.35023257E+03
     -6.60697441E+02      7.31312628E+02     -2.14341455E+03
     -2.23372359E+01     -4.48351220E+02     -2.43261756E+02
     -2.05939355E+03      1.65705906E+03     -2.49711060E+03
     -3.37559965E+03      1.14184381E+03     -3.65508333E+02
     -2.21826851E+02      5.85078921E+02     -4.07264715E+02
      1.69520791E+03      9.14341629E+02      1.17975419E+03
      2.62118367E+03     -5.13914439E+02     -1.15857155E+03
     -9.63642557E+02      1.05807365E+03     -3.47086595E+02
      7.67769654E+02     -5.34988387E+00      2.04719135E+02
      5.33855697E+02     -1.22657139E+03      2.38621338E+03
      2.76134407E+03     -6.12766043E+02     -1.33540986E+03
     -6.09703468E+02      1.00472534E+03      2.58307532E+02
      7.40656902E+02      9.40633464E+02      2.51552226E+02
     -1.33803984E+02     -1.89108615E+03      3.76640514E+02
     -2.23634007E+02      1.31913470E+03     -2.60784927E+03
      1.31609490E+02      1.40380075E+02     -2.78963076E+02
      1.66006638E+03      3.49119400E+02      5.19627112E+03
     -5.56935099E+02     -1.01805599E+03      1.20463604E+03
     -3.53787707E+02      4.92748402E+02     -3.21737804E+02
     -3.65597383E+02      9.21677473E+02      1.97005897E+03
     -4.07629658E+02      3.50610872E+03     -2.12095995E+03
      6.59701105E+02      9.47068855E+02      5.11965640E+02
      2.10564961E+03      4.43363482E+02     -2.47874361E+03
      5.34104003E+02     -2.05159820E+03      1.92373741E+03
      7.50037035E+01      5.65141121E+02      5.74685754E+00
     -3.35045521E+01     -8.03991054E+02      5.35182272E+02
      7.13640679E+02     -8.26770329E+02      4.40151213E+02
      3.82574011E+02     -4.30687464E+02      3.10455930E+02
      2.45450219E+03      1.64429260E+02     -3.70341366E+03
      2.35364889E+02      1.25995464E+03      2.38266539E+03
      1.14684387E+02      1.83253287E+02     -1.83613908E+01
     -6.42223999E+02     -6.57531827E+02     -4.37115560E+03
     -7.36039472E+02      5.85567603E+02     -3.07060858E+02
      2.20275399E+02     -2.39905161E+01      5.61427200E+02
     -1.57578832E+03      5.21096905E+02      1.53071952E+03
     -2.35295813E+03      1.60536475E+03      1.11670421E+03
     -8.53016617E+01     -4.76067471E+01      3.29704245E+02
      9.52943847E+02      2.45483422E+03     -1.21386857E+03
     -2.95989755E+02     -1.02349124E+03      2.63672716E+01
     -9.65304333E+02      7.59027236E+02     -4.54837197E+02
     -3.82389573E+02     -5.08294391E+02      6.33783940E+02
     -9.95515105E+02      1.09957668E+03      1.88537466E+03
      8.96927506E+01     -1.65909666E+03      1.45299804E+03
     -1.54163820E+03      4.78560152E+01     -2.14547787E+03
      8.50104292E+02     -2.08988520E+02     -5.81537460E+02
     -2.72779020E+03      1.21934533E+03      2.41561629E+03
      1.63593061E+02     -2.04184439E+03     -1.06742893E+03
      4.75875581E+02      5.99351394E+02      3.93926371E+02
     -2.76838727E+03      1.09658886E+03     -1.04286817E+03
      2.46286913E+03     -1.10398714E+03     -1.95426635E+03
      3.28942285E+02      3.43967058E+02     -7.21619863E+01
     -2.00722465E+03      2.04951746E+03     -2.71496738E+03
      5.07031058E+02      3.11471392E+03      9.98455351E+01
      7.91684309E+02      4.04177223E+02      3.77466774E+02
      5.68892060E+02      1.99170484E+03     -5.96013133E+02
      2.45232437E+03      5.61295184E+02      1.29057234E+02
     -2.50501466E+02      1.14493566E+03     -5.83215602E+02
     -7.70841587E+02      7.26847063E+02     -5.70151003E+02
      1.06363969E+03     -5.34062409E+02      3.24743236E+02
     -4.83893938E+02      5.57388269E+02      2.61650321E+02
      9.14879162E+02      5.97773755E+02     -7.23168978E+02
     -1.64422030E+03     -2.89464110E+02      1.38276918E+03
      3.89987164E+01      4.62496224E+02      2.01283832E+02
     -2.60132743E+03     -1.75473465E+03     -1.44084832E+03
     -1.10686211E+03     -5.06662396E+02      3.00697721E+02
      9.17588456E+02     -2.52377139E+02     -2.48527102E+02
      1.10451885E+03     -4.06963510E+02     -4.21407117E+02
     -1.34935377E+03      1.74174413E+03      1.41984458E+03
     -4.47991015E+02      6.75139610E+02      3.55516390E+02
      6.89376449E+02      9.08989606E+02     -2.32755482E+03
     -1.05535430E+03      3.62087146E+02      1.55769275E+03
      5.61909244E+02      1.12314481E+03     -7.89987507E+02
      4.79489927E+02     -1.54153884E+02      5.27524086E+02
     -3.85116602E+03      5.76066887E+02      6.89589579E+02
     -1.13364296E+03      3.51795211E+03      1.25009037E+03
     -1.66789087E+03      9.09458568E+02     -4.13419906E+02
  }
}

Hamiltonian = DFTB {
  SCC = Yes
  SCCTolerance = 1e-6
  MaxSCCIterations = 200
  ForceEvaluation = Dynamics
  MaxAngularMomentum = {
    C = "p"
    H = "s"
  }
  Charge = 0.0
  SpinPolarisation = {}
  Eigensolver = Standard {}
  Filling = Fermi {
    Temperature [Kelvin] = 300.0
  }
  SlaterKosterFiles = Type2FileNames {
    Prefix = "../../pbc-0-3/"
    Separator = "-"
    Suffix = ".skf"
    LowerCaseTypeName = No
  }
  KPointsAndWeights = {
    0.0000000000000 0.0000000000000 0.0000000000000 1.00000000000000
  }
  Dispersion = LennardJones { 
    Parameters = UFFParameters {}
  }
}

ParserOptions = {
  ParserVersion = 3
}
