Geometry = GenFormat {
352 S
C  H
1   1         36.41557500         30.58527200         38.54970400
2   2         36.89018300         31.59631000         38.62202800
3   2         36.10323500         30.55955000         37.42817700
4   1         37.54933100         44.83041100         38.65891700
5   2         37.19822900         43.74662400         38.41942200
6   2         22.68037200         44.78558500         39.69745600
7   1         38.72133200         45.24782100         37.74493100
8   2         23.52116500         46.32311100         37.88823800
9   2         38.47107300         45.06533100         36.74055500
10   1         24.81864400         44.60312400         38.04787600
11   2         25.06016000         44.54251400         39.09522700
12   2         25.56705400         45.34969100         37.59478700
13   1         40.35239700         43.20714700         37.42539800
14   2         40.52477400         43.46822100         36.36564500
15   2         39.45595500         42.47571600         37.58484900
16   1         26.34572100         42.48185200         37.80501800
17   2         26.33320300         42.14875200         38.89119500
18   2         27.27579600         43.12260000         37.67764100
19   1         41.89746300         41.17854100         37.02734300
20   2         42.31982000         41.35640700         36.09485400
21   2         40.91182500         40.67580600         36.91797700
22   1         42.88488300         40.20354500         37.74989900
23   2         27.30962300         39.97786700         38.87133400
24   2         28.56125400         40.71572200         37.78216200
25   1         35.18531600         30.37247800         39.43797100
26   2         34.38040700         31.06699000         38.99120900
27   2         34.82983600         29.34741000         39.49985500
28   2         35.49169300         30.62979700         40.51341900
29   1         42.99114900         38.82778200         37.10177700
30   2         42.04193900         38.22719200         37.07268000
31   2         43.37748100         38.96669300         36.06485700
32   2         43.75893600         38.21940900         37.65171900
33   1         29.75509200         31.85533100         33.21999000
34   2         30.47405700         31.34122900         33.91685600
35   2         29.63762200         32.90700900         33.58853200
36   1         30.36043700         31.94000400         31.82802800
37   2         31.30260700         32.55213800         31.92629000
38   2         29.64303000         32.61936400         31.20847700
39   1         30.71680700         30.56882500         31.26483100
40   2         30.95523500         29.82234600         32.01841700
41   2         31.62304700         30.66883100         30.67655200
42   1         29.62321800         29.85816600         30.47358000
43   2         43.91831500         29.75221400         30.91361200
44   2         29.94563400         28.85476300         30.37312400
45   1         29.51993300         30.43865600         29.03928500
46   2         30.60625900         30.56547100         28.78817400
47   2         44.30827100         31.43627400         29.15323100
48   1         44.15649100         29.49092400         28.06759300
49   2         43.06652000         29.45439400         28.35378800
50   2         44.58836800         28.50223600         28.10937000
51   1         28.91462200         29.94605800         26.69382900
52   2         29.95699500         30.24088800         26.44409900
53   2         28.29438300         30.84485500         26.58523200
54   1         43.79720400         28.90697000         40.99337400
55   2         42.71330500         28.66548800         41.03992700
56   2         44.35723600         27.93364000         41.24980500
57   1         28.48037900         31.02732700         33.29200000
58   2         27.85708100         31.24905800         34.15857200
59   2         27.76244100         31.30030300         32.52899800
60   2         28.66023500         29.96479000         33.24528100
61   1         28.85332000         29.22469400         39.52391600
62   2         28.55838800         28.42447000         38.85511700
63   2         28.44730800         30.15971100         39.15811100
64   2         29.96561400         29.44049200         39.47147100
65   1         36.95031200         38.95335700         36.58942100
66   2         36.35521100         39.00182800         37.53030000
67   2         36.22423000         38.48362700         35.89847000
68   1         37.29201200         40.38458000         36.07254400
69   2         37.69667300         40.21222400         34.97776800
70   2         38.07305900         40.95969500         36.60600000
71   1         36.06011400         41.21091000         35.93850500
72   2         35.52506500         41.21710400         36.90319900
73   2         35.35193500         40.64453000         35.33241200
74   1         36.34626500         27.28224500         35.32307700
75   2         36.97922100         27.09369100         34.47370900
76   2         36.89152000         27.95969000         35.98142000
77   1         35.11963700         27.96973500         34.84698600
78   2         34.54344500         43.67243500         35.72013400
79   2         34.41599000         42.61110100         34.34248100
80   1         35.37360600         29.20226600         33.86507800
81   2         36.24418800         29.79693700         34.28141200
82   2         34.48066800         29.81462400         34.02531800
83   1         35.58126200         28.76445800         32.35672700
84   2         35.97736500         27.73269700         32.25046700
85   2         36.31337100         29.41168200         31.84568200
86   1         34.31524700         28.88645400         31.53343400
87   2         34.57578100         28.93833900         30.40655400
88   2         33.86439100         29.90068000         31.58491500
89   1         38.23482400         38.08742500         36.77792800
90   2         38.94204200         38.34121600         35.98814300
91   2         38.66175100         38.35168200         37.74044600
92   2         37.82917500         37.06703400         36.78684100
93   1         33.25430600         27.83372100         31.77296800
94   2         32.59626400         28.12556400         32.62370500
95   2         32.57936800         27.68498900         30.95438000
96   2         33.73920400         26.80240700         32.10267000
97   1         30.75021500         39.92497300         40.20742300
98   2         29.77662900         39.85828000         40.75610300
99   2         31.46436600         40.33105600         40.97512400
100   1         31.14295600         38.45154400         39.99824000
101   2         32.12706500         38.37260300         39.57335000
102   2         30.47977000         37.87239500         39.25443100
103   1         31.25807400         37.72996600         41.37132300
104   2         31.07995600         36.62329200         41.23549600
105   2         30.51490300         38.07688700         42.06328200
106   1         32.58147700         37.94573200         26.75378300
107   2         32.67693000         38.93482200         27.20733500
108   2         33.43652900         37.82760800         26.10840000
109   1         32.96344900         36.92653100         27.88979200
110   2         34.06422900         36.96559000         28.11351100
111   2         32.81924700         35.91776100         27.43404700
112   1         32.19864600         37.07880400         29.22055700
113   2         31.15802100         37.07851500         28.92778200
114   2         32.46551100         38.06824400         29.59945900
115   1         32.45657000         35.98048800         30.25210900
116   2         33.42822400         36.15661500         30.62619800
117   2         32.31252700         35.04577000         29.74083000
118   1         31.42217000         36.00867400         31.44948700
119   2         31.32023900         37.05384200         31.84912900
120   2         31.71228600         35.39461800         32.29807800
121   1         30.79292100         40.80840800         38.98226600
122   2         31.79423000         41.30930100         38.89763000
123   2         30.65177900         40.21578500         38.07904500
124   2         30.02908800         41.60120200         39.04652400
125   1         30.04380600         35.42394600         31.12870300
126   2         30.15059700         34.36094800         31.05752000
127   2         29.35743200         35.62473400         31.95876400
128   2         29.58361700         35.72307500         30.19788900
129   1         35.36178700         39.74098300         30.62145000
130   2         35.18981500         38.83297600         30.01164700
131   2         34.30159300         39.96243400         30.80934800
132   1         36.08420900         39.50061500         31.99903200
133   2         36.06464800         40.44091500         32.54888500
134   2         37.16140700         39.29623700         31.97443000
135   1         35.43696700         38.39990300         32.89184500
136   2         36.19448400         38.19485500         33.68539100
137   2         35.46816000         37.49813700         32.35536300
138   1         34.12160100         38.70456400         33.57907000
139   2         33.22587800         38.73589400         32.91015600
140   2         34.18315500         39.74233800         33.96553100
141   1         33.93064800         37.77397500         34.80180000
142   2         34.91183900         37.60491900         35.27794400
143   2         33.73374400         36.72983200         34.39978200
144   1         32.91866800         38.16980700         35.90126200
145   2         33.10322200         39.27877700         36.13014200
146   2         33.20691600         37.73454300         36.85298800
147   1         31.41414100         37.92793900         35.69799800
148   2         31.04878900         38.40166000         34.81094600
149   2         30.76340900         38.41390800         36.54821300
150   1         31.09028500         36.41764900         35.57250100
151   2         31.73609500         35.84670800         36.26274500
152   2         31.38391400         36.13014500         34.52211600
153   1         35.91467900         40.87194100         29.73976600
154   2         35.49220300         25.64819900         28.71631500
155   2         35.71621200         41.78618800         30.35910400
156   2         36.97986600         40.75733200         29.67556600
157   1         29.60786200         36.02706100         35.75535900
158   2         28.96074600         36.63608100         35.21609600
159   2         29.52161100         34.95608200         35.54552200
160   2         29.20396300         36.13539300         36.75062300
161   1         40.48181800         29.40749700         30.65529800
162   2         40.97715800         29.83555700         31.53993300
163   2         41.35558700         28.77708700         30.34799000
164   1         39.25205200         28.53105900         30.97650400
165   2         38.92070000         28.07732800         30.04042600
166   2         38.43699000         29.25630200         31.09335500
167   1         39.21595800         27.57487700         32.08432200
168   2         38.13688900         27.25474300         32.27552500
169   2         39.54356100         27.99034200         33.02893800
170   1         40.00844400         26.19422800         31.86599400
171   2         41.04624800         26.37281000         31.68256500
172   2         39.65325800         25.72837000         30.96949100
173   1         39.77391700         40.56844700         32.99802700
174   2         38.80895000         39.85759300         32.79777600
175   2         39.51769200         25.70763000         33.96038300
176   1         40.96307400         39.53258200         33.41954500
177   2         40.56743500         39.17355500         34.38417400
178   2         41.83405600         40.12085600         33.68915600
179   1         41.29856000         38.42458000         32.40998900
180   2         41.77384700         38.95074000         31.51489300
181   2         40.41392900         38.03399300         31.92859200
182   1         42.14590500         37.22063700         32.97047200
183   2         42.99591000         37.71418800         33.58194600
184   2         42.68052600         36.75186500         32.14236500
185   1         40.25839400         30.40592000         29.53165800
186   2         39.86336600         29.93219700         28.57194800
187   2         39.60105900         31.21521900         29.84950400
188   2         41.12844000         30.95461800         44.65630900
189   1         41.30683500         36.19528200         33.74730800
190   2         41.13319700         36.53227800         34.80478900
191   2         40.34965000         36.05080700         33.28497600
192   2         41.79789400         35.17836200         33.75469900
193   1         32.60972800         27.30609700         42.70904600
194   2         32.28815400         28.29842100         42.97322100
195   2         31.94122000         42.14034900         41.87215700
196   1         34.02774900         27.49175200         42.04890000
197   2         34.83273200         27.77729300         42.79901500
198   2         34.01187300         43.68455900         41.38229200
199   1         34.51752900         26.30982500         41.24479700
200   2         33.80930000         26.05724200         40.40545900
201   2         34.66214000         25.37315500         41.87033600
202   1         35.89831900         26.46641300         40.56278400
203   2         35.66728200         26.92542500         39.58815200
204   2         36.30157700         25.47881300         40.33621500
205   1         37.04739500         27.24041300         41.35405000
206   2         36.88659700         26.94306200         42.47237600
207   2         36.87423100         28.38815000         41.18971300
208   1         38.44518900         26.93159600         40.82980100
209   2         38.45792500         27.01451700         39.68299000
210   2         38.66548700         25.86567000         40.96691400
211   1         39.59500900         43.03635400         41.44220700
212   2         39.25908000         44.10198000         41.55678500
213   2         40.48285400         43.13522200         40.76339800
214   1         40.14559700         42.43227600         42.78315600
215   2         39.33251300         42.26084000         43.47731900
216   2         40.86684400         43.16700800         43.28284200
217   1         32.48985100         26.40843000         43.89720900
218   2         31.53297500         26.45763100         29.10578500
219   2         32.73463700         25.33017400         28.31835800
220   2         33.18008700         26.71578800         44.69088700
221   1         40.87087700         41.08918200         42.54258900
222   2         40.53044200         40.50168600         41.68484200
223   2         41.95739000         41.32678600         42.55193300
224   2         40.74636400         40.52709800         43.46535000
225   1         30.88362900         44.20964400         36.49491800
226   2         29.92226900         44.56420500         36.68018100
227   2         30.90048600         43.30099600         37.19113100
228   1         30.93055500         28.40263200         35.04672200
229   2         31.86901600         27.88268200         34.83256900
230   2         31.06433700         29.22551400         34.30488500
231   1         29.68539000         42.81024800         34.66785900
232   2         28.77195900         43.43339900         34.87705100
233   2         29.60238000         42.02324400         35.44661700
234   1         29.78006000         42.13457700         33.27766400
235   2         30.01098400         42.89434600         32.58337700
236   2         28.74770600         41.82666800         33.01343300
237   1         30.68690100         40.90927800         33.21248500
238   2         30.29756700         39.99288200         33.71729400
239   2         31.70210700         25.72613100         33.61726500
240   1         30.81946000         40.50001600         31.72185600
241   2         31.47554500         24.24924200         31.70209100
242   2         31.27113300         25.97736600         31.12005000
243   1         29.48529000         40.13912500         31.02683000
244   2         28.80793500         41.02276700         31.03560400
245   2         29.06048800         39.34314700         31.63575300
246   1         29.64957500         39.69247100         29.60279300
247   2         30.50196100         38.84861000         29.52066700
248   2         29.98939000         40.54502000         28.92721400
249   1         32.03786300         29.84974300         36.79863900
250   2         32.33820200         29.93337000         37.86098800
251   2         32.97807200         29.45489100         36.41230800
252   2         31.87882400         30.84763500         36.38295700
253   1         28.33163200         39.18873700         29.01166600
254   2         27.88026100         38.30286900         29.44644000
255   2         27.47707500         39.87054600         29.09246900
256   2         28.51828900         38.93751300         43.28209500
257   1         42.00394700         37.04010900         40.50976500
258   2         43.06614100         37.36083300         40.66681000
259   2         41.47752900         37.92468600         40.13783200
260   1         42.04480600         35.91746600         39.48968700
261   2         42.42352600         35.01596500         40.00613200
262   2         42.73886700         36.27803900         38.75748000
263   1         40.79891400         35.58780200         38.76219100
264   2         40.29023000         36.52727600         38.48171900
265   2         40.08928200         35.07041800         39.48052200
266   1         40.95877100         34.68898900         37.57780600
267   2         41.38238400         33.70912700         37.94827800
268   2         41.79274000         34.89116800         36.90889800
269   1         39.63417300         34.43782900         36.86346700
270   2         39.35863000         35.36695000         36.35990400
271   2         38.82477900         34.23658900         37.56055700
272   1         39.74530300         33.27385100         35.86935600
273   2         40.31463100         32.42536500         36.31619800
274   2         40.34071400         33.66744100         35.05714500
275   1         38.39218000         32.91327600         35.32541600
276   2         37.93680500         33.89000100         35.04912400
277   2         37.76763900         32.37581600         35.97858000
278   1         38.36256800         31.97549800         34.05580300
279   2         37.35132200         31.53535600         33.85351100
280   2         39.14330900         31.21689900         34.04715200
281   1         41.49362500         36.60649800         41.86716600
282   2         42.27583600         35.84323300         42.20617300
283   2         41.43450500         37.46657300         42.54304300
284   2         40.52934900         36.10477500         41.85088800
285   1         38.80511200         32.77603900         32.86308600
286   2         39.24170300         32.09044000         32.07583600
287   2         37.93245900         33.31399600         32.33730600
288   2         39.64146900         33.51281600         33.09191400
289   1         31.33579500         33.26724200         39.03337900
290   2         31.94062100         34.12000500         38.70427500
291   2         31.91279400         32.42431800         38.58957900
292   1         31.37930200         33.25448200         40.51651800
293   2         31.09235700         32.23079200         40.79555600
294   2         30.68182000         33.91479700         41.09407200
295   1         32.81325100         33.38043300         41.05927600
296   2         33.12025100         34.46864700         40.90535900
297   2         33.57110500         32.86163100         25.11509800
298   1         33.09696200         33.16231500         27.19990100
299   2         32.32194400         33.67885100         43.14352800
300   2         34.03292000         33.67257900         27.50808200
301   1         33.12910100         31.71656000         27.66285300
302   2         33.68681600         31.02462700         26.99091500
303   2         32.13128900         31.25074000         42.93469200
304   1         33.66715000         31.52782700         29.03034900
305   2         33.57209400         30.54325900         29.36135900
306   2         33.03586300         32.02285500         29.78672200
307   1         35.14258100         32.00160400         29.39876300
308   2         35.34183200         31.45885800         30.41747800
309   2         35.18456800         33.07654300         29.64275000
310   1         36.31139100         31.76811500         28.47896600
311   2         37.21815600         32.17207200         28.98080700
312   2         36.23034600         32.37078900         27.61910600
313   1         29.95492600         33.24760800         38.36505500
314   2         29.31227700         32.43518400         38.70522300
315   2         29.45920000         34.15699200         38.55921600
316   2         29.98984300         33.09686600         37.28733600
317   1         36.57044400         30.34419900         28.11893100
318   2         35.72281300         29.97146400         27.52948700
319   2         37.43878500         30.30121800         27.41620400
320   2         36.70422500         29.56397600         28.90481600
321   1         37.30995200         37.26482900         27.19999400
322   2         36.28634600         37.31674700         27.68337800
323   2         37.96437700         36.97104700         28.10327200
324   1         37.41691300         36.20944100         41.41226900
325   2         37.61759700         35.22086700         41.79704800
326   2         38.31729600         36.42543100         40.75291700
327   1         36.12920900         36.04245400         40.62814800
328   2         35.93945700         37.06094200         40.20403300
329   2         35.24534200         35.83604700         41.26958100
330   1         36.32901300         34.94696100         39.47205100
331   2         36.26617400         33.99190200         40.11533100
332   2         37.37427200         35.04874800         39.10280200
333   1         35.28380000         35.16736100         38.38147500
334   2         35.58782600         36.07576400         37.71776900
335   2         34.30863500         35.46426700         38.88853600
336   1         35.10328800         33.94066000         37.40211500
337   2         34.76088400         33.06227500         37.91230600
338   2         35.99862300         33.71529600         36.87540100
339   1         34.06347300         34.27266700         36.31432200
340   2         34.25540700         35.27567600         35.96689700
341   2         33.00179700         34.28758900         36.75895700
342   1         34.10052800         33.28188300         35.15633100
343   2         33.79027800         32.32408100         35.53068200
344   2         35.06690900         33.15745600         34.52395000
345   1         37.71736800         38.67815400         26.77836800
346   2         36.94426000         39.28257200         26.26648400
347   2         38.01225500         39.25843900         27.65421100
348   2         38.58844000         38.76701000         26.09319100
349   1         33.12462300         33.75019800         34.11189900
350   2         32.16173400         33.54880900         34.41294800
351   2         33.17130900         34.79508400         33.95353800
352   2         33.33008300         33.20908700         33.15155300
0.00000000          0.00000000          0.00000000
15.32620600          0.00000000          0.00000000
0.00000000         15.32620600          0.00000000
0.00000000          0.00000000         15.32620600
}
Driver = VelocityVerlet {
  Steps = 100000
  TimeStep [fs] = 0.2
  MDRestartFrequency = 5
  Thermostat = None {}
  Xlbomd = {
    IntegrationSteps = 6
    MinSccIterations = 2
    MaxSccIterations = 200
    SccTolerance = 1e-6
    PreSteps = 0
  }
  Velocities [m/s] = {
-8.07683092E+02     -5.15339302E+02     -9.53651191E+01
2.18734715E+03     -5.71050754E+02     -4.45615847E+03
-8.50117381E+02     -1.02257174E+03     -1.98215845E+03
-4.69522478E+02      2.32728950E+02      1.97071571E+02
2.81390854E+03      7.58605429E+02     -3.98234266E+02
7.13620915E+02     -4.31477327E+02      2.49236458E+02
5.67746240E+02      2.72483171E+02      5.99889450E+01
-6.26534269E+01     -2.63458517E+03     -6.89955993E+02
-1.06292668E+03     -3.00366539E+03      7.41914168E+00
-3.07521777E+02     -6.09137134E+02      6.96422544E+02
2.04806343E+03      1.16518370E+03     -1.83612678E+03
-1.00587335E+03     -2.49686430E+03     -1.32560716E+03
2.99032060E+02     -6.32119596E+00     -2.71741457E+02
3.51424463E+02     -9.17219626E+02     -5.99181086E+02
1.67859445E+03     -1.10777790E+03      1.05670140E+02
7.47453459E+02     -6.50779503E+02      5.20655716E+02
2.23026387E+02     -1.53839697E+03      9.60742622E+02
-7.41452157E+02      1.76785041E+03      1.48487093E+03
3.55844704E+02      5.76286864E+02     -5.76133124E+02
5.15754535E+02     -1.55021747E+03     -2.65405152E+02
-3.24881111E+03     -1.57103892E+02     -7.94367362E+02
3.30278177E+02     -9.66864054E+02     -3.03988031E+02
3.07901749E+03      2.86883323E+03      1.58864667E+03
1.16775963E+03     -1.46543918E+03     -9.52372340E+02
4.78126541E+02      1.72261036E+02     -7.66212280E+02
-8.93848498E+00      8.59703671E+02     -7.24408724E+02
-9.59856590E+01      1.16642904E+03      3.55639117E+03
-6.17849694E+02     -1.09231933E+03      2.05725443E+03
1.60451343E+01     -2.68696751E+02      3.23149068E+01
9.35169411E+02      9.99213794E+02     -2.09434371E+03
-1.47810536E+03      4.84237069E+02     -4.47637548E+02
-2.51575132E+03     -2.43131916E+02      1.59420287E+02
2.41967184E+00     -2.57908122E+00      3.06334562E+02
-3.00533082E+03      8.12170150E+02      2.47008101E+03
1.63593363E+03      4.55277960E+02      6.44623195E+02
-3.51760836E+01      8.35621189E+02     -5.35886808E+01
-3.18581395E+02      7.34307232E+02      8.91192890E+02
7.09491185E+02      1.10979617E+03      1.03865999E+03
2.42515869E+03     -8.75802421E+02      1.23493936E+04
3.46701496E+02      2.92830375E+03     -2.28977637E+03
-7.02792270E+02     -1.29249865E+03     -2.58373338E+03
-7.26425148E+01      4.09301079E+02      5.84646294E+02
-5.49984330E+02     -1.20880243E+02     -8.92411300E+02
1.88364607E+02     -1.16868841E+03     -6.04862307E+02
1.14011322E+03      3.06751888E+02      1.03814197E+02
2.71671392E+03      4.02179436E+02      1.91129235E+03
-9.66534657E+02     -4.07814214E+02      3.51950033E+03
9.96331635E+01     -4.94097517E+02      3.81865082E+02
-1.06797692E+03      2.02897688E+03      5.86077521E+02
-1.49755746E+03      2.27497184E+03      1.16005277E+03
-5.26521178E+02      4.65803910E+02     -5.80136185E+02
-2.82565456E+03      3.94120131E+02     -5.52692704E+02
-1.12265861E+03     -1.93351214E+03     -4.87619268E+02
-1.03635701E+02     -3.18728407E+01      4.41561243E+02
2.43710584E+03     -1.91630734E+03      7.60198483E+02
1.37149994E+03     -2.49063774E+02     -3.90986763E+03
9.25456654E+02     -9.54152943E+02     -2.35763702E+00
-1.29855140E+03      3.32090015E+01     -4.65768424E+02
-2.31756576E+03      1.51364383E+03     -1.15677165E+03
-1.23115472E+03     -1.25410972E+03     -1.20671903E+03
-5.11710725E+02      5.44601085E+02      3.16779822E+02
-1.36054444E+03     -7.55459760E+01      7.83621967E+02
1.49724841E+03      8.19797320E+00      1.85249783E+03
-3.21878541E+03      2.00634490E+02     -1.82312957E+03
9.35832624E+02     -8.46878982E+02     -7.45727155E+02
1.66141156E+03      1.24073533E+03      1.44338761E+03
-5.29426896E+02      6.03956414E+02     -5.37474220E+02
-2.59060510E+02     -1.74818366E+02     -9.42672880E+01
2.85589895E+03     -5.76002740E+02     -2.14904840E+02
2.17620899E+03     -3.51779688E+02     -2.58610569E+03
2.76381194E+02     -6.47019835E+01      3.56918960E+02
-1.31680770E+03      1.28366114E+03      6.55827799E+02
-1.33035052E+02     -1.43097786E+03      2.39520027E+02
5.47647899E+02     -2.44995360E+01      8.12161379E+01
-2.00744996E+03      1.38845123E+03     -9.75387063E+02
1.06984588E+03      4.20366713E+00     -1.76464560E+03
-1.98148138E+02      7.19240503E+01      2.92234943E+02
9.08987074E+02      1.44435963E+03     -2.00321926E+03
-3.97533482E+02     -1.64085000E+03      7.12401876E+02
4.67513867E+01     -1.04294702E+03     -9.84154332E+00
4.57456715E+02      7.97222212E+02      8.92619934E+01
1.13422194E+03      4.11245367E+03     -2.67298838E+03
3.02428352E+02      7.05767028E+02      4.15081856E+02
-8.15479413E+02      9.80150356E+02      1.37730840E+03
-5.92635888E+02     -1.72047831E+03     -1.37267657E+03
2.43619740E+02     -4.55767382E+01     -6.66909484E+02
-3.75049395E+03      2.94692046E+03      3.30022681E+03
2.88120185E+02      5.77427325E+02      1.26247618E+02
-3.38087175E+02      2.19453316E+02      8.71641398E+00
-1.75646099E+03      2.28028208E+03      1.40056018E+02
-1.22032794E+03     -2.75352044E+03     -1.40718002E+03
1.44468769E+03     -1.14598662E+03     -3.63597549E+02
-5.16134612E+02     -1.18906859E+01      4.12387802E+02
1.56838407E+02     -2.17673947E+03     -2.14709536E+03
2.56179306E+03      1.30867375E+03      2.43830056E+03
3.58163480E+02      8.84890467E+02     -3.93744613E+02
-8.04377232E+02     -1.30649110E+02      1.24811609E+02
-3.78718150E+03      7.20661512E+02     -2.21253802E+03
-6.70280033E+02      1.63882609E+03      5.95689747E+02
3.39780234E+02      5.22812547E+02     -4.44068626E+02
-1.44561918E+03     -4.37358063E+02      2.60288583E+02