Geometry = GenFormat {
<<< "system.gen"
}

Driver = VelocityVerlet{
  Steps = 50000
  TimeStep [fs] = 0.2
  MDRestartFrequency = 5
  Thermostat = None {
    #InitialTemperature [Kelvin] = 300.0
  }
  Xlbomd{ 
    IntegrationSteps = 6 
    MinSccIterations = 2
    MaxSccIterations = 200
    SccTolerance = 1e-6 
  }
  Velocities [m/s] {
     -8.83172235E+02      9.80540561E+01     -9.17599947E+01
      1.88067409E+03      1.06130343E+03      1.14153577E+03
     -3.27196243E+02     -1.88457805E+03      5.31545547E+02
     -6.92643659E+02      4.13654755E+02      2.86100949E+01
     -1.18304198E+03      5.12819535E+02     -6.74732296E+01
     -4.49331270E+02     -2.10632699E+03      7.76372384E+02
     -5.24667505E+02     -1.78982524E+02     -1.47300912E+03
      1.04192790E+03     -1.13409679E+03     -3.31034365E+02
     -1.47919485E+03     -9.92197007E+02      1.30636835E+03
      4.51139739E+02      1.21340472E+03     -5.24650911E+02
      1.24780254E+03      6.84058800E+02      9.67979964E+02
      1.03648358E+03      1.19464995E+03      2.20165490E+02
     -1.31699972E+01      1.12269288E+03     -3.48233233E+02
      1.84340347E+02     -4.22079971E+02      1.00788662E+02
      3.07928452E+02     -2.44199809E+03      1.10242140E+03
     -6.41382891E+02     -5.29172445E+01      1.03651861E+02
     -2.01449176E+03     -6.53691376E+01     -4.84925435E+02
      6.21345095E+02     -1.54950324E+03     -8.58718817E+01
      5.33457879E+02      2.65500379E+02      6.99119072E+02
     -1.86551173E+02      1.57515810E+03      5.62523520E+02
     -6.71685994E+02      1.05506969E+03     -7.95782528E+02
     -8.01258060E+02     -4.93513571E+02     -6.86005817E+02
      2.63827769E+02      8.81013509E+02     -6.29416713E+02
      2.54686496E+02      1.44765490E+02     -1.89755331E+03
      1.79620015E+02      6.82382449E+02      3.42724301E+02
     -8.37196882E+02      4.25867562E+02     -5.52345983E+02
      2.12355687E+03     -3.42648273E+03      2.08504610E+03
     -9.50207599E+02      2.28913250E+03      1.57258708E+02
     -6.81488547E+02     -2.49442192E+01      4.11916567E+02
     -9.10203135E+02      1.13322127E+03     -1.57816239E+03
     -3.16029691E+03      2.46194899E+03      4.67669842E+02
     -6.88724336E+02      1.72335123E+03     -1.13244786E+02
     -6.10930927E+02     -2.35583183E+02      4.18059131E+02
      7.66448441E+02     -7.79085604E+02     -2.29955820E+03
     -4.37824137E+02     -5.65220046E+02      1.09354012E+03
     -2.94845373E+02      3.08268152E+02      1.85578723E+02
     -4.85007733E+02     -1.11571761E+03     -1.10026712E+02
     -4.18887151E+01     -3.85306460E+02     -1.71399198E+03
     -7.66764675E+02     -1.62022634E+02     -3.86007493E+02
     -3.12511165E+03     -2.60189763E+00     -1.67189033E+03
      7.63189097E+01      2.07306318E+03      9.66966035E+02
     -1.22839178E+02      5.08902853E+02      2.54137972E+02
     -6.08701345E+02      4.25639670E+02     -7.13379739E+02
      8.63509583E+02      1.62147091E+03     -3.17037016E+03
      3.41303813E+02     -7.15267617E+01      6.97295700E+02
      7.89709935E+02      3.22157456E+03     -1.48880727E+03
      4.59895374E+02     -7.51126361E+02      6.24489897E+00
      6.92723593E+01     -1.81864777E+02      1.92637557E+02
     -1.52246191E+03     -2.76389561E+03     -1.86670339E+03
     -1.80753935E+03      6.01811015E+02     -1.03523585E+03
     -7.36289384E+01     -6.54549963E+01     -1.11012187E+02
      1.32948617E+03     -6.26802857E+01     -3.12130542E+02
      8.81379837E+02     -1.64841578E+03      1.98772044E+02
      3.70543011E+02      5.29411094E+02      1.32621943E+02
     -1.36311474E+03      1.38377453E+03     -1.20191809E+03
     -1.12242727E+03     -2.57841327E+03      9.90534931E+02
      7.92836783E+01     -3.73111932E+02     -1.23842915E+02
      1.95452744E+02     -8.10414668E+02     -1.87200272E+02
      2.12820251E+03      1.41775748E+03      1.78830689E+03
      1.26860291E+00      9.82670462E+02      4.73949580E+02
     -7.26928678E+02     -3.74015528E+02      2.12157699E+02
     -1.29422640E+03      1.32413977E+03      1.87862481E+03
      8.23539873E+01      2.03501568E+03     -2.92360396E+02
      4.45361986E+02     -9.74265431E+02      7.76704391E+02
     -1.00134831E+02      2.73121634E+02     -5.13251667E+01
      1.38594226E+03     -6.29006945E+02     -1.14142331E+03
     -4.59463940E+02     -2.06872591E+03     -1.44361911E+03
     -1.10701470E+02      1.36220368E+02     -1.62545656E+02
      1.19049224E+03     -2.94925713E+03      1.13173667E+03
     -6.77475900E+02     -1.57454963E+03     -2.17466008E+03
      3.41199654E+02     -7.91851349E+02     -6.29150134E+02
     -1.39998058E+03      2.56913054E+03     -2.28334963E+03
      4.27084943E+03      1.34646472E+03      3.32048342E+03
      3.32868726E+02      5.26996156E+02     -1.26453278E+02
      2.12596362E+03      2.98716861E+02     -2.31444617E+03
      5.26840392E+02     -1.58865449E+02     -1.02959063E+03
      2.64637678E+02     -1.86765481E+02      2.38509518E+02
     -2.38133364E+02      2.13680344E+02      1.22660327E+03
     -5.07831957E+02     -2.26013131E+02      1.03615576E+03
     -5.89943750E+01      4.30863219E+02     -4.76401459E+02
     -6.53136894E+02     -3.16991593E+03     -5.99134198E+02
     -2.84560703E+02      1.04180539E+03     -1.46978988E+03
     -2.21515758E+02     -7.72671205E+02     -2.78062824E+02
      1.01567162E+03      7.30560922E+02      1.18126957E+03
     -2.72826551E+02     -1.25860124E+03     -1.26772976E+02
      1.69371498E+04     -5.62661635E+03      1.25365722E+04
     -1.47525314E+03      7.88646837E+02      3.39282495E+02
     -1.63953612E+03      3.20685168E+03     -5.51087891E+02
      8.34475533E+02     -1.38631660E+02     -1.52071457E+01
      1.47353517E+03     -2.97901978E+03      2.33359388E+02
     -1.93604302E+03      1.73506808E+03      4.02271432E+02
      1.50406178E+03      1.56562897E+03      9.37067994E+02
     -2.31297110E+01      3.57547413E+01     -6.78639080E+02
     -2.50173701E+03      9.54115469E+02      7.45304690E+02
      2.42188638E+02     -8.21294413E+02      1.19399894E+03
     -7.31281749E+02     -2.45009494E+02     -4.40087074E+01
     -3.31358201E+02     -5.11763283E+02     -5.04835105E+02
     -3.17262612E+02     -2.69575747E+03      1.95787134E+03
      4.20214682E+02      2.74683803E+03     -1.50217132E+03
     -6.30401456E+02     -5.21741173E+01     -4.09683495E+02
     -9.53423126E+02      1.66927050E+03      5.37968306E+02
     -8.40611781E+02      5.01158672E+03      1.99442810E+03
      4.82543306E+02      4.40382747E+02     -3.02818284E+02
      1.45118765E+02     -1.20202134E+03     -5.10141471E+02
      1.45812128E+03     -7.32689522E+02      6.13268292E+02
      1.75321174E+02      5.15532263E+02     -6.80489513E+02
      1.97042165E+03     -1.20903379E+03      4.03538476E+02
      3.91512133E+02     -1.49143784E+03     -1.16943238E+03
     -6.95820806E+02      5.35577432E+02     -7.95098202E+01
      5.78596176E+02      3.85354850E+01     -1.08514707E+03
     -1.42447752E+03     -1.03943855E+03      1.27322169E+02
      1.55993781E+02     -1.19031640E+02     -7.51876397E+02
     -1.01800583E+03      1.94495615E+03     -2.07852081E+03
     -2.06473198E+03      1.61152185E+03      1.37312470E+03
      1.54184691E+02     -6.20238117E+02     -2.72393524E+02
     -1.03348738E+03      1.82689867E+03     -3.09643964E+02
     -1.63256641E+03     -1.92306712E+03     -1.15233590E+03
      5.26157983E+02     -5.59087498E+02      2.17077178E+02
      6.67666784E+02      1.68898373E+03      7.24725391E+01
     -4.14802938E+02      4.25176091E+02     -6.56909795E+02
     -2.75953520E+02     -3.23898380E+02      8.17265782E+02
     -1.19215550E+03     -3.88665991E+02      1.91606832E+03
     -1.37848725E+03      1.45530874E+03     -1.42591573E+03
     -1.12078438E+03     -4.63986595E+02     -1.85143450E+01
      4.20074242E+02      2.09855750E+01      1.27783201E+02
     -6.99896651E+02     -1.38182850E+03     -3.88563688E+03
     -3.39428337E+03     -1.99843553E+03      8.83641291E+02
     -5.84636897E+02      6.42394944E+01      5.69218103E+02
     -7.40326363E+01     -5.64587600E+02     -8.57127613E+02
     -2.72609082E+03     -9.13675298E+01      2.00601318E+02
      3.84011469E+02      1.94426496E+02     -1.24934328E+02
      5.14501774E+02     -2.23740356E+02      2.44310120E+02
      1.53436005E+03     -2.16357905E+02      1.30161337E+03
      5.44593634E+02     -1.98779384E+01     -9.40577181E+02
      1.49295041E+02     -3.45732250E+02      2.71629632E+02
     -1.23065209E+03      8.13463283E+02      1.50634898E+03
      2.62337885E+02      1.58592349E+03     -3.96438880E+03
      4.41229135E+02      2.97077000E+02      9.55021706E+02
     -3.67701161E+02      1.32381837E+03      1.15608752E+03
     -1.37987414E+03      3.26777619E+03     -5.19151078E+01
     -3.32369752E+02     -1.05510608E+02     -2.64371905E+02
     -4.93086968E+02     -1.01573869E+03     -4.60334076E+02
     -6.28617930E+01      1.22743756E+02      2.90268394E+03
     -2.83456687E+02      3.59833925E+02      6.37126559E+02
     -2.24748063E+02     -1.50836098E+03     -5.06824606E+02
     -1.11029562E+03     -2.41772324E+03     -1.65213760E+03
     -1.52975070E+02     -2.44959295E+02     -7.83198111E+02
     -2.11120975E+03     -2.30550664E+03     -1.14303132E+03
      1.92918100E+03     -3.71796225E+02     -2.59866011E+03
     -2.96097852E+02     -4.29438453E+02      5.26077313E+01
     -1.99111005E+03     -4.36632892E+02      1.19960675E+02
      6.57217105E+02      3.23899831E+01      1.38689248E+03
      2.11106617E+02     -1.30021801E+02      4.97697541E+01
      4.92065995E+02      1.46751970E+03     -5.87936653E+02
      1.19596571E+02     -1.63721243E+03      8.73678037E+02
     -5.72408570E+02      2.02516522E+02      5.91181405E+02
     -3.41311084E+01      1.03560448E+03      5.39125076E+02
     -2.46216952E+03      3.28854659E+02     -1.32784385E+03
     -2.68008950E+03      3.41810606E+02     -6.79256976E+02
     -1.91678361E+03      1.72527257E+03     -1.86375690E+03
     -1.59054609E+02      4.91929690E+02     -1.46854533E+02
      1.65196606E+03     -3.59984308E+02      5.09719771E+02
      1.45361024E+02     -1.11317187E+03     -2.02820303E+03
     -9.05251029E+00     -2.26909966E+02      4.63662973E+02
      2.13125333E+02      2.66935808E+03      1.30657933E+03
      4.13583491E+02     -1.12515161E+03     -3.26523426E+02
     -1.06777370E+02      9.79891110E+01     -6.87505945E+02
     -6.02809428E+02     -2.47903159E+03      1.05033455E+02
      5.61311315E+02      2.22287668E+03      4.91428295E+01
     -4.31607342E+01      5.62454877E+02     -4.79035945E+02
      7.47082306E+02      8.32248075E+01     -1.26681049E+02
     -4.90330406E+02     -1.55844842E+03     -3.42070927E+02
     -1.46135807E+02      2.37734009E+02      4.46661765E+01
      9.87893524E+02     -7.85092390E+02      1.40929042E+03
     -4.71940825E+02     -3.43617707E+02      1.81500021E+03
      5.74676215E+02      3.66648105E+02      1.52845750E+02
      7.78439412E+02     -8.90769213E+02      5.07018968E+02
     -5.30000630E+02      6.55235671E+02     -6.10866798E+02
      1.17652865E+02      4.22768396E+02      7.35210744E+02
     -4.13142402E+02      1.04042835E+03     -1.99653161E+03
     -5.29425597E+02      1.77775352E+03      4.00596983E+02
     -2.47821017E+02      5.27811134E+02     -2.35734063E+02
     -1.12469698E+03     -1.89248031E+03      1.49834320E+02
      3.28207643E+03     -2.39307032E+03      1.14956374E+03
     -3.80308790E+02     -7.29190388E+02     -3.85529463E+01
      1.10996785E+03     -8.95495789E+02      3.52928354E+02
      6.71227534E+01     -4.37466669E+02      1.33399269E+03
      6.37214992E+02      2.90293438E+03      2.31431539E+03
      2.82175104E+02      1.64473517E+02      4.40063385E+01
      1.88351933E+03      9.26401949E+02     -1.08363511E+03
      5.66580720E+02      2.25722425E+03     -2.87296193E+03
     -2.83176583E+03     -4.13105131E+02     -1.45085726E+03
     -3.53129485E+02     -2.60107134E+02     -1.03763702E+02
     -5.91526230E+02      5.52568153E+02     -9.76763626E+02
     -3.20260052E+02      6.15808405E+02     -3.67965478E+02
     -3.19780969E+02      1.49732414E+02      1.11869709E+03
      1.60009468E+03      1.95246922E+03     -1.54258458E+03
      1.29103412E+03     -1.56751258E+03      5.33743948E+02
      4.52906743E+02     -8.65109955E+02     -8.72285505E+02
     -2.12857452E+03      2.61118623E+02      2.07032195E+03
      3.25386704E+03      1.52878133E+03      2.11225306E+03
     -1.74369193E+02      1.43199710E+02     -6.35878027E+02
     -2.38184457E+03     -7.13285843E+02      6.71903364E+02
     -2.22951666E+02      1.38016480E+03      1.71158809E+03
     -1.09991342E+03      6.49730546E+02     -6.49539460E+02
     -1.72751063E+03      1.10052231E+03     -9.28143227E+02
     -3.02328952E+02     -5.89077839E+02     -2.18724318E+03
     -5.38667634E+02     -5.27322399E+02      2.45041830E+02
     -2.54623927E+02      8.53033629E+02      8.15532033E+02
     -4.03572005E+01     -6.69555476E+02     -8.15395123E+02
     -7.15844244E+00     -4.86485965E+02      2.28824564E-02
      2.17100459E+03      5.45161001E+02     -1.42271731E+03
      9.20803075E+02      1.09542352E+03     -1.47344080E+03
     -1.82082599E+01      4.43786552E+02     -7.05980817E+02
      2.21882293E+02      1.24257590E+03     -6.45684633E+02
     -3.12594455E+02      1.49373217E+03     -6.46588825E+02
      7.09563954E+01     -1.06865760E+03      1.63701287E+02
      1.33344676E+01     -1.06300827E+03     -2.14641471E+02
      9.41076283E+02      1.42826466E+01      1.03053708E+01
      2.18705568E+03      3.36111194E+02     -5.20277374E+02
      7.47213675E+02      7.37660797E+02      1.65990367E+02
     -6.72439872E+02     -1.18782137E+03     -8.43149885E+02
      5.40884830E+02     -1.64362435E+03     -1.42765429E+03
     -1.67227950E+03     -7.89034664E+02      1.41692010E+03
     -7.63527983E+02      3.55899043E+02     -4.45651746E+02
     -5.74226328E+01      6.30469067E+02      3.52699130E+02
     -5.56509554E+01      3.33663842E+03      1.38446720E+03
     -1.89672934E+02     -6.11040869E+02     -7.09469053E+02
      2.69128056E+02      2.67346292E+02      4.20892619E+02
      2.07421115E+02     -1.79334977E+03      1.02203515E+03
     -3.31152535E+01     -9.21662745E+02      1.25662239E+02
     -2.08705134E+02      1.59783947E+03     -4.41923963E+02
     -1.53576487E+02      2.39079789E+03      6.27476404E+02
      4.51504125E+02     -2.14003161E+02     -2.28060909E+01
      7.01562708E+02      4.77535022E+02     -1.32104572E+03
     -3.85140846E+03      1.54138248E+03     -2.69834269E+02
     -1.55562324E+02     -2.38386065E+02     -3.91693788E+02
      1.87846534E+03     -9.58106465E+02      5.38547021E+02
      1.93090435E+03     -3.23310374E+03     -1.13030186E+03
     -4.68402038E+02      1.78184946E+02     -6.09932621E+02
     -2.20563910E+03      1.30422387E+03     -6.02260365E+01
     -1.37946474E+03     -3.04789826E+02      1.47024717E+03
     -4.49672758E+01      4.36413705E+02      1.10664246E+03
      6.50992073E+02     -3.87430456E+02     -4.03072193E+02
     -1.52403259E+03      1.09818912E+02      9.74523032E+02
     -3.16868953E+02      2.53833834E+02      1.83851523E+02
     -1.53053165E+03      1.55146700E+02     -8.73455157E+02
     -9.95588008E+02      1.57049853E+03      8.49356427E+02
     -1.91079335E+02     -3.84473654E+02     -3.29446389E+02
     -3.78273201E+03      1.01309703E+02     -2.50807647E+03
     -1.07215025E+03      2.69270151E+02      2.53868763E+03
     -8.15579111E+02      1.22360272E+03     -1.35108444E+03
     -7.36367245E+02      1.01752572E+02     -5.63730668E+02
      7.65215708E+02     -6.95901169E+02     -9.40165115E+01
     -1.80870370E+03      4.92552450E+02      2.81210977E+02
     -1.93367210E+03     -6.13312560E+01      2.54493198E+03
     -9.71169107E+02      8.34755608E+02      3.63372405E+02
     -1.46336226E+03     -1.18720056E+03     -2.86362179E+03
     -4.23576827E+03      2.56067128E+03      2.38101894E+03
      3.57211861E+02      3.06182318E+02      8.46324323E+02
     -1.02511164E+03      3.40705253E+03      5.77313211E+02
     -1.96815388E+03     -8.31135978E+02      3.57753552E+01
     -5.06872291E+02     -1.47808889E+02     -7.19691828E+02
      6.87718580E+02     -7.79528582E+02     -1.47070025E+03
     -9.87162777E+02      1.11160837E+03     -1.51828045E+03
      5.59080240E+01      7.36543708E+02      6.84662096E+01
     -4.95840686E+03      8.80891505E+02     -8.60154877E+02
      2.82713705E+03     -1.65521794E+03     -3.02304758E+02
      1.68591574E+02      5.06434213E+02     -2.11409291E+02
      6.36410222E+02      2.36690792E+02     -1.32736348E+03
     -1.27710544E+03      1.58504039E+03     -6.98359196E+02
      7.66649684E+00      2.99622907E+02      2.34840956E+00
      1.36481610E+03      6.14202070E+02     -7.68617751E+02
      2.37313499E+03     -7.17671171E+02     -1.62906517E+03
     -5.85634962E+01     -1.01930267E+02     -1.52668478E+01
     -3.14772083E+03     -8.63313876E+01     -8.61816488E+02
      1.96337798E+03      1.46757989E+03     -2.60053638E+03
     -6.90180908E+02      3.61479167E+02      1.06537672E+02
     -5.80839178E+02      2.54889466E+03     -5.79381498E+02
     -2.66167409E+03      2.21394505E+03     -1.28721135E+03
     -7.75683588E+02     -1.22117639E+02     -2.85175134E+02
     -4.33718669E+02      3.91750779E+02     -3.27816958E+03
      7.06335998E+02     -5.30672313E+02     -3.26904727E+02
     -2.73406517E+02      2.93486851E+03     -7.05529827E+01
     -5.41989933E+02      1.06672023E+02      1.68169735E+01
     -6.03221803E+02      1.28388256E+02     -5.95197822E+02
     -2.68089581E+02     -3.02491204E+03      6.26187372E+02
     -1.16347475E+03     -2.86673544E+01     -1.46261550E+03
     -2.99659235E+02      1.51392482E+02     -2.15816803E+00
      1.18048988E+03     -8.71893879E+02     -5.00072602E+02
     -1.72058085E+03      3.23227827E+03     -6.79599729E+02
     -1.31833105E+02      1.39888733E+00     -1.34824915E+02
     -5.45146432E+02      3.05906357E+03      1.67838717E+03
      1.40932508E+03     -2.33802696E+03     -1.27203386E+03
     -6.96600892E+01     -2.18017696E+02      1.20666233E+02
      2.60451970E+03     -4.29070633E+03      1.75730955E+03
     -8.93147585E+02     -7.44334437E+02     -4.10379629E+02
     -5.68549410E+01     -3.28287812E+01     -3.52097055E+02
     -1.94918834E+03      2.07455740E+03     -8.50586470E+02
      1.48351464E+03     -3.37118913E+02      2.91330704E+03
      3.12819977E+02     -1.56865349E+02     -5.68914610E+01
     -2.49414920E+03     -8.80138006E+02     -7.20942863E+02
     -1.24009959E+03     -7.03647900E+02      9.36484162E+02
      1.57229846E+00     -2.41439231E+02     -2.76190504E+02
     -1.98105434E+03      3.32530644E+02     -2.18499271E+02
      1.07418615E+03      8.73294535E+02     -1.18349695E+03
      9.36504588E+02      5.97599665E+02     -5.69609894E+02
     -1.97953481E+03      2.08799795E+03     -1.89178943E+03
      1.14724722E+03     -2.54148309E+02     -1.22783998E+03
      9.58978810E+02     -1.97185599E+02     -3.77441773E+02
      9.80396124E+02      5.14183302E+01     -2.54140720E+03
      1.31300521E+03      8.79819841E+02     -3.66370246E+03
      3.21337732E+02     -1.54188841E+02      5.55557659E+02
      3.64859025E+02      1.04911275E+03     -6.07033293E+02
      1.56789697E+03     -4.51198700E+02     -1.84515628E+02
      9.02715498E+02      1.35273181E+03      2.85579211E+02
      1.24700197E+02     -1.76697299E+02     -2.41168894E+02
      1.46736631E+03     -1.35098792E+03     -1.56188357E+03
     -3.24919115E+03      1.83575797E+03     -4.32735484E+02
      1.78535715E+03     -1.94572937E+03     -1.42110345E+02
     -8.53192589E+02     -3.77941909E+02     -3.32130670E+02
      4.37073644E+02     -2.79159508E+02     -4.06280254E+02
     -1.55552918E+03      7.26185247E+02      1.88281061E+03
      1.93430454E+02     -4.45200378E+02      4.31819780E+02
     -1.46140161E+03     -3.54007677E+02      1.73270571E+03
      6.99126162E+02      1.61534034E+02     -8.56345824E+02
      2.77832343E+02     -1.13746046E+02     -5.69252581E+02
      8.81386980E+02     -3.38255588E+02      1.01303011E+03
      5.70983172E+02     -4.05170820E+02     -2.88564939E+03
     -8.08417622E+02     -1.96817442E+02      6.94755572E+02
      3.82350913E+02      3.92889558E+02     -5.11457029E+02
      1.65079411E+03      5.45880073E+02     -4.29161294E+03
     -7.56168823E+01      3.77934529E+02     -5.91496078E+02
     -2.14636401E+03     -1.46865420E+03      1.11649472E+03
      3.35720498E+02      1.39864103E+03     -2.87708996E+03
     -1.08289765E+02     -8.59576122E+02     -6.75865092E+02
     -4.00356934E+03     -5.98081386E+02      2.27475208E+03
      8.97422294E+02     -4.41579961E+02      4.83049967E+02
     -1.04278368E+03      8.34897715E+02      2.20785486E+02
      2.07740710E+02      2.67742900E+03     -1.62801020E+02
     -1.81765248E+03     -1.36037287E+03      1.66437140E+03
     -1.04593162E+03      4.73689549E+02     -7.82222451E+02
     -2.52675662E+02     -1.69894807E+03      7.66929898E+02
      1.51989524E+03      1.82874464E+03     -4.72765938E+02
     -8.59033568E+01     -6.07984438E+01     -2.01004213E+02
      1.16581040E+03     -1.95956716E+03      6.42608178E+02
      2.63849068E+02     -9.14756645E+01      6.42960001E+02
      1.33372088E+03      5.84211062E+02      4.50299221E+02
     -5.80821691E+02     -1.34978751E+02      2.66258639E+02
     -1.22601519E+03     -3.40040589E+02      2.24108228E+03
     -4.93002146E+02     -1.03757667E+03      5.90974339E+02
     -1.37392944E+03     -1.31607689E+03     -3.73844898E+02
  }
}

Hamiltonian = DFTB {
  SCC = Yes
  SCCTolerance = 1e-6
  MaxSCCIterations = 200
  ForceEvaluation = Dynamics
  MaxAngularMomentum = {
    C = "p"
    H = "s"
  }
  Charge = 0.0
  SpinPolarisation = {}
  Eigensolver = Standard {}
  Filling = Fermi {
    Temperature [Kelvin] = 300.0
  }
  SlaterKosterFiles = Type2FileNames {
    Prefix = "../../pbc-0-3/"
    Separator = "-"
    Suffix = ".skf"
    LowerCaseTypeName = No
  }
  KPointsAndWeights = {
    0.0000000000000 0.0000000000000 0.0000000000000 1.00000000000000
  }
  Dispersion = LennardJones { 
    Parameters = UFFParameters {}
  }
}

ParserOptions = {
  ParserVersion = 3
}
