Geometry = GenFormat {
352  S
C  H
1 1    0.4071129547E+02    0.2759087524E+02    0.3918499162E+02
2 2    0.4112291791E+02    0.2840545531E+02    0.3862524135E+02
3 2    0.4078101476E+02    0.2671624722E+02    0.3857887205E+02
4 1    0.4134784721E+02    0.4238682774E+02    0.4057838796E+02
5 2    0.4099900625E+02    0.4123990350E+02    0.4045027591E+02
6 2    0.2555461441E+02    0.4295527386E+02    0.4152102055E+02
7 1    0.4291912909E+02    0.4259052950E+02    0.4062356684E+02
8 2    0.2782383682E+02    0.4368153029E+02    0.4055153793E+02
9 2    0.4350885451E+02    0.4196620099E+02    0.3982930313E+02
10 1    0.2813845421E+02    0.4233628960E+02    0.4206108200E+02
11 2    0.2766410819E+02    0.4141888038E+02    0.4245543190E+02
12 2    0.2799393310E+02    0.4314720690E+02    0.4277954873E+02
13 1    0.4501180002E+02    0.4217525176E+02    0.4198306009E+02
14 2    0.4521439275E+02    0.4315169986E+02    0.4167237464E+02
15 2    0.4545188621E+02    0.4163120597E+02    0.4111666743E+02
16 1    0.3040943706E+02    0.4180079473E+02    0.4329737813E+02
17 2    0.3009868011E+02    0.4108060194E+02    0.4409399210E+02
18 2    0.3059242403E+02    0.4270174456E+02    0.4389675811E+02
19 1    0.4707292323E+02    0.4120074472E+02    0.4271620824E+02
20 2    0.4743040173E+02    0.4205522338E+02    0.4223571526E+02
21 2    0.4690693163E+02    0.4016017341E+02    0.4237414295E+02
22 1    0.4799957194E+02    0.4071469188E+02    0.4394148415E+02
23 2    0.3237639722E+02    0.4138011667E+02    0.4470103439E+02
24 2    0.3376002163E+02    0.4098669210E+02    0.4391314173E+02
25 1    0.3921392509E+02    0.2789889684E+02    0.3941729638E+02
26 2    0.3858581270E+02    0.2787956330E+02    0.3853432535E+02
27 2    0.3854423285E+02    0.2708861231E+02    0.4004659986E+02
28 2    0.3890899921E+02    0.2890643963E+02    0.3975856383E+02
29 1    0.4779593460E+02    0.3932840734E+02    0.4426592120E+02
30 2    0.4699543326E+02    0.3875340392E+02    0.4364822209E+02
31 2    0.3147179836E+02    0.2680137920E+02    0.4957026269E+02
32 2    0.4958064328E+02    0.3866968535E+02    0.4501531524E+02
33 1    0.3061433506E+02    0.3236836803E+02    0.2341791062E+02
34 2    0.3126840096E+02    0.3207321427E+02    0.2256250837E+02
35 2    0.3091398258E+02    0.3341041315E+02    0.2387341661E+02
36 1    0.2913960659E+02    0.3238989975E+02    0.2295789069E+02
37 2    0.2859163639E+02    0.3279346967E+02    0.2380834863E+02
38 2    0.2888714541E+02    0.3123363526E+02    0.2288000551E+02
39 1    0.2876329755E+02    0.3315525755E+02    0.2174676689E+02
40 2    0.2774653880E+02    0.3286100224E+02    0.2140429218E+02
41 2    0.2951365152E+02    0.3300036731E+02    0.2089553756E+02
42 1    0.2865174387E+02    0.3464686102E+02    0.2189074206E+02
43 2    0.4488781408E+02    0.3505274673E+02    0.2226797898E+02
44 2    0.2795317681E+02    0.3498994603E+02    0.2268312689E+02
45 1    0.2829388737E+02    0.3531281897E+02    0.2062803304E+02
46 2    0.2896355801E+02    0.3498083264E+02    0.1985949602E+02
47 2    0.4358279722E+02    0.3642382915E+02    0.2074285129E+02
48 1    0.4213840768E+02    0.3510274643E+02    0.2018828424E+02
49 2    0.4188633165E+02    0.3399902665E+02    0.2011179487E+02
50 2    0.4201319282E+02    0.3543730943E+02    0.1916336860E+02
51 1    0.2567953712E+02    0.3582658993E+02    0.2103756281E+02
52 2    0.2596663192E+02    0.3598015849E+02    0.2215544269E+02
53 2    0.2478945270E+02    0.3503640764E+02    0.2117490614E+02
54 1    0.4045500675E+02    0.3703659454E+02    0.3573886418E+02
55 2    0.3933796695E+02    0.3734222215E+02    0.3607555115E+02
56 2    0.4044467694E+02    0.3690160997E+02    0.3463953079E+02
57 1    0.3079639344E+02    0.3131344765E+02    0.2444081043E+02
58 2    0.3086901930E+02    0.3151518769E+02    0.2548588592E+02
59 2    0.2997429817E+02    0.3056051379E+02    0.2453294689E+02
60 2    0.3167554781E+02    0.3072838922E+02    0.2430420436E+02
61 1    0.2599780309E+02    0.3823460267E+02    0.3621806930E+02
62 2    0.2548063808E+02    0.3908370556E+02    0.3586068341E+02
63 2    0.2598098911E+02    0.3824785184E+02    0.3732524755E+02
64 2    0.2698983396E+02    0.3810536662E+02    0.3577537377E+02
65 1    0.3333116475E+02    0.3812642314E+02    0.3358416277E+02
66 2    0.3251905951E+02    0.3781231542E+02    0.3432673411E+02
67 2    0.3361508319E+02    0.3913161345E+02    0.3403931116E+02
68 1    0.3443362609E+02    0.3706976918E+02    0.3369491114E+02
69 2    0.3412326456E+02    0.3606543602E+02    0.3346498734E+02
70 2    0.3461229659E+02    0.3704016368E+02    0.3478361261E+02
71 1    0.3586219404E+02    0.3720961683E+02    0.3309615102E+02
72 2    0.3591413344E+02    0.3691046315E+02    0.3205089588E+02
73 2    0.3648433154E+02    0.3644136373E+02    0.3364590557E+02
74 1    0.3647166031E+02    0.2319192131E+02    0.3306278734E+02
75 2    0.3620052072E+02    0.2376168305E+02    0.3397370816E+02
76 2    0.3590760188E+02    0.2387871503E+02    0.3238218561E+02
77 1    0.3796985632E+02    0.2343539067E+02    0.3296238944E+02
78 2    0.3843299569E+02    0.3839738932E+02    0.3200015341E+02
79 2    0.3835345057E+02    0.3804690029E+02    0.3373109571E+02
80 1    0.3836921517E+02    0.2480098310E+02    0.3336469320E+02
81 2    0.3940667300E+02    0.2491256490E+02    0.3390615839E+02
82 2    0.3764461688E+02    0.2510822326E+02    0.3417340396E+02
83 1    0.3853380161E+02    0.2579199035E+02    0.3227529169E+02
84 2    0.3751147213E+02    0.2599113171E+02    0.3183164890E+02
85 2    0.3912893526E+02    0.2537227937E+02    0.3145262520E+02
86 1    0.3922191759E+02    0.2717252641E+02    0.3275897649E+02
87 2    0.3903726355E+02    0.2774682290E+02    0.3183016485E+02
88 2    0.4029402469E+02    0.2703015170E+02    0.3266552230E+02
89 1    0.3276230376E+02    0.3837362170E+02    0.3217984679E+02
90 2    0.3184880312E+02    0.3892140876E+02    0.3220930476E+02
91 2    0.3336919629E+02    0.3904787239E+02    0.3164627977E+02
92 2    0.3257051182E+02    0.3733241123E+02    0.3171714099E+02
93 1    0.3882860496E+02    0.2783254902E+02    0.3409988570E+02
94 2    0.3794144827E+02    0.2846303999E+02    0.3397154422E+02
95 2    0.3860932819E+02    0.2718126240E+02    0.3488455052E+02
96 2    0.3963436569E+02    0.2850363392E+02    0.3462045316E+02
97 1    0.2833405045E+02    0.4221059735E+02    0.4663015388E+02
98 2    0.2912176799E+02    0.4169108957E+02    0.4607884299E+02
99 2    0.2736334461E+02    0.4189529624E+02    0.4611678708E+02
100 1    0.2836669038E+02    0.4163713607E+02    0.4804006117E+02
101 2    0.2764038692E+02    0.4210277282E+02    0.4865046809E+02
102 2    0.2926792857E+02    0.4200540111E+02    0.4848588488E+02
103 1    0.2813532012E+02    0.4004233761E+02    0.4828063138E+02
104 2    0.2802422503E+02    0.3996211188E+02    0.4938631607E+02
105 2    0.2917047082E+02    0.3962908506E+02    0.4794370681E+02
106 1    0.2693741885E+02    0.3921847881E+02    0.3234673498E+02
107 2    0.2667689192E+02    0.3963297301E+02    0.3136197088E+02
108 2    0.2599326426E+02    0.3935546954E+02    0.3295918603E+02
109 1    0.2718383049E+02    0.3770291947E+02    0.3216593074E+02
110 2    0.2627621311E+02    0.3714501064E+02    0.3219259848E+02
111 2    0.2774786247E+02    0.3740660417E+02    0.3309594553E+02
112 1    0.2817656081E+02    0.3749992432E+02    0.3100365664E+02
113 2    0.2878993314E+02    0.3834197623E+02    0.3098929529E+02
114 2    0.2766048931E+02    0.3729526134E+02    0.3008852375E+02
115 1    0.2921850038E+02    0.3636106314E+02    0.3111965410E+02
116 2    0.3004924353E+02    0.3658807317E+02    0.3045172047E+02
117 2    0.2894843111E+02    0.3532058345E+02    0.3076384145E+02
118 1    0.2975452555E+02    0.3608864442E+02    0.3247702626E+02
119 2    0.2883253659E+02    0.3555610708E+02    0.3291822492E+02
120 2    0.3005804568E+02    0.3715445132E+02    0.3300586883E+02
121 1    0.2832021896E+02    0.4371038838E+02    0.4666122201E+02
122 2    0.2902155942E+02    0.4417076723E+02    0.4733347254E+02
123 2    0.2849660081E+02    0.4395121419E+02    0.4556728269E+02
124 2    0.2732154334E+02    0.4406294985E+02    0.4683178819E+02
125 1    0.3102988392E+02    0.3530342766E+02    0.3257770972E+02
126 2    0.3133277447E+02    0.3506005861E+02    0.3356901646E+02
127 2    0.3118839206E+02    0.3444368455E+02    0.3198795644E+02
128 2    0.3193794896E+02    0.3581302996E+02    0.3227593783E+02
129 1    0.3213977288E+02    0.4200156881E+02    0.3763092416E+02
130 2    0.3296206741E+02    0.4148790896E+02    0.3818580072E+02
131 2    0.3238551038E+02    0.4159966540E+02    0.3667955587E+02
132 1    0.3077758963E+02    0.4147677142E+02    0.3802858763E+02
133 2    0.3016378672E+02    0.4222107985E+02    0.3848369436E+02
134 2    0.3069567892E+02    0.4088419237E+02    0.3894805166E+02
135 1    0.2996451640E+02    0.4062519330E+02    0.3693083083E+02
136 2    0.2994436368E+02    0.4125851161E+02    0.3606108788E+02
137 2    0.2901160423E+02    0.4020500811E+02    0.3737112671E+02
138 1    0.3072481628E+02    0.3939629210E+02    0.3644607502E+02
139 2    0.3175899138E+02    0.3973357395E+02    0.3611110757E+02
140 2    0.3023179174E+02    0.3899433610E+02    0.3556409747E+02
141 1    0.3084977581E+02    0.3825048945E+02    0.3748912716E+02
142 2    0.2992855015E+02    0.3772327930E+02    0.3765680765E+02
143 2    0.3126922892E+02    0.3867453978E+02    0.3852217775E+02
144 1    0.3196564249E+02    0.3726306633E+02    0.3689272729E+02
145 2    0.3279015635E+02    0.3803647432E+02    0.3662521479E+02
146 2    0.3155247539E+02    0.3691845177E+02    0.3595835832E+02
147 1    0.3251804238E+02    0.3635481601E+02    0.3795505887E+02
148 2    0.3173324942E+02    0.3555657577E+02    0.3814501623E+02
149 2    0.3253610544E+02    0.3697190987E+02    0.3885256790E+02
150 1    0.3390000555E+02    0.3572943685E+02    0.3775590075E+02
151 2    0.3398461425E+02    0.3555361895E+02    0.3660534160E+02
152 2    0.3399843903E+02    0.3474853048E+02    0.3822751222E+02
153 1    0.3245609919E+02    0.4351181322E+02    0.3780788602E+02
154 2    0.3166928785E+02    0.2878478338E+02    0.3827875291E+02
155 2    0.3335111722E+02    0.4349058439E+02    0.3860219857E+02
156 2    0.3289849996E+02    0.4398934740E+02    0.3694473206E+02
157 1    0.3498754480E+02    0.3659052187E+02    0.3833286658E+02
158 2    0.3468355720E+02    0.3698024131E+02    0.3937239677E+02
159 2    0.3600964346E+02    0.3609266659E+02    0.3843543187E+02
160 2    0.3509362148E+02    0.3751903558E+02    0.3777290359E+02
161 1    0.3860791210E+02    0.2678352574E+02    0.2890854056E+02
162 2    0.3779823188E+02    0.2692245121E+02    0.2822372734E+02
163 2    0.3818093344E+02    0.2625083170E+02    0.2987860597E+02
164 1    0.3967750843E+02    0.2577487687E+02    0.2841246935E+02
165 2    0.3995129955E+02    0.2496663649E+02    0.2909456095E+02
166 2    0.4063096780E+02    0.2621870774E+02    0.2804392797E+02
167 1    0.3898273531E+02    0.2464299625E+02    0.2741116408E+02
168 2    0.3842236412E+02    0.2524517334E+02    0.2671492687E+02
169 2    0.3827726685E+02    0.2416197616E+02    0.2808391931E+02
170 1    0.3985010193E+02    0.2369926227E+02    0.2672766514E+02
171 2    0.4046826107E+02    0.2412785373E+02    0.2594941736E+02
172 2    0.3936813443E+02    0.2288137563E+02    0.2612163780E+02
173 1    0.4087398541E+02    0.3833887539E+02    0.2759468200E+02
174 2    0.4132946834E+02    0.3905638100E+02    0.2832822140E+02
175 2    0.4168728674E+02    0.2281473170E+02    0.2687768567E+02
176 1    0.4876073379E+02    0.3838809354E+02    0.4461358199E+02
177 2    0.4855594817E+02    0.3730782482E+02    0.4423055443E+02
178 2    0.4577029594E+02    0.2684382952E+02    0.4987993460E+02
179 1    0.4038275915E+02    0.3704559383E+02    0.2828026841E+02
180 2    0.3924697939E+02    0.3701060655E+02    0.2828819717E+02
181 2    0.4059001634E+02    0.3698702486E+02    0.2931693140E+02
182 1    0.4068795776E+02    0.3562491885E+02    0.2763356862E+02
183 2    0.4041885167E+02    0.3487263263E+02    0.2838969398E+02
184 2    0.4177542658E+02    0.3552156023E+02    0.2724507648E+02
185 1    0.3914642980E+02    0.2818439597E+02    0.2911376472E+02
186 2    0.4010218241E+02    0.2792085618E+02    0.2969514323E+02
187 2    0.3938717817E+02    0.2872843466E+02    0.2816534347E+02
188 2    0.3851610550E+02    0.2883300260E+02    0.4506441560E+02
189 1    0.3984507436E+02    0.3541548205E+02    0.2629909511E+02
190 2    0.3985172501E+02    0.3627449908E+02    0.2551589842E+02
191 2    0.4030956242E+02    0.3451030573E+02    0.2583883206E+02
192 2    0.3880220165E+02    0.3522967148E+02    0.2650571061E+02
193 1    0.3341962910E+02    0.2998637906E+02    0.4222050675E+02
194 2    0.3350924841E+02    0.3103291955E+02    0.4193296918E+02
195 2    0.3303683504E+02    0.4469362128E+02    0.4134077315E+02
196 1    0.3485767221E+02    0.2940833936E+02    0.4257993294E+02
197 2    0.3527682161E+02    0.2988291362E+02    0.4353388614E+02
198 2    0.3549975155E+02    0.4519516019E+02    0.4175044093E+02
199 1    0.3488949191E+02    0.2789469597E+02    0.4273181886E+02
200 2    0.3422266411E+02    0.2746910513E+02    0.4354598972E+02
201 2    0.3597621577E+02    0.2764400218E+02    0.4311801754E+02
202 1    0.3467532035E+02    0.2724171650E+02    0.4138823345E+02
203 2    0.3490666121E+02    0.2790338185E+02    0.4057464139E+02
204 2    0.3359576516E+02    0.2686751505E+02    0.4139301092E+02
205 1    0.3556172251E+02    0.2608826707E+02    0.4109614312E+02
206 2    0.3529745343E+02    0.2518202961E+02    0.4165871060E+02
207 2    0.3669102999E+02    0.2637287547E+02    0.4119731422E+02
208 1    0.3551853652E+02    0.2574080417E+02    0.3962915906E+02
209 2    0.3599144536E+02    0.2659130053E+02    0.3905650736E+02
210 2    0.3442538923E+02    0.2570798983E+02    0.3924331564E+02
211 1    0.3613320949E+02    0.3975788561E+02    0.3929735473E+02
212 2    0.3581554050E+02    0.3925580448E+02    0.3841067489E+02
213 2    0.3589355621E+02    0.3908383307E+02    0.4014247031E+02
214 1    0.3773205410E+02    0.3984646554E+02    0.3913918869E+02
215 2    0.3825565768E+02    0.3889437045E+02    0.3915557495E+02
216 2    0.3829958690E+02    0.4037909839E+02    0.3994180705E+02
217 1    0.3244297815E+02    0.2993286703E+02    0.4345707849E+02
218 2    0.3160263311E+02    0.3061473249E+02    0.2798311969E+02
219 2    0.3208188716E+02    0.2893372126E+02    0.2846545953E+02
220 2    0.3303217774E+02    0.3028999026E+02    0.4434871843E+02
221 1    0.3810874367E+02    0.4033402417E+02    0.3770486526E+02
222 2    0.3786235226E+02    0.3958356770E+02    0.3690597498E+02
223 2    0.3764598243E+02    0.4120481205E+02    0.3736611157E+02
224 2    0.3915595130E+02    0.4059570133E+02    0.3781643915E+02
225 1    0.3431631885E+02    0.4794257230E+02    0.3574468593E+02
226 2    0.3413090100E+02    0.4894104773E+02    0.3517279558E+02
227 2    0.3364003551E+02    0.4810973310E+02    0.3664249678E+02
228 1    0.3385137558E+02    0.3142990971E+02    0.3486206756E+02
229 2    0.3357881217E+02    0.3052906739E+02    0.3557354673E+02
230 2    0.3472831632E+02    0.3108308122E+02    0.3434397076E+02
231 1    0.3283403135E+02    0.4701374398E+02    0.3373699500E+02
232 2    0.3283581924E+02    0.4637257370E+02    0.3272363563E+02
233 2    0.3293591478E+02    0.4803891142E+02    0.3339374104E+02
234 1    0.3138085218E+02    0.4697989243E+02    0.3424538461E+02
235 2    0.3082777688E+02    0.4734965863E+02    0.3343949790E+02
236 2    0.3139145369E+02    0.4773999802E+02    0.3511219844E+02
237 1    0.3086643802E+02    0.4567367309E+02    0.3487904114E+02
238 2    0.3138503970E+02    0.4542672553E+02    0.3577423369E+02
239 2    0.3111753817E+02    0.2949582466E+02    0.3422325265E+02
240 1    0.2939041328E+02    0.4578062247E+02    0.3516842768E+02
241 2    0.2882727749E+02    0.3084031841E+02    0.3425964776E+02
242 2    0.2922147284E+02    0.3113616880E+02    0.3602811721E+02
243 1    0.2886215164E+02    0.4445274896E+02    0.3557705243E+02
244 2    0.2927986854E+02    0.4402196272E+02    0.3650935020E+02
245 2    0.2935006582E+02    0.4364223605E+02    0.3493966324E+02
246 1    0.2731789232E+02    0.4433754242E+02    0.3556401833E+02
247 2    0.2704081101E+02    0.4462858311E+02    0.3452035191E+02
248 2    0.2698444177E+02    0.4493274083E+02    0.3632157318E+02
249 1    0.3574911944E+02    0.3258825250E+02    0.3640460578E+02
250 2    0.3651746838E+02    0.3312212143E+02    0.3580200201E+02
251 2    0.3582480465E+02    0.3288855658E+02    0.3744288685E+02
252 2    0.3607228093E+02    0.3153378526E+02    0.3644631127E+02
253 1    0.2675157085E+02    0.4289518699E+02    0.3574616306E+02
254 2    0.2664572931E+02    0.4246892742E+02    0.3473025926E+02
255 2    0.2743845417E+02    0.4225135911E+02    0.3632165735E+02
256 2    0.2577020255E+02    0.4290029985E+02    0.5157373075E+02
257 1    0.4375328898E+02    0.3267944051E+02    0.4487600364E+02
258 2    0.4460201520E+02    0.3334832484E+02    0.4498998307E+02
259 2    0.4287430140E+02    0.3324058999E+02    0.4468534146E+02
260 1    0.4409267865E+02    0.3166272447E+02    0.4377683659E+02
261 2    0.4350082509E+02    0.3076878637E+02    0.4403797624E+02
262 2    0.4513783832E+02    0.3138748509E+02    0.4384652549E+02
263 1    0.4376960691E+02    0.3198160481E+02    0.4233982241E+02
264 2    0.4438116261E+02    0.3137240208E+02    0.4162960714E+02
265 2    0.4373512369E+02    0.3303634847E+02    0.4221883577E+02
266 1    0.4227463254E+02    0.3148903383E+02    0.4211241023E+02
267 2    0.4163418543E+02    0.3172333305E+02    0.4306690162E+02
268 2    0.4231283541E+02    0.3031997205E+02    0.4209349372E+02
269 1    0.4174389710E+02    0.3185049316E+02    0.4076125053E+02
270 2    0.4223200969E+02    0.3111190086E+02    0.4015281436E+02
271 2    0.4220655769E+02    0.3288157337E+02    0.4037597525E+02
272 1    0.4011046434E+02    0.3172857627E+02    0.4070136422E+02
273 2    0.3973702641E+02    0.3228979993E+02    0.4162359489E+02
274 2    0.3978934122E+02    0.3073653570E+02    0.4094115214E+02
275 1    0.3952709331E+02    0.3229024230E+02    0.3936209191E+02
276 2    0.4010382810E+02    0.3320033789E+02    0.3912181010E+02
277 2    0.3850545630E+02    0.3276382307E+02    0.3959448326E+02
278 1    0.3931520101E+02    0.3120123616E+02    0.3831800643E+02
279 2    0.3835881336E+02    0.3062991758E+02    0.3847246075E+02
280 2    0.4024644959E+02    0.3065436553E+02    0.3815421050E+02
281 1    0.4355463585E+02    0.3188713779E+02    0.4617117876E+02
282 2    0.4441262267E+02    0.3123248469E+02    0.4641401501E+02
283 2    0.4327947328E+02    0.3265363139E+02    0.4697448440E+02
284 2    0.4263328299E+02    0.3134927877E+02    0.4612948669E+02
285 1    0.3922387014E+02    0.3194281119E+02    0.3697999452E+02
286 2    0.4030493895E+02    0.3228402093E+02    0.3676466375E+02
287 2    0.3885139469E+02    0.3150281608E+02    0.3605065083E+02
288 2    0.3850623967E+02    0.3283753045E+02    0.3713740951E+02
289 1    0.2839101825E+02    0.3647337689E+02    0.4080901291E+02
290 2    0.2840628225E+02    0.3667379100E+02    0.3971982853E+02
291 2    0.2738107365E+02    0.3632299848E+02    0.4103600598E+02
292 1    0.2914419753E+02    0.3522543925E+02    0.4134142774E+02
293 2    0.2884192014E+02    0.3428907494E+02    0.4091572796E+02
294 2    0.2886045515E+02    0.3521893332E+02    0.4243183691E+02
295 1    0.3068234462E+02    0.3530257862E+02    0.4139931754E+02
296 2    0.3111487237E+02    0.3636435933E+02    0.4165439548E+02
297 2    0.3119958993E+02    0.3516851727E+02    0.2512813593E+02
298 1    0.3113386328E+02    0.3437054883E+02    0.2723540962E+02
299 2    0.3052450269E+02    0.3339154357E+02    0.4276321025E+02
300 2    0.3082194747E+02    0.3494233265E+02    0.2809308663E+02
301 1    0.3257815108E+02    0.3390765853E+02    0.2717610301E+02
302 2    0.3299249243E+02    0.3386197928E+02    0.2616091081E+02
303 2    0.3268846545E+02    0.3285640685E+02    0.4289476936E+02
304 1    0.3345813272E+02    0.3494475846E+02    0.2793489131E+02
305 2    0.3282034187E+02    0.3524891679E+02    0.2885215990E+02
306 2    0.3346720988E+02    0.3593987772E+02    0.2740128686E+02
307 1    0.3494621349E+02    0.3459545463E+02    0.2819841318E+02
308 2    0.3526415413E+02    0.3382727762E+02    0.2750800337E+02
309 2    0.3512038957E+02    0.3413766819E+02    0.2912425399E+02
310 1    0.3599305947E+02    0.3575808245E+02    0.2814497423E+02
311 2    0.3706235874E+02    0.3539885775E+02    0.2844582812E+02
312 2    0.3556895339E+02    0.3646626997E+02    0.2884925607E+02
313 1    0.2896574293E+02    0.3774711601E+02    0.4146878761E+02
314 2    0.2974181630E+02    0.3810157382E+02    0.4078427809E+02
315 2    0.2832445418E+02    0.3862108375E+02    0.4147019741E+02
316 2    0.2941349426E+02    0.3775301503E+02    0.4243621362E+02
317 1    0.3617205035E+02    0.3645874567E+02    0.2679073063E+02
318 2    0.3694325744E+02    0.3579587331E+02    0.2635720740E+02
319 2    0.3525051250E+02    0.3645800818E+02    0.2620265097E+02
320 2    0.3646819420E+02    0.3752049054E+02    0.2697463804E+02
321 1    0.3840186542E+02    0.3380215893E+02    0.1677841494E+02
322 2    0.3903607319E+02    0.3355047343E+02    0.1586683850E+02
323 2    0.3778655521E+02    0.3463511237E+02    0.1645732456E+02
324 1    0.3742421682E+02    0.3264595442E+02    0.3256468418E+02
325 2    0.3671755598E+02    0.3299078783E+02    0.3337990704E+02
326 2    0.3811263407E+02    0.3187620263E+02    0.3299133082E+02
327 1    0.3671640511E+02    0.3188752646E+02    0.3146783282E+02
328 2    0.3722693885E+02    0.3184512662E+02    0.3052875796E+02
329 2    0.3570181813E+02    0.3246023419E+02    0.3133400347E+02
330 1    0.3623632659E+02    0.3050345477E+02    0.3197323533E+02
331 2    0.3593836756E+02    0.3059992468E+02    0.3298996489E+02
332 2    0.3712427996E+02    0.2978310065E+02    0.3208484059E+02
333 1    0.3523377389E+02    0.2973974933E+02    0.3102328062E+02
334 2    0.3563103939E+02    0.2980340464E+02    0.2990455322E+02
335 2    0.3425813791E+02    0.3039783272E+02    0.3092756472E+02
336 1    0.3494298092E+02    0.2826648964E+02    0.3141069403E+02
337 2    0.3591195904E+02    0.2764705412E+02    0.3108660865E+02
338 2    0.3415362545E+02    0.2802770442E+02    0.3070257724E+02
339 1    0.3454838681E+02    0.2788372396E+02    0.3287549645E+02
340 2    0.3359531857E+02    0.2736007918E+02    0.3285964100E+02
341 2    0.3439215858E+02    0.2890919533E+02    0.3335953199E+02
342 1    0.3558238762E+02    0.2703402410E+02    0.3361982493E+02
343 2    0.3659409112E+02    0.2747719016E+02    0.3337259240E+02
344 2    0.3576663112E+02    0.2604013368E+02    0.3313806999E+02
345 1    0.3923931934E+02    0.3419878140E+02    0.1814995988E+02
346 2    0.3982523844E+02    0.3507732025E+02    0.1794696930E+02
347 2    0.3859660667E+02    0.3439312933E+02    0.1901095550E+02
348 2    0.3989780480E+02    0.3341505687E+02    0.1842627945E+02
349 1    0.3546105528E+02    0.2696336829E+02    0.3519523667E+02
350 2    0.3535402234E+02    0.2802708672E+02    0.3554954873E+02
351 2    0.3456706639E+02    0.2638692887E+02    0.3543548475E+02
352 2    0.3632052848E+02    0.2662716230E+02    0.3561927660E+02
0.0000000000E+00    0.0000000000E+00    0.0000000000E+00
0.1532620600E+02    0.0000000000E+00    0.0000000000E+00
0.0000000000E+00    0.1532620600E+02    0.0000000000E+00
0.0000000000E+00    0.0000000000E+00    0.1532620600E+02
}
Driver = VelocityVerlet {
  Steps = 50000
  TimeStep [fs] = 0.2
  MDRestartFrequency = 5
  Thermostat = None {}
  Xlbomd = {
    IntegrationSteps = 6
    MinSccIterations = 2
    MaxSccIterations = 200
    SccTolerance = 1e-6
    PreSteps = 0
  }
  Velocities [AA/Ps] = {
2.10924800 -3.24765351 9.94091407
-4.29165469 -20.75265314 -9.96044484
-15.69775514 6.05850007 39.69889817
15.36210085 -3.40030894 2.47840697
-1.69719888 -13.07836757 35.06735414
34.51925198 12.45554349 -9.35791667
-16.25928160 16.12280522 4.70744114
2.89552598 -23.17075111 -21.37658885
8.85499071 8.71136641 -3.25123090
4.22225780 -3.94693812 8.20036363
52.72833968 19.59921840 -28.54044398
12.82655546 -38.33679088 -30.05366897
2.27355884 1.53064759 0.73521880
9.42989981 15.81536743 19.61584679
-17.53616854 23.83831365 -6.62336671
-3.02854972 7.75516409 -2.20675850
7.81770034 -14.84455650 -0.68244195
4.61956221 9.82616973 -3.09936948
-1.28588910 6.81869459 -8.33646597
7.28387951 -11.82727789 2.38987856
50.51333662 2.95237504 25.68523635
5.10886087 3.43482627 -0.05003753
16.35346908 -9.04917948 14.54473453
-32.44572510 -40.12378353 -12.17134133
0.66967689 5.51603267 -1.77031654
-4.24955463 -8.00533542 -49.00513303
-45.84252795 33.46804104 -34.10125164
-4.78277929 -1.48760108 52.98942345
-2.41602017 3.59363809 -1.79955453
-7.57017660 19.07775790 32.01472386
-28.99744902 114.78393465 -31.39383619
1.92196862 -42.22879647 -19.34203449
1.32920965 1.01358203 10.78624041
-9.94531315 2.22980815 -4.93248925
-7.45150023 -41.83441618 2.13408425
-4.07680100 7.46543896 5.69429353
-16.90841641 -6.07481068 -6.28738538
4.05334875 6.91810336 -1.69892968
-0.11661536 -5.96778764 3.58365058
-0.03772156 3.22710841 -11.25015457
-40.47168131 -34.13968695 -32.69074910
4.90775355 6.17176819 -4.75948453
7.17983199 -1.65872718 -11.95933001
23.22278913 6.46230024 -7.44585146
6.64405833 -11.79716510 -0.92284215
17.23245899 16.56370521 6.61084862
-47.88517478 -5.52113685 -24.13437827
-1.95087428 0.31995441 -0.13317214
29.49372684 -12.41261919 -12.91742247
-35.90323655 -32.11981990 15.29851657
-1.75978552 4.18556516 0.67450304
6.81624586 7.50724046 -9.12756457
-24.39795578 -8.86251016 -19.40745517
-0.32953661 2.50194046 3.65688691
-7.95194153 10.31978298 9.44835124
0.14122535 16.03882421 -8.37805349
-0.59777432 2.87068292 -6.91065163
28.30867450 -21.13969773 -19.18277538
-6.54348096 40.50467560 11.33561319
-8.16780635 -19.74732204 -38.65858720
6.34908478 14.87483333 0.43819253
-37.86231400 19.15866459 1.50863107
28.22953524 3.07608920 6.41296935
-0.56257229 -26.43537632 1.53470312
-6.60587946 7.89430004 -5.91228016
20.95275119 -6.21062716 13.52358481
-17.22973328 3.37942469 -3.58658264
-9.22852723 -2.86632347 -4.18934366
-24.21394226 3.62293859 -32.42661008
17.74591851 -31.14690255 15.99922664
11.58775167 -6.79940401 -3.79309607
5.13244756 8.29203489 3.01610717
13.45764223 -39.20308433 35.63096324
2.90590554 3.16330508 1.29415377
-15.35137310 31.87550690 -6.28816429
9.11800157 31.38842009 35.13712539
4.12716852 1.82764143 14.35039776
-18.60948393 -1.41889894 -2.13665162
-19.32657330 4.71608555 24.45736582
5.13428776 -9.40586249 -4.00545585
-15.00387678 4.36254440 -15.72672851
-20.21267630 28.04109479 -29.39440172
3.21976814 -4.79008835 -3.46148462
9.12819375 -15.02750791 26.20349613
45.13276571 -17.89420111 -10.28325397
11.19004399 -0.30329814 2.41779628
2.51957609 -8.60880123 21.51397471
17.39756195 -13.14885859 33.70863190
4.88601022 0.82224667 2.48278164
-10.13066473 -17.25592847 -25.64818758
-4.47340336 6.97165988 -9.23134053
-12.84122880 -17.46182007 10.09719376
-8.62407716 -0.02707796 3.58031574
-53.55734626 -4.59641050 -21.97854617
-20.98589246 -4.87464286 -32.60159669
-14.84034457 17.08536583 8.19591075
3.87341313 -4.86615689 7.35886672
0.54562612 -11.99138677 1.26416527
-49.42970622 -0.91035773 18.14441956
-2.04489936 3.56757763 6.57701669
-22.29963917 25.36068746 19.13385278
-41.08728026 3.05664509 20.53698799
6.70412003 -6.97057459 -12.38149589
27.00759334 7.40139200 19.95089971
7.59421214 9.24406204 32.96718781
7.58611448 -8.53004610 -12.00434511
-26.12388815 64.00017476 -20.36864860
-14.55466077 20.51433817 -5.99904923
-3.96198187 -2.46620112 1.10004123
-35.44073734 -25.03938973 5.78376302
-51.21949108 21.44191936 -0.82395734
10.70446979 -9.60676471 0.99430115
-10.31455635 -28.77394375 37.40062658
27.85075213 26.59943167 -18.23893202
2.41228540 -7.81752818 0.96247168
-4.64100886 11.82990780 -8.82544749
-18.88045849 4.86672913 -1.54377805
13.72024012 12.33381417 8.78641722
-4.82546484 43.87046903 -29.31761707
-23.79235413 13.09892299 14.58486251
-3.16134322 1.04013897 1.47302882
-10.62886251 -43.67518261 13.92274091
2.65747422 4.85862714 10.48429277
-14.18975331 -21.61502196 5.29941060
8.28043668 11.70547071 -11.09743347
29.36120612 3.81776097 -6.86992039
-9.53188170 20.66422377 -32.96760187
31.76426941 4.12717351 -3.82298374
-7.35525368 6.91314773 -10.61769472
22.69932519 -2.81190700 -16.52130096
-24.65238442 -10.24415042 -35.11685267
-2.48574830 6.57825335 2.63917216
15.10672961 7.58664365 -12.18084228
-0.03605501 -11.41177123 15.43243405
4.01048534 1.13975067 3.51083497
-3.42313187 0.94712761 31.46264654
-14.86107375 -1.54716283 -13.08291839
-4.15856956 -6.55468300 -0.60660762
9.61659428 -15.72140420 -2.98274714
51.22622319 -21.00559715 22.38001111
-5.63591069 5.65252228 -2.61759529
9.23168852 29.20107742 3.59100218
13.65726644 -8.37759626 13.10779168
3.22123794 -8.43700761 -3.26780756
-12.10686959 9.23550095 28.10636742
16.05068301 16.27998054 -15.10363722
0.13201083 3.16539796 5.92657527
-31.00205606 -16.81791579 -7.80597940
21.43991349 -38.18673498 -5.06176115
0.73124119 -8.89190258 -3.71150700
9.78027040 -14.06725067 -17.40685927
-3.54898124 -21.58278616 -12.91305643
-3.65440705 -2.44530934 -5.78056453
-16.03502225 -12.74503997 -2.18223430
-20.28835532 -0.21001376 7.61842117
-33.40997184 -12.79437496 45.33885064
6.21138638 6.52483661 -0.60902271
-6.99637655 35.97725530 -6.33658593
20.69437396 -5.04795140 -5.85000576
0.50845659 -15.02971043 -17.46721355
-2.74458958 5.89255527 7.08695067
-20.03213429 -29.75554187 0.60340919
25.09242704 -20.35100496 -30.23311746
4.74970757 0.90893369 -5.04529703
12.78679201 22.68631939 3.71584627
76.98925740 7.75231136 -29.77507659
-4.68414409 -6.32803111 -10.45571472
7.65599572 22.57702330 -4.32821465
-17.91868170 -34.78674360 10.52543536
-10.83264359 -0.59577324 7.19513599
18.42191948 -24.29656757 18.71698362
-20.87457029 -9.23629649 -6.35332323
-3.87971284 -3.21628072 -2.39403192
-22.67789461 0.24231849 21.99055240
-13.30162688 21.11518737 3.99831674
11.35349301 -1.50256853 0.87802147