Geometry = GenFormat {
<<< "system.gen"
}

Driver = VelocityVerlet{
  Steps = 100000
  TimeStep [fs] = 0.2
  MDRestartFrequency = 5
  Thermostat = None {
    #InitialTemperature [Kelvin] = 300.0
  }
  Xlbomd{ 
    IntegrationSteps = 6 
    MinSccIterations = 2
    MaxSccIterations = 200
    SccTolerance = 1e-6 
  }
  Velocities [m/s] {
     -1.31365394E+03     -9.28616558E+01     -1.60983268E+02
      2.69161230E+03     -1.56292405E+02     -3.23484374E+02
      1.79634536E+03     -7.73257462E+02      6.24054793E+00
     -3.27787586E+02     -3.64645939E+02     -5.19242483E+02
      1.69218021E+02     -2.19572622E+03      1.53208512E+03
      2.77348819E+03     -1.00133489E+03     -3.15159391E+03
      3.24756138E+02      1.14573057E+02     -3.64120340E+02
     -8.17120392E+02     -8.13725799E+02      9.06316268E+02
      2.30824231E+03      1.81091398E+02     -6.20976107E+02
      2.73987666E+02     -2.83147475E+02     -6.72104608E+02
      1.52262447E+03     -4.36847977E+02     -1.31573842E+03
      2.25663834E+03      1.11070397E+02     -2.88520980E+02
      2.62760128E+02      1.91685574E+02     -3.04874970E+02
     -2.07138325E+03      2.42315103E+03     -2.52427653E+02
     -1.40148900E+03     -2.88163047E+02      1.88196009E+03
      7.28747139E+02     -3.15439512E+01     -8.83494446E+02
     -2.63166362E+02     -1.08438473E+03     -2.69207888E+02
     -1.07536407E+03     -3.03626125E+03     -3.10992727E+02
     -1.34859745E+02      1.71633848E+02     -4.38374120E+02
     -6.04163152E+02      1.62903571E+02     -8.76898001E+02
     -9.88440111E+01     -2.87251415E+03      9.38508696E+02
      1.51314845E+02      4.21546988E+02     -7.50227120E+02
     -6.57930821E+02      3.10903962E+03     -1.34731993E+03
      3.00260765E+03     -2.04205851E+03     -1.22049151E+02
     -7.04735700E+02     -3.46415791E+02     -2.62353909E+02
     -1.46164819E+03     -9.89032395E+02      2.39315957E+02
     -2.18958238E+03     -4.23683903E+02      4.54000173E+02
      1.06720162E+03      2.28514542E+03     -9.92010179E+02
      1.29841133E+02      5.34564374E+02     -1.06215881E+02
      3.92697677E+02     -8.75362242E+02     -4.26548950E+02
      2.40210068E+03      3.48925382E+02      1.59937374E+02
     -5.18414922E+01     -2.66366305E+03     -1.73510717E+03
      5.30037315E+02     -4.70150462E+02     -8.51886524E+01
      5.57065875E+02      7.87699620E+02     -1.19705631E+03
      3.11346132E+03     -4.64246418E+02      6.12958051E+02
      1.66854310E+02     -2.20447224E+02     -4.06744702E+02
     -2.51180025E+03     -2.49130891E+03     -1.15905771E+03
     -5.85716413E+02      7.54089150E+01     -3.36109131E+03
      9.95262666E+02     -4.57405546E+02     -2.74337824E+02
     -1.57204896E+02     -1.86645028E+03     -1.74825300E+03
     -1.30845826E+03     -2.49428687E+03      6.56225022E+00
      1.12697636E+03     -1.82226945E+02      2.15882606E+02
      2.37715214E+02      4.11857612E+02      1.93465037E+02
     -7.00367734E+02      2.83710446E+03     -2.80170606E+02
     -1.24670076E+01      4.33513502E+02     -2.26223794E+02
      7.77745548E+02     -2.35004103E+03     -1.74870259E+03
      7.51337710E+02     -1.71364390E+03      2.41108724E+03
      2.87325388E+02     -5.46715055E+02     -1.13542242E+02
      7.57775916E+02     -1.45653868E+03     -1.99997437E+03
     -1.71987640E+03      1.55584327E+03      7.25390905E+02
      3.86233495E+02     -1.25512263E+03      3.90358103E+02
     -1.83625407E+03     -1.95667157E+03      1.47479170E+03
      1.71118243E+03      7.96175173E+02     -6.51825716E+02
     -3.58661537E+01     -2.80527047E+02     -9.46648962E+02
     -1.66886112E+03      5.05476812E+02      1.27745912E+03
     -1.54651233E+03     -1.54023858E+02      5.56656705E+02
     -5.33906135E+02     -4.80305412E+01     -8.43128875E+01
      5.31513001E+02      9.76034140E+02      3.36430947E+03
      6.02129051E+00     -1.25951439E+03      1.15622929E+03
     -1.09567271E+03      3.30663662E+02     -1.27727148E+03
      5.18428873E+02     -2.08806335E+02     -2.38644970E+02
      1.23432720E+03     -1.34395719E+03     -3.12255835E+02
     -1.13571576E+03      1.23571914E+03     -4.06667895E+02
      2.05224247E+03      3.30414112E+02      1.08522888E+03
     -1.89985704E+02     -4.99911230E+02     -3.16868413E+02
     -2.47386929E+03      3.49379369E+02     -3.48014891E+02
      2.21877836E+03     -2.81684506E+03     -5.77457924E+03
     -1.40596534E+02     -5.48566370E+02      1.94121299E+00
      1.04480682E+01      4.59755759E+01     -1.56913574E+03
      1.40017626E+03      8.12821499E+02     -1.25809247E+02
     -2.30973557E+02     -5.70282498E+02     -4.39863750E+02
     -1.42241947E+03      3.72480598E+02     -8.30273398E+02
      2.26166682E+03      1.85838189E+02     -1.43231983E+03
      8.34176160E+02      3.94395516E+01     -2.41623971E+02
      2.64927536E+03      1.39664777E+03      1.91567537E+03
     -5.16005229E+02      1.47827581E+03      2.18739469E+03
     -2.86045728E+02      2.65491668E+01      4.77286593E+02
     -1.37306802E+03     -3.07772819E+03     -1.02789499E+02
      7.98827102E+02      8.95796126E+02      1.55603922E+03
     -7.85327432E+01      3.79983629E+02      6.54824482E+01
     -3.74660198E+03      4.64468512E+02     -1.35563192E+02
      9.62487951E+02     -2.93868592E+03     -3.64587513E+01
      5.49984419E+02      2.88368622E+02     -2.30614153E+02
      9.54748407E+02     -4.01179554E+02     -3.20111819E+03
      5.97535068E+02     -1.08764593E+03      6.14762266E+02
     -9.33626161E+01     -2.94367010E+02      2.45348439E+02
      7.60318484E+02     -1.42171087E+03     -1.59827116E+03
      7.19417143E+02     -6.31680362E+02     -1.75681029E+03
      3.94268437E+02      5.55092905E+02     -3.67297039E+02
     -4.53831478E+02     -5.50038678E+02      2.93764399E+03
     -2.66547314E+02     -8.71827362E+02     -1.46366451E+03
      3.73714884E+03      8.92523516E+02     -1.53751313E+03
      3.62638011E+02     -2.20687548E+02      6.37994610E+02
      1.32838381E+03     -1.01485422E+02     -2.00233292E+03
      2.77285298E+03     -7.09433134E+02     -1.86222140E+03
      2.33326158E+03      8.41680228E+02      1.60355555E+03
     -2.65995961E+02     -4.56738703E+02      4.21574478E+02
     -3.20425176E+03     -1.85836560E+01     -4.43412017E+02
      3.57252822E+02      2.11746127E+03     -1.08431771E+03
      1.34328046E+02      5.10584850E+00     -2.60299478E+02
      2.55171661E+02      5.49521950E+01     -6.36732571E+02
     -2.24366627E+03      1.71834180E+03     -2.73209824E+03
     -5.63907396E+02     -2.22730809E+01     -8.26522694E+02
     -9.71835076E+02     -5.69889435E+02     -1.26944947E+03
      6.28579884E+02      7.40277172E+02      7.16552732E+02
      3.37498092E+02      7.37140587E+01     -4.90899040E+02
     -2.13988539E+03     -1.19237152E+03      1.83790303E+03
     -6.66459337E+01      6.03637268E+02     -8.21524806E+01
     -1.03984438E+03      7.00169741E+02      5.42124829E+01
      1.56434394E+03      3.33861915E+03      6.94439520E+02
     -2.84241532E+03      2.20539118E+03      2.02654939E+03
     -2.58696798E+02     -1.87569654E+02     -2.31223858E+02
      3.75155017E+02      7.90198116E+02      1.12462999E+03
     -2.26830230E+03     -7.39515144E+02     -3.23641861E+02
      2.12331429E+02     -4.66320509E+02     -8.18339646E+02
     -2.17912513E+03     -1.75712386E+03     -1.06297093E+03
     -3.04509502E+03      3.43575505E+03     -2.12376267E+03
     -2.07250837E+02     -2.07489606E+02     -6.71217562E+02
      1.32352425E+03     -3.07716312E+03     -2.06109800E+03
     -9.08410523E+02     -3.01921437E+03     -7.50115006E+02
     -1.69611746E+02      4.99698970E+01     -7.08518220E+02
      2.60298489E+03      8.57244405E+00     -1.91529323E+03
      8.40011442E+02     -2.74333111E+03     -3.38373799E+03
      1.32184791E+03      1.12897687E+03      7.60518412E+02
      7.44227860E+02     -3.47932830E+02      2.85855404E+01
     -2.63505732E+03      1.73791572E+03      5.83389085E+01
     -8.36749458E+02     -6.19379085E+01      2.51952741E+03
     -1.31473326E+03      2.40574562E+03      1.45669332E+03
      8.76363741E+01      2.05938563E+02     -1.89697575E+02
     -1.97088151E+03     -6.07073511E+02     -1.51642177E+03
     -2.34855438E+03     -1.32045708E+03     -7.74036435E+02
      3.90822245E+02     -7.63072600E+02     -1.06505173E+02
     -2.55668192E+02     -4.61028337E+03     -1.96368505E+03
     -2.06986018E+03     -2.50112203E+02      2.46111064E+03
      1.39320747E+02      2.11565288E+02     -6.29902265E+01
     -3.38072766E+02     -1.66421149E+03     -3.50236029E+03
      5.82647490E+02      1.05579537E+02      9.06703804E+02
      3.69176540E+02     -7.21418983E+01     -2.55911089E+02
     -3.32262062E+02     -4.38644450E+02     -2.31142981E+03
     -2.84842527E+03      5.32720833E+02     -9.31280107E+02
      1.32763648E+03      6.88457753E+02     -9.41566343E+01
      1.87426199E+02     -1.90955612E+03      1.64542016E+03
     -2.71738746E+02     -4.16980800E+03      1.00832320E+02
     -3.32027627E+02     -2.86767486E+02      1.48540425E+02
      4.79483776E+02      1.30991395E+03     -1.04685765E+03
     -2.82929641E+03     -1.51357779E+03      1.14413194E+03
     -7.22290177E+02     -9.08419612E+01      4.60839814E+02
      1.23663457E+03      8.35881450E+02      1.04850251E+03
     -4.48628828E+01     -8.77136080E+02     -2.30497053E+03
     -4.19309361E+02     -3.67208522E+02      1.05170317E+03
      3.38792186E+02     -1.28891200E+02      4.83921204E+02
      1.68051268E+03      2.48207973E+01     -5.63448984E+02
     -1.11821877E+01      5.97402998E+01     -3.48618936E+02
      2.19931258E+02      1.56310100E+03     -2.17136576E+03
     -6.59842241E+01      2.04870148E+03     -9.61673702E+02
     -7.63334091E+02      1.39652933E+03     -1.43418579E+03
      8.11556265E+01      2.69609456E+02     -5.12156097E+02
     -7.32820815E+02      1.33353780E+03      7.56992068E+02
     -1.42578139E+03     -3.14492607E+03     -1.00172345E+03
      1.96729175E+03     -3.34526223E+03      2.42068040E+03
      2.54701060E+01      3.44449280E+02     -3.97773740E+02
      3.88312084E+02      2.60754175E+03     -1.30712002E+03
      1.90405867E+01      1.43196399E+03     -6.24745636E+01
      1.02161895E+02     -1.22542338E+02     -8.02364644E+02
     -2.26480079E+03     -2.27853138E+03      2.92863539E+02
      1.02760836E+02     -3.56832052E+02     -5.42478449E+02
      3.41918559E+02     -1.19708140E+02     -3.66374166E+02
      2.64651403E+02     -4.42871132E+03      2.06110049E+03
     -1.50252718E+03     -6.90422199E+02     -3.03880772E+03
     -2.68722357E+02      9.78966534E+02     -6.96620555E+02
     -1.98291673E+03      2.08912919E+02     -3.29174834E+03
      1.56559685E+03     -3.56736142E+03     -1.28549335E+03
      3.43973590E+01     -3.21888557E+02      4.68728764E+02
      2.25482730E+03      1.30048045E+03      1.86006624E+03
      1.96460058E+03      1.39291698E+03     -2.80426905E+03
      2.28574726E+02      6.91426997E+01     -4.10961010E+02
     -4.35966225E+02     -3.26381177E+02      6.75595458E+02
      1.40173908E+03     -1.67741561E+03     -2.65714683E+03
     -3.47585322E+02      4.33885910E+02     -9.11490007E+02
      1.02952847E+03      4.56325477E+02     -7.89563061E+02
     -1.14365241E+02     -1.28993349E+03      8.86994768E+02
     -3.10401659E+02      4.65288974E+02     -2.95963573E+02
      7.77838039E+02      5.29726799E+02      7.86149721E+02
      1.69033893E+02      2.26142539E+03     -1.06452780E+03
     -3.26261550E+02      2.46727047E+01     -1.21935592E+01
      5.52273935E+02      7.33034130E+02     -3.35544188E+03
     -2.25546201E+03     -2.18315914E+03     -5.46055849E+02
     -3.85179821E+03     -1.53202329E+03     -1.43723502E+03
     -1.18527767E+03     -1.39308261E+03     -4.83647372E+02
      8.68260409E+02     -1.62316432E+03     -5.79629933E+02
      6.99697946E+02     -1.95165716E+03      4.05707091E+02
     -7.12487452E+01      8.46670723E+01      1.07289996E+03
     -3.96173938E+02      8.83381783E+01      1.00337953E+02
      6.69574581E+02     -2.38081369E+03      5.46215219E+02
      2.08789024E+03      1.91854356E+03     -1.18287358E+03
      1.73747784E+02      3.66243574E+01     -6.27110751E+02
      1.37290314E+03     -1.12309474E+03     -2.44704871E+03
     -1.04731664E+03     -1.58755564E+03      6.33597200E+02
     -1.46230229E+02     -2.73695900E+02     -3.00776517E+02
     -2.42656775E+02     -2.61073396E+03     -1.17551075E+03
      6.59518576E+02      1.28346631E+03      1.89752876E+03
     -1.58816426E+02     -6.99155792E+02      1.96180593E+02
     -1.70689613E+02     -9.41047226E+02     -3.06575142E+03
      5.71063914E+02     -1.34015445E+02     -3.19154931E+02
     -3.29218946E+02     -1.91013640E+02      7.49459034E+02
      8.35462692E+02     -2.19207437E+03      4.15276364E+02
      2.27615484E+02      2.01221805E+03     -4.94393724E+03
      4.77194122E+02      2.40493261E+02     -6.20913665E+02
      1.53179802E+03     -1.19624461E+02     -1.51765424E+03
      7.01386108E+02     -6.27451785E+02      9.49883075E+02
      1.09080412E+02      1.24899056E+02      5.59245990E+02
      7.58170851E+02      4.33444079E+02      5.75199968E+02
     -2.20889192E+03     -4.16968719E+02      1.25331932E+03
      1.41503457E+02     -6.89379308E+02     -1.95928589E+02
     -1.67005049E+03     -1.56065568E+03     -1.83852529E+03
      2.50887041E+03     -3.29537947E+02      1.70194281E+03
      1.85209968E+01     -2.59613014E+01     -7.48078457E+02
      5.07776516E+02      3.16416057E+01     -6.29175811E+02
     -9.75086911E+02     -1.15889368E+02     -3.73458370E+03
     -1.07446207E+03     -2.69760523E+02     -6.63482012E+02
     -2.59387168E+01     -4.65250627E+02     -1.91808644E+02
     -1.04290349E+03     -2.16003527E+03     -4.05110164E+03
      2.25605892E+03      2.97795096E+03     -7.01306740E+02
     -1.08607828E+03      2.04262062E+02     -1.68284217E+01
      5.14771218E-01     -3.04745360E+02     -3.71140928E+02
      4.46952735E+02      8.41770448E+02     -1.48964433E+03
      3.43124661E+03     -2.25021378E+03     -1.03726093E+03
     -1.79917491E+02     -6.20231303E+02     -3.58839272E+02
      3.06712804E+03     -6.72492834E+02     -1.20982100E+03
      1.17025042E+03      1.98029469E+03     -2.03584643E+03
     -4.27971594E+02      3.44250298E+02     -2.31279340E+02
      9.61664756E+02     -2.95019980E+03     -6.83992228E+02
      5.98054177E+02     -1.31810350E+03     -2.56073253E+03
      5.45514959E+02      3.32882357E+02     -7.31605771E+02
      1.34233201E+03      2.49665105E+03      7.50877809E+01
     -1.51673675E+03      5.96695894E+02      1.96695395E+03
     -1.72743348E+02      9.01903435E+02     -2.58544092E+02
     -2.91706413E+02     -1.27146954E+03     -5.71879414E+02
      1.56887516E+03     -1.29787639E+03     -9.23390163E+02
     -6.03230102E+02     -8.83967358E+01     -1.00584509E+02
     -1.34173925E+03     -4.27822541E+02      6.44659511E+02
      1.73215786E+03     -1.58751662E+03     -1.86440124E+03
      4.33525864E+02     -2.23338772E+02     -1.44285646E+02
     -7.90519431E+02      1.36205478E+02     -4.43621888E+02
      6.35147062E+02      2.37179610E+03      1.72869397E+03
     -7.11452438E+01     -3.08531042E+02     -3.91821882E+02
      1.72109582E+03     -1.28107190E+01     -1.43212972E+03
      3.74246824E+02      1.39981659E+03     -8.26407467E+01
     -2.40333267E+00     -6.99489009E+00     -7.64570631E+02
      9.77042222E+02     -1.41598818E+03     -1.94646481E+03
      6.97719798E+01     -2.87848006E+03      3.19036437E+02
      2.22962715E+03     -5.62663918E+01     -9.29389831E+02
     -1.15821486E+03      3.42681604E+02     -8.53023994E+02
      3.07680685E+02     -2.55443285E+02     -4.42442513E+03
     -2.41790295E+03     -1.31017852E+03     -5.75757863E+02
     -9.00941625E+02      1.43786966E+03     -2.69907800E+03
     -1.75496101E+02     -7.88714503E+02     -1.25091346E+03
     -1.01370458E+03     -1.43884555E+03      2.13804715E+02
     -3.62804974E+03      3.53485299E+01     -2.40747956E+03
     -1.45670447E+01     -7.48907501E+02      5.03572697E+02
     -2.31244890E+02      3.14668566E+03     -2.77316774E+02
      2.30440907E+03     -1.87780529E+03     -1.21439172E+02
     -1.08972816E+03      2.50779877E+02     -2.76075209E+02
     -3.08789792E+03      9.39034732E+02      5.49946681E+02
     -1.53322797E+03     -1.30160041E+03     -7.31518168E+02
      1.23060472E+02     -6.51235490E+02     -3.63382582E+02
      8.62033829E+02      9.13912267E+02      1.87301246E+02
      4.48039627E+01      3.64237735E+02     -1.48247793E+03
      9.74986217E+02      2.05933530E+02     -5.18536713E+02
     -5.57062476E+02     -3.20150707E+03      2.04597734E+03
     -1.50230263E+02      1.32659840E+03     -8.65386324E+02
     -8.57138615E+02      1.36406219E+02      2.37708192E+02
      5.62067627E+02      1.71316920E+03      9.39597251E+02
     -1.71842359E+03     -3.30953403E+03      8.88454504E+02
      2.86110490E+02      4.72418207E+02     -9.41678993E+02
      3.65342466E+03     -2.27338644E+03     -3.14684040E+03
      1.44151788E+03     -3.46275719E+03      8.24801703E+02
      7.73917877E+01      1.59727900E+02      7.59219673E+02
     -2.35217147E+03     -4.67223556E+02     -4.78637221E+02
      2.87469551E+02      3.65395857E+02     -3.02115262E+02
      2.23300715E+02      1.18212568E+02      4.49861214E+02
      9.54229920E+02      1.09598316E+03      2.81290061E+03
      8.61071992E+02      1.84089181E+03     -8.60404958E+01
      6.66020648E+02     -5.16202729E+02      1.53605277E+03
      5.84285517E+02      1.28027211E+02      7.25256084E+02
      4.21400498E+02      5.13720969E+02     -7.17806010E+02
      5.64326990E+02     -8.07409809E+01      8.47909543E+02
     -2.63864979E+02     -6.76782871E+01      4.04504062E+02
      3.67308343E+01      3.55236715E+02      3.86750072E+01
     -3.45109754E+02      1.22224256E+03      5.76504140E+02
      1.58968281E+03     -2.26990875E+03      3.80036269E+03
      4.97606842E+02      6.54757839E+02      8.56499024E+02
      7.05047122E+02      9.42747045E+01      5.43278963E+02
      4.28816870E+02      2.02873422E+02      1.83426439E+03
     -4.25173439E+03      1.05941859E+04      3.12897366E+04
      7.14226953E+02     -9.65439604E+02     -1.20985067E+03
     -2.76013453E+03     -5.55428611E+01      9.58406292E+02
      4.22993182E+02     -3.18441421E+02     -5.01307780E+02
     -1.28424722E+03      1.39591112E+03     -3.54823611E+03
      2.81008852E+03      1.37880074E+02     -4.66495993E+02
      5.72215061E+01     -6.85861177E+01     -1.98695684E+02
      1.67962903E+03     -2.34594708E+03     -4.21452656E+02
      5.14492989E+02     -7.76540577E+02     -1.62568748E+03
      1.83997718E+02     -6.51272414E+01     -1.60811772E+01
     -1.53906494E+01      1.72493928E+02     -1.27447940E+03
      7.68131034E+02     -1.57722667E+03     -2.79861185E+03
     -8.60215635E+02     -2.66939531E+02     -5.14339525E+02
     -3.12922376E+02     -2.57279133E+03     -5.51728984E+02
      1.51821495E+03     -5.01597869E+02      2.15010478E+02
      5.37668254E+02      2.27189005E+02      4.36630334E+02
     -1.72796638E+03      1.83612094E+03      6.44676428E+02
      1.71248480E+03     -2.17127176E+01     -1.24942487E+03
      2.38573987E+02     -6.58862438E+02     -8.41858355E+02
      6.98212452E+02     -4.20439824E+02     -8.01481003E+02
     -3.57312835E+03     -7.40345189E+02     -2.44182569E+03
      2.73166526E+02      3.57816693E+03      1.14836997E+03
      9.41444402E+02      3.87356897E+02     -5.62413670E+02
      8.97010320E+00      5.90070199E+01     -1.83549963E+03
     -2.65541582E+03      1.44258632E+03      1.31841256E+03
      2.40338927E+02     -1.81545099E+03      6.90994984E+02
     -8.48283111E+00     -4.15903251E+01      1.42700958E+01
     -2.88950450E+02      9.66228807E+02      8.97720729E+01
     -5.14711559E+02      1.19074126E+03      6.40892716E+02
     -2.21452447E+02     -4.64563946E+02     -6.37484116E+02
     -1.09431320E+03     -1.95321080E+03      1.13924217E+03
     -2.69416619E+03      5.35638920E+02     -6.59232734E+02
     -5.05382350E+01      7.41908463E+02     -3.96441070E+02
     -1.57952127E+03      1.62325903E+03      5.74622218E+02
      2.14963947E+03     -6.94703938E+02      1.17502185E+03
     -6.66123343E+02     -1.85057165E+02     -5.74361881E+02
     -1.09283865E+03     -1.47402184E+03      1.13961134E+03
     -5.96388952E+01     -4.08884656E+02     -7.92633601E+02
     -4.95287005E+02     -3.19629868E+02     -4.84817601E+02
     -1.30405091E+03     -1.20777812E+03      3.42536279E+03
     -1.33147786E+03      1.60260807E+03     -4.58030273E+02
      8.82391071E+02      7.03603537E+02     -1.44167193E+01
      1.65191807E+03      7.48068220E+02     -1.32814643E+03
     -8.47110153E+01      4.69780430E+02      2.57948073E+02
      2.23641080E+02     -4.64000693E+02      1.63835814E+02
      3.94767329E+03      1.44062086E+03     -1.70417283E+03
      4.58219516E+02      8.62718988E+02      1.59603576E+03
     -2.38364081E+02      4.52592457E+02     -3.90920076E+02
     -9.24814338E+02      5.23906335E+01     -3.01300693E+02
      1.38796842E+03     -2.58176107E+03      8.73425935E+02
      7.48778234E+02      5.22617375E+02     -7.77930621E+02
      2.77418992E+03      1.16155837E+03     -1.06373250E+03
     -1.19769127E+03     -2.91546623E+02      4.27413090E+03
      1.43222824E+03      5.26165028E+02     -1.97309247E+02
      1.89684443E+02      8.92214006E+02     -1.43941864E+02
      1.11641723E+03     -2.44337349E+03     -6.58527359E+02
      1.93983556E+03     -3.39309472E+03      3.30610807E+03
     -5.89079858E+02     -9.84039405E+02     -1.04014842E+02
  }
}

Hamiltonian = DFTB {
  SCC = Yes
  SCCTolerance = 1e-6
  MaxSCCIterations = 200
  ForceEvaluation = Dynamics
  MaxAngularMomentum = {
    C = "p"
    H = "s"
  }
  Charge = 0.0
  SpinPolarisation = {}
  Eigensolver = Standard {}
  Filling = Fermi {
    Temperature [Kelvin] = 300.0
  }
  SlaterKosterFiles = Type2FileNames {
    Prefix = "../../pbc-0-3/"
    Separator = "-"
    Suffix = ".skf"
    LowerCaseTypeName = No
  }
  KPointsAndWeights = {
    0.0000000000000 0.0000000000000 0.0000000000000 1.00000000000000
  }
  Dispersion = LennardJones { 
    Parameters = UFFParameters {}
  }
}

ParserOptions = {
  ParserVersion = 3
}
