Geometry = GenFormat {
<<< "system.gen"
}

Driver = VelocityVerlet{
  Steps = 50000
  TimeStep [fs] = 0.2
  MDRestartFrequency = 5
  Thermostat = None {
    #InitialTemperature [Kelvin] = 300.0
  }
  Xlbomd{ 
    IntegrationSteps = 6 
    MinSccIterations = 2
    MaxSccIterations = 200
    SccTolerance = 1e-6 
  }
  Velocities [m/s] {
      6.77532145E+02     -1.47864399E+02     -3.60515250E+02
     -1.65502254E+03     -3.52592718E+02      1.08659750E+03
      2.35342127E+03      1.16366054E+02      3.48101964E+03
      1.57041981E+02     -1.80785962E+02      4.80351961E+02
     -1.05567888E+03     -9.97669420E+02     -1.29186352E+03
      2.53751690E+03     -2.05270000E+03     -5.17984211E+01
     -1.55009261E+02     -1.63427542E+02      5.38114121E+01
     -2.35181160E+03      6.76721194E+02      6.22704099E+02
      1.78221027E+02     -5.83058451E+02     -6.07357931E+02
     -9.68412053E+02      5.15915074E+01      3.88966815E+02
     -9.38194547E+01     -7.35237291E+02      1.87622462E+03
      7.87270880E+02     -2.26682377E+03      2.93515753E+03
      5.21423935E+02      8.36104560E+02     -5.55977592E+01
      1.41959571E+03     -8.20473973E+02     -7.18784678E+02
      9.65128571E+02      4.21010291E+02     -1.20580380E+03
      7.06242762E+02     -3.74595132E+02     -1.01674312E+02
     -7.21802924E+02      1.01775826E+03      2.40516470E+03
      6.16943133E+00      1.75500812E+01     -2.19928373E+03
     -4.83733815E+02     -2.05335875E+02     -5.63158792E+01
      1.95700531E+02      9.19580857E+02     -2.34997851E+01
      1.01096918E+03     -6.08888236E+02      7.37596275E+02
      3.76255376E+02     -2.80788910E+02     -4.32140018E+02
     -2.51578974E+03     -8.89463856E+02      6.65227859E+02
      9.94050850E+02     -1.50582357E+03      1.38531110E+03
     -1.74360383E+01     -1.00117895E+02      2.42907636E+02
      1.63602597E+03     -7.09496308E+02      1.10993558E+02
     -2.85979078E+03      6.85243956E+02     -8.10063228E+02
     -9.83717272E+02      6.72315105E+02     -7.32248860E+02
      6.55895843E+02      8.81687371E+02     -1.79185538E+02
     -4.74808958E+02      4.39796020E+02      2.23035096E+02
      6.73048909E+02     -3.46237119E+03     -6.68624751E+02
      1.04691413E+03     -2.00873385E+03      4.85460753E+02
     -1.49426648E+02      5.06614113E+02     -5.47932280E+02
      8.67638877E+02     -7.23591713E+02     -2.07074327E+01
      1.43957571E+03     -1.72441434E+03      6.10110609E+02
     -6.06263232E+02     -9.58374329E+01     -4.56043070E+01
     -1.81450960E+02     -8.60173905E+02      2.54071265E+02
      7.24507547E+02      2.86300591E+03     -3.21156237E+02
     -2.12958886E+02      7.71511255E+02      2.75126244E+02
      4.18876847E+03     -1.87491625E+03      5.61078353E+03
     -1.50671335E+03     -3.02096564E+03      6.10915890E+02
     -8.37271851E+01      9.01979554E+02      1.23435607E+03
      1.65634167E+02     -5.27368527E+02      2.07338676E+03
      9.91864375E+01      6.91139012E+02      3.78033720E+03
      3.00748621E+02     -5.19004206E+01      2.80228251E+02
      9.34099209E+02     -1.98024373E+03      7.47306296E+02
     -7.77858110E+02     -3.60950231E+03     -2.06727998E+03
      1.38375357E+02      3.01247907E+02      4.21616652E+02
      1.07849488E+03     -8.18832840E+02     -1.55323770E+03
     -8.78614021E+02      2.27037717E+03      1.84807390E+03
     -7.66185005E+02      2.44755960E+02      2.21089628E+02
      2.00938173E+03      6.15904826E+02     -9.86916578E+02
     -1.32177649E+03      2.72373028E+03      3.15442358E+01
     -4.32072190E+02     -2.81396587E+01      8.66377156E+02
      1.07640560E+03     -2.99576204E+02      2.78219463E+02
     -1.28496870E+03     -1.42535280E+03     -2.63747592E+03
     -3.36973155E+02     -4.77885622E+02     -6.05690266E+02
      1.22621205E+03      2.01900284E+03      1.17469401E+03
     -4.04667836E+02      4.79679807E+01      1.76955406E+03
      2.44353749E+03     -2.67602241E+03      2.11337377E+02
     -2.65145795E-01      5.95786719E+02      1.48642962E+02
      1.65042225E+03      2.14510365E+03     -8.51212785E+02
      2.51642047E+03      1.50136733E+02      9.72852801E+01
     -1.40393694E+03      3.02553595E+03      7.49258243E+02
     -1.27109000E+02      1.47308623E+02     -3.40227397E+02
     -1.87950897E+03      2.99284997E+02      3.58769830E+03
      1.78140382E+03      8.22417127E+02     -1.53678707E+03
      5.60487706E+02      1.85352294E+02     -1.90712747E+02
      2.09447820E+03     -1.34075557E+03      2.53070505E+02
      5.93444996E+01     -5.82443177E+02     -2.21918908E+02
     -3.31504650E+02      2.08953353E+01     -1.01013602E+02
      1.40496214E+03     -2.73019650E+02     -8.29076967E+02
      1.11857326E+03     -1.22842093E+03      2.38515218E+03
     -4.10111196E+01      2.14845183E+02      3.09251788E+01
      4.26821030E+03     -1.64895492E+03     -9.58851932E+01
      1.99156020E+03      1.80821121E+02     -1.73076109E+02
      6.58442149E+02     -4.38529180E+02     -4.45334748E+02
      9.66049340E+02      1.55374634E+03      2.15286770E+02
      1.54364089E+03     -1.46344712E+03      1.38551038E+03
      4.88455540E+02      1.98540093E+02      5.02531060E+02
     -5.63683040E+02     -3.34235499E+02      1.93497067E+03
      1.17409411E+03     -1.47919245E+02      1.11749583E+03
     -2.52945142E+02     -5.55722074E+01      4.16328649E+02
     -2.72886349E+03     -4.04686842E+01     -1.88755976E+03
      8.27705258E+02     -4.47542837E+03     -1.82803039E+03
      4.05686906E+02     -8.45081648E+00      7.63390377E+02
     -1.36798446E+03     -2.36956420E+03      4.95615927E+02
      1.72356434E+01      2.27174493E+03      4.71889004E+02
     -6.20496544E+01     -3.49756879E+02     -8.11811248E+01
      8.23392833E+02     -2.37319227E+03      1.00906548E+03
      3.98490211E+03      1.81881957E+02     -3.86981692E+02
      1.00385852E+03      7.67476689E+02     -1.53033567E+03
     -2.43713342E+02     -1.57573837E+02      2.69940555E+02
     -6.00434341E+02      1.43704743E+03      1.47335707E+03
      7.66788128E+02      1.93825194E+03      8.64940361E+02
      6.27351266E+02     -8.33761232E+01      4.37424466E+02
      2.40976057E+03      4.33078490E+03     -2.12283028E+04
      2.91669060E+03     -2.54756788E+03      5.55665741E+02
     -8.54734886E+02     -1.64250283E+03      3.20765222E+03
     -5.10114745E+01     -6.59702600E+02      3.94913475E+01
     -2.71081506E+02      7.94423437E+02     -1.65733981E+03
      2.07378423E+03     -1.08526298E+01      1.53803819E+02
      3.87065464E+02      6.68467857E+02     -1.08441222E+03
     -5.46977869E+02     -4.56839787E+03     -1.41359848E+03
      1.06062343E+03     -2.37793613E+03     -3.02669016E+02
      5.66191910E+02     -7.94218206E+02     -2.93383830E+01
      8.52095282E+02     -1.17118060E+03     -4.85138258E+02
     -8.04655307E+01     -2.64652092E+02     -1.67848299E+01
     -6.63709349E+02     -9.21806576E+02      2.12373719E+02
      2.16920605E+03     -4.90448532E+02      1.36272775E+03
     -2.56730898E+03     -2.46326463E+02     -1.51940117E+03
     -2.05405764E+02      7.54976965E+01     -2.32379597E+02
      3.62065458E+02     -1.94126967E+02     -2.43417788E+02
      4.52422349E+01      1.62448393E+03     -3.02731062E+00
     -3.04832531E+02     -1.58160118E+02     -8.89561773E+01
      1.61207118E+03      1.83945169E+03      4.21800659E+02
      1.96891579E+03      4.36275743E+02      1.22175982E+03
     -1.45518439E+02      4.29161402E+02      7.10327603E+02
     -2.75330588E+02     -3.31863665E+03      2.32175115E+03
      1.39090092E+03      7.85312610E+02     -1.70036428E+02
      3.93294666E+02     -2.56729644E+02      1.33009318E+02
      6.17303427E+02      1.18433776E+02      2.48855276E+03
      1.21888629E+03     -3.84012313E+02     -9.36983430E+02
     -4.17321613E+02      1.44336157E+03     -9.87153592E+02
     -3.58168314E+02     -8.25282301E+02      1.05198182E+03
      6.81380814E+02      1.51546450E+03     -2.30844931E+03
     -3.89741614E+02      5.66408822E+02      3.93858668E+03
      1.17557264E+03     -6.87816243E+02     -3.82678556E+02
     -1.47333131E+02     -8.55054162E+02     -3.67968020E+02
      1.69312621E+03      4.44000956E+02      6.23620840E+02
     -1.92376567E+03     -5.62865878E+02      2.25424596E+03
      4.05874200E+02     -2.76396159E+02      1.61314576E+02
      1.53941026E+02      2.63360289E+03      2.31201992E+03
     -2.53870248E+03      6.22121786E+02      4.00856113E+02
     -3.31023019E+02     -2.12705615E+02     -1.19242652E+02
     -3.32740004E+02      3.47655743E+03      1.11473461E+03
     -7.05528795E+02     -1.31959747E+03      3.77080969E+02
      2.93618011E+02      4.11357877E+01     -9.21988793E+01
     -3.42382723E+01      4.22741709E+01      6.26304467E+02
     -1.58086047E+03      2.75041744E+01     -1.32836188E+03
     -8.84022116E+02      6.98040911E+02      1.06652425E+03
     -6.90351580E+02     -2.49234692E+02     -6.49211112E+02
      1.13765822E+03      6.40701362E+02      7.83075129E+02
      2.63997909E+02      1.73336609E+02      3.84974179E+02
     -3.10835540E+03      1.60711680E+03      1.03335866E+03
     -5.88195331E+02      2.09435834E+03      3.00931270E+02
     -7.08065491E+01     -3.50396067E+02     -6.08381203E+01
      1.84613680E+03     -7.58930020E+02     -2.14590592E+03
     -1.32006846E+03     -7.87104311E+02      1.41213190E+03
     -2.89465088E+01      6.90574060E+01     -5.15212948E+02
      1.29285025E+03      1.57812784E+03     -2.27445606E+03
     -3.79651138E+03      2.08775750E+03     -1.14460342E+03
     -4.85048229E+02     -2.33719273E+02      9.83187149E+02
      5.34931463E+02      1.34177370E+03     -1.23306293E+03
      3.84492823E+02      1.41824282E+03      6.59859524E+02
     -7.17458773E+02      4.19368016E+02      6.26820883E+02
      7.50594441E+01     -9.36781240E+02     -1.55016199E+02
     -6.89370558E+02     -1.28836613E+03     -1.72373400E+03
     -6.02379691E+03     -5.44800295E+02     -2.83032590E+03
     -8.64785259E+02     -5.30888123E+02     -5.79223159E+02
     -3.06743342E+02     -1.34260252E+02      1.28102253E+02
     -1.55670326E+03     -8.90039604E+02     -9.06522020E+02
     -5.65282437E+02      2.24857870E+03      4.75909562E+01
     -2.96586280E+02     -1.13930468E+02      1.75447216E+03
      1.35463343E+03     -1.12720979E+03     -2.31816705E+03
      1.33212534E+03     -2.08671003E+03     -2.38555792E+03
     -1.89340709E+02      8.54207147E+02      6.51966874E+02
      1.08340030E+03     -6.64071067E+02      3.40042162E+03
      1.73891061E+03     -7.80282408E+02     -6.35906720E+02
      1.94834209E+02     -7.59498541E+02      6.61073551E+02
      4.97476893E+02     -3.27181047E+03      3.96170942E+02
     -2.68854216E+03     -1.31883328E+03     -1.16265466E+02
     -5.27485981E+02      4.55557066E+02     -6.39713485E+02
     -1.43678088E+03      9.63703770E+02      1.08065746E+03
      1.10358566E+03     -8.40948576E+02     -9.19864586E+02
      1.78449177E+02      1.79625128E+02     -5.29027211E+02
     -2.94520306E+03     -1.97908292E+03      3.69106625E+02
      2.86903736E+03     -4.20060832E+02     -4.19568560E+03
      4.82609258E+02     -1.35030750E+02      1.00263973E+03
      4.82279745E+02     -6.02461537E+02      2.36324293E+03
      1.34461509E+02     -5.47623182E+02     -2.95323453E+03
      6.16812916E+02      1.48157947E+02      3.99605609E+02
      7.71738687E+02     -7.94118653E+02     -2.00058819E+03
     -4.39214822E+02     -5.00598450E+02     -3.72905566E+01
      3.34066024E+02     -7.02167823E+02     -2.51491282E+01
      8.76755545E+02     -1.16631902E+03      9.13418112E+02
      1.48660557E+03      1.72104991E+03      3.72462091E+02
     -3.81355399E+02     -2.28143604E+03     -1.01043794E+03
      3.92045928E+02     -1.69552775E+02     -2.92022903E+02
      1.30512638E+02     -3.01409704E+03      2.10810118E+03
      2.52394807E+03     -7.22441856E+02     -6.56068384E+02
      9.94217073E+02      2.89291622E+03      1.94005159E+03
      4.02460281E+02     -6.20830249E+02      3.06990203E+02
     -4.20581498E+02     -9.82456202E+02     -2.21322886E+02
      2.10133487E+03      4.99805599E+02     -1.29900851E+02
     -6.41994104E+02     -8.39953380E+02     -3.24962826E+02
      5.50464726E+02     -2.57052307E+03      6.06346920E+01
     -4.09622818E+02     -3.30265465E+03      9.64010123E+02
     -4.33828558E+02      1.33434993E+02     -4.54437998E+02
     -4.80933433E+02      2.01296416E+03      5.02790507E+02
     -7.45272396E+02      5.47047099E+02      2.96220334E+02
     -4.47015178E+02      6.44390120E+02      6.81523196E+02
     -4.14570281E+02      1.33278641E+03      3.76085143E+02
     -6.24493132E+02      1.18824484E+03     -1.08963299E+02
     -6.48238958E+02      9.60273822E+00      5.04307386E+02
     -1.84913355E+03      1.01520104E+03     -1.34663056E+03
      3.12839836E+03      1.28329259E+03      2.29803948E+03
      1.21803243E+03     -3.33772067E+02      1.17808325E+02
      4.65267028E+01      3.92987371E+02      5.43458169E+02
      4.86703935E+02      5.38813705E+02     -3.85203780E+02
     -3.85976506E+02      2.86926719E+02     -1.70507904E+02
     -9.60907458E+02      2.29796155E+03      1.76419984E+03
     -6.82501838E+01      1.70327283E+03      1.86537182E+03
     -2.32417952E+02      6.98068183E+01     -1.52848785E+02
      7.73162984E+02     -4.38033243E+02     -2.30063471E+02
      2.09145514E+03      1.70734304E+03     -1.14182079E+03
     -1.18055033E+02     -5.76380614E+02      2.97520153E+02
      4.27421992E+02      3.60577115E+02     -7.55874815E+02
      7.51435585E+01      6.40758157E+01      7.08185284E+02
      1.03621042E+03      5.59666879E+02      4.43770309E+02
      2.37110510E+02      2.90390528E+02      3.89648233E+02
     -1.79935132E+03     -7.17621418E+02      1.23733353E+03
      1.02470160E+03      1.39572646E+03      1.16308830E+03
      1.34649106E+03     -9.60195897E-01      6.44178896E+01
      4.96265319E+01      4.27996904E+01     -1.59664736E+01
      1.00774398E+02      1.26984189E+03     -1.36866526E+03
     -8.57442917E+02     -1.47131474E+03      2.78382280E+03
     -3.89567159E+02     -2.73648617E+02     -2.71681602E+02
     -2.36284941E+03     -2.05362760E+03     -1.21050523E+03
      1.83323030E+03      6.48683550E+02      3.52100584E+03
      6.94617000E+02     -6.73528252E+02      8.27434174E+02
     -2.34349799E+02     -1.42823066E+03      5.53154589E+02
      4.20868108E+02      1.29447641E+03     -1.65260768E+03
      3.40842108E+02      1.04420379E+02     -3.16448538E+02
      3.22674199E+03     -1.77283791E+03     -2.17476997E+02
     -6.65589741E+02      5.57878371E+02      2.84433388E+03
     -2.44179464E+02      5.51551844E+02      2.47868749E+02
      4.75578670E+02     -1.48431685E+03      2.71192297E+03
      1.05794363E+03     -1.13538672E+03      1.58502518E+03
      5.57561411E+01     -1.05380220E+02     -4.70480870E+02
     -2.06483393E+03      2.78534568E+03      3.62356984E+01
     -7.29854162E+02      2.49765449E+03     -2.10964623E+03
      1.44907522E+02     -4.86784804E+02     -2.76554450E+01
      7.50971879E+02     -9.97107911E+02      1.06348371E+03
      2.45662412E+03      1.31572115E+03     -9.24518138E+02
     -2.50838449E+02      1.87040759E+02      6.91447299E+02
     -2.87447447E+03      1.07761226E+03     -1.34628491E+02
      3.12760515E+03      3.12547362E+03     -4.16414620E+02
     -7.12880942E+01     -2.37554733E+02      6.72248876E+02
      1.41551890E+03     -1.07996800E+03     -1.24117312E+03
      1.56235541E+02      2.08338550E+02     -1.54619639E+03
      1.16280470E+02      7.36517179E+02      6.46289297E+02
     -1.62200712E+02      1.01272329E+02      3.00417729E+02
     -1.98757488E+03     -7.47013799E+02     -1.33523582E+02
      2.08911715E+03     -1.02348773E+03      2.32170497E+02
     -4.66252589E+02      1.34811664E+03      3.88714302E+02
      8.26191749E+01     -5.61431140E+02     -1.76711695E+02
     -3.79864409E+01     -5.13694930E+02      8.08546840E+02
      4.76507156E+02     -2.80158221E+03     -2.65609278E+02
     -2.96271464E+02     -2.87797431E+02      3.88631404E+02
     -4.00617050E+02      3.37324916E+03      1.73648106E+03
      6.15225772E+02      2.23105871E+03      4.60275350E+02
      2.85565094E+02     -3.24595811E+00      2.50327813E+02
     -3.03196628E+03      2.41277858E+03     -7.17362151E+02
     -2.15008865E+03     -2.75320312E+03     -2.26462472E+03
     -3.82119397E+02      9.75599948E+01     -7.23637983E+02
     -7.00662377E+02     -1.07028933E+03     -1.91161598E+03
     -1.47275673E+03     -1.66066471E+03      1.35237616E+03
     -5.61797520E+02     -1.17932246E+02      7.29587014E+02
     -1.96968246E+03     -3.15818969E+03      4.61328921E+02
     -6.00772809E+02     -1.11973214E+03      1.60190475E+03
      5.41967571E+02     -2.71398448E+01      5.19498836E+02
      1.79749217E+02      4.47568058E+02      3.58969598E+01
      7.70071178E+02      3.68440005E+02      7.33024846E+02
      6.87589660E+01      1.20638890E+02     -2.22926592E+02
     -5.11242200E+02     -1.54766088E+02      2.29533426E+03
      9.74073557E+02      2.10944382E+03     -1.31356731E+03
     -2.13131850E+02     -2.04199194E+02     -6.01131073E+02
      5.92463245E+02      1.70113339E+03     -2.60068864E+03
      3.05046186E+03      1.11834482E+03      7.67621806E+02
      9.03801083E+01      2.95674775E+02     -1.89515881E+02
      1.72568172E+02      1.56511751E+03     -2.14962735E+02
      1.53675614E+03     -6.93471318E+02     -8.23200583E+02
     -1.32879892E+03      2.29747545E+03      1.15488760E+03
     -3.20693111E+01      3.43783864E+02     -8.02550460E+01
      3.96723839E+02     -1.74097909E+03      1.56177810E+03
     -3.11516027E+02      1.01964535E+03     -3.35026253E+03
     -2.91288616E+03      1.19672334E+03      3.18103674E+03
     -7.39302459E+02      5.49251521E+02     -7.97434295E+01
     -1.99672518E+03     -3.79702105E+02     -7.43932258E+02
      7.53796849E+02     -6.73338556E+02     -6.51210042E+02
     -3.17234082E+02     -2.09033782E+02      1.12150454E+03
      1.31427118E+03      5.80483067E+02     -3.66152037E+02
     -1.33575043E+03      8.61557545E+02     -1.21991048E+03
     -3.17121007E+02     -3.27755500E+01      6.40231667E+02
      1.16937045E+03      2.57240513E+03     -2.10325308E+03
      2.99584305E+02     -2.59006027E+03     -7.24583014E+01
     -7.12444911E+02      1.43550800E+02      6.00357137E+02
      2.47877152E+02      1.53994812E+03     -1.17951641E+03
     -7.36778264E+02      1.77540175E+03      2.64918826E+03
      7.61399551E+01     -3.27293375E+01     -6.17061297E+02
      1.06284240E+03      7.52829637E+02      2.56798022E+03
      6.01163170E+01      4.87944357E+02      4.44458814E+02
     -9.37014195E+00     -2.86560207E+02     -3.77817810E+02
     -2.05091422E+02     -2.16567303E+03      5.43213898E+02
     -3.41343974E+02      1.81003029E+03      3.41919209E+02
      3.51878009E+02      6.58270775E+02     -8.77594767E+01
      2.13965869E+03      7.68625849E+02     -9.06869372E+02
      6.21043839E+02     -2.26072536E+02      2.90239122E+03
     -4.06647905E+01      1.32371468E+02      7.60884523E+02
      7.60462588E+02     -3.51335396E+02     -2.63299030E+03
      1.67783221E+03      1.73567591E+03      1.91147829E+03
      1.66494943E+02     -2.98202762E+01     -6.19329896E+01
     -3.12216868E+03      9.76433940E+02      7.04839641E+01
      9.23415376E+02      4.05721021E+02      7.15912695E+02
      4.14913394E+02      1.26840626E+03      1.35252517E+03
     -7.43366375E+01      8.99609067E+01      5.61425694E+02
     -1.93153191E+03     -6.52304777E+02      2.70067952E+02
      1.16024559E+03     -1.21829477E+03      2.62656709E+03
     -1.44876281E+03      3.70003018E+02      1.80965591E+03
      2.43619032E+02      1.42577067E+00      5.32824989E+02
      2.02892459E+01      1.51543929E+03     -2.29185003E+01
     -3.88472596E+03     -1.85973712E+03      3.62145834E+02
     -4.44378058E+01      7.62497288E+02     -2.66903327E+02
      1.95746287E+03     -8.92335744E+02      9.09103129E+02
      3.11315595E+02      6.62066068E+02     -2.02431648E+02
     -3.37630181E+02      1.89050958E+02      8.09778391E+01
      8.09912172E+02     -1.17120379E+03      7.51785058E+01
     -2.70970936E+03      7.20715641E+02      1.81917660E+03
     -4.62925158E+02     -3.69436366E+02     -2.94708733E+02
     -7.83400301E+01      1.90381728E+03      1.89121528E+03
     -9.90304397E+02     -1.36676764E+02      2.97054261E+00
     -3.69893350E+00     -2.75931204E+02      5.60529637E+02
     -1.86541694E+03      2.89990107E+03      8.96449620E+02
     -3.22475842E+03      2.71172342E+03     -1.38687515E+03
     -9.49737603E+01     -7.39026550E+01      7.20096782E+02
      7.59838695E+00      1.64812391E+03      3.24574836E+03
     -1.37142359E+03     -3.15345636E+03      2.17472340E+03
     -9.97704275E+00     -6.36271036E+02      5.30705443E+02
     -6.70114136E+02      6.11703172E+02      7.89322485E+02
      3.13953568E+02      3.06665932E+03     -1.18092439E+03
      3.17961972E+02      7.78679528E+01     -5.02510206E+01
      1.58618746E+02     -1.05964785E+03      9.35581069E+02
     -1.78127101E+03      3.94111380E+03     -1.57529344E+03
     -3.00964899E+02     -3.85487685E+02      5.57173224E+02
     -5.05884665E+02      8.01490701E+01     -8.30382138E+02
      2.14171631E+03     -1.62903919E+03      1.39949709E+03
     -3.23245728E+03     -8.72104974E+01      3.99095057E+03
     -6.81257044E+02     -2.55752435E+02      3.56750597E+01
     -7.58527949E+02     -1.61896051E+03      1.43391884E+02
     -2.83157094E+03     -3.10307604E+02      2.50886229E+03
      2.58159097E+03     -2.49066195E+03     -9.49625219E+01
  }
}

Hamiltonian = DFTB {
  SCC = Yes
  SCCTolerance = 1e-6
  MaxSCCIterations = 200
  ForceEvaluation = Dynamics
  MaxAngularMomentum = {
    C = "p"
    H = "s"
  }
  Charge = 0.0
  SpinPolarisation = {}
  Eigensolver = Standard {}
  Filling = Fermi {
    Temperature [Kelvin] = 300.0
  }
  SlaterKosterFiles = Type2FileNames {
    Prefix = "../../pbc-0-3/"
    Separator = "-"
    Suffix = ".skf"
    LowerCaseTypeName = No
  }
  KPointsAndWeights = {
    0.0000000000000 0.0000000000000 0.0000000000000 1.00000000000000
  }
  Dispersion = LennardJones { 
    Parameters = UFFParameters {}
  }
}

ParserOptions = {
  ParserVersion = 3
}
