Geometry = GenFormat {
<<< "system.gen"
}

Driver = VelocityVerlet{
  Steps = 50000
  TimeStep [fs] = 0.2
  MDRestartFrequency = 5
  Thermostat = None {
    #InitialTemperature [Kelvin] = 300.0
  }
  Xlbomd{ 
    IntegrationSteps = 6 
    MinSccIterations = 2
    MaxSccIterations = 200
    SccTolerance = 1e-6 
  }
  Velocities [m/s] {
     -8.17919584E+02      9.44490210E+02      4.08513108E+02
     -5.13363113E+02     -8.51584297E+01      9.25588214E+02
      3.03647277E+03     -2.38455932E+03      4.04554669E+01
     -3.66373083E+02     -7.01474179E+02      1.10962662E+03
      1.15807633E+03      2.72558436E+03     -2.00715672E+03
      7.62772790E+02      6.10655364E+02     -1.66291315E+02
     -4.26873675E+02      1.57400623E+02      7.84563303E+01
      1.74901326E+03      2.46734783E+03     -6.04031524E+02
     -1.21739562E+03      2.94666211E+03     -1.93764724E+03
     -6.24692816E+02      3.86097119E+02     -2.71379610E+02
      1.11981290E+03      1.28964526E+03     -4.46342514E+02
     -3.28286647E+03      1.32234730E+03     -8.26021667E+02
      5.11494781E+02      4.17074403E+02      4.99195091E+02
      1.16779870E+03      1.67828655E+02      1.63934536E+03
      1.45315577E+03      4.35474456E+02      1.27703581E+03
     -5.63908955E+02     -6.71699382E+02      4.11608808E+02
     -1.11268091E+02     -8.34500839E+02     -1.37212024E+02
      7.53194546E+02      9.68175523E+02      1.30407936E+03
     -8.01106587E+01      5.68298983E+02      2.95903869E+02
      3.63765315E+02      2.57436320E+03     -1.31404687E+03
      3.01135193E+02     -3.99486223E+02     -2.05136347E+03
     -8.47764578E+01      6.77111265E+02      7.37516463E+01
      1.67388372E+03      1.05906747E+03      1.02580584E+03
      3.06358837E+02      2.74218883E+02     -5.20573743E+02
      2.55420842E+01     -8.23287573E+02     -5.46080064E+01
     -2.62856488E+03     -1.03251788E+03      9.53430960E+02
      6.81259006E+02     -1.50207257E+02      1.27027473E+03
     -5.32160558E+01      2.53977368E+01      1.10354133E+03
     -7.62629641E+01      1.08449094E+03      1.70205902E+02
      1.92573249E+02      4.99003346E+01      7.86402566E+02
      2.45773271E+02     -6.08947933E+02     -6.13542367E+02
      6.10346082E+03      1.01400981E+03     -6.68513365E+02
     -2.80178529E+02      7.98969138E+02     -4.17276547E+02
      8.34824405E+02      2.15176201E+03      3.96974925E+01
     -4.58089652E+02     -1.23071187E+03     -9.78822276E+02
      3.31307127E+02     -4.33754592E+01      5.24482175E+01
     -1.21944105E+03      1.23510332E+03     -8.60794287E+01
      5.43124266E+01     -1.04154379E+03      2.35678988E+03
      4.35749310E+01     -1.20675012E+02      1.81842742E+02
      2.06439959E+03      1.18653614E+03     -3.15614456E+02
     -2.69786746E+03     -2.39489323E+02     -3.17337815E+02
      2.63782320E+02     -4.42606363E+02      4.65231520E+02
     -3.05924452E+03      8.51228025E+02     -2.34658129E+03
      1.74142388E+02      2.26279230E+03      1.05909415E+03
     -1.82252762E+01      5.43453052E+00      9.40070415E+01
     -4.56062080E+02      2.14001720E+03      7.65737893E+02
     -1.41369828E+02     -1.06928214E+03      2.06997826E+03
     -2.23678612E+02     -4.50673877E+02      2.03497450E+02
     -1.68506319E+02      1.29118249E+03     -1.27998048E+03
     -1.00775134E+03     -2.71414310E+03      1.08652043E+03
      8.78879166E+02     -1.59043424E+02      8.15973555E+01
     -1.17397771E+03      2.35301616E+03     -1.42001111E+03
     -8.79824401E+02     -8.36593842E+02     -4.77014447E+02
      2.21912103E+02      8.23890461E+02      7.07255957E+02
     -6.33993850E+02      1.01579845E+03     -2.77156766E+03
      1.46567322E+03     -2.86514926E+02     -1.79446708E+02
      1.60207337E+02      4.90944748E+02      2.87361103E+02
      5.27823875E+02     -3.88040895E+02      3.15258679E+03
      2.60618144E+03     -1.77441268E+02      5.36456210E+01
     -4.99163470E+02     -1.72476336E+03     -1.03584913E+03
     -6.57755467E+02      1.30131860E+02      8.52880024E+01
      2.70193845E+03      1.26125916E+03      1.19335773E+03
     -8.60743172E+02     -1.82952390E+03     -1.89549783E+03
     -1.91415122E+03     -7.92614617E+02      9.10373486E+02
      1.53360041E+02     -4.76849119E+02      1.26380504E+01
      1.09100236E+02     -1.09492277E+03      2.49952350E+03
      6.03948005E+02      9.47148850E+02      4.09395591E+02
      3.61717876E+02      1.73912372E+02     -5.57506964E+02
      5.67537613E+02     -2.58141880E+03     -3.19831131E+03
     -4.97522876E+02     -3.69106037E+02     -2.14591210E+03
     -3.24372434E+02     -1.38439122E+02     -8.03271666E+02
     -1.65448093E+03     -2.01125537E+03     -2.77284331E+03
      6.97267535E+02     -8.97826378E+02     -3.73890856E+01
      5.56447870E+01      7.33699605E+02      2.10325751E+02
      1.08976590E+03     -3.59814484E+02     -1.68553159E+03
     -1.56656796E+03     -3.50730708E+03     -5.50077712E+02
      2.64238466E+02      9.67962684E+02     -8.83180556E+01
     -5.15070173E+02      3.01292971E+02     -1.03258469E+03
      9.13546326E+01     -4.36502778E+03      1.03346204E+03
      4.77280849E+01     -1.25201951E+02      1.78784067E+02
     -9.56305409E+01     -7.24163030E+02     -1.67580935E+03
      2.38098975E+03      3.21970527E+03     -1.62534773E+03
     -4.53946498E+02      5.75437364E+02     -2.83459007E+02
     -8.93467561E+02     -9.46503671E+02     -9.70121186E+02
      1.92279345E+03      3.17946761E+03     -8.73880637E+01
     -2.35755123E+02      2.59086045E+02      1.24124500E+02
      4.78087807E+02     -1.49827036E+03      3.45734947E+03
      1.03830509E+03      2.47333546E+03      7.21762996E+02
     -4.47552955E+02     -2.64886493E+02      9.13127264E+02
     -1.59075775E+03      1.94958450E+03     -2.07514245E+03
     -6.68562345E+02     -1.68941106E+03      8.58662621E+02
      2.65777022E+03      1.06822626E+03      1.00137172E+03
     -1.96166951E+01      9.62033345E+02      6.11352696E+01
      7.20060449E+02     -2.73301490E+02     -1.11694263E+02
     -1.20771733E+03     -8.20977553E+02     -1.50649936E+03
     -9.93486194E+02     -2.30126468E+02      1.46519087E+03
     -1.68310358E+02     -4.47820458E+02      7.52171815E+01
      4.78339733E+02      2.68790307E+03     -1.26006825E+03
      1.52542942E+03      1.50711908E+02      6.66520453E+02
     -1.29417733E+03      3.65280434E+01      2.56782811E+02
      1.37592012E+03      1.45945991E+02     -1.12453214E+03
      1.00025030E+03     -1.94896697E+03     -2.61511468E+00
     -6.25743410E+02     -5.42991566E+02      1.04764119E+02
      1.90619856E+03     -2.06021309E+02     -3.09487082E+03
      2.35153960E+02      1.96494113E+03     -9.28314436E+02
     -3.96750120E+02     -3.23490973E+02     -8.16710143E+01
      1.66832727E+03     -9.07143983E+02      1.54489405E+03
     -2.55874241E+02      1.87018474E+03      5.44084654E+02
      4.21623982E+02     -2.12650269E+02     -1.41474592E+01
     -8.08376832E+02      2.13837056E+03      3.79329920E+02
      6.94692273E+02      5.65668776E+02     -5.79732542E+02
      7.23034130E+02      9.33405029E+02     -7.12943673E+02
     -7.44732952E+02      2.50514483E+03     -3.59492211E+03
      6.66545234E+02      3.71368631E+02     -9.27497974E+02
     -5.74738255E+02      2.76374516E+02      1.18889116E+02
     -3.76034040E+03      2.45174431E+03     -1.34279589E+03
     -1.27257886E+03     -1.13778866E+03     -2.46784872E+03
     -5.18812846E+02     -1.70684810E+02      1.35582947E+02
      9.69937439E+02      5.54405838E+02      6.97253441E+02
     -6.57748920E+02     -1.84452805E+03      4.15120857E+03
      1.34567121E+02     -1.25618482E+02     -1.10812456E+03
      1.57685957E+03     -9.59174754E+01     -8.54965690E+02
      8.20296588E+02      2.04711670E+03     -1.52919383E+03
     -2.86784782E+03      1.18728360E+03      1.72378783E+03
      2.00004384E+02     -4.77004870E+02     -1.18852463E+01
      8.86822209E+02     -1.00010473E+03     -3.68897261E+02
      1.73608880E+03      4.86298360E+01      1.98217668E+02
     -4.29324899E+02      1.91327266E+03      9.77362299E+02
     -1.02569407E+02      1.06744990E+02      3.89270818E+02
      1.61731954E+02     -4.52614919E+01     -3.37873776E+03
      1.71119510E+03     -1.57522462E+03     -6.11501469E+02
      6.45332816E+02     -6.22882216E+01     -4.09642077E+02
      1.36675201E+03      5.50554810E+02      9.80174950E+02
     -3.27938811E+02      1.75673340E+02      1.93156684E+03
     -1.23630298E+03      6.68903635E+02     -3.43305830E+02
      1.30727089E+03      8.31328855E+02     -9.43595407E+02
     -1.25900628E+03      9.89204633E+02      4.72714730E+02
     -2.42363540E+02      4.50344020E+02      7.21713644E+02
     -7.07028415E+02      1.89231186E+03      1.45017118E+03
     -2.36601548E+03     -2.03130538E+03      1.20214678E+03
     -2.11657155E+02     -2.22351525E+02      1.83444530E+02
      1.18506413E+03      8.15742171E+01     -5.60712751E+02
     -1.35671240E+03      1.41607293E+02     -3.95263997E+02
      8.15463098E+02      1.08995096E+03      1.88850610E+02
     -1.82662321E+03      9.49506619E+02      5.12752440E+01
      1.76570425E+03      2.17863195E+03      2.01664286E+03
      9.11939629E+01     -6.74295338E+01     -4.20935291E+02
     -2.76086736E+03      1.55152566E+02     -1.94696770E+03
     -1.06918091E+03      1.84188150E+03      2.06727920E+02
     -7.20075844E+02      6.58735451E+02      6.09331219E+02
     -1.60017988E+02      2.71813224E+03     -1.35751224E+03
      9.29462485E+01      1.81366283E+03     -7.08400709E+02
      2.51649231E+02      5.87792774E+02      5.90747971E+01
      2.13033058E+03      6.85660618E+02     -1.51456105E+03
     -2.86212932E+03     -1.08487931E+03     -6.04645735E+02
      1.78946982E+03     -2.10572160E+03     -2.90278842E+03
      4.58486999E+02      2.42253690E+01      2.51184019E+02
      1.39121750E+03     -7.00717700E+02     -1.14815508E+03
      1.40704542E+03      4.88635127E+02     -7.34849411E+02
      1.05765712E+03     -1.28659021E+03      3.26594116E+03
      6.73500950E+02      5.82154113E+02      1.50097138E+02
     -4.66521436E+02     -1.26459300E+03     -1.55797835E+03
     -2.57238540E+03      8.75937220E+01      4.67069084E+02
      5.10865713E+02      5.58671257E+02     -3.93670654E+02
     -1.28922830E+03     -7.94641832E+02      2.21225079E+03
     -1.87023183E+03     -5.47470487E+02      2.66443575E+02
     -7.93347856E+02     -7.44223840E+01      4.85230102E+02
     -9.15932828E+02     -5.52467821E+02      1.32766292E+03
     -5.11299502E+02      3.63675963E+02      2.82328362E+03
     -5.00452458E+01      8.15780430E+02     -2.59784332E+02
     -2.93169140E+03      1.02707601E+03      1.69253448E+03
     -1.67806263E+03     -5.73890420E+02      7.62459684E+02
     -8.06118287E+01     -2.07308890E+02      1.47834549E+02
     -9.99434865E+02      1.88403657E+03      9.99577639E+02
     -5.17185178E+03     -2.15631194E+03     -3.50965888E+03
      4.74843705E+02      4.03152681E+02     -7.88261141E+01
     -3.02655453E+02      1.41903412E+02     -8.31811377E+02
      1.15030109E+03     -2.04730681E+03     -2.77759687E+02
      4.26104832E+01      1.70244040E+02      5.83833904E+01
      1.11613623E+03      1.62546051E+02      1.88596135E+03
     -8.81384439E+02      2.27334095E+03      2.66753069E+02
      5.95170462E+02      1.05859298E+02      3.70106718E+02
      6.21467585E+02      6.53707706E+02      1.62566428E+02
     -2.52998814E+03      7.57244759E+02     -4.29631553E+02
      5.76616615E+02      3.56611410E+01     -6.29027233E+02
      8.46733540E+02     -1.69658805E+03     -3.20877502E+02
      2.46866102E+03      1.08276633E+02      8.52598474E+02
     -2.28635688E+03      2.46945180E+02     -2.35137243E+03
     -7.68064656E+02      2.71202229E+02      7.44779975E+02
     -3.83490782E+02     -6.08350725E+02      1.20211306E+03
     -2.14939351E+02      2.59532382E+03      1.40326984E+03
     -2.48309044E+03     -5.16202784E+02      5.92569695E+02
      4.71603662E+02     -1.33187747E+02      3.59150818E+02
      1.05195338E+02      7.09530939E+02     -2.43790904E+03
      8.21653417E+02      8.01479338E+01      1.63071005E+03
     -8.14016400E+01      1.78263064E+02      2.94096849E+02
      4.25965537E+02     -7.17365452E+01     -2.11930544E+03
      1.78466606E+02      1.84317306E+03      2.57819519E+03
      7.76447248E+02     -2.83422644E+02      6.74575851E+02
     -1.14224297E+03      1.12734600E+03      2.06076297E+03
      1.08767129E+03     -7.01922918E+02      8.29753469E+02
     -1.59845427E+02      6.04343994E+02     -1.34738862E+02
      1.76654525E+02     -2.01382588E+03      1.71508977E+03
     -1.05060361E+03      1.92153234E+03      3.42506089E+03
     -4.29784098E+02     -4.80221141E+02      9.49323406E+02
     -1.19704121E+03      1.43578977E+03      4.87662507E+02
     -1.13365183E+03     -1.53411155E+03      4.77946966E+01
     -4.42312955E+02     -2.02908888E+02      8.99589192E+01
      2.86491153E+02     -1.88734314E+03     -1.87411320E+02
     -1.45658796E+03      2.04717925E+03      7.66602620E+02
      9.77859224E+00     -3.80306540E+01      5.88831958E+02
      1.62410017E+02     -4.02440377E+03      6.15973374E+02
     -6.78481860E+02      4.38523749E+00      3.04243882E+03
      7.26789153E+02      7.40647514E+02     -2.87710583E+02
     -6.33384445E+02      1.84913612E+03     -9.88502218E+02
     -2.44848033E+03      2.55263662E+02     -2.42971487E+03
     -2.80143825E+02     -5.62200723E+02      1.73203387E+02
      1.50160215E+03     -1.24335612E+02      4.93788920E+02
      2.48946340E+03      1.12997111E+02     -5.21843754E+02
      2.06390193E+02      4.34963965E+02      6.84649377E+02
     -2.69893292E+02      7.23234006E+02     -5.78500301E+02
      1.15755635E+03      3.84803141E+02      1.04351324E+02
      2.00259431E+02      2.59077211E+03     -9.53977025E+02
      2.84278537E+03      3.45133682E+02      2.16727018E+02
     -6.52785494E+00     -1.17873778E+02      1.16083947E+03
      1.23245715E+03     -3.59600804E+03      1.19297038E+03
      1.04881612E+03      7.96768567E+02      1.94739119E+03
      1.80268123E+02      9.69447319E+02      3.37706984E+01
     -2.71012881E+02      2.43084560E+03      2.74313743E+03
      1.27012609E+03      5.51698413E+02      8.65364054E+02
      1.48011820E+02     -4.26654992E+02      8.27152825E+02
     -7.35667227E+02      6.23184738E+02      1.23838763E+03
      1.83620346E+03     -1.22876301E+03     -1.69420162E+02
      4.31659168E+02     -4.17624028E+02     -1.86082782E+02
     -1.23878882E+03     -5.95473127E+02      3.45755190E+01
      1.43610944E+03      1.87499589E+03     -2.76790602E+03
      3.64153197E+02      1.92610337E+02      4.85631166E+02
      8.77290344E+02     -7.48510929E+02     -1.50381677E+03
     -6.10764253E+02      1.29685448E+03     -1.97305204E+02
      8.20328420E+02      6.23212813E+01     -2.35494019E+02
     -4.90916334E+02     -2.83205600E+03      9.69717774E+02
     -1.24573265E+03      2.03094460E+03     -1.85784201E+03
      2.49289662E+02      5.65599431E+02      2.18308404E+02
      1.57252354E+03     -3.50020146E+02      3.45600594E+03
      8.37613628E+01      8.86894109E+02     -1.40566452E+03
      1.42917571E+02      8.70395424E+02     -1.10700532E+02
      4.50455968E+02      8.29930317E+02      1.02293723E+02
     -1.41004336E+02     -5.68981876E+02     -3.13399749E+03
      2.65777283E+03     -1.87758117E+04     -1.08378823E+04
      7.57622983E+01      1.24101487E+03      6.77269778E+01
     -2.01388817E+02      3.49846790E+03      2.91499558E+03
     -3.73432898E+03      2.58092249E+03      2.43271817E+03
     -7.57130378E+02     -7.77478523E+02     -1.13294345E+02
     -2.32660040E+03      2.57250430E+02      1.28210735E+02
     -2.60334078E+03     -1.73377982E+03      1.22787265E+03
     -2.72474565E+02      4.92947061E+02     -4.18023738E+02
     -3.39518221E+02     -1.93928621E+02     -2.07019863E+02
     -8.54759878E+02     -2.33172942E+03     -1.29182581E+02
     -2.80030831E+03     -1.30893473E+03     -2.04993829E+03
      3.38006321E+02     -7.62692919E+02     -8.33664657E+01
     -1.46178807E+03      1.00473057E+03      2.45157729E+03
      8.88090923E+02      2.77806769E+02     -1.33749607E+03
      3.08164306E+02     -1.32854400E+02     -3.63510150E+02
      1.70977087E+03      2.63743898E+02     -1.53756970E+03
      5.92958948E+02     -2.05430764E+03      2.11583177E+03
     -9.10463813E+02     -1.09004361E+01     -4.10140863E+02
     -2.16727090E+01     -1.22023221E+03     -4.83724847E+02
      1.71217052E+03      3.01310544E+03      6.81356529E+02
     -5.30840853E+02     -9.23614899E+01     -2.69542719E+02
      1.40714510E+03     -5.67406327E+02      2.50648756E+03
      6.72162460E+02      2.66052996E+03      3.44924096E+03
     -3.27342675E+02     -5.47832038E+02      1.70762609E+02
     -3.03383322E+03     -1.42644031E+03     -1.60294596E+02
      4.61630806E+02      5.09225763E+01      1.11726937E+03
     -9.73267634E+02      5.46166685E+02      4.57966856E+02
     -1.05308776E+03      6.30362997E+02     -1.75085178E+02
     -1.25870029E+02     -5.61854417E+02     -9.48053931E+02
     -6.83821038E+01      4.03532983E+02      4.02435184E+02
     -9.28574349E+02      3.46409930E+02      2.66214310E+03
      1.51718236E+03      6.78606403E+02      2.12648596E+02
      8.27351207E+02      6.22845345E+02     -7.07412845E+02
     -4.75334144E+02      1.98143494E+03     -1.09351806E+03
     -1.43799276E+03     -8.73575532E+02      2.32568791E+02
      5.45817050E+01     -1.29908745E+03     -8.53871651E+02
      1.68719633E+02     -3.85843854E+02     -2.60872160E+02
     -1.56271635E+03     -1.28208933E+03     -2.09222272E+03
      1.81419257E+03     -7.46508733E+02     -3.46289791E+03
      2.02886150E+02     -1.78910077E+03      2.96862198E+03
      5.36267534E+02      4.09704059E+02      4.55415945E+02
      5.43982847E+02      9.96154748E+02      2.95306893E+01
      1.40046269E+03      3.15310542E+02      5.72978127E+02
     -2.77899909E+02     -3.86426056E+02      4.18164522E+02
      1.52560812E+03     -3.47973850E+03     -1.31944183E+03
      1.51533946E+03     -2.05601761E+03      1.62065990E+02
      4.90731642E+02      8.68546774E+02      7.09889934E+01
      7.15950712E+02      8.00441429E+02      9.93460477E+02
     -9.33142355E+02      1.17671136E+03      1.49436399E+03
     -5.88595743E+02     -7.43044407E+02      3.24326423E+02
      1.91031003E+03      1.73951327E+03     -6.55491552E+02
      1.78153989E+03     -1.87279150E+03      7.91750442E+01
     -3.34432931E+02      2.59660104E+02      1.04523148E+02
      3.72114457E+02     -9.25294834E+02     -2.72434331E+03
      1.98569913E+02      5.11483028E+02     -1.48548886E+03
      1.68564871E+02     -4.29914789E+02     -1.66465369E+02
     -1.17039055E+03      6.68549543E+02     -1.13105246E+03
      5.02123579E+02      1.04493101E+03     -3.23435100E+02
     -3.83763644E+02      4.08674166E+02      4.52602826E+02
      1.51441484E+03     -1.46691174E+03      1.30231268E+03
      2.63973198E+03      2.05838710E+03      2.67349635E+02
      2.97530773E+02     -6.91717579E+01     -4.60044538E+02
     -1.38243102E+03      8.19730016E+02      4.11074706E+02
      2.33866115E+03      4.80914616E+02      1.91785586E+03
     -3.51937995E+02      1.48401730E+02      4.82580681E+02
      6.87370239E+02      2.81108759E+02     -1.29726662E+03
      7.60528283E+02     -1.71007472E+02      1.76746049E+03
     -1.31864161E+03      3.39936707E+03      6.31186770E+02
      1.83101243E+02      7.41179007E+02     -7.09655110E+01
     -1.22862896E+03      1.00226672E+03      7.02129643E+02
     -1.61788185E+03      1.99158093E+02     -1.32622681E+03
      1.61147843E+03     -8.16679039E+02     -9.51162707E+02
      2.01337087E+02      9.84277536E+01      7.21575101E+01
      2.52143740E+03      2.67770659E+03     -1.02100266E+03
     -4.19439272E+02     -5.62351142E+02     -8.52808532E+02
      2.46071166E+02      6.48208797E+01      4.42519790E+02
     -2.92923105E+03     -3.32755252E+03      8.84863786E+02
      1.11325239E+03      1.40849499E+03      2.95739319E+03
     -2.34767284E+02      7.71657470E+02      8.94149386E+01
      1.57272119E+03      1.47392676E+03      2.02305387E+03
      2.00770506E+02     -1.74512643E+03      7.47070813E+02
     -2.94671182E+01      1.46670859E+02     -5.56567919E+02
     -4.17580312E+02      3.63767890E+03     -3.15971395E+03
      4.63497747E+01      2.74756209E+02      2.87127990E+03
      5.10467503E+01      7.51316208E+02     -1.81439551E+02
      3.42267998E+02     -2.15819807E+03     -4.56803635E+02
      6.48385612E+02      4.74334919E+02     -4.09034426E+02
      8.03413556E+02      3.91809280E+02     -5.99651800E+01
     -7.69701181E+01      1.16634846E+03      1.99780609E+02
      5.44076510E+02      3.68287017E+03      2.79269785E+03
     -2.40835049E+02     -1.37693487E+02      1.24253759E+01
      1.58337653E+03     -2.77665714E+02      1.20763933E+03
     -1.33354396E+02      3.05027652E+03     -1.83331327E+03
     -5.74186929E+02     -2.17573832E+02      6.81055524E+02
      1.68362926E+03      3.10087268E+03      2.50515493E+02
     -1.86279411E+03      6.91527796E+02     -3.75163483E+03
     -4.56734600E+02     -1.38405321E+01      1.36695051E+02
     -1.00798437E+03     -4.52920180E+02      1.27263822E+03
     -1.96854803E+03     -2.43596791E+03     -3.96512856E+02
      2.13447202E+03     -2.25331120E+03      3.47144774E+03
      3.83178774E+02      2.51610428E+02     -2.54921382E+02
      6.91787071E+02     -1.67340170E+03      1.14573618E+03
      3.05445577E+03     -4.60734759E+02     -1.50974725E+03
     -2.83600013E+03      1.02265516E+03      6.46112894E+02
  }
}

Hamiltonian = DFTB {
  SCC = Yes
  SCCTolerance = 1e-6
  MaxSCCIterations = 200
  ForceEvaluation = Dynamics
  MaxAngularMomentum = {
    C = "p"
    H = "s"
  }
  Charge = 0.0
  SpinPolarisation = {}
  Eigensolver = Standard {}
  Filling = Fermi {
    Temperature [Kelvin] = 300.0
  }
  SlaterKosterFiles = Type2FileNames {
    Prefix = "../../pbc-0-3/"
    Separator = "-"
    Suffix = ".skf"
    LowerCaseTypeName = No
  }
  KPointsAndWeights = {
    0.0000000000000 0.0000000000000 0.0000000000000 1.00000000000000
  }
  Dispersion = LennardJones { 
    Parameters = UFFParameters {}
  }
}

ParserOptions = {
  ParserVersion = 3
}
