Geometry = GenFormat {
<<< "system.gen"
}

Driver = VelocityVerlet{
  Steps = 50000
  TimeStep [fs] = 0.2
  MDRestartFrequency = 5
  Thermostat = None {
    #InitialTemperature [Kelvin] = 300.0
  }
  Xlbomd{ 
    IntegrationSteps = 6 
    MinSccIterations = 2
    MaxSccIterations = 200
    SccTolerance = 1e-6 
  }
  Velocities [m/s] {
     -9.25277397E+02      3.87726664E+02      2.28309152E+01
     -1.49809009E+03     -5.11012301E+03     -7.66963201E+02
      1.06392396E+02     -4.78663547E+02      1.75761677E+03
     -3.50466737E+02     -6.66442514E+02      6.29413988E+02
      1.36820440E+03     -1.26180152E+03     -1.71631312E+03
     -3.79899088E+03      1.14768155E+03      9.95342019E+02
      2.75164248E+02     -7.99844921E+01      3.09921387E+02
      3.80681665E+01     -2.27060196E+03     -3.23334338E+02
      3.26763374E+02     -1.59492200E+03      9.04446857E+02
      1.66005203E+02     -1.12150255E+03     -1.51631592E+02
     -2.69276971E+03      1.25523856E+03     -2.23340665E+03
      1.86036684E+02      1.69162418E+03     -1.16360489E+03
      1.55879682E+02     -2.31633247E+02     -9.01917564E+01
     -3.73914310E+02      1.05449271E+02     -1.04931718E+03
      3.86273832E+02      1.33229778E+03     -6.64603747E+02
      2.40055958E+02     -2.26841150E+02     -1.01581528E+02
     -2.96290170E+03      8.14267788E+02      3.01548092E+03
     -5.48388812E+02      3.92558157E+02      1.06104043E+03
     -1.65461421E+02     -4.28792596E+02     -8.53452534E+01
      1.60058922E+02      4.17457779E+03      2.54742608E+03
      9.04569100E+02     -1.39241509E+02      2.04098769E+03
      3.31361773E+02      7.18120746E+02     -2.97342956E+02
      3.16801480E+01      3.34001876E+02      3.73813163E+02
      9.39405337E+02      7.24594140E+00     -4.31083497E+02
     -2.79650976E+02     -1.95883817E+02      7.68854067E+01
      3.78081771E+02     -1.16320643E+03     -2.08031288E+03
     -2.42675195E+02     -1.97873881E+03      1.80752855E+03
     -2.09119044E+03     -2.66928789E+03      2.01603044E+03
     -4.53845029E+02      2.99746685E+02     -3.80805483E+02
     -1.04529038E+02      1.59825954E+03      1.44055228E+03
      5.48430232E+02     -2.19024697E+03      3.41499137E+03
     -3.37775257E+02     -3.22738190E+01      3.39642508E+03
     -9.94749705E+01     -2.12287560E+02     -1.36739039E+02
     -7.87438550E+02     -6.86995955E+02      1.94565525E+03
      1.27608791E+01     -1.06035485E+03     -2.13904762E+02
     -3.26803350E+02      1.65804970E+02      2.13209902E+02
     -2.55705341E+03      1.66046887E+03     -2.88244150E+03
      8.20116510E+02     -1.70898754E+03     -1.25403103E+03
     -2.36977155E+02     -3.30391966E+01     -2.16817751E+02
     -2.38013974E+03     -1.53458483E+03      2.06508179E+03
      2.75476977E+03     -5.79603191E+02     -8.19767472E+02
     -1.18753548E+02     -3.38845963E+02     -6.99213168E+01
     -3.82091922E+03     -2.25674837E+02     -3.45404569E+03
     -4.33686288E+01     -3.77604628E+01     -3.53691033E+02
     -6.87281911E+02      5.77630469E+01     -3.41102502E+02
      1.06527561E+03      1.17952874E+03     -2.20429303E+02
      7.51398172E+01      2.48170233E+02     -4.61588664E+03
      6.65073753E+02     -2.55408542E+02      3.47391344E+01
      3.46476291E+03      2.00511546E+03      3.82843726E+03
     -3.37750797E+02      8.31781012E+02      3.48734669E+02
     -3.64095530E+02     -4.25632565E+02     -3.56185783E+02
     -3.47857974E+03     -1.90989636E+03     -6.54735007E+02
     -2.25803847E+03     -1.05965506E+03     -2.60070988E+03
     -1.14258695E+02     -1.00421822E+03      8.52186544E+02
      5.34696966E+02      1.06465944E+03      2.12928169E+03
     -2.14854664E+02     -2.23841939E+03     -1.17909707E+03
     -7.19297083E+01     -4.15293685E+02     -7.42977283E+01
      7.79562860E+02     -2.17903528E+03      3.25846672E+03
     -3.44370018E+03      1.03218589E+03     -4.61394928E+02
      1.40958629E+03      2.07681671E+03     -2.41829589E+03
      1.41883031E+02     -3.77411214E+02      2.79038466E+02
     -2.20190919E+03     -5.41803800E+02     -9.24995341E+02
     -7.41010726E+02      7.12996549E+02     -2.85367883E+03
      2.84342927E+03     -3.74167314E+02      5.45928612E+02
     -8.35695170E+02     -1.82409201E+02      2.46558702E+01
      1.49317526E+03      1.09006862E+03     -5.17052594E+02
      8.47479191E+02     -1.07189103E+03      3.58492171E+02
      5.13253126E+02      7.45510082E+02     -1.18998818E+03
      7.59387703E+02      5.88228442E+02      1.15907842E+03
     -2.80609834E+02      2.17232308E+03     -3.06505038E+02
      9.45197661E+01     -1.08389540E+02     -6.32997791E+02
      1.14292252E+03     -1.84614898E+03     -3.07319017E+03
     -7.61100940E+01      1.57060498E+03      2.17313162E+03
      2.38200324E+01      8.74743432E+01      2.98498545E+02
     -6.01073850E+01      3.26588479E+03     -1.75930062E+02
      6.73497033E+02      8.86531789E+01     -7.09097931E+02
      4.82511648E+02      2.40540220E+02      1.67378361E+02
      2.89442113E+02     -3.58585319E+02     -3.46982974E+02
      2.10495935E+03     -1.09553859E+03     -1.09004944E+03
     -5.38299144E+02     -8.90236569E+02      2.69133956E+02
      1.73956557E+03     -4.83836604E+02     -1.11372739E+03
      7.21194411E+02      1.21473645E+02     -6.90975466E+02
      1.67834933E+01      7.38001403E+02     -7.29260177E+01
      3.73303848E+02      8.49307675E+02      4.56396851E+02
      1.73858831E+01      1.47618888E+03      6.76017146E+02
     -2.39809227E+02     -9.80138203E+02      7.56563000E+02
      1.68912662E+03     -8.55206752E+02      1.57745805E+03
      7.46986849E+02      1.82905704E+03      1.41787322E+03
     -1.92360239E+02     -1.38638985E+02     -1.08532389E+03
      8.87687156E+02     -9.59479759E+00      1.16102662E+03
     -3.00677487E+03     -5.82016138E+03      1.47221783E+03
     -2.49217020E+03      9.00126768E+02     -1.50830830E+02
     -1.91043190E+02      1.90228399E+02     -9.85241153E+02
      3.66318997E+02     -4.22746421E+02     -1.25064564E+03
     -2.46555605E+02      1.72621112E+03     -1.34276057E+03
     -4.98723251E+02     -1.26887165E+03     -2.90997162E+03
     -3.13609754E+02     -1.10499310E+02      3.27566559E+02
     -2.27861977E+03     -3.14483844E+03      1.31018921E+03
      4.50339870E+01      2.85694094E+02      1.18196831E+03
      3.33864158E+02      5.96318994E+02     -6.68657315E+02
      1.64764992E+03     -1.81791048E+03     -1.76750874E+03
     -1.66922912E+03      1.39427547E+03      1.30270316E+03
     -6.73565843E+02      4.02554109E+02     -3.55851993E+02
     -2.35133354E+03     -5.27813399E+01     -1.98906826E+02
     -4.93860117E+02      5.19323861E+02      1.51212691E+03
     -6.31787218E+02     -3.72849526E+02     -5.56087058E+02
     -4.77660027E+02      6.54028759E+02     -3.44567965E+01
      2.41784198E+03      1.50348079E+03      5.70733181E+02
     -4.35599483E+02      6.29139238E+02     -8.69079127E+02
      1.39840555E+03     -1.24933840E+03     -3.54537322E+02
     -2.30444867E+03     -1.15163643E+03     -6.70398889E+01
      2.83907695E+02     -4.10098445E+02      1.46219125E+02
     -1.99746991E+03      3.16435714E+03     -1.31751296E+03
      7.01174659E+01     -2.04435913E+03     -1.21943514E+03
     -1.01388719E+03     -6.40082714E+00      1.27838051E+02
      7.30760718E+02      1.55811818E+03      4.34559558E+02
      5.70300889E+02      5.89058238E+02     -3.38917426E+03
     -7.14076547E+02     -4.34840804E+02      1.18290719E+03
      6.79213881E+02      4.83611873E+02      9.42051276E+02
     -1.36147682E+03     -1.19690901E+03     -5.98071623E+02
      5.59117063E+01      6.77623356E+01     -1.28038190E+03
      2.89128470E+02      2.61517304E+02      4.94978280E+02
      1.58654399E+03     -1.18817171E+03      5.12789831E+02
      1.64590848E+03     -6.29434556E+02     -1.59989336E+03
     -1.31652906E+03     -7.37394870E+02     -1.67740278E+02
      6.73904871E+02     -1.94263130E+03     -9.47266361E+01
     -2.41831373E+03      3.48834808E+01     -8.30433345E+02
     -9.73736732E+02     -2.57324815E+03     -3.00097677E+01
      6.77234081E+02      2.86469444E+02      3.09234006E+01
      8.04898334E+02      9.37153353E+02     -6.80007238E+02
      1.24086937E+03     -6.08612278E+02     -1.37783151E+03
      5.65429620E+02      9.72363767E+02     -9.21541027E+01
     -2.84101670E+02      1.22073295E+01      6.29782837E+02
     -8.07264882E+02      1.77286817E+03     -1.74348205E+03
     -4.63600285E+02      4.89755766E+02     -3.12939862E+02
      1.17954251E+03      9.50021237E+02     -8.57784292E+02
     -8.51167138E+02     -1.54846406E+03     -9.01203727E+02
      2.63895948E+02      9.03223973E+01     -8.83852408E+02
      3.18507847E+01      1.27381326E+02     -9.03040216E+01
      2.48979689E+02     -7.50763670E+02     -2.01556296E+03
     -7.33646582E+01      1.18744094E+02     -1.10292347E+01
      2.13327948E+03     -1.04871242E+03     -5.69349328E+02
      1.76798174E+03     -2.79285702E+03     -8.34065171E+02
     -5.36337229E+02     -4.69581744E+02      6.44796266E+02
      1.75422069E+03      8.06788295E+01     -1.03181314E+02
     -1.45799369E+03      2.13093193E+03      7.23808946E+02
     -8.97432240E+02     -5.48374201E+02      4.24409822E+01
     -1.14724058E+03     -1.25901815E+03     -3.19113442E+02
     -6.43157684E+02     -1.52517763E+03      1.65517789E+03
     -1.67426450E+02     -8.15009668E+01     -1.90022723E+02
      1.29877485E+03     -1.10085756E+03      6.04123002E+01
      9.56066655E+02     -9.83593008E+02     -1.18034275E+02
      3.83399776E+02     -4.72995332E+02     -1.61741196E+02
     -3.33577582E+02     -1.84479068E+01      1.67357069E+02
     -1.47671613E+03     -1.17548830E+03      3.03789227E+02
     -1.06231227E+03      2.66135178E+01     -1.29681441E+02
      1.64987175E+02     -6.23502192E+02     -1.74317423E+02
     -4.05435059E+03      5.98288170E+02     -6.94456861E+02
      1.89375569E+02      1.34475565E+03     -2.80125614E+03
      1.18010404E+03     -5.81774676E+02      1.97595537E+02
      8.25384362E+01      3.02056716E+02     -7.36156404E+02
      3.76960093E+02     -1.91868232E+02      1.25933241E+03
     -4.12336381E+03      1.12296499E+03     -1.64321314E+01
     -6.44868040E+02     -2.50378116E+02     -9.99819078E+01
     -2.08061590E+02     -7.05180620E+02     -1.33410601E+03
      1.76227193E+03      1.45799132E+03      1.29504797E+03
      2.63145346E+02      4.55167484E+02     -5.15159879E+02
      2.28865706E+02      6.18891521E+02     -7.67688802E+02
     -1.55201609E+03     -1.03762927E+03      3.04321699E+02
     -4.18230964E+02     -1.95476566E+02     -4.61002441E+02
     -4.80111140E+02     -3.53636137E+03     -3.30553427E+03
     -1.24725795E+03      4.27874652E+02     -1.57098917E+03
      3.11110734E+02      7.68137406E+01     -2.94721774E+02
      1.96877388E+03     -3.31542529E+01      9.45639324E+02
      1.29532418E+03     -1.01897342E+02      2.67803582E+03
      8.90640776E+02      3.05684711E+00     -3.84451542E+02
     -3.47547329E+02     -6.19798858E+02     -1.55807974E+02
     -7.97520332E+02     -1.07868738E+03      6.57098187E+01
      2.41655814E+02     -1.71593481E+02     -8.39605330E+02
     -1.15602169E+03      1.77219670E+02     -2.62937032E+03
     -8.50949871E+02      1.08041350E+03      1.25635950E+03
     -3.64166880E+02     -4.07746177E+02     -1.41619930E+02
     -1.85487772E+03      1.91900698E+03      4.38069064E+02
     -1.90918020E+03      7.45482025E+02     -1.35238559E+03
      3.78832646E+01     -6.00417058E+02     -2.19416920E+01
      1.89472709E+03      5.68965963E+02     -5.27778787E+02
     -2.09931700E+03     -1.49766517E+03      1.80459001E+03
      3.03619051E+03     -7.70360608E+02     -1.06979807E+03
      1.30852203E+01     -2.20554931E+02     -7.79068506E+02
      7.24078737E+02      1.08797414E+03      6.50686682E+02
      1.14172355E+03      2.12652700E+03      5.54829645E+02
      8.29050291E+02      2.05885833E+03      5.88126361E+02
      6.79454771E+02     -5.78491305E+02      4.48935777E+02
     -1.74004590E+03     -1.61687714E+03     -5.96192294E+02
      5.63248222E+02     -3.99612638E+02     -2.10891758E+03
     -1.29893973E+02     -2.73736468E+02      8.17036389E+01
     -9.89729619E+02      1.46430123E+03      5.29576273E+02
      6.18326809E+02      6.62326844E+02     -2.50276200E+03
      7.19865085E+01     -1.56408090E+02     -1.03576028E+03
      2.34320097E+03      1.50122364E+03     -1.82434642E+03
      1.51577684E+03      3.10379398E+02      7.50094730E+02
     -8.13017201E+02     -4.33153780E+02      1.28984508E+03
     -7.27054542E+02      2.13168674E+03      4.54690415E+03
     -1.47527594E+03     -1.68559115E+03      4.42114298E+02
     -6.59781820E+02     -1.40859756E+01      1.84067620E+02
     -2.09268455E+03      9.21874070E+02      4.05237196E+02
      1.10812638E+03      1.15178576E+02     -1.09309552E+03
      4.17915914E+02     -2.76528102E+02     -6.35100916E+02
     -1.37297863E+03      7.75291192E+02      5.57921933E+02
      1.49155223E+03      7.14597469E+02     -1.07806295E+03
     -5.87014398E+02     -2.13101110E+02      9.17424735E+02
     -7.60932800E+02      1.78165476E+03     -2.08405127E+03
      1.03515032E+03      7.02204907E+02     -4.57870603E+02
     -5.00290627E+02     -4.55482445E+02     -3.48521898E+00
     -1.28709236E+03     -2.02645884E+03     -5.32726921E+02
     -3.11308878E+03     -1.05065496E+03     -1.12612347E+03
      3.22892559E+02      4.14174905E+02      1.25555342E+02
      5.99538398E+02      8.51981731E+00     -2.08462937E+03
      6.53798976E+02     -1.29810002E+02     -1.25232454E+03
      1.35855867E+03      1.97666275E+03     -1.49303419E+03
      1.59362145E+04      8.83697242E+03      1.19291905E+04
      1.95980917E+03     -1.77740495E+03     -2.96211458E+00
     -1.99763204E+03     -3.19963314E+02      1.86948761E+02
     -2.09980456E+03     -2.40209612E+03     -3.08527828E+02
     -7.30338174E+02      3.15694987E+02     -6.62002753E+02
      1.33242907E+03     -2.06526684E+03     -5.71664109E+01
     -6.96379804E+02      9.99354084E+02     -1.58315370E+03
     -5.73196611E+02     -4.81744885E+01      6.55105105E+02
     -1.36711394E+03     -1.82167927E+03      1.80755495E+03
      1.30905229E+03      1.01421353E+03      2.41529049E+03
     -2.31876495E+02      3.00378029E+02     -8.33401686E+02
     -1.21583480E+03      2.36798240E+02      1.07073402E+03
     -1.49323604E+03      2.24018376E+03      3.67740065E+02
      3.31508367E+02      3.43224046E+02     -4.96602319E+02
      1.32902365E+03      7.88296608E+02     -2.59060066E+03
      5.64318937E+02     -4.47829977E+02      5.14648700E+02
     -7.46911407E+02     -4.20319078E+01     -2.75769987E+02
     -1.45107810E+02      5.55283964E+02     -3.29146785E+03
     -1.22227770E+03      1.72739449E+03     -1.93284987E+03
     -8.13488099E+01     -4.20526704E+02      6.15367993E+02
     -6.81191262E+02      8.89566343E+02     -1.80339955E+03
      7.45208227E+02      3.82708244E+03     -6.86960407E+01
     -8.24782860E+01      8.80229862E+02     -7.62799509E+01
     -2.92635374E+03     -6.56581925E+02     -5.51157085E+01
     -3.99099641E+03      3.51864008E+02     -1.88023781E+03
     -4.02595046E+02      2.13636581E+02      1.90308099E+01
     -3.03722597E+03      3.11876556E+02     -1.70498355E+02
     -1.52145575E+03     -4.85129076E+02     -2.48386520E+03
      4.79950483E+02     -1.28943410E+02      3.52167592E+02
      2.59483849E+03      2.46644655E+03      1.23575783E+03
     -1.69065980E+02     -8.01245596E+02     -1.37558848E+03
      8.48389294E+02      9.67501410E+01     -8.17250400E+02
     -1.00201119E+03     -9.59104768E+02     -4.28218600E+02
      3.08441928E+03     -1.29488366E+03     -2.00797848E+03
     -1.39449990E+03     -1.87300066E+03      6.44293474E+02
     -2.05911818E+03     -2.79682948E+03     -1.19807380E+03
      1.27377662E+02      4.98544130E+01      3.14615939E+02
     -1.72838028E+03     -1.82782133E+03      4.74600592E+02
      1.17730513E+03      1.60911734E+03      2.20166299E+03
     -5.27036861E+02     -1.23541895E+01      8.86877305E+01
     -2.98941448E+02      2.81848800E+02     -1.49984834E+02
      2.31695173E+03      3.59383149E+02     -1.58504550E+03
      1.16432317E+02     -6.45111955E+02      6.68504518E+02
      4.15257487E+02     -1.03444397E+03     -4.42009717E+02
     -1.52785291E+03     -1.12844005E+03      1.27456173E+03
      5.42281110E+02     -3.18085763E+02      1.34896313E+02
     -9.78402365E+02      1.71209849E+03      8.29899318E+01
      1.18937721E+03     -9.92963283E+02      4.02265869E+03
     -2.40894754E+02     -9.62024856E+01      3.69918746E+02
     -1.84475981E+03     -1.48073174E+02     -9.79423335E+02
      4.21677128E+02     -2.33139409E+03     -4.09807536E+02
     -1.59420148E+02      1.48479957E+02      4.30813744E+02
     -1.62267203E+03      1.93445298E+01     -1.49276338E+03
     -7.70716050E+01     -1.69572619E+03     -1.30897681E+03
     -4.36262108E+02      9.44424446E+02     -1.98161909E+02
     -2.18476465E+03      9.25199011E+02      9.83990604E+02
      9.58113102E+02     -5.22183639E+02     -2.95644722E+03
     -1.43642103E+02     -3.20405706E+02      3.44888436E+02
      6.16562643E+02     -1.94809875E+03     -1.47010887E+03
      5.36212427E+01     -1.84729365E+03     -2.74474181E+03
     -1.53715845E+02      5.40369612E+02     -5.83520175E+02
     -1.97953048E+03     -2.20596264E+03     -9.47023644E+02
     -8.20863015E+02     -2.74474048E+03     -1.82723748E+03
     -9.40311864E+02     -1.20487149E+03     -7.99104439E+02
     -2.13618090E+02      1.04292504E+03     -8.81852802E+01
     -7.65149265E+02     -1.21361373E+03     -8.07786964E+02
      5.11138952E+02      4.22811318E+02      1.07828259E+03
      1.29444643E+03      1.54310026E+03      1.70434729E+03
      8.31863883E+02      4.07829594E+02     -9.09189332E+02
      2.85997309E+03      1.90154504E+03     -2.47250720E+02
      1.17524672E+03     -1.06670171E+03     -2.96851555E+03
      6.40692219E+02     -4.78918005E+01      3.61480053E+02
      4.09103356E+02     -1.66211232E+03     -5.69255064E+02
     -2.11594365E+03     -2.01964033E+02     -3.62835605E+03
     -3.69649245E+02     -1.96680491E+01      2.78096701E+02
     -3.91237329E+03      2.62576278E+03      1.75276472E+03
     -3.05419234E+03      7.54156721E+02     -1.81830938E+02
     -8.42998464E+02     -3.67084396E+02     -6.53460117E+02
      1.87948592E+03     -1.74481296E+03      4.46541423E+02
     -1.43282663E+03      1.68255605E+03     -1.18989133E+03
      5.47965750E+02      1.12819672E+02     -8.82698084E+02
      7.95336792E+02      1.06733548E+03     -1.03996594E+03
      7.49858283E+01      9.39844289E+02     -3.43549306E+03
      5.89093939E+02     -6.93723328E+02      2.99586229E+02
     -1.42400489E+03      1.82903396E+03      2.87329661E+03
     -2.33059082E+02      2.91946325E+03     -1.31669575E+03
      5.34224910E+01     -1.39281339E+02      7.51469625E+02
     -6.34943430E+02      8.78827655E+02     -1.37721778E+02
      8.64565711E+02     -1.93708541E+03      1.38477787E+03
      3.69018983E+01     -7.83309591E+02     -4.27623115E+02
     -2.17597050E+03     -9.66434425E+02     -5.14763881E+02
      4.62822277E+02      2.00205446E+03     -8.21316584E+02
     -3.28844178E+02     -1.27812030E+02     -2.04126720E+01
     -1.12338327E+03     -3.50430606E+03      2.95012759E+03
      1.70250780E+03      1.08947274E+03      1.09153044E+03
     -9.20175965E+02     -4.43338103E+02     -5.77152313E+02
     -2.06636522E+02      1.39342587E+01     -1.93318549E+02
     -6.62505835E+02     -1.56915930E+03      7.69083882E+02
     -9.97274668E+01      1.10250429E+03      9.99733222E+02
     -3.60852463E+03      1.83872792E+03     -2.90258429E+02
      1.28264142E+02      6.23700145E+02     -1.68239458E+02
      2.31314132E+03     -1.80421963E+03      2.61433303E+03
     -1.07398116E+03     -8.04248558E+02      7.29653628E+02
     -1.37280447E+01      5.16457394E+02      2.61737878E+02
     -3.44797103E+03      1.09419223E+03      2.23502566E+03
     -9.47371300E+02     -1.94225052E+03      7.78678232E+01
     -6.96630123E+02      6.57826253E+02     -4.27681398E+02
     -2.15374263E+02      1.57322017E+03      2.30634311E+03
      3.49252391E+03     -2.55587509E+03      5.64178412E+02
      4.52244256E+02     -4.31048971E+02      3.27327420E+02
      9.43323879E+02     -4.26957025E+03     -2.45654101E+03
      1.63426954E+03     -7.21001736E+02     -1.40151430E+03
      4.14334119E+02     -7.23126879E+02     -8.62555285E+01
     -8.35412797E+02      2.33605279E+03     -1.74651961E+03
     -2.28154098E+03     -1.54580169E+03     -7.50295295E+02
      1.44100035E+02     -4.80781005E+01      2.39827981E+02
      1.11588923E+03      3.01112339E+03     -9.24509041E+02
      1.48594110E+02      4.25218534E+01      8.94560104E+01
      3.51955335E+01      6.88938097E+02      5.47293176E+02
     -8.29156994E+02     -6.79333887E+02      2.08022880E+03
     -2.57402949E+03      5.29774931E+02     -4.22971001E+03
     -1.25057549E+03      9.97526059E+01     -5.57177843E+02
      1.48218705E+03      9.01766227E+02      1.06054026E+03
      2.12116873E+03      3.05241923E+03      3.98469964E+02
      1.47985253E+02      7.18105954E+01      7.97752504E+02
     -1.88291174E+02      2.68813183E+03      1.00709897E+02
     -1.15319972E+03     -8.17765535E+02      2.15429185E+03
      3.30906920E+02     -1.56082451E+03      8.87424264E+02
      4.41768972E+01     -1.57314355E+02      1.23396371E+02
      2.78987305E+01     -7.05133761E+02      2.14207479E+03
      1.84313916E+03     -2.28128956E+03     -2.54840862E+02
      2.33686332E+03     -2.65608113E+03      1.19552306E+03
  }
}

Hamiltonian = DFTB {
  SCC = Yes
  SCCTolerance = 1e-6
  MaxSCCIterations = 200
  ForceEvaluation = Dynamics
  MaxAngularMomentum = {
    C = "p"
    H = "s"
  }
  Charge = 0.0
  SpinPolarisation = {}
  Eigensolver = Standard {}
  Filling = Fermi {
    Temperature [Kelvin] = 300.0
  }
  SlaterKosterFiles = Type2FileNames {
    Prefix = "../../pbc-0-3/"
    Separator = "-"
    Suffix = ".skf"
    LowerCaseTypeName = No
  }
  KPointsAndWeights = {
    0.0000000000000 0.0000000000000 0.0000000000000 1.00000000000000
  }
  Dispersion = LennardJones { 
    Parameters = UFFParameters {}
  }
}

ParserOptions = {
  ParserVersion = 3
}
