Geometry = GenFormat {
<<< "system.gen"
}

Driver = VelocityVerlet{
  Steps = 100000
  TimeStep [fs] = 0.2
  MDRestartFrequency = 5
  Thermostat = None {
    #InitialTemperature [Kelvin] = 300.0
  }
  Xlbomd{ 
    IntegrationSteps = 6 
    MinSccIterations = 2
    MaxSccIterations = 200
    SccTolerance = 1e-6 
  }
  Velocities [m/s] {
     -1.09557160E+03      6.13659241E+02      4.11481812E+02
      3.42338384E+02     -4.73747709E+02     -7.89203606E+02
     -8.74741049E+02      1.64263229E+03      2.13008105E+02
      3.92233309E+02      3.87106369E+01      8.59753408E+01
      1.39959531E+03     -5.84946028E+02      1.06390106E+03
      1.99330714E+03      1.67104105E+03      4.09563754E+02
     -6.24084113E+02      8.83849907E+01     -7.59208423E+02
      1.39449976E+03     -2.18697724E+03     -5.15451205E+02
     -1.22474713E+02      7.60296554E+02     -1.83591543E+02
      6.24960287E+02      5.31567684E+01     -2.08330693E+02
     -7.04582129E+02     -1.05611711E+03      2.25958067E+03
      1.24679260E+03      4.43169300E+03     -5.73705457E+01
     -7.62280710E+01     -1.41190854E+03      8.75303197E+02
     -5.10619606E+01      1.38799494E+02      8.53224190E+02
      1.72799716E+03     -5.92058300E+02      1.07594690E+03
      8.36251709E+02      8.54574268E+01      2.52740650E+02
     -2.96849023E+02      1.41080804E+03      2.91392450E+03
      5.94111604E+02     -8.32230368E+02      9.89501790E+02
      9.91051513E+02      6.03971327E+02      6.67962071E+02
     -3.70429229E+03     -2.52978777E+03      7.47605836E+02
     -1.93136413E+03     -2.42309107E+03      1.32068728E+03
      2.65529121E+02     -5.41974943E+02     -4.78766790E+02
      1.42197981E+03      3.71152114E+01      1.76477899E+03
      2.79965865E+03      1.01068189E+02     -2.05525623E+03
      1.02583277E+02     -2.25754817E+01     -3.41839102E+02
     -1.62574449E+03      2.86914143E+03      1.98606525E+03
      1.01461998E+03      8.97777356E+02     -1.92069888E+03
     -6.41841992E+02     -6.04787669E+02      5.48818014E+02
     -9.85065765E-01      3.00513010E+02      4.91331384E+01
      2.41513361E+02      1.09687092E+03     -4.08855875E+02
     -2.66133659E+03     -3.06416060E+01     -1.56620787E+03
     -1.83457468E+03     -2.33467144E+03      2.23879739E+03
      1.26208372E+02     -8.25107619E+02     -2.67635770E+02
      1.59139184E+02     -2.75373979E+03      6.99669498E+02
      7.09867410E+02     -2.48765913E+03     -4.80978862E+02
      3.09610891E+02     -6.61323027E+01      8.69470003E+01
     -3.18721225E+03      2.31122642E+03      4.50795946E+03
     -3.52534251E+03      1.09122278E+03      2.25698496E+03
      1.11532420E+03     -3.53094643E+02     -1.16586230E+03
     -1.57477712E+03      8.47357293E+00     -1.81339727E+02
      2.33991193E+03     -9.65568705E+02      1.29992222E+03
     -2.07527133E+02     -7.73874192E+02     -4.03581476E+02
      4.37439857E+02      1.23524638E+03     -2.21389369E+03
      1.41132762E+03      1.29876254E+03     -7.64374574E+02
      4.15598088E+02      7.92810449E+02     -2.00448564E+02
      7.60221394E+02     -1.88746389E+03     -1.75050013E+03
      3.73240950E+03      1.63071488E+01      2.42771489E+02
      3.27541048E+02      8.60604002E+01     -3.09301507E+02
     -4.16341816E+03     -1.20446380E+03      4.38610236E+01
      5.71539927E+02      2.79044983E+02     -3.49668716E+03
      9.49257510E+02     -3.00857233E+02      3.12036248E+02
      4.70526161E+02     -1.59811097E+03     -3.84105009E+03
     -2.72231015E+03      8.55483113E+02      2.58123966E+03
      3.95864617E+02     -7.55663407E+02      1.03031372E+03
     -3.42244365E+02     -9.95369300E+02     -2.37358887E+03
      2.55029670E+02      1.14673057E+03     -2.67170476E+02
      4.59825151E+02      1.47697808E+02      2.00225687E+01
     -7.19795402E+01     -3.03684764E+02      2.90468178E+02
      1.22029215E+03     -1.34996570E+03      3.03069487E+03
     -9.47327925E+02     -2.47630623E+02      3.10634923E+03
     -2.52460876E+02     -3.89722254E+02     -4.01553921E+01
     -2.18828848E+03     -5.06395380E+02      2.11606860E+03
     -1.73454114E+00     -1.16943023E+03      1.87903543E+02
     -2.76505931E+03      1.29736488E+03     -8.79126112E+02
      2.80071771E+02     -4.31993596E+02      1.23354430E+01
     -8.78353515E+02     -7.84930699E+02     -4.06738567E+02
      3.04009051E+03      2.12793865E+03      1.88224891E+03
     -3.93875746E+02      1.34708626E+02     -3.58814100E+02
     -7.76050589E+02     -3.71897594E+02     -1.32427126E+03
     -8.63257339E+01     -1.40298932E+03      1.37694582E+03
      4.03447772E+02      2.96088064E+02      9.45948883E+01
      2.17656817E+03     -1.55711336E+02     -8.96019086E+02
     -2.79729702E+03     -9.26665669E+02     -1.12622766E+03
      1.02077327E+02      1.99215230E+02      1.18180369E+02
     -2.53381992E+02     -2.86987976E+02     -5.56284975E+02
      1.04168950E+03     -9.06576530E+02      1.49935090E+03
      8.47757504E+02     -3.21859181E+02      8.22772439E+02
      8.23037552E+01      3.81201761E+01      2.40359426E+02
      5.52184665E+02     -3.33579417E+02      1.57426130E+03
      3.49619724E+02     -4.80599758E+02      1.53160422E+03
      6.99053006E+02      7.19053337E+02      3.36836762E+03
     -1.07170268E+03      4.17161859E+02     -1.63026725E+03
      2.47753347E+02     -3.61049709E+02     -3.42420342E+02
      3.13974751E+01     -1.40966427E+03     -9.91195440E+02
      4.10993020E+02     -3.17636095E+02     -1.06857104E+03
     -3.69329455E+02     -4.50251145E+02     -1.67349752E+02
      6.68248181E+02     -3.12434612E+03     -4.32909701E+02
     -2.28081721E+02     -1.82138000E+03     -5.16925304E+02
      3.20787384E+02      1.47569534E+02     -8.12558354E+01
     -1.45297303E+03      8.03153900E+02     -1.16493725E+03
     -8.77739358E+01      1.05157652E+03      2.73658296E+02
      9.44846105E+02      4.69634730E+02     -2.01027338E+03
     -1.55277134E+01     -3.11716634E+02     -6.73081301E+02
      5.15785033E+02     -5.11427911E+02      9.38059363E+02
      2.33739317E+03      1.19425032E+03     -1.26480888E+03
     -1.38976459E+03      2.53775068E+03     -2.99983093E+03
      6.58534937E+02     -3.50973458E+02      7.07028174E+02
     -2.89137741E+03     -1.57569502E+03     -7.04803511E+02
      2.65212875E+03     -4.24076397E+02     -2.79717808E+03
     -6.14890940E+00     -2.88088655E+02      5.11742266E+02
     -3.19498247E+03      1.39691250E+03     -4.87096778E+01
      1.54506686E+03     -3.34883986E+03     -1.34721261E+03
      2.07652728E+02     -3.15722242E+02      6.18080835E+02
     -8.56195207E+02     -1.66033808E+03     -2.57016606E+03
     -7.68701175E+02      3.06021360E+03      1.50064862E+02
     -5.76586606E+03      1.84650077E+04     -9.91576813E+03
      6.06432706E+02     -3.03242403E+03      1.31378624E+02
     -1.91452765E+03     -4.16508934E+02      2.68391681E+02
      1.15894837E+03     -4.78393080E+02     -2.62528391E+02
     -1.47696746E+03     -2.12116659E+03      4.52590618E+01
      1.53371470E+03      1.96849735E+03      8.40636316E+02
     -4.06409317E+02     -1.75823541E+02     -1.26908947E+01
     -9.66872242E+02      1.52231061E+03      5.16716851E+02
     -1.82553294E+03     -1.76196837E+03      5.42425014E+02
      1.30611785E+03     -1.95796343E+02     -1.10937238E+02
      1.45916154E+03     -7.54180345E+00     -3.64815099E+02
      1.61948146E+03      4.20844571E+03      8.52312789E+02
     -3.68283244E+02     -1.40580253E+02     -2.83449260E+02
     -3.19801786E+02      1.10730628E+02      1.29464555E+02
      2.01563140E+03     -1.34117528E+03     -2.47133656E+02
      3.58934756E+02      7.30634509E+02     -2.35082341E+02
      1.62634429E+03      3.84800634E+00     -6.01056987E+02
      5.35746006E+02     -1.86274566E+03      4.17527630E+03
     -3.41875494E+03     -1.50971275E+03     -3.25119825E+01
      1.09094048E+03     -3.62667592E+02      5.45521130E+01
      4.16041863E+03     -7.96387023E+02      2.13407737E+03
      1.74939133E+02     -3.28776747E+02     -6.11188688E+02
      1.64269310E+03      8.42586653E+02      3.67940189E+03
      1.26864367E+01     -4.13474563E+02      1.38123113E+02
      8.83218318E+02      5.37327784E+03      1.06146480E+03
      1.02349448E+03      1.04864832E+03      4.31667343E+02
     -1.06565383E+03     -2.24105410E+01     -1.17650372E+01
      7.22952599E+02     -3.03341126E+03      2.49081685E+03
      2.80748660E+01      1.56992076E+03     -2.56136600E+02
      1.00043792E+03     -9.40971703E+01     -1.58779007E+02
      6.87958947E+02      6.06406015E+02      8.35329358E+02
     -4.35803879E+02     -1.58847373E+03      5.14372433E+02
      3.44303484E+02     -4.94596319E+02      5.60025125E+02
     -2.19334749E+02      8.47687989E+02     -1.79036058E+03
      3.49296915E+02      1.20244575E+03     -3.33446994E+03
     -4.02789637E+02      3.90589254E+02      3.04018483E+02
      9.15274319E+02      9.17413395E+01     -1.41806071E+03
     -9.59102799E+02      1.42607368E+03     -3.86707011E+01
     -1.98229766E+02     -2.25457647E+02     -5.13325847E+02
      9.64217765E+02      9.62187614E+02     -2.09637814E+03
     -5.72579845E+02     -1.30168379E+03     -6.16006537E+02
     -5.86648321E+02      5.76224094E+02      3.89202521E+01
     -6.46925234E+02      2.61917575E+03     -6.15114340E+02
      1.72557638E+03     -4.47756705E+03      4.02109574E+03
      5.31834607E+02     -6.09399058E+02     -9.49778538E+01
     -3.46948285E+00      5.73419083E+03      8.84840535E+01
     -1.34727304E+03     -1.50128921E+03     -9.88140682E+02
     -2.81992124E+02      2.14716024E+02      6.31711321E+02
      1.02219861E+03      7.74130774E+02     -9.52121652E+02
     -1.93597807E+03     -7.31303675E+02     -2.94231958E+03
      5.04655405E+02     -5.62193586E+01     -1.16875048E+03
      1.43156081E+02      6.98830978E+02     -3.92297996E+02
      2.85927944E+03     -1.56218917E+03     -2.36590024E+03
      1.58564336E+03      1.92160200E+03     -1.68084488E+03
     -6.12091203E+00      1.69197295E+03      1.73543930E+03
      8.68276697E+02      4.02420641E+02      7.43325845E+01
      1.98554518E+03      3.45978834E+02      5.92232966E+02
      2.17055666E+03     -1.57714845E+03      9.27037157E+02
     -1.06097140E+02      1.72781149E+02      3.51398492E+02
      5.63829685E+01     -2.11812012E+03     -7.32229803E+02
      2.36600804E+03      1.22049204E+03     -1.04743688E+03
     -5.84263140E+02     -1.01926340E+03      2.38990005E+02
      3.69761716E+03     -2.21080690E+03      1.62865254E+03
     -1.15895655E+03      1.16108957E+02      4.54627587E+02
     -5.72377158E+01     -1.11858827E+03     -1.35109561E+02
     -8.93863096E+02      3.80199060E+02     -3.00733938E+03
      7.06591954E+01     -1.22410912E+03     -2.12766625E+02
     -1.62923768E+01     -1.59370735E+00      2.74562812E+02
     -1.15122577E+03      2.82607001E+03     -6.00796787E+02
     -3.20286055E+02      5.34488863E+02      7.98852497E+02
      5.91776574E+01     -4.33015492E+02     -1.25620362E+01
      1.13518448E+03     -3.80967312E+03     -4.82591870E+02
     -5.54471095E+02     -2.37244458E+03      9.57011377E+02
     -6.37038361E+02     -1.07639098E+02      3.39715265E+02
      2.39651059E+03      6.36290776E+02     -2.90528215E+02
     -1.72883736E+03      2.86934426E+03      6.98721469E+02
     -4.20594453E+02     -4.98665428E+01      1.53575027E+02
     -1.87226267E+03      1.95102190E+02      7.04831683E+02
     -3.38053571E+03     -2.57872332E+03      8.90695154E+02
     -5.54322397E+02     -2.37251394E+01      3.61078950E+02
     -5.57498372E+02     -5.74942682E+02     -1.57016977E+02
      3.22576356E+01      9.66412580E+02      1.51303404E+02
      1.94961772E+03     -1.65798152E+02      1.41532051E+03
     -3.54841451E+02      3.96096828E+02     -2.12307861E+02
      3.63569182E+03     -4.38123627E+02      2.68901340E+02
     -8.92810927E+02      1.34840260E+03     -1.61817178E+03
      1.79990672E+03     -1.04630425E+03      2.16647393E+03
     -4.44743306E+02     -5.52492530E+02      2.27342561E+02
      5.83589020E+01     -9.10910480E+02      1.28632982E+03
     -4.20202119E+02      2.16995937E+03      1.79722814E+03
     -4.33702499E+02      2.84356931E+02     -3.49787861E+02
     -1.02227498E+03      2.83712704E+03      1.90252384E+03
      2.47213125E+03      1.94483365E+03      3.58870676E+02
      1.65490650E+02      6.31201693E+02     -3.99839279E+02
     -2.23014956E+03     -1.67203250E+03     -1.93812899E+03
     -2.19902333E+03      1.60909335E+02     -1.28834972E+02
     -1.85809649E+02      5.53891768E+02     -6.61637627E+02
      3.00014792E+00     -3.90876601E+03     -5.09540558E+02
     -9.21569957E+01      8.44901860E+02     -1.28712578E+03
      1.58425737E+02      4.36074155E+01      4.38379509E+02
     -2.33570422E+03     -5.58638798E+02     -4.79022749E+02
      3.27098351E+03     -1.87601698E+03      1.76882333E+03
      1.56889932E+02      8.40855702E+02     -2.91692586E+02
     -7.50064901E+01     -1.50757766E+03      2.08883550E+03
     -1.60776956E+03     -1.89002419E+03      1.89320053E+03
      4.30463779E+02      2.38124123E+02      5.54182915E+02
      1.70521987E+03     -5.41575512E+02      2.08829404E+03
     -6.41087283E+02     -2.00099993E+03      3.20785413E+03
     -1.84497973E+02      9.78808740E+01      2.24637904E+02
     -4.19341357E+02      2.67832588E+03      1.67207207E+03
     -5.22497299E+02      1.88826636E+03      1.51753501E+03
      9.10833095E+01     -1.02342565E+02      7.95211854E+02
      3.10408762E+03     -1.72175725E+03     -4.38570302E+02
      3.06722414E+03     -1.97350184E+02     -3.00762729E+01
      4.19225593E+02     -8.64528353E+02      4.33281270E+02
     -1.67101276E+02      1.26527763E+02      3.75606072E+02
     -3.77416331E+00     -4.00930478E+03     -6.42703633E+02
     -8.54146630E+01     -2.52427312E+03      3.42213818E+02
     -8.36695045E+01     -1.48872776E+03      1.50206126E+03
     -3.38307016E+02     -8.29053473E+02      6.33681710E+01
     -1.82749822E+03      1.43797261E+03     -2.92129933E+03
     -2.38194668E+03      1.65899206E+03     -1.91515727E+03
      5.29120752E+02      1.99521587E+02     -4.12581481E+02
      3.22307564E+03     -1.80751063E+03     -2.03713086E+03
     -7.31204704E+02     -2.96504680E+03      5.12938574E+02
     -6.02631292E+02     -1.27144502E+03      1.04052176E+02
     -7.61767777E+02     -1.44617475E+03     -4.33952746E+02
      1.25274948E+03     -5.19201010E+02      1.50192485E+01
     -3.07329942E+02     -3.23348158E+02      3.53010746E+02
     -8.13587129E+02     -1.24193700E+03     -7.21150235E+01
      1.92998273E+02     -5.47465246E+02      2.72621387E+03
     -8.21630574E+01     -4.35674915E+02      9.02842649E+02
     -1.19894841E+03      1.49835272E+02     -2.42183996E+03
     -3.23830206E+03     -1.75806437E+03     -2.64286414E+03
     -4.60963710E+02      2.46547604E+02      1.56317913E+02
      1.33221032E+03      1.12472217E+02     -5.60028111E+02
     -2.34944817E+03      1.82367469E+03     -1.75141618E+03
      4.11511732E+02     -2.81100623E+02      5.89336649E+02
      8.93852567E+02     -7.49301621E+02      3.64579417E+02
      1.04228907E+03      3.33799822E+03      1.73454956E+03
     -7.38105588E+02     -2.84681111E+02     -1.48815287E+01
     -7.26404416E+02     -2.70413227E+03      3.32743524E+01
     -1.47701263E+03     -9.88947786E+02     -7.70585498E+02
      2.88066245E+02     -4.79106048E+02     -2.98295776E+02
      2.83975065E+02     -3.04049423E+03      6.21235589E+02
     -3.51465011E+03      1.29242132E+03     -1.06657086E+03
      1.04127544E+03      9.04492852E+02      3.30952750E+03
      1.01468315E+02     -8.40127836E+02      9.24771190E+01
     -1.09993611E+03     -1.98702677E+03     -4.42775606E+02
     -2.58599294E+03      5.59247469E+02     -1.27314926E+03
      3.48993578E+02      4.24434164E+02     -8.95329685E+02
      2.71698115E+01     -7.43771659E+02      1.34165925E+02
     -2.21657213E+02      1.06778341E+03     -2.36327810E+02
      2.43226763E+01      2.08731437E+03     -1.12960672E+03
      3.77358513E+02      2.90476047E+02     -3.60277368E+02
      6.33052567E+02     -3.33191939E+03     -4.03474466E+02
     -9.25460587E+02      1.55181309E+03      1.02738746E+03
     -5.87165128E+02      5.05650977E+02     -1.94976071E+02
     -1.06162690E+03     -1.18130157E+03      1.15961591E+03
      1.45956275E+02      6.51762729E+02      1.60094269E+02
     -3.48063886E+02      3.57586812E+02     -1.43876260E+02
      7.59299854E+02      2.16197766E+03     -6.97814951E+02
      3.10608583E+03      4.54261164E+02      1.42271138E+03
      4.77328494E+01     -2.89279754E+02     -3.70542982E+01
     -5.05235697E+02      9.19875338E+02      2.36510876E+03
      7.48603772E+02      8.52539517E+02     -1.95330227E+02
      2.57661397E+01     -3.44195497E+02     -6.80567958E+02
     -1.42535645E+03      1.49037464E+03      1.58079012E+02
      1.07248246E+03      1.63985773E+03     -1.15016978E+03
      1.82602983E+02     -4.11292037E+02      8.58043538E+01
     -9.62187294E-02     -2.21151421E+03     -1.07895527E+03
     -2.86402750E+03     -9.23105873E+02     -8.47679537E+02
      9.82350278E+02     -1.37523799E+02      6.93824167E+02
      2.28426794E+03     -1.08926377E+03     -1.68133855E+02
      1.33479886E+03     -3.00847392E+02     -7.61713832E+02
     -2.28344907E+02     -3.22805482E+00     -1.46135225E+02
     -1.77168450E+03      1.55416628E+03     -1.77247485E+03
      1.02526620E+02     -9.63513569E+02     -2.24034710E+03
      4.40802112E+02      5.13449938E+02     -5.10714418E+02
     -3.40598266E+02     -4.02290601E+02      9.69450070E+02
     -5.54538016E+02     -1.75909087E+03      1.44955208E+03
      6.76861591E+02     -2.19862441E+03     -1.50044252E+03
     -3.61737563E+02     -2.60586673E+03     -1.97439458E+03
     -2.76128724E+01     -1.29769345E+02      2.59028904E+02
      9.67421772E+01     -6.27884527E+02      1.57610874E+03
     -7.07326674E+02      6.02659763E+02     -5.03987006E+02
      1.08524230E+03      3.98692545E+02      7.55009293E+02
      1.87322103E+03      5.95608065E+02      8.60789338E+02
      2.24906192E+03     -8.42602413E+02     -3.55216824E+02
      2.64080055E+02     -6.68834959E+02     -1.40163112E+02
      3.15896350E+03     -1.67807776E+03      1.98196450E+03
      1.17974822E+03      1.07011693E+03     -8.65643720E+02
      1.38440963E+02     -5.40851389E+02     -5.11676788E+01
     -1.27793925E+03      4.13770269E+03     -5.46920718E+01
      7.41098762E+02     -6.37327762E+02      1.19793740E+02
      2.19614558E+02      2.51438981E+02     -4.77999862E+02
      1.38673612E+02     -4.07824988E+01      5.07062413E+02
     -2.61363957E+03     -2.17380737E+03      1.15011232E+03
     -1.02303491E+03     -1.06806499E+02     -2.11896966E+00
     -6.86970037E+02     -1.32380290E+03      1.33958326E+03
     -9.91762911E+02     -1.03386793E+03      2.11326335E+03
     -4.30195666E+02     -9.13309231E+02      6.47822027E+02
     -1.26709516E+03     -1.83746012E+03      6.82720264E+02
      1.31735785E+02     -1.96519184E+02      8.65625292E+02
      1.67489748E+02     -1.59641570E+02     -1.37064030E+02
      2.02904358E+03      3.24393075E+03      5.89366238E+02
      5.43210223E+00      3.20073127E+03     -6.89490425E+02
      2.01291282E+02     -2.07075427E+02     -2.44471566E+02
     -2.67185756E+02      5.91140031E+02      2.99037210E+02
      1.77806999E+03     -1.29895653E+03      4.76391897E+02
      8.12682433E+02     -1.93574337E+03     -6.12965711E+02
     -8.79464465E+02     -3.04053008E+02      7.04483760E+02
      7.28631294E+02     -2.40507683E+03     -2.22070827E+03
     -9.97568800E+02     -3.50814297E+02     -7.12433944E+02
     -3.41997100E+02      2.14517712E+03      8.07827397E+02
      1.18120971E+02      2.15453043E+01      2.77401607E+01
     -1.47189873E+03      5.44623636E+02      1.69700561E+03
     -1.55757340E+03      9.52129738E+02      8.82088555E+02
     -2.11154392E+02     -1.50284972E+02     -2.92763976E+02
      1.29933815E+03     -6.65127837E+03     -3.28098236E+03
     -4.30612110E+02      1.93327127E+03     -4.07708965E+03
     -2.22497021E+02     -7.83568971E+02     -7.98202881E+01
      2.51337191E+03      1.87001303E+03      8.58676304E+02
     -6.99794988E+02     -4.46724737E+02     -2.01145681E+02
     -4.58037929E+01     -9.11242956E+02     -7.33167910E+02
     -8.79983632E+02     -6.66789519E+02      1.89630378E+03
      8.41340416E+02      2.71674391E+03      1.09027819E+03
     -1.59102460E+02     -5.36809552E+02      2.43450262E+02
     -3.40475543E+02     -1.53910807E+03     -4.42207428E+02
     -1.73011647E+03      4.35360376E+02      1.82004985E+02
      2.01686751E+02      5.28419900E+02      8.78617376E+02
      1.99369265E+03      3.14194403E+02      2.17556745E+02
      1.39845630E+03     -6.50665917E+01     -6.11901731E+02
     -9.88589184E+01      9.16689017E+01      7.89781496E+02
     -1.29049124E+03     -1.99383992E+03     -1.12444949E+03
      1.39430955E+03      1.11475401E+03      1.20542585E+02
     -1.21211599E+03     -3.85299171E+02     -9.64516614E+00
     -5.18012712E+02     -2.05176813E+02      1.78846521E+03
     -2.34774941E+02      4.89293132E+02      1.06311931E+03
      3.45059151E+01      7.58622336E+02      5.56478503E+02
     -3.29565147E+03      1.46486843E+03     -1.82485070E+02
     -2.29044841E+03     -1.15796537E+03     -2.90366157E+03
     -3.60459570E+03     -1.79252415E+03      1.20323228E+03
      4.78542017E+02     -7.22317504E+02      4.40360548E+02
      9.22973990E+02     -1.44551741E+03     -4.29741835E+03
     -2.17216283E+03      2.43728046E+02     -1.40841114E+03
      3.23972922E+03     -1.65406602E+02     -1.57909170E+03
  }
}

Hamiltonian = DFTB {
  SCC = Yes
  SCCTolerance = 1e-6
  MaxSCCIterations = 200
  ForceEvaluation = Dynamics
  MaxAngularMomentum = {
    C = "p"
    H = "s"
  }
  Charge = 0.0
  SpinPolarisation = {}
  Eigensolver = Standard {}
  Filling = Fermi {
    Temperature [Kelvin] = 300.0
  }
  SlaterKosterFiles = Type2FileNames {
    Prefix = "../../pbc-0-3/"
    Separator = "-"
    Suffix = ".skf"
    LowerCaseTypeName = No
  }
  KPointsAndWeights = {
    0.0000000000000 0.0000000000000 0.0000000000000 1.00000000000000
  }
  Dispersion = LennardJones { 
    Parameters = UFFParameters {}
  }
}

ParserOptions = {
  ParserVersion = 3
}
