Geometry = GenFormat {
<<< "system.gen"
}

Driver = VelocityVerlet{
  Steps = 100000
  TimeStep [fs] = 0.2
  MDRestartFrequency = 5
  Thermostat = None {
    #InitialTemperature [Kelvin] = 300.0
  }
  Xlbomd{ 
    IntegrationSteps = 6 
    MinSccIterations = 2
    MaxSccIterations = 200
    SccTolerance = 1e-6 
  }
  Velocities [m/s] {
     -7.36657805E+02      2.70343165E+02     -1.23578980E+02
      7.84202622E+02      9.56074294E+01      1.90005582E+03
      1.75706730E+03     -2.31466685E+03     -9.11641422E+02
      6.29105234E+02     -2.86629657E+02     -3.07527434E+02
     -1.18292537E+03      8.32054786E+02     -1.23565978E+03
     -3.61650230E+03     -2.82272568E+02     -9.97106915E+02
     -3.13329909E+02     -2.95951171E+02      4.68853872E+02
     -3.41942153E+02     -6.52536405E+02      4.73234203E+03
      3.34256732E+02     -1.80280206E+03     -2.02234855E+02
      9.07310830E+01      2.30215016E+02      3.97874214E+02
     -6.84711885E+02      1.59413299E+03      1.83935786E+03
      7.57968777E+02     -1.11679564E+03      1.11725719E+03
      3.19384482E+02      2.46118645E+02     -3.94426295E+02
      1.90622605E+03      7.32628750E+02      2.42696734E+03
      3.72876275E+03     -3.95163376E+02      3.02537509E+03
      6.43032020E+02      3.55982254E+02     -3.97589775E+02
      4.86843811E+02     -1.41160608E+03     -6.22254911E+02
      5.66167327E+02     -1.70514427E+03      2.43587595E+03
      1.02173163E+02      1.39417068E+02      3.18246410E+02
     -1.31696404E+03     -3.83662221E+03     -9.80674002E+02
     -5.48010482E+02     -3.93634460E+02      1.32602580E+03
      1.11229762E+02     -1.43499421E+02     -6.05635363E+02
     -6.87010553E+02      1.74258220E+03      7.70389254E+02
      2.21396097E+03      3.07624923E+02      3.32426715E+03
     -2.99437364E+01     -3.36050552E+02      6.42843574E+02
     -1.32208087E+03      9.88111271E+02     -1.97615576E+03
     -5.79241043E+02      2.70108642E+03     -1.13940280E+02
      3.62954800E+03     -5.06845264E+01      1.95406732E+03
      9.17436800E+02     -2.81288364E+02     -1.95281396E+02
     -1.41122516E+01     -1.05355831E+03     -8.15323909E+02
     -2.35053630E+03     -9.01653944E+02      2.40072474E+02
      1.25156283E+02      1.09989567E+03      3.17024371E+03
      6.07145503E+02     -5.98476157E+02      9.41081334E+02
      2.30568913E+03      1.32370807E+03      1.08099142E+03
      1.39440392E+03      2.40269134E+03     -3.27157426E+02
     -9.17011578E+03      1.36559070E+04     -2.27971316E+04
     -8.92077051E+02      1.34975976E+03      6.51120905E+02
     -3.48030898E+02      1.74202500E+03      2.59241334E+02
      2.18889671E+02     -5.51391277E+02      6.56667372E+02
      7.39767307E+02     -1.29852621E+02     -1.59343527E+03
      2.66097567E+01     -2.07322264E+02     -9.11881013E+02
     -7.48836914E+01      1.98331896E+02      5.26274855E+01
      3.05936622E+03     -2.74626943E+03     -4.58851998E+03
      1.34239373E+03     -1.86419901E+03     -7.85881375E+02
      9.44724683E+01     -5.76307317E+02      5.91856107E+02
      3.06061656E+03      3.35494398E+02      1.73490582E+03
     -8.92879374E+02     -1.53917810E+03      3.45677873E+02
      3.04409980E+02      4.47207354E+02      2.98290450E+02
     -1.41124863E+03      9.47672778E+02     -2.28312555E+02
      2.42736140E+01      1.50782602E+03      2.42108868E+02
      3.01259708E+02     -4.67628715E+01      4.48687830E+02
     -2.77629543E+02      1.62839233E+03     -1.36923691E+02
     -1.23276537E+03     -2.64217952E+02      1.70327187E+01
     -8.65672982E+02     -9.56079937E+01     -1.01963505E+00
      3.88895365E+02     -9.15252858E+02      8.29362296E+02
      1.82108326E+01      2.26183616E+03      1.45668149E+03
      2.67675867E+02      3.09123865E+02      4.75718065E+02
      8.41217227E+01     -3.06619575E+03      2.07658012E+03
      1.75488480E+02      2.08747574E+03      5.64165217E+02
     -2.07811877E+03     -1.72013942E+03     -1.25260107E+03
     -1.03768325E+03     -3.70660784E+02     -7.01617736E+02
      2.05521693E+03      8.08872121E+02     -6.64912891E+02
     -1.96764913E+03      5.16431151E+01     -1.86831188E+03
      6.52338393E+02     -1.74236405E+03      1.69120363E+03
      1.05207588E+02      1.79719251E+02      1.92648569E+02
      3.15926889E+03      1.50141540E+02      1.30165996E+03
     -7.71790709E+02     -6.59313690E+02     -5.72921662E+02
      2.28795690E+01      4.18483001E+02     -3.76957450E+01
     -1.06153851E+03      1.17344937E+03     -1.12723243E+03
      1.20784800E+03     -1.02135578E+02     -6.13451720E+02
     -5.45044348E+01     -4.63853232E+02      4.31767678E+02
     -1.63665398E+03      5.06284756E+01     -2.02267665E+03
     -1.16989730E+03      2.92338582E+03      1.03607725E+03
     -3.98888195E+02     -5.63610200E+01     -2.57609230E+02
     -1.78237071E+03      1.77875960E+03      2.08286963E+03
      3.71742849E+02     -1.45211411E+03     -1.41143576E+02
      1.14605240E+02      2.32945589E+01      7.74593971E+02
      6.11390973E+02      1.59627964E+03     -7.77430861E+02
     -3.99199698E+02     -6.50734283E+01      4.38204304E+02
     -3.60309496E+02      5.62294738E+02     -8.53760557E+02
      1.00201015E+03      1.09806617E+03     -2.06661112E+03
     -4.33910683E+03      1.12922107E+03      1.22422882E+03
     -3.53166604E+02      6.61530629E+02      1.83801008E+02
     -1.08306445E+03     -2.08885989E+03     -9.57475790E+02
     -1.18931514E+03      2.69498441E+03      1.51481731E+02
     -5.94133746E+01     -4.76077967E+02      6.43162753E+02
      6.80998050E+02      1.32294576E+03      7.53636892E+02
      2.72924471E+03     -1.58797036E+03      1.13944639E+03
     -2.42279668E+02      5.94349432E+01      1.41299033E+02
     -1.79459060E+02     -2.58137226E+02      8.27876494E+02
     -2.01896964E+03      2.43900824E+02      1.46086987E+02
      1.59818095E+03      7.33153780E+01     -6.24578863E+02
      9.08809887E+01     -2.12085118E+02     -6.03344808E+02
     -1.07469697E+03     -5.35074481E+02     -1.64050196E+03
      1.88496615E+02     -2.88303913E+02      1.89974659E+03
     -2.00136972E+02     -1.09490273E+03      1.25042793E+03
     -4.46642524E+02     -1.04614224E+03      5.97523942E+02
     -3.18194943E+03      1.13242099E+03     -1.19772065E+03
     -5.24764798E+02      5.81136044E+02      3.91376091E+02
      5.51528199E+02      1.30328986E+02      3.31249956E+02
     -1.28170813E+03      9.36755184E+01      1.87972126E+02
      1.80884023E+03      7.11026100E+02      3.43835651E+02
      1.25356582E+02      1.33838800E+02      5.21955744E+02
     -1.23680576E+03     -3.01420091E+03     -9.20662333E+02
      4.70841158E+03      1.25611055E+03     -1.16630337E+03
     -2.18245869E+02     -2.42173590E+02      9.46023880E+01
      1.12287580E+03      9.89154023E+01     -4.53969320E+02
     -2.22321116E+03      4.19752596E+02     -5.24768822E+02
     -4.19223612E+02      3.81587882E+02      5.80161532E+02
     -1.91796607E+03     -2.99063337E+01      6.45708097E+02
     -9.09600154E+01      2.48748829E+03     -2.73005448E+03
      2.06073324E+02      1.65853428E+01     -8.51637434E+01
     -1.21868581E+03      2.59504825E+02      1.88873412E+03
      3.53706494E+02      1.19362857E+03     -8.14122297E+02
      5.93218274E+02     -5.28732668E+02      5.37389725E+02
      1.66267390E+03     -2.65047262E+03     -9.65883849E+02
     -1.53272058E+03     -2.58971119E+03     -8.15069186E+02
     -1.71397571E+02     -9.32785687E+02      4.87019396E+02
     -9.60455592E+02      7.61389080E+02      6.42101853E+02
      6.39172566E+02      1.90589440E+02      7.15311375E+02
     -1.02246588E+01      4.61587909E+02      1.06096866E+03
      1.20236099E+03      5.23474045E+02      6.51231144E+02
      2.66224665E+03     -6.72518341E+02     -4.96317849E+02
      1.27961277E+03     -7.17253292E+02      3.46425883E+02
      2.99385831E+02      1.74134843E+02     -2.91330942E+02
      2.19008562E+03     -3.71798483E+02     -2.16067215E+02
     -2.90579290E+03      2.05267781E+02      3.75128090E+03
      1.00882416E+03     -3.61632824E+02      2.71661014E+03
      1.08556105E+02     -7.10868120E+02     -2.76627031E+02
     -9.79350293E+02      3.88751865E+02      3.03495660E+03
      1.45382408E+03      4.10990676E+02     -2.44862197E+02
      4.08053488E+02      4.82042247E+02      5.50930214E+02
      9.22250553E+02      1.03839538E+03     -1.88804702E+03
      6.32619529E+01     -1.66180827E+03      8.29783837E+02
      6.04663440E+02     -2.73125170E+02      3.50948556E+02
      1.55668906E+03      1.72804677E+03      2.82598213E+03
      3.54806832E+03     -4.89882322E+02      1.40852707E+03
      2.51805541E+02     -5.33666155E+02      4.51499392E+02
     -1.83897916E+03      1.11418662E+02     -2.42298348E+03
      3.87190606E+01     -1.09381725E+03      6.41686077E+02
      1.13572979E+01      6.59494030E+01      4.80361688E+02
     -1.91366175E+02      1.98689428E+03      1.53560350E+03
      2.43662851E+02      1.29204102E+02     -1.05071983E+03
      1.72331023E+00     -2.46171777E+02      2.77837061E+02
     -1.99095620E+03      3.94052242E+02      2.27262049E+02
      8.75190397E+01      2.71111218E+02      1.00710238E+03
      2.11203783E+02     -4.77646522E+02      7.04045945E+02
      5.47544662E+01      6.85271388E+02     -1.21728581E+03
      2.25674334E+03      4.17116132E+02      7.88321117E+02
      3.43880954E+02     -1.04906750E+02      6.33330934E+02
     -3.52533721E+03      1.31726108E+03     -3.41612797E+03
     -9.78299156E+02     -1.15223895E+03      4.73320212E+02
      6.41964213E+02      2.29720606E+02      3.42252986E+02
     -2.68609696E+03      9.95083558E+02     -1.07435119E+03
      2.36757687E+03     -7.62459696E+02     -1.79489658E+02
     -2.13323818E+03      9.48525732E+02      1.23858438E+02
     -5.82451052E+01     -1.48074614E+02     -2.68792122E+01
      1.68507634E+03     -8.34157012E+01     -6.35693682E+02
      3.90612272E+01     -3.36996884E+02     -1.32437458E+03
      1.63784940E+03     -1.09426481E+03     -2.30190467E+02
     -9.25397277E+02     -6.86678335E+02      7.61768557E+02
      1.91511909E+03     -1.20968764E+03     -1.09129666E+03
      5.49734961E+01     -5.69694204E+02      1.29418776E+03
     -2.69604498E+02      7.66480879E+01     -4.10945240E+02
      6.40894398E+02      1.02711824E+03     -9.78024357E+02
      6.72864761E+02      3.12827197E+03     -1.61519274E+03
     -1.29031616E+02     -5.50082070E+01     -1.25445336E+02
      9.63632825E-01      5.96542725E+01      6.54666261E+02
     -2.22266831E+03     -1.30975224E+03     -1.59664076E+03
      6.44568376E+02     -2.98163169E+02      1.15766321E+03
     -1.17020104E+03     -1.35458634E+02      2.89299537E+03
      1.64027935E+03      2.44544509E+02      6.89781709E+02
      4.34487336E+02      3.29348795E+02     -2.74936648E+02
      7.33908606E+02     -6.64187866E+02     -1.88014774E+03
     -1.33085126E+03      8.08885402E+02      6.87622773E+02
      1.44895556E+02     -5.59218012E+02     -1.92203604E+02
     -6.37349449E+02      1.53587142E+03      5.31123720E+02
      3.83580197E+02     -6.36903008E+02     -1.18983889E+03
      1.44513564E+02     -8.73099778E+02      1.81615800E+02
     -1.61083397E+03     -5.53444600E+02      2.63504093E+02
     -2.46011588E+03     -2.40334745E+03     -3.69438104E+02
      3.71687478E+02     -1.05441893E+03      8.14902865E+02
     -7.66714751E+02     -1.33221697E+03     -7.31512714E+02
      1.90870925E+03     -3.23524367E+03     -7.58686397E+02
      4.92995559E+02     -2.56241540E+02      3.19232775E+02
     -3.82698114E+02     -1.75999101E+02     -2.72918202E+02
     -1.01367566E+03      1.22736408E+03     -9.53471292E+02
     -1.65669504E+03     -1.39623370E+03     -2.18038453E+03
      2.95088217E+01      9.84893791E+01      3.42217325E+02
      2.67645010E+02      2.32055678E+03     -3.62757671E+02
     -2.89141344E+03     -1.44567636E+03     -5.39984865E+03
      1.60362718E+03     -1.52724586E+03     -1.66196176E+03
      6.10131358E+02      3.65015842E+01     -3.34383287E+02
     -2.70426191E+03     -1.17991498E+03      9.73623348E+02
      1.20011819E+03     -2.91567929E+02      1.91049989E+02
      1.41912766E+02      2.32870478E+02      1.12393960E+02
      3.19571050E+02      1.84332121E+03      2.94815463E+03
      8.03295367E+02     -8.80185404E+02      2.92225988E+03
     -3.38965317E+02     -3.61709471E+02      2.42189878E+02
     -1.14880895E+03     -1.75860604E+03      3.45752826E+03
     -5.36646570E+02     -4.72983376E+03      2.21362837E+03
     -4.55367525E+01     -7.92428564E+01     -2.96472592E+02
     -1.70819498E+03      5.32561857E+02      9.93373120E+02
     -9.79413609E+02      4.30992926E+02     -1.11303506E+03
      7.70863486E+01     -3.64561817E+01      4.84009559E+02
      1.78293538E+03      3.10783269E+02     -1.72649728E+03
     -3.07627585E+02      2.13083336E+03      3.45019607E+03
      4.24799600E+02      4.99848429E+02     -7.75256557E+01
      2.43692080E+03      2.16480981E+03      1.81822480E+03
     -9.06725823E+02     -1.48785038E+03     -1.61779319E+03
      2.30066883E+02      4.50100577E+02     -2.63782867E+02
     -7.36011200E+02      2.41691842E+03     -3.21951061E+03
      8.54219238E+02     -1.95270096E+02      3.06346036E+03
      7.25033583E+02      4.30453644E+02     -1.05719826E+02
      9.30616422E+02     -2.91670778E+03      4.10894904E+02
      2.25627126E+02     -3.16782413E+03      1.71686276E+03
      2.98601512E+02      7.33241197E+02     -4.40459973E+02
      3.87052099E+03      1.29068322E+02      3.35297938E+02
      1.02320345E+03     -5.59087152E+01     -1.55305815E+03
     -1.87876763E+02      1.24579846E+02     -5.57294326E+02
      9.85200386E+02     -5.14097877E+02      2.98591905E+02
      5.29672803E+02      6.86950675E+02      1.16687113E+03
     -1.37670426E+03     -5.87081816E+01      1.28150058E+03
     -3.06263105E+03     -7.42321647E+02      5.37006248E+02
      8.06408224E+02     -2.27895027E+02      1.62552783E+02
      2.81991874E+03     -5.27430254E+02      6.92030563E+02
     -2.81782457E+03     -1.10621622E+03      1.21073701E+03
      3.85279290E+01     -9.20039239E+01     -1.18240314E+02
     -1.40469675E+03     -3.29164366E+02      1.70871964E+03
      1.22637796E+03     -6.69220173E+02      7.87869205E+02
     -2.22744294E+02     -7.84711658E+02     -5.36083679E+02
      1.12673540E+03     -2.11331767E+03     -2.60567310E+03
      1.90132325E+02     -3.93096662E+02      7.97891668E+01
      1.44582458E+02      5.18861125E+02      9.21698906E+01
      4.60816044E+02     -3.95794128E+02      1.48126476E+02
      7.37826300E+02      8.20562172E+02      1.26655259E+03
      4.52911189E+02      1.50944469E+02     -8.40891442E+01
     -2.34509405E+03     -2.78056986E+03      7.39524669E+02
     -4.27352791E+03     -1.21428365E+03     -2.39064810E+02
     -1.85250633E+02     -1.24097762E+02     -6.53437779E+01
      5.15582720E+02     -1.08793644E+01     -1.25285392E+03
      1.96949834E+03      2.12618347E+02     -6.96348637E+02
      4.35105898E+02      2.86384133E+02      4.33297164E+02
     -1.28371305E+03     -2.81025525E+03     -1.94437388E+03
     -1.15829424E+03     -8.58643623E+02     -1.87844430E+03
      2.21174071E+02      9.75649656E+02      4.87599560E+02
      8.78321991E+02      1.56745079E+03      3.68924502E+03
      1.19438018E+03      1.74945650E+03      4.12832983E+02
      4.54599104E+02     -5.07922445E+02     -1.93218756E+02
     -1.60186921E+03     -1.10008453E+03      1.37238881E+03
     -1.95477241E+03     -1.88493399E+03     -1.27490250E+03
     -1.18630042E+03     -1.58965801E+03     -6.70745680E+02
     -1.94920684E+02     -8.93541594E+01      2.78055976E+02
      1.81837189E+03      9.38409613E+02      9.79939399E+02
      1.47721962E+03     -5.80315209E+02     -2.97269584E+02
      2.22498090E+03     -2.93123345E+02      4.94829883E+02
     -2.98705505E+02      6.96160878E+01      8.30455627E+02
     -1.67589502E+03      2.87144364E+03      8.83805119E+02
     -6.76865990E+02      4.88343993E+02     -2.96978649E+03
     -3.03718734E+00      9.96799862E+01     -1.14805709E+03
     -1.03613648E+02      1.62803316E+03     -1.87674736E+03
     -7.41785342E+02      2.26229773E+03     -6.67438159E+02
     -3.37482432E+02      5.89597285E+02     -5.87992840E+02
     -9.47372656E+02     -3.50115161E+03     -8.51054472E+02
     -2.32800598E+02     -1.72632930E+03      2.49108283E+03
     -1.51354242E+02     -5.76396947E+02     -3.16860958E+01
     -1.13432860E+03     -1.50758246E+03      2.00510179E+01
      8.63546991E+00     -2.65326503E+03     -4.85291622E+02
      3.21822742E+02     -7.51611790E+02     -3.49510561E+02
      2.39956390E+03     -9.44657574E+02     -1.06990525E+03
     -1.14048496E+03     -1.35828188E+03     -7.82698425E+02
      4.87654335E+02     -3.46285269E+01      2.91330533E+02
     -3.56189910E+02      7.35155431E+02      2.18784211E+03
     -9.35624080E+02     -1.23141902E+03      2.82292054E+03
     -3.44218593E+02     -3.43966274E+02     -2.09907724E+02
      9.35417819E+02     -3.21289204E+03     -8.55032031E+02
     -6.14950171E+02      2.92155312E+02     -1.94491260E+03
     -4.17660205E+02     -5.38844756E+02     -6.01816745E+02
      9.95025409E+02     -8.51486139E+02     -2.32424724E+03
      2.67686328E+03      4.25700564E+02     -7.86912127E+02
      3.50099018E+02     -8.49523790E+02      7.06319028E+02
      1.27452543E+03     -3.05124653E+03     -3.70131627E+02
     -3.75019765E+02      2.42556429E+03     -4.99193238E+02
     -5.27532854E+02     -8.67028864E+01      1.38200382E+03
      3.53807814E+02     -2.96934408E+02      2.69225378E+02
      2.16428101E+03      8.43659546E+02      1.49872696E+03
     -2.05545374E+02     -3.39843626E+01     -2.13601474E+03
     -2.22724108E+02     -1.87061435E+03     -3.00288769E+03
      1.64694123E+01      3.26380196E+02      9.93101876E+02
     -1.93263596E+03     -1.44782028E+03      2.12554423E+01
     -1.48235898E+03      9.63520405E+02     -1.88465854E+03
     -8.97557126E+02     -3.23944996E+02      5.73489106E+02
     -2.45483881E+02     -3.73977046E+02     -1.31279332E+03
     -4.41058045E+02      2.04727168E+03      1.94701456E+03
     -1.94046777E+02      2.06966822E+02      3.19876395E+02
      2.51570246E+03      1.78547306E+02     -1.69232502E+03
     -9.74247701E+01      3.39755727E+03      3.51927328E+02
      1.28134409E+02      7.65155968E+02      4.48651239E+02
     -1.69968061E+03     -4.55791520E+02     -1.46769411E+03
      9.61735620E+02      4.20862156E+02     -6.51694827E+02
     -2.25942215E+02     -1.56387096E+02      3.17920338E+01
     -1.38033178E+03     -3.49439460E+02     -1.45523302E+03
     -1.95002916E+03     -1.44878726E+03      3.04594180E+03
     -1.92640024E+02      4.63448969E+02      4.71246102E+02
      1.13855148E+03      2.44084675E+03      5.87233528E+02
     -1.36175593E+03      1.15246064E+03      1.47764426E+02
      2.13908543E+02     -6.76528362E+02      1.66113530E+03
      1.29348507E+03     -5.98646091E+02     -2.76864366E+02
     -3.51791029E+03     -5.68803992E+02     -1.53253196E+03
     -1.66902438E+01     -5.77023154E+02      8.17432411E+02
     -5.75358573E+02     -1.86036295E+03      5.27815427E+00
      6.88154564E+02     -5.36143692E+02      9.40059336E+01
      8.85206140E+02      1.27613023E+02      6.36641943E+02
      7.22772311E+02     -5.45576101E+02      7.71698688E+02
     -7.47796444E+02     -1.89887574E+03     -1.37136624E+03
     -3.67153361E+02      1.48915597E+03     -1.57463528E+03
     -2.23276119E+02     -3.39689906E+01      4.69677479E+02
      6.79704483E+02     -1.12789706E+02     -2.97853015E+02
      6.31610975E+01      1.24471375E+03     -2.12641565E+03
     -3.60315982E+03      6.47045231E+02      1.16436901E+03
     -7.34519519E+02     -1.20151297E+03      5.98319592E+02
      2.17752574E+03      2.79904841E+03      2.06482716E+02
     -1.67542254E+02     -1.61904890E+03     -6.89696357E+02
      9.10936443E+01      4.61947830E+01      1.92608390E+02
      2.94612014E+03      1.89345192E+03      8.28998302E+02
      1.48750526E+03      1.30498070E+02     -2.11989208E+01
     -1.44370463E+02     -7.04843004E+02      1.84437518E+02
      2.05201140E+02     -4.80022526E+03      2.22841990E+03
      3.87640460E+02     -1.25710614E+03      1.88902761E+03
     -3.22404756E+02      3.58110622E+02      7.94773586E+02
      3.67488629E+03      9.93845704E+02      7.25480137E+02
     -4.10381425E+03     -6.39540578E+02      1.30468940E+03
     -7.45288801E+02     -7.43472999E+02      5.59774502E+02
     -9.54749564E+02      2.40681474E+03      9.03202127E+00
     -7.20202874E+01      2.05205477E+03     -7.86344195E+02
      4.76940545E+02     -2.07400736E+02      1.01554927E+02
      1.00610604E+03      2.47104818E+03      2.05711130E+03
     -1.38377021E+03     -8.36203744E+02     -7.06620479E+02
      2.94092592E+02     -5.60579157E+01     -2.13843958E+02
      2.19632878E+02      1.31828904E+03     -7.49438373E+02
     -2.36399623E+03     -2.03553202E+02      9.29226777E+02
      1.19200015E+03     -4.25446308E+02      1.95018568E+02
     -4.36148105E+02      3.25778311E+03     -1.57959737E+03
     -1.33311234E+03      3.38961006E+02      6.34618444E+01
      4.76731169E+02     -5.15104967E+02     -5.81194717E+01
      8.98012571E+02      4.07969008E+02     -8.17265994E+02
      2.34940358E+02     -1.29814637E+03      1.11127184E+03
      1.88706533E+03      8.09755476E+02      1.50574233E+02
      2.26422391E+02     -5.67248135E+02     -9.64012519E+01
      6.75866573E+02     -9.26237273E+02      2.60166670E+03
     -8.00206148E+02      4.91812966E+02      5.86720302E+02
     -1.83371308E+02      8.57817244E+02      6.08865380E+02
  }
}

Hamiltonian = DFTB {
  SCC = Yes
  SCCTolerance = 1e-6
  MaxSCCIterations = 200
  ForceEvaluation = Dynamics
  MaxAngularMomentum = {
    C = "p"
    H = "s"
  }
  Charge = 0.0
  SpinPolarisation = {}
  Eigensolver = Standard {}
  Filling = Fermi {
    Temperature [Kelvin] = 300.0
  }
  SlaterKosterFiles = Type2FileNames {
    Prefix = "../../pbc-0-3/"
    Separator = "-"
    Suffix = ".skf"
    LowerCaseTypeName = No
  }
  KPointsAndWeights = {
    0.0000000000000 0.0000000000000 0.0000000000000 1.00000000000000
  }
  Dispersion = LennardJones { 
    Parameters = UFFParameters {}
  }
}

ParserOptions = {
  ParserVersion = 3
}
