Geometry = GenFormat {
<<< "system.gen"
}

Driver = VelocityVerlet{
  Steps = 50000
  TimeStep [fs] = 0.2
  MDRestartFrequency = 5
  Thermostat = None {
    #InitialTemperature [Kelvin] = 300.0
  }
  Xlbomd{ 
    IntegrationSteps = 6 
    MinSccIterations = 2
    MaxSccIterations = 200
    SccTolerance = 1e-6 
  }
  Velocities [m/s] {
     -6.80838791E+02      7.37260004E+00     -8.42887054E+02
      3.26148200E+03     -2.17821024E+03     -8.24732235E+02
     -1.85732776E+03      3.60105109E+02      1.30064188E+03
      1.18962332E+02      5.75190660E+02     -4.39468758E+01
     -9.19413717E+02      3.82413828E+03     -2.00019412E+03
     -1.04755161E+03      3.12672169E+03      9.59465298E+02
     -9.28462905E+02     -1.03319924E+03     -7.52724424E+02
      2.26849455E+03     -1.13840729E+03      1.32426795E+03
     -1.01398737E+03     -3.03352753E+03      8.90302625E+02
     -2.97503271E+02      3.91084578E+02      9.37942305E+01
     -1.62607634E+03     -2.79764989E+03      6.91064212E+02
      9.20010444E+02      4.50194737E+02     -1.70875735E+03
      1.46914174E+02      5.26418724E+02     -3.10565809E+01
     -1.02536790E+03     -9.08013804E+02     -2.10206531E+01
     -1.33175842E+03      2.09898381E+03     -1.56075107E+03
     -2.39721731E+01     -2.89353945E+02     -6.46415616E+02
      2.31386962E+03      1.38887828E+03     -1.24624729E+03
     -2.53780328E+02      3.81453929E+02     -7.93602328E+02
     -4.29117334E+02     -7.86939147E+02      2.67022710E+02
      1.53402711E+03     -1.99311268E+02      9.74300873E+02
      2.06542758E+03     -2.95201175E+01      7.85673059E+02
     -5.77352711E+02      7.82851970E+02     -4.12324554E+02
     -1.47389448E+03      8.94634019E+02     -1.96874559E+03
      2.85433017E+03     -6.54515011E+02      7.73207600E+02
     -4.97678113E+01     -3.88239417E+02      4.23701422E+02
     -2.62060079E+03     -2.35676802E+03     -1.42615966E+03
     -1.39215986E+03     -1.18172478E+03     -2.14917551E+03
     -2.30524262E+02     -6.88562369E+02     -1.46493227E+03
      8.10919129E+01     -4.49963987E+02     -6.05835141E+01
     -1.03821851E+03     -6.88833398E+02      2.58118655E+03
      8.52544560E+02      2.26616743E+03     -1.43687297E+03
      1.06256632E+03      3.57883446E+02     -5.01796499E+02
     -4.11977248E+01     -4.88610379E+02      8.75256440E+01
     -2.39371303E+03     -1.36337314E+03     -1.33005180E+02
     -1.32053129E+03     -4.05313819E+03     -2.34047138E+03
     -5.60571955E+01      3.58691392E+02      2.82595282E+02
      3.77771967E+03      5.20905157E+03     -1.86839175E+03
     -2.44109305E+03      1.03557257E+03      5.62715591E+02
     -2.63032317E+02     -5.54248111E+02     -2.61821434E+02
     -1.79402587E+03      1.68464122E+03      4.73162946E+02
     -2.98561680E+03      1.88673637E+03      6.33363610E+02
     -1.25571988E+02     -9.34477471E+02      1.14329649E+02
     -1.99726052E+03      1.66359581E+03      7.08266471E+02
     -1.33934197E+03      1.07651541E+03      7.61894772E+02
      1.18475461E+02     -7.59820603E+01      1.00805513E+03
     -2.05358593E+03     -2.34471889E+02     -1.53290016E+02
     -3.05544305E+03     -2.56818051E+03     -1.06598730E+03
      2.75847711E+02     -3.41786251E+02      2.40777596E+01
     -1.38756815E+02     -2.44901887E+03     -2.35153567E+03
      1.42547783E+03      1.96373640E+03     -1.00440631E+03
      4.46535954E+02     -8.57286193E+02     -4.26725264E+02
      2.44663559E+02      9.84549526E+02     -8.04470945E+01
      1.49124281E+03     -9.49034736E+02     -1.59220786E+02
      6.03310889E+00      4.48626459E+02     -1.40656638E+02
     -7.60119184E+02     -2.11527045E+03      4.35271591E+02
      6.93448828E+02      2.49634379E+02      1.80833958E+03
     -1.06700073E+02     -5.51024080E+02     -7.48085549E+02
     -1.94115140E+03     -2.11954370E+03     -9.99612137E+02
     -1.80167652E+03      1.06384974E+03      1.12569660E+03
     -5.08805994E+02      3.64544250E+01      5.54012214E+02
     -5.97253822E+02      5.58301294E+02      1.31559375E+02
     -2.55558177E+03     -2.21817825E+02     -1.25004095E+03
      5.45998628E+02      1.63039442E+03      1.28808407E+03
      8.50202562E+02     -3.54824988E+03      3.65251502E+02
     -4.55960276E+02     -5.37272625E+02      3.49045886E+02
     -9.72356096E+02     -9.50237138E+01      2.24791961E+03
      2.24796455E+03      5.77562087E+02     -1.27961826E+03
      3.81543736E+02     -1.13344487E+03      2.60797263E+02
     -2.51238327E+02     -3.10178202E+02      1.35671013E+03
     -1.65033068E+03     -7.27470968E+02     -6.23898792E+02
     -2.56463795E+02      3.48816971E+02     -7.06541444E+02
      1.05164318E+03     -2.38219178E+03     -3.11758905E+03
     -5.39825645E+02      9.94671573E+02      2.45963673E+02
     -1.10890074E+02      8.90832946E+02      1.84278199E+02
     -2.05562572E+03      1.06590152E+02     -2.44176371E+03
     -8.05543486E+02     -7.22710595E+02     -7.46937534E+02
     -3.31606701E+02     -4.69124352E+02      1.29268082E+02
     -7.91243466E+02      2.34918132E+03     -2.02346783E+03
     -1.78248037E+03     -1.95089972E+03     -2.30144514E+03
      1.04761357E+03     -5.43679995E+01     -8.42745421E+02
     -5.20770594E+02      1.04790033E+03     -2.10388339E+03
     -9.85574116E+02     -1.19443075E+03     -2.67706460E+03
     -3.20010288E+02     -4.89201662E+02     -3.76522826E+02
     -1.21817136E+03      7.17100026E+01      2.03973029E+03
      1.56870491E+03      1.25145672E+03      3.92826997E+02
     -1.32536654E+02     -7.63093928E+02     -4.58473261E+02
     -1.16547353E+03     -1.48156218E+03      9.98099474E+02
      1.55498418E+03     -1.45151693E+03     -2.20296426E+03
      3.09718346E+02     -2.90493821E+02      8.99920411E+02
     -1.11362223E+02     -3.50932053E+03     -2.50860808E+02
     -1.91012148E+03      1.10075114E+03     -7.53555637E+02
      8.50637804E+02     -1.42840891E+03      1.29590094E+03
      2.00904994E+02     -1.33795903E+02     -2.11044363E+02
     -8.51905544E+02     -3.70845466E+02      6.35614859E+02
     -2.62658659E+02      9.60358803E+02      2.05982797E+03
     -2.53092471E+03      2.02765169E+03     -6.77065669E+02
      2.03853931E+02     -8.79184861E+02     -3.93801440E+02
      1.32145116E+03     -5.77847967E+02      2.66087490E+03
     -3.17360331E+02      3.62995823E+03      4.67876862E+02
     -2.98214473E+02      2.93027862E+02     -1.60821450E+02
     -2.01543132E+02     -8.62267887E+02     -2.59564368E+03
     -1.03394118E+02      2.43019480E+02      3.00249375E+03
      5.67323305E+02     -2.30001024E+01     -4.30478548E+02
      5.37858009E+02      1.88940967E+03     -1.41219305E+03
     -3.17509551E+03      6.47270091E+02     -5.19403844E+02
     -5.80877380E+02     -1.48300061E+02     -2.13975811E+02
     -7.57355010E+01      3.88719485E+02      1.40763489E+02
     -5.53477470E+02      8.11545297E+02     -1.52184596E+03
     -4.38688563E+02      8.43090137E+02      6.95631108E+01
     -1.29715876E+03      1.43632585E+03     -4.40583281E+02
      1.44035709E+03     -3.49828533E+02      4.91865248E+01
      1.50036126E+02     -2.64608076E+02      2.39958860E+02
      2.09891921E+03     -2.41003150E+03     -2.02260820E+03
      9.54882946E+01      1.98749230E+03     -9.62940747E+02
     -2.13140364E+02     -5.37229978E+02     -7.08279169E+02
      1.48925877E+03     -1.78090860E+03      2.97170469E+03
      1.69374931E+03     -5.55820797E+02      1.16358737E+03
      5.11230818E+02     -7.34721996E+02      1.05681392E+03
      1.28478169E+03     -3.82056794E+02     -4.04687076E+03
      6.46473245E+02      1.01886581E+03      3.18453050E+02
      6.99646022E+02      8.19077304E+02     -4.67456662E+01
      1.22384723E+03      1.50758978E+03     -1.00711556E+03
     -1.04369975E+03     -2.22289423E+03     -1.99415985E+03
     -1.24702841E+03      1.56512232E+02     -7.14318247E+02
      3.17018584E+02     -1.08039236E+02      3.94911160E+02
     -1.53975522E+03      7.65415611E+02     -1.92900416E+01
      1.07353183E+03      1.24558921E+03      7.97832300E+02
      2.56820674E+03     -3.25594724E+02     -2.65284333E+02
     -2.90768397E+02     -1.28218837E+02     -1.51548467E+02
      6.12203035E+02     -5.64172243E+02      1.74474343E+02
      2.12902303E+03     -7.43316296E+02     -5.68367505E+02
     -3.22267866E+02     -7.04731735E+01     -1.39840520E+02
      2.58126683E+03      5.21567101E+02      5.28651153E+02
      1.82058307E+03      2.77313367E+03      9.97418570E+02
      1.31265322E+02     -1.01080340E+02      2.77829006E+01
     -1.50221268E+03      2.71710955E+02      8.29237545E+01
      3.51797511E+02      7.42845691E+02      1.55428071E+03
      9.45307698E+01      6.12899193E+00     -2.27748310E+01
     -5.34898039E+02     -1.52748194E+03      2.16381020E+02
      1.09713676E+03      5.97783567E+02      1.85670257E+03
      2.04228595E+02      2.39888657E+02     -7.56849942E+01
     -1.04839830E+03      1.47777491E+03     -9.30779928E+02
     -1.80233251E+03      2.10172394E+02     -1.43746310E+03
      5.48640182E+01      1.79868084E+02     -1.07624094E+02
      1.29760539E+03     -3.74419038E+03      7.59912108E+02
      2.95661359E+03      2.35157218E+02      1.43133609E+03
     -9.93497082E+01     -1.45966705E+01      2.67600477E+02
      6.20360155E+01     -1.16234863E+03     -3.17592367E+03
      1.56223290E+01      2.81087913E+03     -2.67147995E+03
     -9.11281142E+01     -4.18012773E+01     -4.57815456E+02
     -9.03681042E+01      2.59079801E+03     -2.19916839E+02
     -2.30799867E+03      1.51992768E+03     -2.26900701E+03
      4.61688976E+02     -4.83643862E+01      8.23902395E+02
      1.28400153E+02     -3.86455065E+02      7.84864907E+02
     -6.50077974E+02     -1.23015380E+03     -1.30498293E+03
      5.64185610E+02     -2.04957322E+02     -7.49342231E+01
      1.10149484E+04      1.49055037E+04      1.15338664E+04
      4.26903278E+02      2.39555100E+03      3.87408009E+02
     -6.39046445E+02     -6.77707713E+02      7.99505007E+02
     -1.23015674E+03      2.61540001E+02      6.49979766E+02
     -3.80158111E+02     -2.93167249E+02     -3.09049148E+02
      7.95285861E+02     -8.85962517E+02     -8.34394538E+02
      1.11783137E+03     -7.95284657E+02      5.01802712E+01
     -4.39294138E+02      5.63074235E+01      6.39050658E+01
     -2.84209886E+03      1.76980710E+03      3.75067375E+02
     -1.55432476E+03      7.77280489E+02     -1.74870173E+03
     -1.90770183E+02     -4.59009202E+02     -5.03107765E+02
     -2.16911887E+03      2.52626442E+03     -8.17821544E+02
      9.58647360E+02     -1.54348312E+03     -1.75879263E+03
      3.23390760E+02     -5.26731872E+02     -1.88833977E+02
     -2.38682872E+03     -2.11089216E+03      6.87715360E+02
      2.05256612E+03      6.12785141E-01      2.37232763E+02
      2.11508291E+01     -3.62412017E+02      6.17905243E+02
     -2.50182203E+03     -3.20530763E+03      9.77590951E+02
      3.35990717E+02     -2.19308150E+02     -1.27366800E+03
      7.13325104E+01     -8.58578594E+01      3.75634984E+02
      6.17833454E+01     -1.49251946E+03     -4.65130733E+02
      1.87507705E+03      4.22309684E+02      3.00709718E+03
     -8.80115130E+01      5.07354462E+01     -1.15329806E+01
      5.01146696E+02     -4.37377153E+03     -8.93658752E+02
     -1.37033253E+03     -1.64394388E+02      2.34509291E+03
      2.20622599E+02     -2.12216508E+02      1.34754822E+00
      5.48392635E+02      8.83234256E+02      1.93183593E+03
     -1.72031751E+03     -3.04413861E+03     -2.62407378E+02
      6.72956630E+01      8.75819486E+01     -8.08020234E+02
     -1.98095483E+02      1.50548662E+02      2.78960558E+01
      9.05297176E+02      1.52030977E+01      9.09974167E+02
     -3.08664816E+02      1.53894735E+03     -7.09702044E+02
     -7.87454050E+02     -1.99744064E+02      2.38036361E+02
     -2.00482507E+03      3.33817898E+02     -2.56673462E+03
      2.64421785E+02     -1.75490964E+03      2.37439809E+02
     -4.08310017E+02      1.16188323E+02     -1.02054965E+03
     -1.49710720E+02     -4.35816007E+02     -4.09783535E+02
     -8.15648466E+02      8.95219788E+02     -7.07968768E+02
      3.06420986E+02      1.58146849E+03      2.84691901E+03
      2.81751590E+02     -5.09531885E+02      2.11664825E+02
      6.64989514E+02     -1.20016424E+02      1.21849968E+03
     -1.22143960E+03     -1.97507429E+03      3.49414934E+01
      5.05020982E+02      1.00637805E+03     -5.93439625E+02
     -2.88845652E+03     -2.70823324E+03     -4.79116022E+02
     -8.42894898E+02     -7.82205144E+02     -1.22839238E+03
     -5.38787482E+02     -1.72897281E+02      3.39582738E+01
     -1.18626148E+03     -1.30662502E+03     -1.26863791E+03
     -7.83977712E+02      2.59614019E+03     -5.42836979E+02
     -5.39094348E+02      4.87277672E+02      8.19610915E+01
     -5.57838214E+02     -2.21369799E+03      8.45417778E+02
      9.51891109E+01      1.01003304E+03      1.36940349E+03
      7.80965915E+02     -6.80735480E+02     -2.40662726E+02
     -9.90948685E+02      8.67674539E+02     -1.30868394E+02
     -1.80564099E+02     -2.96576520E+02     -3.25524286E+02
     -6.23951842E+02      1.84320328E+02     -6.08661960E+02
     -2.27313859E+01     -2.70509209E+02      1.35238781E+02
     -6.70698051E+02      4.16592230E+02      2.64420544E+02
     -1.96035172E+02     -3.12297686E+02      4.07676514E+02
      2.10252040E+03     -1.68343529E+01     -1.26301487E+03
     -2.89237883E+03      2.83005359E+02      3.58312200E+02
     -9.64381077E+01     -8.02369172E+01     -1.40241319E+03
      1.69109419E+03     -7.54805989E+02      1.05744357E+03
      1.84376976E+03     -6.10214839E+01      6.24621228E+02
      7.95293529E+02      4.67951224E+03      4.39977234E+02
     -5.19265144E+02     -4.93935194E+02     -3.69201616E+02
      8.17376814E+01     -2.30110246E+03      6.33437979E+02
     -6.57607963E+02     -1.33031477E+03      1.32170574E+03
      1.43572671E+03     -2.15397902E+03      3.24487540E+02
      1.44567377E+02      4.59899965E+01      7.38144772E+02
     -2.89161375E+03      1.27733310E+02     -3.80558430E+03
     -9.88745617E+02     -4.68096464E+01      9.22550571E+02
     -4.13205746E+02      1.27146662E+02     -5.14914243E+02
     -1.32567819E+03      1.72673683E+03      2.97828509E+02
     -1.81810514E+03     -2.89083411E+03     -4.15628629E+02
     -4.13508007E+02     -4.57197332E+02     -1.25027059E+02
     -4.81276848E+02     -2.19808574E+03     -8.44907697E+02
     -1.67421817E+03      1.00913807E+03     -2.96686339E+02
      1.16686884E+03      5.76996687E+02     -2.06220469E+02
     -5.25601540E+02     -9.58292681E+02     -2.02250699E+03
     -1.19789459E+03     -1.73419155E+03     -6.39991358E+02
     -1.15526600E+03      1.68180930E+02     -1.10803109E+02
      1.79762290E+03      3.43024912E+02     -2.35488504E+03
     -2.54133763E+03     -1.30606959E+03      1.72176296E+03
      1.11808276E+01     -1.45499003E+02     -1.04538741E+03
      1.89218256E+03      1.51510771E+03     -2.24211922E+03
     -8.41058620E+01     -1.95751179E+03     -1.26622324E+03
     -7.92989504E+02     -3.95577447E+02     -5.76689702E+02
     -1.35013164E+03      1.15579783E+03      4.49425323E+02
      1.16231535E+03     -2.18285399E+03      3.27726290E+02
     -5.31218632E+02     -3.24410790E+02      1.88465516E+02
      1.70621592E+02      1.80661687E+02      2.44930928E+02
      6.23267929E+02     -2.04913596E+03      2.87513286E+03
     -1.11198836E+03      9.98094399E+02     -1.62655499E+02
     -1.80875511E+03     -8.23037904E+02      1.55920998E+03
     -1.31391471E+03     -1.84922732E+03      3.04399528E+02
     -1.46698247E+03      5.23056977E+02     -6.93493483E+02
      7.17683774E+02     -1.74477982E+02      6.71559242E+02
      2.42216155E+02     -1.47347112E+03     -9.71220965E+02
      1.84437087E+03     -8.04507952E+02     -6.75902190E+02
      4.48788351E+02     -3.28096222E+03      3.02088232E+02
     -3.39810974E+02      7.04191178E+01      1.00287469E+03
      8.03014758E+02     -2.62935132E+03     -2.02090297E+03
     -5.18100764E+02      2.94336994E+03      1.42799471E+03
      2.57018763E+02     -2.80716672E+02      5.23325786E+01
      1.34483101E+03      1.78483844E+02      2.08781692E+02
     -7.11006420E+02     -1.28470840E+03     -1.77388031E+02
     -3.59884489E+02     -4.09367458E+01      1.94925364E+01
     -1.38718798E+03     -2.42295993E+03     -2.32223074E+03
      1.57349469E+03     -1.23571175E+03     -1.93028374E+02
      3.00139426E+02     -4.65888068E+02     -5.13308419E+01
      5.23418359E+02     -3.76552845E+03      1.50360522E+02
      1.17796385E+03      3.37527160E+02      1.51021479E+03
      5.25766093E+02      1.86704813E+02      3.45996519E+02
     -9.80904352E+02     -1.26655369E+02      3.15589427E+02
      8.27302296E+01     -2.09658786E+03     -1.24361026E+02
      7.53378795E+02     -4.89547064E+02     -8.82149110E+01
      8.45888808E+02     -1.01407932E+03      7.55440317E+01
     -2.07032234E+03      1.31241714E+03      2.83860473E+03
     -3.29743251E+02      8.64708702E+02      3.40721359E+02
     -1.33857422E+03      2.70963941E+03      1.56893250E+03
     -1.75404901E+03     -1.94831641E+03      5.60700107E+01
     -1.41762667E+02      4.17982455E+02      3.89465273E+02
      1.91195579E+03      4.03777477E+02     -2.54420893E+03
     -1.00152006E+02     -3.36922506E+03     -9.37332084E+02
     -5.24443506E+02     -5.09034769E+01     -3.49490809E+02
      8.35916103E+02      6.66288574E+02     -4.43001120E+02
      5.14180479E+02      7.55147390E+02      1.13800980E+02
     -9.09175094E+02      2.09078588E+01     -3.91373194E+02
     -4.26724253E+02     -2.28350314E+02      6.19344667E+02
     -1.58368452E+03      4.66443483E+03      3.69983253E+02
      1.40113724E+03      4.64098847E+02      1.44786029E+03
     -5.89564344E+02     -2.92672299E+02     -8.37429366E+02
      1.41121950E+02     -6.69159525E+01      8.73780759E+01
     -2.06126460E+03      2.66957193E+03      2.08454295E+03
     -3.90700304E+02     -2.02554584E+03      3.17033786E+02
      7.30031980E+01      1.86004972E+02     -3.89151281E+02
     -1.35899752E+03      9.68692238E+02     -1.69569069E+03
      3.00667859E+03      1.29586838E+02     -4.97696509E+02
     -4.98888312E+01      2.30053405E+02     -4.11555088E+02
     -5.04742272E+02     -2.13106845E+03      2.30529831E+02
      1.93835859E+03     -4.29454170E+01     -1.63248401E+03
     -6.76629819E+02      1.71624392E+02     -3.96701635E+02
     -7.86014009E+02     -2.97923277E+03      1.63088188E+03
     -4.01854886E+03      1.38391136E+03     -1.16351636E+03
      2.42397688E+02     -1.43281549E+03     -1.18272983E+01
      2.38948706E+03     -1.18199233E+03      2.67387532E+02
      7.58351503E+01      4.90516099E+02      5.00887372E+02
     -4.24703986E+02     -5.78900364E+02     -2.24345295E+02
      8.09593319E+01      4.77318322E+02     -3.91415396E+02
      1.51636903E+03     -1.90129268E+03     -6.11301680E+02
      1.72443349E+02     -7.40608177E+02      4.28358320E+01
     -1.37188408E+02      1.35239936E+03     -8.50290451E+02
      1.04096458E+03     -4.44116129E+01      7.54975533E+02
      5.87596009E+02      7.51118294E+01     -2.72638403E+02
      1.93747442E+03      1.28171443E+02     -4.21474228E+02
     -1.10706712E+03      1.72486956E+03     -3.12410576E+03
     -5.46410876E+02     -3.45808478E+01      1.53377418E+02
      2.79163754E+03     -2.70763324E+02     -9.59849617E+02
     -1.62085690E+03      6.45332672E+02      8.56233954E+02
      6.60333495E+02     -1.79964903E+02      4.35069664E+02
      6.22987749E+01      5.28542375E+02     -1.53904017E+02
      4.08807628E+01     -1.45751823E+03     -8.33915064E+02
      2.53896448E+03      4.46777403E+01      1.86493672E+03
     -2.80317526E+02      8.73845273E+02      1.88249115E+03
     -1.82608192E+02     -1.81204326E+02     -7.72231447E+01
      1.72405948E+03     -2.14857397E+03     -1.36781617E+03
     -1.34802082E+03      8.33655206E+02     -2.26515740E+03
     -9.44557437E+02      1.16920345E+02     -4.48294276E+02
     -1.13408743E+02     -7.89046530E+02      4.45682042E+02
     -2.16251481E+03     -1.41927605E+03      8.97828542E+02
     -3.80296939E+01      6.90728785E+02     -6.38965210E+02
     -2.52024802E+03      2.68023130E+03     -1.10014020E+03
     -1.11112942E+03     -2.26926385E+03     -1.04354717E+03
      3.08079453E+01      1.16890214E+02     -8.21185533E+01
      1.15010780E+03     -6.32070699E+02     -2.50258754E+03
      7.59137487E+01      5.95168415E+02     -9.38636373E+02
      4.39331782E+02     -3.79679533E+02     -2.16027155E+02
      1.16554588E+03     -7.98104576E+02     -8.84087884E+02
     -7.29152176E+02      1.49387585E+03     -2.90255417E+02
      4.48561481E+02     -9.02612915E+02      2.09953525E+02
      3.35703345E+02      6.47508726E+02      3.29514140E+03
     -4.44386229E+02     -2.42673683E+03     -1.53982350E+02
      7.53468599E+00     -1.00372106E+02     -2.78708351E+02
     -7.59586948E+02      7.87730471E+02     -7.51518085E+02
      1.97023957E+03     -1.78065371E+02      1.74917188E+03
     -1.19299296E+02     -4.64879080E+02     -1.89412181E+02
      9.23696668E+02      1.56062160E+03      2.95218613E+03
     -1.70368747E+03     -6.95310777E+02      7.27082272E+02
      3.20445690E+02      4.29625292E+01      1.53555199E+02
     -5.32556079E+01      1.39453286E+03     -1.32236394E+03
     -4.86536068E+02      6.11981597E+02     -5.72782153E+02
      2.76788959E+03     -3.19039977E+03      5.35614525E+02
     -6.99578920E+02      2.77494978E+00     -5.64481384E+02
     -5.43596799E+02     -1.89837310E+03      3.31269378E+03
      5.08403756E+02      1.96470245E+03     -1.97928769E+03
     -1.36943872E+03     -4.58576162E+02      5.18155971E+01
  }
}

Hamiltonian = DFTB {
  SCC = Yes
  SCCTolerance = 1e-6
  MaxSCCIterations = 200
  ForceEvaluation = Dynamics
  MaxAngularMomentum = {
    C = "p"
    H = "s"
  }
  Charge = 0.0
  SpinPolarisation = {}
  Eigensolver = Standard {}
  Filling = Fermi {
    Temperature [Kelvin] = 300.0
  }
  SlaterKosterFiles = Type2FileNames {
    Prefix = "../../pbc-0-3/"
    Separator = "-"
    Suffix = ".skf"
    LowerCaseTypeName = No
  }
  KPointsAndWeights = {
    0.0000000000000 0.0000000000000 0.0000000000000 1.00000000000000
  }
  Dispersion = LennardJones { 
    Parameters = UFFParameters {}
  }
}

ParserOptions = {
  ParserVersion = 3
}
