Geometry = GenFormat {
<<< "system.gen"
}

Driver = VelocityVerlet{
  Steps = 50000
  TimeStep [fs] = 0.2
  MDRestartFrequency = 25
  Thermostat = None {
    #InitialTemperature [Kelvin] = 300.0
  }
  Xlbomd{ 
    IntegrationSteps = 6 
    MinSccIterations = 2
    MaxSccIterations = 200
    SccTolerance = 1e-6 
  }
  Velocities [m/s] {
     -6.81249222E+02      9.15386856E+01      6.35029467E+02
     -9.46855257E+02      1.51262366E+03      3.67326240E+02
      1.23918812E+03      5.94684136E+02     -3.53247155E+02
     -3.26438132E+02      5.57902584E+02     -8.26402018E+02
     -1.30580514E+03      6.35610617E+02     -4.50123804E+03
     -3.74162259E+02      1.65412514E+03      1.55901913E+03
     -1.73782400E+02     -7.39668897E+01      3.64199193E+02
     -2.62825386E+02     -3.18620233E+02      2.19509993E+03
      1.17588450E+03      2.27777775E+03     -7.64119126E+02
     -6.54092788E+01     -1.62141246E+00     -5.31791803E+01
     -4.81251115E+02     -9.19185489E+02     -1.52161202E+03
      2.58750909E+03     -1.33228533E+03     -5.29320589E+02
      4.70931670E+02      9.02650454E+01     -5.02440651E+02
     -8.27973056E+02     -2.08762369E+03     -2.81788458E+03
      1.22702969E+03      2.49046349E+03      9.64934880E+02
      6.59812908E+02      8.17808032E+02     -4.57061923E+01
      1.13077995E+03      1.80836288E+03     -9.96684413E+02
      2.00459938E+03     -7.70302875E+02     -3.84470985E+01
      2.58231658E+02      1.70160320E+02     -3.93430884E+02
      1.69674297E+03     -9.27125109E+02      4.54895945E+03
      1.22722260E+03      1.19598799E+03     -1.41737450E+02
     -1.01265994E+00      1.20545715E+03     -9.50923116E+02
     -1.23470100E+03      2.84393525E+02     -1.34620594E+03
      1.41938518E+03     -2.68382759E+03      2.69953652E+03
      2.11003027E+02     -1.22075122E+02      2.75946646E+02
     -2.70646236E+03      2.79054890E+02      3.21444041E+03
     -6.18097663E+02      2.65374896E+02      2.72605611E+03
     -2.25201871E+02      9.99293367E+01      1.57232089E+03
      6.33397578E+01      1.78182136E+02     -3.39991040E+02
     -1.01505542E+03      6.78597198E+02     -6.25311503E+02
     -1.61128842E+03      3.01894126E+03     -2.74054684E+02
     -1.91539429E+03     -8.55894699E+02      6.26766975E+02
      9.43895890E+02      4.66082630E+02     -8.87855582E+02
     -1.40857151E+03     -2.02111221E+03      3.34537509E+02
      7.61683570E+02     -9.65495004E+02     -2.38607072E+03
      8.96778114E+01      1.91498874E+02      4.52980217E+02
      6.06006493E+02     -3.62335572E+03      1.16425845E+03
      1.33178636E+03     -1.55037898E+03      1.24157525E+03
      1.29349569E+02     -3.06677373E+02     -6.15110659E+02
     -1.54244249E+03     -6.42659894E+01      1.52116071E+03
     -2.13132982E+03     -5.88108647E+02      6.36284507E+02
      6.53575957E+02     -8.62449523E+02     -4.93237637E+02
     -5.24025913E+02     -2.07645685E+03     -6.36014204E+02
     -4.59679700E+02      1.28179950E+03      3.26311815E+02
     -9.83269087E+02      5.93767824E+02     -3.81006517E+01
      5.02567844E+02     -4.95970409E+02      6.24119002E+02
     -2.27067604E+03      8.67914236E+02     -2.20583059E+02
      5.63232764E+00      1.32889761E+02      5.25189736E+02
     -1.07214941E+03     -1.89724020E+03     -2.32563751E+03
      1.34308193E+02      3.25903997E+03     -2.82455076E+03
      1.13817358E+02     -1.25748384E+02     -4.37316595E+02
     -7.44955426E+02     -1.39550547E+03      3.39386713E+02
      2.91245854E+03      1.13469178E+03     -3.21681964E+02
      2.82070789E+02      7.06995571E+02     -4.42812202E+02
     -1.42102825E+03      1.56952550E+01      2.08912559E+03
     -1.43730161E+03      7.78632793E+02     -9.10722650E+02
     -5.04705130E+02     -6.23544293E+01      3.71845609E+02
     -4.94904699E+01     -3.46128244E+02     -1.82017459E+03
     -7.59651625E+02      3.24581397E+03      1.09417108E+03
      3.12804599E+03      2.73783606E+03     -1.54532982E+03
     -7.16933631E+02      2.29109806E+02     -2.65962501E+01
     -1.21345869E+03     -5.38315604E+02     -2.42329684E+03
      1.24083287E+03      6.10116249E+02     -1.38129321E+03
      8.63955026E+02      1.07079525E+03     -2.42228586E+02
     -8.30873349E+02      5.40835369E+02     -4.46665059E+02
      1.12288086E+02      2.43560032E+03      1.39098474E+03
      1.05711988E+03      3.21987044E+03      9.14910574E+02
     -6.21699820E+02      9.86429909E+02     -5.93845842E+01
     -1.32981541E+02     -2.47878563E+01      3.93371990E+02
     -7.11006419E+01      1.01250592E+03     -1.66851764E+03
     -1.59864972E+02      9.78770853E+02      1.95871674E+02
     -3.47496232E+03      3.94675406E+03     -3.73264338E+02
     -2.59353046E+03      1.15795087E+02      1.16655040E+02
      3.82448903E+02      7.70212142E+01     -2.46659441E+02
     -1.67198942E+03     -8.22388255E+02     -3.45308421E+02
     -1.63961002E+03     -1.74546757E+03      1.62454336E+03
      1.08635700E+02      3.91102075E+02      2.88256740E+02
      1.25814040E+03     -7.87318181E+02      2.61307973E+03
      1.93605667E+03     -2.62147319E+03      1.69176255E+03
      8.11836316E+01      2.71591485E+02     -6.97404288E+02
     -2.57056079E+03      5.21219370E+02     -2.65932360E+02
      6.70260485E+02      5.46657987E+01     -1.39018532E+03
      7.32715660E+03     -1.69644272E+04      1.15066900E+04
     -4.90624262E+02      1.03023959E+03     -7.16643404E+01
      6.44202268E+02     -1.25208874E+02     -4.79351322E+01
      2.66263944E+02      5.05159028E+02     -1.53266030E+02
      1.01044464E+03     -4.10468873E+02      2.26004320E+03
      2.16516672E+03      9.42874501E+02      1.15193669E+03
     -1.42801346E+02      9.66618786E+02      2.23056326E+01
      6.72671421E+02     -6.95473212E+02     -8.65794670E+02
     -6.17021901E+02     -1.52424384E+03      1.09456465E+03
     -1.23454171E+03     -1.06393973E+03      1.56862199E+03
     -3.25031933E+02     -3.50980414E+01     -1.27148942E+02
      9.41805004E+02      1.50343330E+02      1.91235148E+03
     -7.42017916E+02      3.88587516E+02      1.00459503E+03
     -9.69190330E+02      9.93283677E+02      5.52798125E+02
      3.78730558E+01     -2.41618810E+02      2.84232411E+02
      2.08697538E+03      6.46294859E+02     -7.75137538E+02
      1.64792121E+03     -7.29871311E+02      1.69371441E+03
     -5.85111236E+02     -4.14927685E+02     -6.78184733E+02
     -8.51403705E+02     -4.49149399E+02      2.42488580E+02
     -1.03117900E+02      1.03635914E+02      4.28521852E+02
      3.14516819E+02     -7.35258819E+01     -5.23499507E+02
     -3.02794990E+03     -3.76866518E+02      2.33687918E+03
      4.14771487E+03     -9.01598071E+02      3.47270828E+03
     -2.36830287E+02     -2.13865566E+02     -5.32974725E+02
     -5.40212554E+02      6.05882801E+02     -1.27109904E+02
      1.04767728E+03      2.14726468E+03     -2.32885527E+02
     -6.18949424E+01     -2.23692243E+02     -1.07190133E+02
      4.03867359E+02      2.93342370E+03     -5.05829546E+02
      1.92548147E+03     -1.90589716E+03     -7.44057380E+02
     -8.75623373E+01      1.32801398E+03     -4.06254849E+02
     -1.50865840E+03     -1.80151246E+03     -6.57593122E+02
     -1.84851824E+03      4.34623451E+02      2.91624883E+01
     -5.39635134E+01     -3.87786827E+02      4.29691441E+02
      7.66295750E+02      1.33293295E+03     -2.00568368E+02
      7.39938710E+02      9.11525829E+02     -1.80358796E+03
     -3.34561993E+02     -7.22403924E+02     -8.34806498E+02
     -1.57601745E+03      2.88624202E+03      2.07038102E+03
     -1.07567098E+03      1.02362058E+03     -1.07814376E+03
     -2.69630798E+02      3.94561774E+02     -2.18067512E+02
      2.59839206E+02      6.81188109E+00     -2.23053961E+03
     -1.68742021E+03      8.92215458E+02     -6.78420608E+02
     -1.22858327E+03      2.36686218E+03      2.44697782E+03
      3.24076537E+02     -4.08365390E+02      5.05441769E+02
     -3.46789660E+02      5.83211123E+02     -9.09516851E+02
      6.12795052E+02      1.26925663E+03      1.28473163E+02
     -1.65984975E+03      7.50083408E+02      9.42900357E+02
      3.79950165E+02      8.03489132E+02      2.10372341E+01
     -3.85671537E+00      6.41956679E+02      6.60415527E+02
      1.64191784E+03      2.23183835E+03      3.67474701E+02
      5.32202144E+02     -3.93151053E+01      1.48294027E+02
     -1.42713452E+03      2.16497361E+03     -5.22047882E+02
      3.61998125E+02     -5.30359031E+01      1.88824087E+03
     -1.06904184E+02     -1.25133346E+02     -5.43643713E+02
      9.36048595E+01     -9.18729439E+02      9.40951936E+02
     -1.32619732E+03      3.17410478E+02     -7.90137272E+01
     -3.25724324E+02     -2.97776743E+02      8.46773159E+02
      3.69736758E+03      3.42945429E+02     -2.71756260E+03
      1.08750559E+03      2.51081563E+03      1.45435883E+03
      4.93899506E+02     -9.35892912E+00     -4.71006169E+02
      1.67673739E+03      1.30882733E+03      8.41557382E+02
     -2.93355418E+03     -1.46102922E+03      7.57589774E+02
      7.73416780E+02     -1.01452007E+02     -3.24388607E+01
      2.49634641E+03     -1.14372905E+03      1.37668925E+03
     -2.17008765E+03      1.08294454E+03     -1.29127727E+03
      1.29055554E+02     -1.93091412E+01     -3.27797707E+02
     -2.43542676E+03      1.70966554E+03      9.94577648E+02
     -5.00830383E+02     -1.57709410E+03     -5.93182324E+02
     -2.16358540E+02     -5.10122157E+02      2.18797843E+02
     -3.09801281E+02      1.17967918E+03     -1.31598472E+03
      1.22838517E+02     -4.88746009E+02     -5.23671702E+02
      1.51224225E+02      1.47144210E+02     -7.18600412E+02
     -8.83593946E+02      1.68802837E+03     -6.72860871E+01
     -9.95626700E+02     -6.92033560E+02     -5.38302299E+02
     -2.83919658E+03     -8.23246937E+02      3.82794839E+03
     -1.13343889E+03      5.36560863E+02      6.45503546E+02
      1.36753596E+03     -7.79452435E+02      4.87282095E+02
      5.27094633E+01      1.45410006E+03      6.99352983E+02
     -2.81178856E+02      4.88227109E+01      1.89961320E+03
     -4.33360530E+02      7.68142078E+02      2.74183533E+02
      1.93047778E+03      3.38420247E+03      9.26007484E+02
      2.29261386E+03      1.18934896E+03      2.50579323E+03
     -1.14290686E+02      5.33574042E+02     -6.47023548E+01
     -1.89994148E+03      8.19288152E+02     -6.69936828E+01
     -1.89895104E+03     -6.76255813E+02     -1.87322272E+03
      4.62428343E+02      9.08263536E+01     -2.27627861E+01
      1.97892561E+03      6.68107905E+02     -3.34533847E+02
      1.42147762E+03      1.49119339E+03      3.12770483E+02
     -4.21425503E+02      1.05098489E+02      2.25116088E+02
     -1.65310029E+03     -1.44848437E+03      2.72774111E+02
     -6.25208588E+02     -1.10375376E+03      1.23270734E+03
     -4.92943430E+02      1.82027393E+02     -3.74204940E+02
     -3.89582956E+03      5.50063184E+02     -1.05195875E+03
      3.54342224E+03      1.11595864E+03     -5.31789091E+01
     -6.60425972E+01      4.50513409E+02     -2.39433355E+02
      6.96230554E+02     -5.31285365E+02      5.38577558E+01
      9.77244108E+02      1.30881084E+03     -1.97148117E+02
     -3.36616134E+02      9.28750849E+01      1.45880023E+02
     -2.15607274E+03     -2.22205928E+03     -1.32565766E+03
     -7.44772253E+02      1.40383519E+03     -4.51637884E+03
     -8.22336153E+02      8.81160506E+01     -8.34057318E+01
      1.16714576E+03     -8.38793154E+02     -3.44117982E+02
     -2.23518933E+03      2.82367085E+03     -1.41734365E+03
      9.16936919E+01     -1.17544215E+03      2.46847977E+01
     -1.38826901E+03      2.31659594E+01      1.19197041E+03
      1.92411542E+03     -1.85492322E+02     -1.74079149E+03
      2.44784101E+03      7.31443059E+01     -1.75085466E+03
     -3.05879261E+02      4.44471244E+02      3.08838718E+02
     -7.57970437E+02      6.81627677E+02      3.72148109E+02
     -1.35073158E+03      2.02041609E+03      4.68647158E+02
     -1.98082959E+03     -4.89680270E+02      1.52203872E+03
      8.04645395E+02     -4.35000667E+02     -9.18663851E+01
      1.98797396E+02      1.21135699E+03      1.31561253E+03
     -2.73657418E+03     -3.18392189E+03      3.07165610E+01
     -6.29620054E+02     -7.60886042E+01      3.55719998E+02
      6.33859176E+02     -1.13006109E+03     -5.36984812E+02
      4.71795259E+02     -1.91180166E+03      3.86711228E+01
     -8.43022769E+02     -2.17568732E+02     -9.82612639E+00
      2.14689003E+03      1.25099938E+02      4.66848490E+02
     -3.93599317E+03     -4.81563923E+01     -2.31330919E+03
      1.35817910E+02      1.52624711E+02      2.10647031E+02
      4.27295221E+02      8.23040886E+02     -2.58787540E+03
     -5.66456329E+02     -3.79313028E+03     -5.64855684E+02
     -2.41254862E+02     -5.24259421E+02     -4.72878772E+02
      3.41645275E+02     -5.74865017E+02      2.67174247E+03
     -8.76400854E+02     -1.18427328E+03      1.24062343E+03
     -3.77641363E+02     -1.43956383E+02      6.07683919E+02
     -2.11705863E+03      8.13570776E+02     -5.09216134E+02
      3.53719345E+02     -2.15658169E+02      7.30873885E+02
     -3.74858297E+02      6.21748285E+02     -4.98128045E+01
      1.17277568E+03      4.37729024E+02      7.60978662E+02
      2.04390701E+03     -5.38768478E+03      1.00780496E+03
     -8.43754997E+01     -7.31722825E+02      4.56716110E+02
     -1.16977392E+02     -8.04352306E+02     -3.08006093E+03
     -1.18728320E+03      2.77585944E+02     -9.03631730E+02
      3.51494723E+02      2.00676287E+02     -4.20537962E+02
      5.27695833E+02     -1.16785839E+03     -1.66902838E+03
     -1.58713165E+03      6.11749401E+01      3.66442812E+02
      4.04273239E+02     -1.86355725E+03     -9.20775012E+02
      4.75399375E+02     -5.47902097E+02      5.84109150E+02
     -2.12385906E+03     -1.21498644E+03     -3.92728284E+02
      2.24390428E+02      1.08809820E+03     -1.24443026E+03
      2.42091751E+03      2.64164270E+03      2.46071827E+03
      2.07350201E+02      3.03734292E+02     -3.14132414E+02
      1.06930926E+03     -2.01089974E+03      3.13424545E+03
      1.52758982E+03      7.19269953E+02     -2.57534518E+03
     -1.98624817E+02      4.15694365E+02     -2.64119689E+01
      1.66138253E+03      1.51939134E+00      2.41106610E+03
      1.28319881E+03     -1.22878285E+03     -6.16461377E+02
      1.61076444E+02      9.29998568E+02     -3.01160358E+01
     -1.22860717E+03     -2.07799306E+03      1.82742163E+03
      9.96346235E+02      1.49533014E+03      1.51771845E+03
     -1.19490458E+02     -4.18088779E+02     -1.16871079E+02
     -3.32501818E+03      1.39403903E+03      3.47426318E+03
      3.24315099E+02     -1.29937730E+02      5.03364111E+02
      4.96223967E+02      1.62518324E+02     -8.98099788E+02
      2.18820306E+02     -2.19170455E+03     -3.56944127E+02
     -1.01063253E+03      2.61554917E+03      5.88914155E+02
      4.16590730E+02      5.97969387E+02     -1.83698562E+02
     -2.04211034E+01     -5.76324676E+02     -1.05774662E+03
     -7.63537878E+02     -3.49349947E+03      2.32345008E+03
      4.82716696E+02      4.83345620E+01     -2.73757606E+01
      1.07498240E+02     -2.22392379E+03     -1.06622814E+03
     -1.27169109E+03      1.38160351E+03     -1.53854397E+03
      3.76597687E+02      6.35437019E+02      3.82434650E+01
      1.34153312E+03     -1.04957506E+03      6.58520817E+02
      6.23854563E+02     -1.01952155E+03     -1.23358130E+03
     -6.85448197E+02      8.54137442E+02      4.32215393E+02
     -5.62133147E+02     -5.12177809E+02      6.84477209E+01
      4.96939965E+02     -5.56304450E+02     -8.64473383E+02
      3.41650785E+02     -2.27699323E+03      8.10101171E+01
      2.22629264E+02      5.63400264E+02     -4.72373413E+02
      1.21851684E+03     -2.56656226E+02      6.40738853E+02
      1.20766999E+03      1.07909795E+03      4.78272819E+02
      1.00883147E+03     -8.25147616E+02     -5.50293814E+02
      3.18599106E+02      1.46163889E+02      6.22779548E+02
      7.68472970E+02      4.61000147E+02      1.36901644E+03
      8.31687905E+02     -1.06894185E+03      1.81012722E+03
      7.59950101E+02     -4.24939985E+02      1.72420427E+02
     -1.61492837E+02     -9.26649110E+02      2.27017086E+02
     -7.36326408E+02     -8.69946657E+02     -4.25006954E+02
      1.90113600E+02     -8.86845297E+01     -4.50933281E+02
     -1.33275125E+03      2.25890126E+03     -2.95472104E+02
      7.70015196E+02      3.92344985E+03     -4.89944355E+02
     -3.30457387E+01      4.44473529E+01     -1.26605074E+02
     -6.19164513E+02     -2.58024455E+03      6.08416545E+02
     -1.51477065E+03     -1.11418790E+03     -1.59404806E+02
     -4.94756614E+02      1.57135731E+02     -1.44496400E+02
      1.23884706E+03     -2.00291835E+03     -2.71260638E+03
      7.04213012E+01     -2.54485008E+02     -2.12892616E+03
     -6.03220416E+02     -3.52672365E+02     -3.34911822E+02
     -1.83773153E+01     -5.36295180E+02      2.91025498E+03
     -6.37767430E+01     -1.45950932E+03     -1.42172293E+03
      2.41490527E+01      6.20617281E+01     -5.58384341E+01
      1.96605973E+03      2.78811637E+03     -6.42543804E+02
      7.35507456E+02     -2.64616371E+03      1.53608434E+03
     -2.37975681E+02      1.18497469E+02     -1.62967857E+02
      4.65294924E+02     -4.48624991E+03      2.99177329E+03
     -8.04201789E+02     -4.66102003E+02      1.12971168E+03
     -2.60669318E+02      7.53589093E+01      7.44628543E+02
      1.21354370E+03     -8.26908950E+01     -2.68315373E+03
      1.29351116E+03      3.91292107E+02     -2.08875024E+03
      2.98136829E+03      1.89805501E+03     -2.94995629E+03
     -5.98402121E+02      2.71802135E+02     -1.69190724E+02
     -1.36194803E+03     -1.63927102E+03     -4.91812773E+02
      2.28424684E+03      2.04922842E+03      5.55186732E+02
      1.45027449E+03     -5.32557573E+02     -4.80961254E+02
     -2.07152553E+02      4.76388975E+02      2.58749707E+02
      1.99116038E+03     -4.02685907E+02     -1.67410787E+02
     -3.76254231E+01      1.13531677E+03      2.51810479E+02
     -4.50733759E+01      4.60498638E+02      2.15789966E+02
     -2.49598658E+03     -1.04560407E+03     -9.61208309E+02
      1.46745839E+03      6.25131958E+02      8.43590106E+02
     -2.55873483E+02     -1.06858216E+02     -3.20960438E+01
     -1.03348747E+03      9.34681662E+02     -2.65985408E+03
     -5.44681684E+02     -1.28972242E+03      9.68712143E+02
     -3.19581440E+02      6.73918566E+02     -4.83924683E+02
      2.34232709E+03      3.50643780E+02     -2.62513655E+03
      5.75448160E+01     -2.29760815E+03     -2.01721619E+03
     -5.10726964E+02     -2.55670395E+02     -2.10537869E+02
     -2.78505599E+02      1.23998238E+00     -3.23936654E+02
      1.23625504E+03     -1.71486379E+03     -5.66340968E+02
     -1.62011100E+02     -8.03989144E+02     -8.38756067E+02
     -1.33266366E+03     -1.96268259E+03      1.22414915E+01
     -5.19037361E+02      1.83134871E+03     -1.35836808E+03
      4.22506665E+02     -5.19465428E+02      6.88288482E+01
      1.35267418E+03     -8.91109465E+02      3.01784616E+02
      2.71941194E+03      1.61741680E+00     -1.27519776E+03
      5.74509632E+02      1.66398055E+02     -4.11073037E+02
      1.79535609E+03      1.86514287E+03     -3.70988476E+02
      1.88131357E+03      2.95874989E+02     -7.70362317E+02
     -5.98771255E+02      9.70798306E+02      2.87484372E+02
     -5.98186406E+02      2.87060234E+03      1.04032303E+03
      3.93267994E+03      1.45281731E+03     -8.29778762E+02
      1.72038571E+03      7.45781295E+02     -2.59975260E+03
     -1.29565355E+01      3.80165516E+02     -2.71508824E+02
     -3.00323027E+03     -5.47956362E+02      1.28731652E+03
     -1.41886974E+03     -1.59951311E+03     -1.45025404E+03
      3.06257407E+03      1.09122919E+02     -5.61785500E+02
     -8.83782426E+02     -2.45956810E+02     -5.67663836E+01
      1.10287077E+03      2.56317194E+02     -2.60735394E+03
      2.86701569E+02     -3.53701993E+02     -6.28374707E+02
      1.05965354E+02      7.31742445E+02     -6.73890262E+01
      2.27720315E+02      7.05550473E+02      2.02389768E+03
     -1.64885104E+03      4.39182939E+02     -1.24769817E+03
     -1.15016383E+02      8.58241139E+02     -1.15482216E+02
     -2.54644343E+03      2.32341354E+03     -1.78937874E+03
     -1.73109124E+03     -9.81068608E+02     -5.62310108E+02
     -1.62919862E+02      1.32014340E+02     -3.73940939E+02
     -3.35559015E+03      5.39883659E+02     -1.82242399E+03
     -1.29727707E+03     -7.86002931E+02     -2.48723707E+02
     -1.28266340E+02      4.80679946E+01     -2.33800208E+02
      1.40057637E+03      1.11906245E+03      9.96140292E+02
     -7.05294011E+02      7.54572555E+02      9.00571322E+02
     -2.60744914E+02      7.79919351E+02     -9.67731965E+02
     -1.22997008E+03     -1.02985547E+03     -2.37625111E+03
     -2.64828976E+02     -2.91979632E+02     -6.20537983E+02
      2.94390321E+02     -5.57032369E+01     -1.44599929E+02
      1.31339070E+03     -8.61692446E+02      9.78732483E+02
     -2.02405901E+03      2.57262981E+03     -1.95000628E+03
     -3.16656668E+02     -7.51660333E+02     -6.51570856E+02
     -3.40051408E+03      1.73153389E+02     -1.28354866E+02
     -1.29544146E+03     -7.88824680E+02      1.25816050E+03
     -4.74397835E+02     -4.07881899E+01      1.66757299E+02
     -2.60621822E+03      7.33157355E+02     -6.00626381E+02
     -6.13380800E+02      3.98869023E+03      2.72771798E+03
      1.48442840E+03     -6.90927973E+02     -2.68964347E+03
      1.56825533E+02      6.14663591E+02     -5.45844033E+02
      1.14976130E+03      1.11756526E+03     -3.74513072E+02
      8.30120389E+02     -1.53948068E+03      1.16098272E+03
      2.00260353E+03      6.70090365E+02      2.15107139E+03
  }
}

Hamiltonian = DFTB {
  SCC = Yes
  SCCTolerance = 1e-6
  MaxSCCIterations = 200
  ForceEvaluation = Dynamics
  MaxAngularMomentum = {
    C = "p"
    H = "s"
  }
  Charge = 0.0
  SpinPolarisation = {}
  Eigensolver = Standard {}
  Filling = Fermi {
    Temperature [Kelvin] = 300.0
  }
  SlaterKosterFiles = Type2FileNames {
    Prefix = "../../pbc-0-3/"
    Separator = "-"
    Suffix = ".skf"
    LowerCaseTypeName = No
  }
  KPointsAndWeights = {
    0.0000000000000 0.0000000000000 0.0000000000000 1.00000000000000
  }
  Dispersion = LennardJones { 
    Parameters = UFFParameters {}
  }
}

ParserOptions = {
  ParserVersion = 3
}
