Geometry = GenFormat {
<<< "system.gen"
}

Driver = VelocityVerlet{
  Steps = 100000
  TimeStep [fs] = 0.2
  MDRestartFrequency = 5
  Thermostat = None {
    #InitialTemperature [Kelvin] = 300.0
  }
  Xlbomd{ 
    IntegrationSteps = 6 
    MinSccIterations = 2
    MaxSccIterations = 200
    SccTolerance = 1e-6 
  }
  Velocities [m/s] {
      2.26261755E+02     -2.25839080E+02     -6.02349060E+02
     -5.06220929E+02      1.21692724E+03      2.24261798E+03
     -6.22345636E+02     -1.50406042E+03     -1.82220345E+03
      2.11428549E+02     -2.93113956E+02     -5.89765607E+02
      2.42662847E+03      5.58310828E+02     -2.50245170E+03
      3.07870286E+03     -2.91060433E+03     -1.72680382E+02
      3.53776418E+02      2.76805097E+02      3.87183266E+02
     -1.56941775E+02     -9.11072022E+01     -2.53192300E+03
     -8.63413954E+02     -3.94241781E+02      8.98787609E+02
      5.60453993E+02      7.17392079E+02     -5.55731693E+02
      4.72707190E+02      2.52811916E+03     -1.38385324E+03
      1.24306157E+03      2.48003739E+02     -9.92725274E+02
      8.39862731E+02      1.17107956E+02      2.57415285E+02
     -3.80316693E+02     -2.12275572E+03     -1.05604176E+03
      1.05772789E+03     -6.62223721E+02     -5.68567379E+02
     -3.48681430E+02     -2.15395225E+02     -8.67020566E+01
      8.76636724E+02     -3.17839856E+02      1.97703613E+03
      2.66407666E+03      1.31810422E+03     -9.93837253E+02
     -1.93161930E+02      5.26090837E+02     -4.35708128E+02
     -3.84561869E+02      8.03353290E+01      6.45871280E+01
     -4.15987110E+02     -2.77971374E+03     -1.93614634E+03
      1.80599409E+02     -1.61012649E+02     -5.99507333E+02
      3.85472595E+02      2.03559217E+01     -3.96885888E+02
     -8.01144203E+02      3.31316166E+03      1.28266141E+03
     -5.08927121E+02     -1.03117856E+03     -6.74954819E+02
      8.02463406E+02     -2.03600098E+03      1.39389222E+03
     -6.40476363E+02     -1.72741832E+03     -1.17329590E+03
      7.52193656E+02     -1.30595283E+03      1.76769701E+02
     -1.06912262E+02     -5.53350809E+02      3.70421703E+01
      3.65806510E+03      1.37391810E+03     -2.82785171E+03
      1.44725149E+03      9.26531231E+01     -1.68092708E+03
     -2.10428344E+03     -2.81863533E+02     -1.71328502E+03
      5.46607289E+02     -6.54392560E+02      5.22292420E+01
     -4.93929569E+01     -4.51956886E+02     -2.31020878E+03
     -3.81759411E+02      8.94647499E+02     -1.02646788E+02
      6.03478528E+02     -8.07298387E+02     -1.08828618E+03
      8.11936733E+02      1.00220471E+03     -6.70712815E+02
      8.59970543E+02      5.84488978E+02      1.78388855E+03
     -2.69677585E+02     -1.50427240E+02      3.56375835E+02
      2.10756571E+03      1.98537638E+02      7.54174534E+02
      4.63289593E+02      1.31750346E+03     -1.07029649E+03
      5.44338406E+02     -2.18946124E+02      2.64250656E+02
      3.72300895E+02     -2.23087126E+03      2.11862873E+03
      5.89003997E+02      1.84420061E+02      1.90785333E+03
      5.49627273E+02      1.48991235E+02     -1.43288277E+02
     -1.62106208E+03      2.09295219E+02      9.28453018E+02
     -4.80037466E+02      3.22220218E+03      1.84390639E+03
      2.70694141E+02      3.06803433E+02      2.31377387E+02
      1.04916789E+03     -2.27556051E+03      7.17232098E+02
      2.46822885E+03     -1.88726408E+02      1.33580248E+03
      6.90997767E+02     -9.07045792E+02      5.75436016E+01
     -1.49922161E+03      2.76322244E+03      1.95840683E+03
      1.61334053E+03      7.62994006E+02      1.93949684E+03
      7.81475557E+01      5.40589211E+02      2.69974377E+02
      1.05753537E+03      1.16919616E+03      9.53317392E+02
      9.06744639E+02      2.46566000E+02      6.91650457E+02
      9.83353551E+02     -3.75947256E+01     -7.86452136E+02
     -1.96350266E+03     -1.08162502E+03     -2.26743428E+02
     -1.43235448E+03     -1.06537939E+03     -1.59584248E+02
     -1.43937091E+03      2.69556363E+03     -9.75009703E+02
     -2.92214808E+04     -8.35211258E+03      1.36263291E+04
      5.79716513E+02      1.43973077E+03     -1.06049039E+03
     -1.17291207E+02     -3.13779755E+03      1.42263430E+03
     -7.26346748E+02      5.48789659E+02     -1.70968900E+03
      1.08745364E+02      5.26212162E+02     -1.79290207E+02
      1.56864113E+03     -3.21169780E+02      1.42005081E+03
      2.43917656E+01     -2.40336253E+03     -1.21463557E+03
      5.90641891E+02     -3.71433636E+02      3.53033660E+02
      1.40401250E+03      1.65115930E+03      1.18805078E+02
     -5.94607198E+02      2.27632554E+03     -1.33821209E+03
     -2.53721228E+02      5.66191616E+02      7.15404528E+01
     -1.64692812E+03      1.42350220E+03     -9.50344094E+02
     -1.32862112E+03      6.07789365E+02     -4.18159792E+02
      2.81697596E+02      6.12392965E+02     -4.80052601E+02
     -8.57564710E+02     -8.47788599E+02      1.05359806E+02
     -2.37878878E+02      3.12128015E+03     -2.97669970E+01
      6.85453151E+02      1.93486964E+02     -3.63601714E+01
      2.07135736E+03      9.63710113E+02      3.14426926E+02
     -2.02845360E+03     -9.50872673E+02      4.54200184E+02
      3.23071584E+01     -1.56388511E+02     -1.07940546E+03
     -2.49491147E+03      4.34964768E+02      1.23152514E+03
      2.12355485E+03     -7.46801189E+02     -2.96387273E+03
      1.36054769E+02      2.51565333E+02      5.62211689E+02
     -5.29480390E+02      4.24750707E+03      4.28251585E+03
      8.37280922E+02     -4.99467736E+02     -1.64702180E+03
      1.89060204E+02     -4.62351253E+01      3.49181308E+02
     -2.76756819E+03     -2.72683730E+03      1.28902599E+03
     -1.43418532E+03     -9.19793547E+02     -8.34154852E+02
      2.60851669E+02      1.24876473E+02     -1.46758687E+02
     -2.02543965E+03     -1.78217673E+03     -1.07239557E+03
      1.65101617E+02     -1.00537217E+02     -1.17422213E+03
      8.56874520E+02     -6.89973597E+02      2.63266533E+03
      6.64708019E+02     -4.72473947E+02     -5.80369150E+02
     -1.39200115E+03      3.42269198E+03      2.07395627E+03
      7.30022911E+02      5.44861360E+01      1.47543074E+03
     -1.16002144E+03      4.33738959E+02     -2.83037646E+02
     -2.12963710E+02      4.39227514E+02     -2.51074433E+02
     -1.92537450E+03      1.92243044E+03      1.81086327E+03
      3.50747943E+03      1.66439360E+03     -5.83911788E+02
      7.05319585E+02      6.10024381E+02      6.10406784E+02
      2.16197271E+03     -2.06934077E+03     -1.74033705E+02
      5.12009695E+02     -3.32499775E+03      5.31597245E+02
      1.25174881E+03      2.24464013E+02      8.03496561E+01
      2.33896265E+03      1.76827861E+03      5.61857582E+02
     -1.93945347E+03      2.71572664E+02      1.25674525E+03
      8.77959268E+02     -6.04526324E+02     -4.79007473E+02
      1.05819212E+03      1.07757542E+03     -9.55728523E+02
     -7.48864296E+02      2.34254711E+03     -6.70990477E+02
      3.34573966E+01     -3.10685825E+01      3.04470742E+02
     -8.09363235E+02     -4.31209227E+01      4.72697852E+02
     -6.73404885E+02     -3.90392181E+02     -2.94544885E+02
      5.68988401E+02      5.25967461E+02     -2.81857394E+02
     -8.89580057E+02      3.54647329E+03     -3.27107295E+02
      1.39545113E+03      2.74542451E+03      1.24774900E+02
     -1.20633737E+02     -1.68339030E+02     -1.88667803E+02
      1.16752984E+03     -1.00436254E+03     -7.70169239E+02
     -6.28573300E+02     -2.54062616E+03      1.13712639E+03
      5.58950968E+02      2.59494199E+02      9.12331922E+02
      2.36906297E+03     -9.48324318E+02      8.79701448E+02
     -4.48140859E+03     -1.82446929E+03     -4.11222229E+02
      6.92299043E+02      2.25699209E+02      5.38499849E+02
      4.62661595E+03     -2.20336091E+03     -5.09394704E+02
      2.14180570E+03      1.46458593E+03      5.69330733E+02
      7.22887300E+02      1.32299301E+03      2.89557531E+02
     -2.31012897E+02     -5.61731648E+02     -5.54194371E+02
      2.12906110E+02     -1.90392271E+03     -2.72529218E+03
      1.21122945E+02     -2.06382791E+03      9.85820527E+02
     -1.31462600E+03     -1.84092946E+03      1.14205424E+03
      3.88492828E+02     -9.01597222E+02     -2.01148540E+02
     -1.06562277E+03      1.67342741E+02     -3.75887799E+02
     -1.73428068E+03     -3.32984709E+01     -1.96644676E+03
      2.96286035E+02      2.18702624E+02      2.51551474E+02
      1.57777263E+03      1.30536128E+03     -2.85615608E+02
     -1.55838000E+03      1.53008366E+03      1.70186194E+03
      1.40067226E+02     -2.69224834E+02     -3.55485485E+02
      2.00866409E+03      1.65286934E+03     -1.88152160E+02
      1.26939950E+03     -1.10740959E+02      1.82390832E+03
      1.32180725E+03      5.75560995E+02     -4.92624649E+02
      6.86790948E+02     -2.33366444E+03     -3.10430913E+03
      4.16161042E+02     -1.22104348E+03     -7.72373895E+01
      4.85355265E+02     -8.61139053E+02     -1.03753637E+03
      3.98081449E+02      2.46357741E+02     -8.54054522E+01
     -1.33382056E+03      1.58772831E+02     -6.81504618E+02
      3.26504061E+01      6.19660493E+02      4.56868145E+02
      1.33256472E+03      1.26422981E+03      2.35638125E+03
     -1.73930397E+03      1.33092687E+03     -1.28423524E+03
      7.03707760E+00      6.15224157E+02     -1.30276872E+02
      2.40774188E+03     -2.73766714E+03     -1.34769126E+03
      5.00981925E+02     -5.86480335E+02      2.20730207E+03
     -1.50750817E+02      3.00173271E+01     -6.71784305E+02
     -1.60991995E+03     -1.12497025E+03      2.44395485E+03
     -6.46901025E+02     -3.61279895E+03      1.49139591E+02
     -2.07822548E+02      2.01347802E+02     -4.82276767E+02
      2.69961270E+02      5.27116347E+01     -5.74942766E+02
      1.43156155E+02     -1.68858343E+03      2.60803040E+03
      2.51672415E+03      9.30175724E+02     -5.67953501E+02
      5.30969341E+02      1.31134381E+02     -4.27304938E+02
      1.41227083E+03     -6.42938650E+02      2.56161263E+03
     -1.02722032E+03     -4.79625320E+02     -2.30155602E+03
      4.64475452E+03      4.25194520E+02      8.30197000E+02
      1.31024162E+02     -1.18536819E+01     -7.87298405E+02
     -6.54336702E+02     -1.95504554E+03     -1.39831168E+03
      1.88310492E+03     -1.81970920E+03      1.73699197E+03
     -4.17229821E+02      4.67073699E+02     -5.28896656E+02
     -1.19265235E+02      2.40970901E+03      1.24699023E+03
     -1.61254125E+03     -1.02945472E+03      3.22259246E+02
      3.75912581E+02      3.31584061E+02     -3.25729426E+02
     -1.61729790E+03      1.36691028E+03     -1.50597504E+02
      2.79870757E+03      3.71436066E+01      1.87396816E+03
      8.66563928E+01     -6.44617886E+02      2.63774192E+02
      1.95302225E+03      7.42999347E+02     -7.92960333E+02
     -2.08233798E+02      1.89320166E+03     -9.73947555E+02
      4.21798842E+02     -9.30083240E+01     -1.58847199E+01
     -7.13887091E+02     -4.02836339E+02     -1.55702505E+03
     -5.58227490E+02      9.94684380E+02      1.87027918E+03
      6.18531270E+02     -4.51124683E+02      9.34796529E+02
      2.18432685E+03      2.38012154E+03     -6.73843840E+02
     -1.20748624E+03     -4.87600389E+02     -4.41737065E+03
      3.28576573E+02     -6.12785277E+02     -5.03905187E+01
     -1.61679860E+03     -4.40079578E+02     -5.34048167E+02
     -8.99276031E+02      4.33056985E+02     -1.12756491E+03
      1.01601558E+02     -4.37284294E+02     -8.23582493E+02
     -2.29913904E+03      8.25711645E+02     -5.25906219E+03
     -1.90144125E+01     -1.10322577E+03      2.02793037E+03
     -5.09906629E+01      8.68393187E+02      1.90237705E+02
     -3.01401686E+03     -3.67018803E+02     -1.36322922E+03
     -1.42834102E+03      7.83093485E+02      1.83852530E+03
      6.59978111E+02      2.75249621E+03      7.13530578E+01
     -3.02944836E+02     -1.73012062E+02     -8.99054361E+01
     -1.28053525E+03      1.63058197E+03     -4.38880225E+02
      2.58074012E+03      1.81293644E+03      1.84248182E+03
     -1.49622470E+03      7.53772841E+00      1.29291250E+01
     -3.81501927E+02      5.12972863E+02     -1.22063815E+02
      5.87671125E+02      1.42609512E+03     -1.83281659E+03
     -8.44356316E+02     -2.47729967E+03     -6.11750323E+02
      4.88582111E+02      1.69586854E+02      2.73755130E+02
     -5.71105110E+02      1.78129442E+03      2.21770049E+03
      3.59023112E+02     -1.27169858E+03     -1.31861848E+03
      2.74611575E+02     -1.37299053E+02      8.97303395E+01
     -3.06203098E+03      2.07541976E+03     -1.09675608E+03
      7.48982050E+02      1.47890193E+03      4.84105502E+02
     -2.01364619E+02      2.15952703E+02     -4.99052638E+02
      1.66196790E+03     -1.43916014E+03     -5.58421074E+02
      1.36399888E+03      8.02290355E+02      1.10802270E+03
      1.15094647E+02     -2.25684162E+01     -6.05215614E+02
      2.07161371E+03     -2.23952790E+03      1.25202585E+03
      4.10346515E+03     -8.04811864E+02     -3.73928950E+02
     -1.29564071E+02      2.94732723E+02     -8.54916180E+02
      7.87946393E+02     -1.02035110E+03     -2.39665373E+03
      4.41811497E+02      1.32357701E+03      1.52355783E+02
      8.68434988E+02      3.33535294E+01     -7.12747974E+02
     -8.93394334E+02      4.80064065E+02      2.89649688E+03
      1.29756734E+03      1.35982330E+02     -1.42426924E+03
      1.24130534E+02      3.32211378E+02     -8.86423056E+01
     -1.62837013E+03     -1.04482960E+03      2.76942703E+03
      1.08807116E+03      6.28064114E+02     -2.89910656E+03
      4.25010740E+02      2.83680701E+01     -2.98339731E+02
     -7.43869358E+02      1.01476779E+03      2.97603706E+03
     -1.17512339E+03      1.25302520E+02      7.49177421E+02
      4.20386204E+02      1.37670714E+03     -1.45211640E+03
      1.62605443E+03      5.43179473E+02     -6.48619521E+02
      3.77625460E+03     -1.63218489E+02     -9.66913941E+02
      2.31933842E+03      1.18222761E+03      2.72162739E+01
      9.96166723E+02      1.12734460E+03      2.49691886E+03
     -1.64571341E+01     -7.58855903E-01     -1.20297497E+02
      3.40436725E+02      6.63079093E+02      1.21867773E+02
      1.70754110E+03      2.05085902E+03     -9.92725676E+02
     -2.65511676E+02      8.81354371E+02     -3.70624463E+02
     -1.72140025E+03      2.35430448E+01      1.12744197E+03
      2.12002837E+02      1.45864582E+03      4.12533980E+02
     -2.63489728E+02      1.25234441E+02     -8.53562635E+02
      2.26421121E+03     -1.97243802E+03      1.24197895E+03
     -4.89516716E+03      1.02420111E+03      2.00089481E+03
      1.48447874E+02     -2.85521326E+02     -1.53937973E+02
     -2.47230050E+03      2.41266851E+03      3.09701992E+02
     -5.36129880E+02      2.38841780E+03      3.31242673E+01
     -4.47480912E+02     -7.90459866E+02      6.37412324E+02
      1.29719714E+03     -1.44791084E+03     -5.12151224E+02
     -2.24560608E+03      7.37114292E+02      1.30209045E+02
     -3.08781760E+02      9.59736427E+01     -3.80595690E+02
      1.72731252E+03     -8.20619346E+01     -2.52227418E+03
      2.05824978E+03     -3.15364766E+03      2.21701990E+03
      8.22388520E+02     -4.55588096E+01     -1.51478322E+02
      7.81637425E+02      9.52621526E+02      1.97600758E+03
      1.83363139E+02      4.83706918E+02      3.06955330E+02
      8.22577084E+02      1.28682048E+03     -1.58146116E+01
     -1.16634760E+03      1.65451484E+03      3.13019517E+02
      1.48605582E+02     -2.56136879E+03     -1.00727435E+02
      7.99213848E+01      1.75586901E+02      2.93654417E+02
      7.05463368E+02      1.13682766E+03     -1.91426148E+03
     -2.53793565E+02      1.48211699E+03     -3.18708325E+03
     -1.60303856E+02      1.84182008E+03     -2.39396249E+03
      4.18133243E+02      3.69146419E+02     -1.26541338E+01
     -1.62103156E+03      1.84733949E+03      1.15920814E+03
     -5.54818136E+02     -3.12621723E+03     -7.72482439E+02
      2.36702561E+03     -9.77306457E+01     -1.00866010E+03
      2.89542578E+02      8.51969253E+02      5.02015600E+02
      2.50872589E+03     -6.73173775E+02      1.31626174E+02
      2.57309317E+03      8.35358610E+02      1.01104543E+03
      5.87188958E+02     -3.28577613E+02     -7.95960811E+00
     -2.43646886E+03     -1.75600307E+03     -3.39093128E+03
      2.09577639E+03     -1.77231303E+03     -1.36382293E+03
      2.81292882E+02      1.18163203E+02      4.15282907E+02
      4.36143917E+02     -3.20167548E+02      2.93793251E+03
     -1.43032987E+02     -1.20820322E+03     -3.37683694E+03
      2.55924181E+02     -4.55509215E+01     -6.64960480E+02
      2.36638397E+02      1.50098695E+03      2.02238468E+03
     -6.85639967E+02     -6.27427840E+01     -1.66303346E+03
      2.81807651E+02     -4.31032405E+02      6.16393280E+02
     -1.24158979E+03     -4.58247952E+02     -1.48620999E+03
     -1.20126568E+03     -2.00265934E+03      3.70586314E+03
     -5.47188467E+01      1.14557776E+02     -1.52683356E+02
      1.94058046E+03     -1.71574188E+03      1.81362391E+02
      1.53884563E+03      3.14716688E+03      2.69841081E+03
      2.53524445E+02     -1.74483778E+02      7.54514467E+02
     -1.82557701E+02     -1.68918949E+02      3.28066647E+03
     -7.42344332E+02     -3.98464967E+02      2.54513735E+03
     -7.68923277E+02      2.71562303E+02      6.98590779E+02
      8.33542963E+02      1.33701872E+03     -5.29600128E+02
     -1.39175731E+03     -3.46655013E+02     -1.39900388E+03
      3.64532928E+02      4.46214052E+02     -6.91351897E+02
     -2.90570402E+03     -3.55987743E+02     -1.17655260E+03
      3.01275028E+03     -1.64534120E+03     -8.05242043E+02
     -2.18750647E+03     -4.00713485E+02     -1.63749199E+03
      5.55959511E+02     -8.40660979E+02      6.36647438E+01
     -3.87154482E+02     -1.98279660E+03     -2.73481096E+03
      2.97004423E+03      1.45275692E+02     -1.02336801E+03
     -3.96176362E+02     -4.77639361E+02      1.67554851E+03
      6.74188723E+02      4.84925716E+02      4.11817233E+02
     -1.70334887E+02     -1.11933526E+03      1.90663574E+03
     -3.69408478E+02      3.46378275E+02     -3.49148963E+03
     -4.70206976E+02      6.21203644E+02     -1.46076084E+01
     -7.26316294E+02      1.81654616E+03     -1.32191587E+03
      3.28770203E+03     -1.19426851E+03     -3.02793296E+02
      5.15741627E+02      3.48356129E+02     -3.49274206E+02
      8.10060158E+02      2.33754654E+02      4.13662037E+02
     -3.17503306E+03      6.96799479E+02      2.47091126E+03
      7.14165155E+01      6.74636444E+02     -7.61488697E+02
     -8.61519031E+02      2.59457630E+03     -4.24765701E+03
      1.51043231E+02     -1.87874190E+03      2.20717616E+03
      4.22539357E+02      1.98182112E+01      2.94219227E+02
      1.21904620E+03     -1.16880825E+01     -7.73556669E+02
     -6.80000750E+02     -3.51175126E+02     -1.40787845E+03
      4.80156341E+02      7.30266047E+01     -4.45611607E+02
     -7.70719794E+01     -3.14792612E+03      5.37606674E+03
      1.54508481E+03      1.13912189E+03     -3.32920286E+02
      1.25829381E+02     -9.20087630E+02      5.38509455E+02
     -2.51258523E+03      3.13389698E+03     -8.84934312E+01
      1.56842743E+02     -1.85377375E+03     -1.47110059E+03
      2.10249175E+02      4.17806164E+02     -8.53276869E+02
     -1.90130618E+03     -4.12626677E+02      1.97476042E+03
     -1.44201139E+03     -6.03628973E+02     -1.25766605E+03
      4.30184046E+02     -1.95203909E+02     -8.30398478E+02
      1.05997470E+03     -1.27745888E+03     -4.79296449E+02
     -2.36420177E+03      1.75526045E+02      6.69618157E+02
     -4.26842620E+02      8.58688898E+02     -7.27960069E+02
     -1.43905086E+02      6.26996020E+02     -6.27245344E+02
      1.34951834E+02     -1.78737302E+03      1.36241160E+03
     -2.65913112E+01      3.02202016E+03     -1.46237358E+02
      1.09956683E+03     -1.97905639E+03      4.20666321E+02
      2.22957402E+02      2.05938283E+02     -8.32131987E+02
     -3.23932251E+03     -1.72189583E+03     -2.15186195E+03
     -2.86025368E+03      1.60413952E+03     -4.36085597E+02
      6.03382861E+02      5.81253623E+02      3.34659846E+02
     -2.84783700E+03     -3.54197222E+01      9.54918871E+02
     -4.31075660E+02      1.53296363E+03      2.84679446E+03
     -1.26171615E+02      9.26370549E+02      5.57471066E+02
     -2.03066002E+03     -2.21174270E+03     -1.22654765E+03
      7.29304920E+02      2.62387744E+03     -2.22452245E+03
     -2.29484232E+02     -3.68502184E+02     -5.37663587E+02
      2.05278726E+03      1.78695747E+03      3.67937053E+02
     -1.30695055E+02     -6.01047867E+02      1.18517074E+03
      5.68015157E+02     -3.82333146E+01      1.14854250E+02
     -1.17038674E+03      9.18298421E+02     -6.25032708E+01
      1.56373650E+03     -1.68651562E+03     -2.10109865E+03
     -4.62706021E+02      8.36601923E+01      2.33924142E+02
     -2.15167550E+03      4.45853291E+01      1.60706410E+03
     -6.05198584E+02     -6.65909638E+02      6.52713262E+02
      8.59521025E+02      9.41332762E+02     -1.00406989E+03
      9.89775610E+02      2.15916953E+03     -8.71418484E+02
     -1.73093625E+03     -1.56608144E+03     -1.63094517E+03
      1.06690567E+03     -3.23183356E+02      5.97768401E+02
      6.68928933E+02      1.49132912E+03      1.39029315E+03
     -9.07727950E+02      1.43290454E+03     -3.78856054E+01
      2.55785835E+02     -6.13604388E+02      5.69076756E+02
      4.56926954E+03     -2.47211080E+02     -2.32313478E+03
      3.44585078E+01     -6.73167601E+02     -2.10487845E+02
     -1.05982879E+03      1.37686362E+03     -7.05524750E+02
     -2.19410578E+01      4.50112705E+02      3.39550776E+02
      2.36011190E+03     -5.57018839E+02      1.25714885E+03
     -1.11166013E+03     -2.06709234E+03      2.13295356E+03
      4.16734332E+02      1.65749947E+03      2.65548664E+03
  }
}

Hamiltonian = DFTB {
  SCC = Yes
  SCCTolerance = 1e-6
  MaxSCCIterations = 200
  ForceEvaluation = Dynamics
  MaxAngularMomentum = {
    C = "p"
    H = "s"
  }
  Charge = 0.0
  SpinPolarisation = {}
  Eigensolver = Standard {}
  Filling = Fermi {
    Temperature [Kelvin] = 300.0
  }
  SlaterKosterFiles = Type2FileNames {
    Prefix = "../../pbc-0-3/"
    Separator = "-"
    Suffix = ".skf"
    LowerCaseTypeName = No
  }
  KPointsAndWeights = {
    0.0000000000000 0.0000000000000 0.0000000000000 1.00000000000000
  }
  Dispersion = LennardJones { 
    Parameters = UFFParameters {}
  }
}

ParserOptions = {
  ParserVersion = 3
}
