Geometry = GenFormat {
<<< "system.gen"
}

Driver = VelocityVerlet{
  Steps = 50000
  TimeStep [fs] = 0.2
  MDRestartFrequency = 5
  Thermostat = None {
    #InitialTemperature [Kelvin] = 300.0
  }
  Xlbomd{ 
    IntegrationSteps = 6 
    MinSccIterations = 2
    MaxSccIterations = 200
    SccTolerance = 1e-6 
  }
  Velocities [m/s] {
      7.56571163E+02      1.60369050E+02      1.20160053E+02
     -3.32976949E+03      1.30742336E+03      1.68118440E+03
      2.42867233E+03      1.71864355E+03     -8.46119421E+02
      9.22693342E+02      4.34919991E+02      3.14608598E+02
     -2.10976494E+03      2.39586953E+03     -4.94647017E+02
     -3.90287760E+02     -1.49622053E+01      7.51345214E+02
     -6.40059323E+02      2.36708670E+02      2.94678201E+02
     -2.68939324E+01      1.25553614E+03     -5.46771844E+02
      1.73550778E+02     -1.81547977E+03     -6.95512536E+02
      3.42750050E+01     -2.28054270E+02     -8.20134107E+01
     -5.05682212E+02     -2.84941113E+01      2.66128339E+03
      1.24612070E+03     -2.82662677E+03      5.01124631E+02
     -3.96511711E+02      1.00417514E+03      1.83502514E-01
     -1.31828277E+03      3.61556440E+02      4.49493456E+02
     -1.73672391E+02      1.54281236E+03     -2.23992464E+03
     -7.74912901E+02     -2.27998522E+02     -1.30018579E+02
     -1.58344518E+03     -4.95977210E+02      4.18741229E+02
     -2.22227289E+02     -3.45629633E+02      2.49507417E+03
      1.66306076E+02     -1.52137933E+02      6.03584790E+01
      1.11354571E+03      1.27191159E+03      3.98060457E+02
      2.47383751E+03      1.94943314E+03     -1.98022388E+02
     -6.73717309E+02      2.14534826E+02     -4.91224792E+02
      2.52751804E+02      2.14800784E+02      4.77241990E+02
     -8.55431631E+02     -1.29208603E+03     -3.82328836E+02
     -1.15026499E+03      3.04268779E+02      5.42865628E+02
      5.36933407E+01      1.63609221E+03      2.48669137E+02
     -2.37067487E+03     -4.47747127E+02     -3.47101455E+02
      1.72800428E+03      4.43576451E+03      7.13484667E+02
     -4.75592218E+02     -9.34795285E+02     -2.33642169E+02
      1.16602673E+03     -3.73851752E+02      3.40421771E+03
     -1.56762289E+03     -7.57501660E+02     -1.00881299E+03
     -1.25181995E+03      3.07970262E+03     -1.85607582E+03
      5.98615902E+01     -1.02624817E+02      4.00048277E+02
      6.86171955E+02     -1.74216268E+03     -7.00249268E+02
      5.00666399E+02     -2.99729908E+02     -2.06036493E+03
     -3.73326396E+01     -1.05668441E+02     -1.80985446E+02
      7.50016356E+02      1.21036516E+01     -1.47516383E+03
     -2.72802624E+03      2.05125203E+03      4.46817658E+02
      5.01848113E+01      2.78658600E+02     -1.76126434E+02
     -2.60701142E+02      2.78937183E+02     -9.98444666E+02
      1.13516404E+03      6.52670384E+02     -3.23407110E+03
     -6.92096166E+02     -2.79641273E+01     -9.81761511E+02
      7.88484678E+02     -1.47065117E+03      1.62076471E+03
      3.73898202E+02     -3.26355789E+03     -1.16342480E+03
     -6.84614897E+01      4.76899208E+02      7.58026639E+02
      7.73204760E+02     -2.08026162E+03     -3.60316617E+02
      2.31444360E+00      3.35343548E+02      3.98319237E+02
     -2.57354595E+02     -6.67444586E+01      5.53062229E+02
      7.10304972E+00     -5.06546804E+02     -4.01240252E+02
      3.17156434E+03     -1.20204915E+02      1.17214051E+03
     -3.15307132E+02     -4.39598720E+02     -4.32890604E+02
     -2.78536207E+03     -1.09745737E+03     -2.52038343E+03
      3.72473980E+02     -1.67949719E+03      3.24953707E+03
     -2.47294388E+02     -1.04372063E+03      1.88926967E+02
      1.59709576E+03     -3.58734745E+03      2.42292986E+03
      1.90853486E+03     -1.73184352E+03      1.61709498E+02
     -1.85484622E+02     -1.47756846E+02      1.51685694E+03
     -1.26934047E+03     -1.15050426E+03      1.13251456E+03
     -1.09247612E+03     -1.36940145E+03     -6.06211602E+02
      1.41002363E+03     -5.06269875E+02     -9.25064941E+02
      5.36125596E+02      1.32755265E+02      1.02394669E+02
      3.15733381E+01      1.12222338E+03     -5.09550917E+02
     -7.98767470E+02      2.70378718E+03      1.87443480E+03
     -1.11738774E+03      2.00672529E+03     -1.51941317E+03
      2.35788892E+01      5.49982697E+00     -5.27641770E+02
     -2.28538978E+03     -5.93818944E+02      2.10051258E+03
     -4.82503412E+03     -1.07354360E+03      1.48629279E+03
      1.43336674E+02     -8.72060217E+01      2.62093898E+02
      8.02456756E+02      2.13711586E+03     -2.85200617E+02
     -1.58427699E+03      2.41216905E+02     -1.78110890E+03
     -2.98668746E+01      3.26501832E+02     -3.52843109E+02
      1.20927833E+03      1.19775190E+02      4.57223784E+02
     -1.29292566E+03     -2.97689650E+03      4.55563758E+02
     -1.52644920E+02     -2.22647906E+01     -1.02366692E+02
     -2.91600943E+03      5.24375171E+02     -1.10801392E+02
      9.35649567E+02     -3.79301765E+03      9.30231329E+02
      2.56317742E+02     -4.28519696E+02      4.50531414E+00
      8.21302690E+02      1.93259552E+02     -6.00017239E+02
     -8.30183019E+02     -2.92816486E+01     -2.21731702E+03
     -7.18844555E+02     -4.27867561E+02      5.68352939E+02
      1.27302078E+03     -1.83377546E+03     -2.07253291E+03
     -6.94033263E+02      6.85738502E+02     -5.94048699E+02
      1.19604478E+02      4.10926499E+02     -7.92052123E+01
     -2.53886887E+03     -3.27747700E+03     -7.78925165E+02
      1.24440756E+03      2.29070553E+03     -2.17787995E+03
     -2.26515373E+02      3.88111378E+02     -1.83108424E+02
     -1.29573825E+02     -7.79103897E+02     -6.01523656E+02
     -1.06494793E+03     -1.43416226E+03      2.77091135E+01
      1.10928286E+02      3.53664016E+02      1.15732465E+02
      3.05396021E+03     -2.33053568E+02      4.97013795E+02
     -7.78076256E+02     -8.55691270E+02      2.05414869E+03
      4.29182806E+02      1.18162907E+03      2.31762133E+03
     -1.29177191E+02     -1.09811699E+02      3.13146828E+02
     -1.30669754E+03     -1.58200956E+03      6.23568868E+02
     -3.07359249E+03      8.71386287E+02     -3.27830297E+02
     -7.15445742E+02      1.03252674E+03      9.00026124E+02
      3.56120578E+02     -4.20795280E+02     -4.93996068E+02
     -3.46956775E+03      3.88178240E+02     -1.00433912E+03
     -1.29431439E+03      8.38826358E+02     -1.12120228E+03
     -4.90841874E+02     -7.68115381E+01      5.68360413E+02
      1.24541468E+03     -1.74066817E+02     -6.31036549E+02
      1.54610509E+02      1.33729003E+03     -1.40603636E+03
      3.39644741E+02      3.23064809E+02      6.04737236E+02
      2.81591065E+03      9.62101843E+02      4.87718671E+02
      7.57853594E+02     -3.57409778E+02      1.67310002E+03
      5.74828552E+02      6.91844397E+01      1.39471538E+01
     -1.82675095E+01     -1.32399143E+03      1.55621828E+03
     -1.01680837E+03      1.12385061E+03     -5.61537607E+02
     -1.83040996E+02      3.87428042E+01      1.43783927E+02
      5.25521448E+02     -4.41394410E+02     -2.05227362E+03
      3.67471949E+03     -3.00759593E+02      2.31237995E+03
     -3.40295542E+01      7.67458285E+02     -5.66459234E+02
     -2.51180272E+03     -1.85809361E+02      1.81984967E+03
      1.03031370E+03     -1.93328499E+03      2.50208141E+03
     -3.78924057E+02      6.26475295E+02     -1.66654786E+02
     -7.69082272E+02     -1.87350346E+03     -4.00672794E+02
     -8.78555372E+02      6.38652909E+02     -4.35125161E+02
     -2.75389412E+02      6.11512315E+02     -1.57469919E+02
      1.16756222E+03     -1.48468962E+03     -3.60843768E+03
     -1.90113653E+03     -2.52708104E+02      7.34548908E+02
      5.38158787E+01     -3.92035302E+02      5.05346901E+01
     -1.49398174E+03      4.39137550E+02     -1.03788715E+02
     -3.04528226E+03      1.41977455E+03     -1.84064991E+03
     -8.51763518E+02     -1.71139612E+03      1.67928267E+02
      8.88391227E+02      5.77798079E+02     -1.87167461E+01
     -6.59512920E+02      1.12540564E+02      6.40632378E+02
     -1.21460260E+03      2.53182767E+03     -2.48998504E+03
      8.85284770E+02      4.43685306E+02     -1.85119326E+02
     -5.20900954E+01     -7.11620914E+02      7.95214885E+02
      3.33141456E+03      2.51027188E+03      1.44756319E+03
      2.79223776E+02      3.79181511E+03     -6.09027451E+02
     -5.71700388E+02     -5.39692869E+02     -3.39025854E+02
     -2.87852443E+02     -6.40969964E+02      1.32875562E+03
     -1.01637759E+03     -6.19423239E+02     -5.99075901E+02
      4.53155545E+02      4.09427323E+02     -7.81497354E+02
      1.63367810E+03     -3.34864766E+03     -8.70949147E+02
     -3.12750898E+03      2.97220954E+03     -1.57445488E+03
     -6.30956274E+02      2.20464550E+02      8.57927161E+02
      2.47163330E+03      2.05939355E+03     -1.06186475E+03
     -1.87855673E+03     -8.28975112E+02      8.79190890E+00
     -4.02055126E+02      5.57483336E+02      4.38887011E+02
      3.44090777E+02     -1.41827827E+03      2.81969009E+03
     -1.25941023E+03     -6.02457634E+01      5.68999664E+02
     -1.02912822E+02     -1.21512667E+02     -1.81399762E+02
     -1.73148611E+03     -2.21514966E+03     -6.82818735E+02
     -1.73669730E+03      7.79002402E+02     -3.04806546E+03
      1.78657513E+02      7.13541131E+01     -4.39954256E+01
     -2.10846709E+03     -4.58104492E+02     -2.53862209E+03
     -6.47880798E+02      9.27553398E+02      1.95297918E+03
      1.57879318E+02      2.22123451E+02     -8.73828494E+01
     -1.36868065E+03     -1.73798973E+03     -1.71022544E+03
     -1.71891128E+03      5.39813800E+02     -9.15147808E+02
      3.07211741E+02      6.79666179E+01      6.05970566E+02
     -1.16925948E+02      1.27801508E+03      2.52416400E+03
      1.07814435E+03     -2.22565592E+03     -1.59852130E+03
      1.13212120E+03      5.13170610E+02     -1.43165479E+03
     -2.11760606E+02      5.17786055E+02     -1.86122122E+02
     -4.32099126E+03      2.39400058E+03      1.02893215E+03
      1.96657232E+02      2.85639056E+03      6.71161347E+02
      3.72769025E+02     -1.77490466E+03      1.09161799E+03
      2.38470488E+02     -3.63517770E+02      5.93870748E+02
     -1.10335514E+03      3.07400754E+02     -3.95650444E+00
      1.11603528E+03     -1.31525482E+03      5.45839539E+02
      7.35000061E+01     -3.87489288E+02     -1.72475421E+02
     -1.00386183E+03     -9.18887201E+01     -3.54776553E+02
      9.73536566E+02      2.52210795E+01      1.30228391E+03
     -1.29051047E+02     -4.22935077E+02      4.41298217E+01
      1.34685468E+03     -3.37699597E+03      1.66402701E+03
     -5.73302567E+01     -2.86821227E+02     -2.92782069E+02
      5.77004751E+02      8.02265622E+02      4.76226340E+02
      1.37398387E+03     -5.98860106E+01     -7.13750192E+02
     -2.42667593E+03     -5.57275261E+02      8.42277480E+02
     -4.02143888E+01     -5.07062309E+01     -1.85161692E+02
      1.11813150E+03      2.05159895E+03     -1.67479536E+03
      4.38152911E+02      3.99777425E+02     -1.39830346E+03
      1.98901757E+04      6.59003041E+02     -8.86238103E+03
     -2.35683788E+03     -3.61266519E+02      1.86771508E+03
     -1.86974320E+03      2.77694280E+03     -3.61124732E+02
      2.31164504E+02      5.79547097E+02      2.78676134E+02
     -8.20476541E+01      8.54836744E+02     -1.39719447E+03
      4.25390037E+02     -2.23639557E+03      3.26579922E+03
     -6.21096692E+02     -1.84405820E+02      1.57466065E+02
      3.32879840E+02      6.43614123E+02      1.34480114E+03
     -2.35375014E+03     -2.63626017E+03     -6.99526788E+02
     -2.56922902E+02     -3.83645392E+02     -3.12249795E+02
      3.55577997E+02      1.29359636E+03      4.48292288E+03
     -8.06276498E+02     -4.95854251E+02     -8.41152697E+02
      8.66514493E+02     -4.13938999E+02      1.65444243E+03
     -2.90853744E+01     -2.15948236E+02     -1.70936219E+02
      5.78723071E+02      1.07087112E+03     -2.53563634E+03
     -5.08295496E+02      4.00445840E+02      7.64955124E+02
     -1.09568143E+03     -1.32447667E+03      1.06633603E+03
      7.34724241E+02      5.81275836E+02      2.52826593E+00
      3.51078412E+03     -1.47138110E+02      1.66073176E+03
     -1.84977661E+03      3.64589169E+02      2.87461048E+02
     -8.01713087E+02     -3.51929073E+02     -2.08591979E+02
      9.18857342E+02      3.79504359E+03      8.47220582E+02
     -1.77742137E+03      4.15368880E+02     -2.91239705E+03
     -3.11325697E+02     -4.99297207E+02      5.13215891E+02
     -3.28403049E+03      4.83962950E+02      2.10445355E+03
     -1.33923790E+03     -5.60827520E+02     -2.07497886E+03
     -5.36489095E+02      2.11239163E+02      4.72098305E+02
     -3.61924602E+03     -2.00786869E+03      1.03106117E+03
     -1.59687846E+03      2.64001389E+03     -3.14999889E+03
     -1.38645962E+02     -4.49224361E+02      6.17508748E+02
     -1.28658097E+03      1.34595974E+03      1.02240106E+03
      4.52042096E+02      2.11758344E+03     -1.83549746E+03
      1.94590587E+02     -3.79335243E+02      1.73704819E+02
     -1.60605320E+03      6.44624666E+02      1.24919977E+01
     -1.14108033E+03      1.00274162E+03      1.93132296E+03
      2.02955088E+02      7.51297218E+02     -9.38801181E+01
     -1.78770008E+03     -1.19577644E+02     -1.75536038E+03
     -2.96086742E+03      2.91966300E+03     -4.17463992E+02
      2.93800785E+01      2.17637835E+02     -6.66432799E+02
     -1.53123570E+03      4.23873227E+02      3.13938108E+02
      1.23804656E+03     -1.42700507E+03     -5.34594969E+01
      5.38381977E+02     -7.90802106E+00      2.06959771E+02
      9.09564832E+01      8.01500626E+02     -2.94518717E+03
      2.66123094E+03     -7.94612599E+00      2.31782023E+03
      2.39992520E+03     -1.53943856E+03     -2.66900732E+03
      1.39797631E+02      2.89789654E+02      2.69778413E+02
     -4.57702742E+01     -1.09200917E+03     -1.55366177E+03
     -1.09873832E+03     -4.32703042E+02      1.58129702E+03
      2.54328990E+03     -5.34631405E+02     -1.01186463E+03
     -8.98166413E+01     -6.44657846E+01      5.97037472E+02
     -2.49299221E+03      2.24751931E+03      9.41246396E+02
     -3.06332196E+03     -1.54044177E+03     -1.01818191E+03
      1.26185257E+02      2.59701295E+02      6.61205184E+01
      1.25449176E+03      3.80551779E+02     -1.13864078E+02
      2.47457663E+02      1.47189950E+02     -1.97936025E+03
      2.88939878E+02      3.04558837E+02     -5.85647573E+01
      4.64937766E+02     -6.21686677E+02      2.84591616E+03
      5.94906153E+02      2.59581435E+03      7.99244786E+02
     -5.81226556E+02     -6.43967416E+02     -2.80243485E+02
      1.82099800E+03      1.75687615E+03      2.40270969E+03
     -1.19421602E+02     -2.06594944E+03      1.20486204E+03
      1.23731926E+02     -7.24077448E+02      1.70525746E+02
      2.53962280E+03      1.22262310E+03      2.72115506E+03
      1.90676380E+02     -2.11304060E+03     -1.72025220E+03
     -6.72825662E+02     -4.71013447E+02     -5.30881950E+00
     -1.64819468E+03     -1.11676528E+03     -1.76025635E+02
     -1.07637150E+03      1.35104389E+03      1.86694113E+03
     -7.48743097E+02      1.42019292E+01     -1.88933981E+02
     -8.52361622E+02     -3.48173415E+03     -5.10433764E+02
     -1.02834173E+03      1.55663369E+03     -2.94459794E+02
     -2.91711468E+02     -2.27261583E+02      3.25521282E+02
     -9.63955336E+02      1.73956345E+03      1.28939841E+03
     -7.01231590E+01     -7.29729568E+02      3.70073899E+02
     -4.28555862E+02     -3.66775592E+02      2.93090974E+02
      4.60584899E+03      1.11758702E+03      1.09938987E+03
     -1.22143449E+03     -8.17313658E+02      7.95421438E+02
     -2.47064784E+03      1.62831506E+03     -1.92856023E+03
     -3.37550727E+02     -6.18108504E+02      1.30230756E+02
     -2.03111981E+03      1.67098322E+03      2.01620758E+03
      8.18373229E+02      5.81460623E+02      1.61694117E+03
      2.44703327E+03      3.23601712E+03     -1.91661880E+03
     -5.25620934E+02     -5.71652717E+02     -6.80465681E+02
     -6.22464514E+02     -1.52041105E+03      2.93014380E+02
      1.48265417E+03     -2.54565702E+03     -2.06981662E+02
      2.92044226E+02     -1.06891870E+02      1.63972285E+02
      5.94151868E+02     -1.32249087E+03     -1.33251226E+03
     -1.14633814E+03      1.06196894E+03      1.67970555E+02
     -6.88541075E+02      2.41735989E+02      2.67370276E+02
      1.95558230E+03     -1.55177672E+03     -1.61017865E+03
     -3.79837416E+03      1.16336375E+03     -1.38127383E+03
     -1.25083887E+02     -1.45607104E+02      1.68598732E+02
      3.39865776E+01     -1.19911234E+03      9.21276446E+01
      7.17921343E+02      1.36769905E+02      2.48718696E+02
      1.33362376E+02     -5.70777972E+02      4.12889909E+02
     -9.05392948E+02      4.30920086E+02     -3.33175308E+03
      1.07911796E+03     -2.54744531E+03     -1.61942331E+02
      3.11905041E+02      2.96736440E+02     -5.23265306E+02
     -7.44369662E+02     -4.24993357E+02      4.71380487E+02
     -2.15171491E+02     -1.85712191E+03     -8.91154134E+02
     -5.20617516E+02      4.30803110E+02     -1.31228349E+01
      7.52058546E+02      6.83949652E+02     -3.91739952E+01
      1.78293487E+03      3.05779317E+02     -1.32481735E+03
     -1.12308240E+03      2.53474122E+02      4.33206175E+02
     -3.50541228E+02     -2.38989512E+03     -9.47901657E+02
     -1.11091328E+03      1.23649640E+03      1.92114300E+03
     -2.38966310E+02      1.81943536E+02      3.01659372E+02
      3.06480312E+03      7.39138848E+02      3.05646046E+02
     -2.76931655E+03      1.91218072E+03      8.80800668E+02
      1.03309386E+03      3.82383258E+03      8.32878265E+02
     -7.39685661E+02      4.87156843E+02     -1.07271485E+02
     -7.66391363E+02     -4.20344228E+02     -7.14899721E+02
     -5.61233146E+02      1.31446815E+02      1.94892692E+02
      4.54902521E+02      2.85231740E+03     -3.29570521E+03
     -4.03940910E+02     -2.85887993E+02     -4.01763845E+02
     -1.05817521E+03     -4.91231573E+02      3.30968108E+03
     -1.24623543E+03      1.13132590E+03      4.59805705E+03
     -6.94785356E+00     -3.66387925E+02     -4.64377354E+02
      1.81400552E+02     -3.25589643E+03      2.76804886E+03
      5.80787875E+02      1.21309745E+03     -1.11456823E+03
     -9.15799582E+02     -2.49299373E+01      7.79670525E+02
     -1.18467555E+03     -5.97072073E+02      1.23344248E+03
     -1.21817941E+03     -3.99083735E+03      1.12585509E+03
      1.06333543E+03      2.70200434E+02      5.22047159E+02
      1.33204200E+03     -2.27339412E+03     -1.00703118E+03
     -2.06923030E+03     -2.72513514E+03     -5.85771097E+02
     -6.19559340E+02     -2.36089131E+02     -4.89550942E+02
     -6.20298618E+02     -9.03322035E+02      1.93051490E+03
      9.84369164E+02      2.15923412E+03     -5.58009589E+02
     -7.31707766E+01      5.80350257E+02      8.00081784E+01
     -1.76439836E+03      3.41579456E+02     -3.58378748E+02
     -7.78789408E+02     -1.48790648E+01     -1.79290288E+03
     -2.24610354E+02     -3.99310670E+02     -8.55663484E+02
     -1.93200264E+03     -3.34999999E+03     -8.93243136E+02
      2.63515054E+03      1.43265409E+03      2.20057231E+03
     -2.12616988E+02     -7.16749082E+02      3.96296206E+02
     -8.31537381E+02      1.75270357E+03      1.58378849E+03
      5.94725224E+01     -6.80318833E+02      1.32582831E+03
     -5.74279545E+02      8.64483193E+01      3.12744090E+02
      1.30318614E+03     -9.01366503E+02      1.39762020E+03
      2.69018933E+03     -1.52854884E+03     -1.44550228E+03
      1.05282778E+03      1.71447490E+03      3.09447018E+00
      4.80161634E+02     -2.12859154E+01     -5.14346570E+02
     -7.18418719E+02     -1.37227209E+03      2.29364249E+03
      8.46797400E+02     -1.15942392E+03     -4.48059802E+02
     -1.17824370E+03      2.67416412E+03      2.35444341E+03
     -2.10736861E+02      2.85044324E+02     -1.51038358E+01
      1.34724773E+03     -2.96585638E+03      4.96336993E+02
     -2.70703619E+03      9.89535702E+02     -1.29480485E+03
     -2.23334071E+02      7.34600604E+01     -6.73977900E+00
     -4.17760955E+02     -4.36989564E+02     -1.00339535E+03
     -2.20624057E+03     -1.00616072E+03      1.73051451E+03
     -8.04314315E+02      4.30470696E+02     -5.12968567E+02
      7.12745100E+02     -9.57983702E+02     -8.21152692E+02
      7.12150769E+02      1.00031857E+03      1.55729452E+02
      6.55531190E+00     -2.08843676E+01      4.38063067E+02
      1.85226515E+02      2.15881432E+03      3.51191631E+03
     -2.06038229E+02     -1.70274593E+03     -2.00677789E+03
      2.66539270E+01     -7.04358667E+02      4.89136672E+02
      7.72827613E+02     -1.36465469E+03     -4.67393176E+02
     -1.40273588E+03     -6.46893891E+02      2.64359544E+03
     -3.01060467E+02      4.12859524E+02     -2.47701901E+02
      7.42085502E+02     -2.43847360E+03      2.64036547E+03
      1.46571986E+03     -2.56742678E+02     -1.12045402E+03
     -7.98180357E+02     -2.42516485E+02      3.22256891E+02
     -1.19011356E+03      2.94541346E+03      3.38379536E+01
     -1.05512630E+03     -1.88153213E+03     -5.69402103E+03
     -4.67957525E+02     -3.52269649E+02      4.60353267E+01
     -2.49299164E+03      4.76614941E+02      1.46686918E+02
      1.51807707E+03     -1.37793849E+03      1.90049737E+03
     -5.31806516E+02      3.62919255E+02      1.92395995E+02
     -8.48042090E+02     -4.07436506E+02      1.33872813E+03
     -3.92435404E+02     -1.29567238E+03     -9.52560432E+02
     -6.46518632E+02      2.73650039E+03     -1.26266645E+03
      2.84585350E+00     -7.43691383E+01      9.02892958E+02
     -1.77044790E+03      2.03335934E+03     -1.20499702E+03
      3.87510347E+01     -1.04665682E+03      1.51682929E+03
     -1.75764560E+03      6.01070107E+02     -3.89586250E+02
  }
}

Hamiltonian = DFTB {
  SCC = Yes
  SCCTolerance = 1e-6
  MaxSCCIterations = 200
  ForceEvaluation = Dynamics
  MaxAngularMomentum = {
    C = "p"
    H = "s"
  }
  Charge = 0.0
  SpinPolarisation = {}
  Eigensolver = Standard {}
  Filling = Fermi {
    Temperature [Kelvin] = 300.0
  }
  SlaterKosterFiles = Type2FileNames {
    Prefix = "../../pbc-0-3/"
    Separator = "-"
    Suffix = ".skf"
    LowerCaseTypeName = No
  }
  KPointsAndWeights = {
    0.0000000000000 0.0000000000000 0.0000000000000 1.00000000000000
  }
  Dispersion = LennardJones { 
    Parameters = UFFParameters {}
  }
}

ParserOptions = {
  ParserVersion = 3
}
