Geometry = GenFormat {
352  S
C  H
1 1    0.3699996501E+02    0.2873902698E+02    0.4484584732E+02
2 2    0.3773858324E+02    0.2801308328E+02    0.4432112978E+02
3 2    0.3721007491E+02    0.2893611681E+02    0.4592779841E+02
4 1    0.3708344387E+02    0.4545999380E+02    0.4416951785E+02
5 2    0.3715582310E+02    0.4642365614E+02    0.4471864972E+02
6 2    0.2074316676E+02    0.4559998470E+02    0.4376928636E+02
7 1    0.3793824101E+02    0.4557943285E+02    0.4291407240E+02
8 2    0.2367405788E+02    0.4569923654E+02    0.4320952060E+02
9 2    0.3772266173E+02    0.4667262466E+02    0.4251576514E+02
10 1    0.2253907313E+02    0.4451426616E+02    0.4185362803E+02
11 2    0.2207868239E+02    0.4373144584E+02    0.4240399112E+02
12 2    0.2363291714E+02    0.4429072016E+02    0.4169799116E+02
13 1    0.3683530729E+02    0.4485091934E+02    0.4073131326E+02
14 2    0.3591991713E+02    0.4519930891E+02    0.4120004591E+02
15 2    0.3663358802E+02    0.4381125857E+02    0.4041734112E+02
16 1    0.2207712014E+02    0.4561548010E+02    0.3960725692E+02
17 2    0.2243196092E+02    0.4667879874E+02    0.3978562959E+02
18 2    0.2107526315E+02    0.4571350444E+02    0.3896118056E+02
19 1    0.3855685518E+02    0.4489692266E+02    0.3890172394E+02
20 2    0.3846358719E+02    0.4379968648E+02    0.3885818023E+02
21 2    0.3948171660E+02    0.4517254431E+02    0.3954026978E+02
22 1    0.3849148523E+02    0.4513991341E+02    0.3739840562E+02
23 2    0.2406953515E+02    0.4497628284E+02    0.3676217251E+02
24 2    0.2298333474E+02    0.4620672095E+02    0.3711806978E+02
25 1    0.3565828327E+02    0.2805915171E+02    0.4475935138E+02
26 2    0.3565447662E+02    0.2726331759E+02    0.4388099238E+02
27 2    0.3548085525E+02    0.2743080356E+02    0.4558615243E+02
28 2    0.3478289687E+02    0.2875292384E+02    0.4461071773E+02
29 1    0.3722342397E+02    0.4444903282E+02    0.3679957208E+02
30 2    0.3742469934E+02    0.4339525731E+02    0.3666541299E+02
31 2    0.3625314887E+02    0.4461674104E+02    0.3742745665E+02
32 2    0.3693941169E+02    0.4474555024E+02    0.3563068592E+02
33 1    0.2654727636E+02    0.3557287430E+02    0.3871959138E+02
34 2    0.2601361514E+02    0.3638221324E+02    0.3806577895E+02
35 2    0.2540199642E+02    0.3520271499E+02    0.3907356563E+02
36 1    0.2668519897E+02    0.3429456569E+02    0.3763377837E+02
37 2    0.2771869702E+02    0.3416095485E+02    0.3749202188E+02
38 2    0.2623880152E+02    0.3440605422E+02    0.3663218509E+02
39 1    0.2626656801E+02    0.3310501516E+02    0.3818606104E+02
40 2    0.2508501977E+02    0.3298920313E+02    0.3800704280E+02
41 2    0.2667293273E+02    0.3224796414E+02    0.3769444797E+02
42 1    0.2969142230E+02    0.2953650370E+02    0.3252232017E+02
43 2    0.4562964967E+02    0.2861760020E+02    0.3266812721E+02
44 2    0.2866381122E+02    0.2933966499E+02    0.3310158245E+02
45 1    0.2734232641E+02    0.2737994914E+02    0.2689714464E+02
46 2    0.2833810094E+02    0.2702907076E+02    0.2689006322E+02
47 2    0.4194932627E+02    0.2668538699E+02    0.2737755933E+02
48 1    0.4251598001E+02    0.2884896800E+02    0.2695908556E+02
49 2    0.4183629893E+02    0.2936141021E+02    0.2613338024E+02
50 2    0.4347158916E+02    0.2948162960E+02    0.2682521785E+02
51 1    0.2669740819E+02    0.2919089269E+02    0.2835891358E+02
52 2    0.2714226744E+02    0.2833616159E+02    0.2899550921E+02
53 2    0.2564799674E+02    0.2899780860E+02    0.2850397393E+02
54 1    0.4237895035E+02    0.3080416419E+02    0.4412454561E+02
55 2    0.4205762252E+02    0.3135188305E+02    0.4322077914E+02
56 2    0.4356590580E+02    0.3073860439E+02    0.4405111111E+02
57 1    0.2742244026E+02    0.3620009045E+02    0.3957759066E+02
58 2    0.2781117732E+02    0.3527714858E+02    0.4021716759E+02
59 2    0.2848210732E+02    0.3639861641E+02    0.3899940713E+02
60 2    0.2705039381E+02    0.3708017088E+02    0.4023527504E+02
61 1    0.2644859132E+02    0.3104354775E+02    0.4547050563E+02
62 2    0.2700175642E+02    0.3172974190E+02    0.4611903838E+02
63 2    0.2539841171E+02    0.3122434369E+02    0.4538789821E+02
64 2    0.2652280890E+02    0.3002541041E+02    0.4588424735E+02
65 1    0.4119541277E+02    0.4163006807E+02    0.3926658133E+02
66 2    0.4086309831E+02    0.4086053754E+02    0.4012561370E+02
67 2    0.4104161195E+02    0.4274018896E+02    0.3958809546E+02
68 1    0.4268220645E+02    0.4136042878E+02    0.3908544511E+02
69 2    0.4290278759E+02    0.4038329029E+02    0.3869803100E+02
70 2    0.4313721232E+02    0.4119462096E+02    0.4015089640E+02
71 1    0.4343907282E+02    0.4242499850E+02    0.3813954194E+02
72 2    0.4445967234E+02    0.4253356293E+02    0.3839012828E+02
73 2    0.4284404662E+02    0.4341130854E+02    0.3826164146E+02
74 1    0.4353791803E+02    0.2667120593E+02    0.3667636250E+02
75 2    0.4277598399E+02    0.2580351376E+02    0.3630207666E+02
76 2    0.4456984259E+02    0.2621954603E+02    0.3656723907E+02
77 1    0.4341925741E+02    0.2794423377E+02    0.3572062124E+02
78 2    0.4380686275E+02    0.4308400118E+02    0.3470046542E+02
79 2    0.4414800916E+02    0.4402846721E+02    0.3613245348E+02
80 1    0.4193858671E+02    0.2837107821E+02    0.3572661880E+02
81 2    0.4182322726E+02    0.2930080966E+02    0.3635687899E+02
82 2    0.4138346454E+02    0.2746708037E+02    0.3607370958E+02
83 1    0.4157124681E+02    0.2884108493E+02    0.3429038064E+02
84 2    0.4196071390E+02    0.2815889007E+02    0.3346188810E+02
85 2    0.4216646218E+02    0.2975852958E+02    0.3415381821E+02
86 1    0.4007669421E+02    0.2870574516E+02    0.3417446370E+02
87 2    0.3957590652E+02    0.2961599927E+02    0.3470538380E+02
88 2    0.3979470490E+02    0.2780360317E+02    0.3473503532E+02
89 1    0.4019345210E+02    0.4131954388E+02    0.3812002933E+02
90 2    0.4046379223E+02    0.4156573063E+02    0.3711041937E+02
91 2    0.4002775279E+02    0.4017830083E+02    0.3820558919E+02
92 2    0.3927530362E+02    0.4186901626E+02    0.3838161710E+02
93 1    0.3951810707E+02    0.2843643461E+02    0.3279944391E+02
94 2    0.3889641174E+02    0.2929607988E+02    0.3239863732E+02
95 2    0.4028702208E+02    0.2820502659E+02    0.3201626322E+02
96 2    0.3885489333E+02    0.2758538240E+02    0.3284330744E+02
97 1    0.3271691597E+02    0.3689698774E+02    0.3698416162E+02
98 2    0.3363169539E+02    0.3746140504E+02    0.3727856365E+02
99 2    0.3298810664E+02    0.3586470199E+02    0.3687728282E+02
100 1    0.3154551672E+02    0.3699810724E+02    0.3796365300E+02
101 2    0.3184398976E+02    0.3665371377E+02    0.3895359994E+02
102 2    0.3088388905E+02    0.3619633778E+02    0.3758146530E+02
103 1    0.3063509290E+02    0.3821426799E+02    0.3825955867E+02
104 2    0.2956135924E+02    0.3798419043E+02    0.3843464554E+02
105 2    0.3062175306E+02    0.3898348733E+02    0.3751028111E+02
106 1    0.3107958361E+02    0.3892323656E+02    0.2422787150E+02
107 2    0.3066693052E+02    0.3996351005E+02    0.2429823481E+02
108 2    0.3222291580E+02    0.3902633993E+02    0.2401692701E+02
109 1    0.3068511588E+02    0.3813547978E+02    0.2549375454E+02
110 2    0.3139791804E+02    0.3730051788E+02    0.2565302190E+02
111 2    0.2976113457E+02    0.3765858853E+02    0.2527536915E+02
112 1    0.3057731711E+02    0.3892754537E+02    0.2680771779E+02
113 2    0.2991960378E+02    0.3985029934E+02    0.2677011186E+02
114 2    0.3164988051E+02    0.3921367368E+02    0.2697197728E+02
115 1    0.3004499790E+02    0.3825807965E+02    0.2809846174E+02
116 2    0.2893778684E+02    0.3849174431E+02    0.2816812147E+02
117 2    0.3046820620E+02    0.3885236734E+02    0.2892351896E+02
118 1    0.3049967261E+02    0.3685846883E+02    0.2845729393E+02
119 2    0.3161646889E+02    0.3654172503E+02    0.2820376191E+02
120 2    0.2988516596E+02    0.3621006187E+02    0.2778947504E+02
121 1    0.3235576194E+02    0.3753969675E+02    0.3565970796E+02
122 2    0.3313268366E+02    0.3816223731E+02    0.3511123211E+02
123 2    0.3194506290E+02    0.3681767964E+02    0.3490386736E+02
124 2    0.3161128334E+02    0.3830031900E+02    0.3580790890E+02
125 1    0.3019438183E+02    0.3656580160E+02    0.2991841908E+02
126 2    0.3090620082E+02    0.3578438033E+02    0.3025488039E+02
127 2    0.3043235999E+02    0.3748905301E+02    0.3053093926E+02
128 2    0.2914563358E+02    0.3629195090E+02    0.3009936685E+02
129 1    0.3601645473E+02    0.3892260660E+02    0.3231957286E+02
130 2    0.3673045832E+02    0.3833312662E+02    0.3299967027E+02
131 2    0.3637419632E+02    0.3867813521E+02    0.3124749319E+02
132 1    0.3461386449E+02    0.3831606098E+02    0.3242252916E+02
133 2    0.3399901650E+02    0.3863017073E+02    0.3159143195E+02
134 2    0.3422558898E+02    0.3857168990E+02    0.3346621398E+02
135 1    0.3466100430E+02    0.3682140984E+02    0.3231421992E+02
136 2    0.3511745781E+02    0.3645424713E+02    0.3318235880E+02
137 2    0.3525736088E+02    0.3656166083E+02    0.3138104706E+02
138 1    0.3319476034E+02    0.3625315224E+02    0.3217602414E+02
139 2    0.3287571605E+02    0.3668737698E+02    0.3124399243E+02
140 2    0.3243872212E+02    0.3668596023E+02    0.3291800366E+02
141 1    0.3310277971E+02    0.3477428836E+02    0.3222340372E+02
142 2    0.3405590156E+02    0.3430066018E+02    0.3195105164E+02
143 2    0.3236786632E+02    0.3462960197E+02    0.3142798873E+02
144 1    0.3261199367E+02    0.3401305959E+02    0.3345513211E+02
145 2    0.3338824958E+02    0.3413090335E+02    0.3428239446E+02
146 2    0.3267017613E+02    0.3287738367E+02    0.3337582839E+02
147 1    0.3116892558E+02    0.3432061790E+02    0.3379463965E+02
148 2    0.3046223776E+02    0.3394121520E+02    0.3302030403E+02
149 2    0.3093999901E+02    0.3534358283E+02    0.3379660588E+02
150 1    0.3076617205E+02    0.3369255896E+02    0.3512208357E+02
151 2    0.3119920520E+02    0.3417651850E+02    0.3611286854E+02
152 2    0.3105725913E+02    0.3257581413E+02    0.3499181534E+02
153 1    0.3616906878E+02    0.4042675141E+02    0.3246561612E+02
154 2    0.3528641630E+02    0.2552749952E+02    0.3184760024E+02
155 2    0.3595724347E+02    0.4072723754E+02    0.3352897764E+02
156 2    0.3700308340E+02    0.4092616455E+02    0.3203622243E+02
157 1    0.2930749308E+02    0.3376131115E+02    0.3529879600E+02
158 2    0.2882738174E+02    0.3470558164E+02    0.3562686955E+02
159 2    0.2872546728E+02    0.3357263519E+02    0.3435045450E+02
160 2    0.2907381884E+02    0.3298077547E+02    0.3605235281E+02
161 1    0.4375270362E+02    0.2598312010E+02    0.3220053747E+02
162 2    0.4328545986E+02    0.2608735407E+02    0.3322563976E+02
163 2    0.4472971928E+02    0.2655021967E+02    0.3207338661E+02
164 1    0.4425185716E+02    0.2447731728E+02    0.3196947047E+02
165 2    0.4500572763E+02    0.2434403132E+02    0.3119736875E+02
166 2    0.4344874977E+02    0.2379291130E+02    0.3157274473E+02
167 1    0.4484481298E+02    0.2393135674E+02    0.3321964219E+02
168 2    0.4550997295E+02    0.2474404927E+02    0.3363639085E+02
169 2    0.4560510198E+02    0.2317546730E+02    0.3288176493E+02
170 1    0.4386767282E+02    0.2342846994E+02    0.3430285405E+02
171 2    0.4283130539E+02    0.2389313707E+02    0.3421284592E+02
172 2    0.4417687778E+02    0.2377232061E+02    0.3535345978E+02
173 1    0.4351795195E+02    0.3726739879E+02    0.3427966391E+02
174 2    0.4316207969E+02    0.3693991173E+02    0.3521791275E+02
175 2    0.4448940450E+02    0.2143029971E+02    0.3412737321E+02
176 1    0.4263289016E+02    0.3692305289E+02    0.3306376251E+02
177 2    0.4295755757E+02    0.3730908971E+02    0.3212381929E+02
178 2    0.4160044215E+02    0.3718388039E+02    0.3330620740E+02
179 1    0.4258956491E+02    0.3537844297E+02    0.3290282703E+02
180 2    0.4219311780E+02    0.3496026472E+02    0.3380709741E+02
181 2    0.4350948061E+02    0.3503015178E+02    0.3254460423E+02
182 1    0.4165201495E+02    0.3502356582E+02    0.3179330967E+02
183 2    0.4193724771E+02    0.3407942765E+02    0.3132620314E+02
184 2    0.4191933599E+02    0.3560469030E+02    0.3086602016E+02
185 1    0.4277078041E+02    0.2647157630E+02    0.3111692107E+02
186 2    0.4345071177E+02    0.2645268777E+02    0.3019981995E+02
187 2    0.4191414330E+02    0.2584986302E+02    0.3095143716E+02
188 2    0.4236839074E+02    0.2744995800E+02    0.4664838805E+02
189 1    0.4010921116E+02    0.3522077110E+02    0.3200853606E+02
190 2    0.3983806446E+02    0.3624161418E+02    0.3209159167E+02
191 2    0.3954247415E+02    0.3472865768E+02    0.3117137978E+02
192 2    0.3982770019E+02    0.3464679508E+02    0.3288018133E+02
193 1    0.3274509235E+02    0.2718744526E+02    0.3553314468E+02
194 2    0.3194153685E+02    0.2716834318E+02    0.3471265717E+02
195 2    0.3220803890E+02    0.4262506176E+02    0.3645652315E+02
196 1    0.3343002668E+02    0.2578821056E+02    0.3541886956E+02
197 2    0.3395666680E+02    0.2576945231E+02    0.3447679724E+02
198 2    0.3268895713E+02    0.4027217551E+02    0.3554993891E+02
199 1    0.3452649738E+02    0.2564063621E+02    0.3638645851E+02
200 2    0.3534375718E+02    0.2634832610E+02    0.3617494900E+02
201 2    0.3506675399E+02    0.2469782846E+02    0.3618302440E+02
202 1    0.3419097007E+02    0.2578643324E+02    0.3785897389E+02
203 2    0.3342457284E+02    0.2509355489E+02    0.3831540736E+02
204 2    0.3381972424E+02    0.2677067763E+02    0.3807051320E+02
205 1    0.3560487087E+02    0.2558687854E+02    0.3850426472E+02
206 2    0.3623438913E+02    0.2648337210E+02    0.3809999222E+02
207 2    0.3605432725E+02    0.2462634440E+02    0.3814233396E+02
208 1    0.3558614569E+02    0.2563665825E+02    0.4002882418E+02
209 2    0.3460771770E+02    0.2497877359E+02    0.4025711793E+02
210 2    0.3512447875E+02    0.2663820666E+02    0.4045455528E+02
211 1    0.3690494590E+02    0.4052787567E+02    0.4069964564E+02
212 2    0.3769279879E+02    0.4111937789E+02    0.4017942977E+02
213 2    0.3733412270E+02    0.3948589243E+02    0.4046318362E+02
214 1    0.3686607283E+02    0.4080321173E+02    0.4219314295E+02
215 2    0.3605338915E+02    0.4020693104E+02    0.4272193576E+02
216 2    0.3660932754E+02    0.4190389456E+02    0.4222385472E+02
217 1    0.3370006882E+02    0.2829652607E+02    0.3541590606E+02
218 2    0.3422229214E+02    0.2827767067E+02    0.1909012320E+02
219 2    0.3321023822E+02    0.2925838091E+02    0.2012205959E+02
220 2    0.3466211705E+02    0.2837918865E+02    0.3595638550E+02
221 1    0.3822965668E+02    0.4063740556E+02    0.4288631438E+02
222 2    0.3886242615E+02    0.3983746377E+02    0.4246120882E+02
223 2    0.3875141994E+02    0.4159506664E+02    0.4292518349E+02
224 2    0.3809971582E+02    0.4033247921E+02    0.4397317389E+02
225 1    0.3411028067E+02    0.4905595508E+02    0.3699907782E+02
226 2    0.3404995746E+02    0.4866175434E+02    0.3599740709E+02
227 2    0.3467569120E+02    0.5011559224E+02    0.3710177836E+02
228 1    0.2997358199E+02    0.3063597373E+02    0.3180724962E+02
229 2    0.2931490550E+02    0.3151341789E+02    0.3209794531E+02
230 2    0.2658907595E+02    0.3303108275E+02    0.3938669124E+02
231 1    0.3127457267E+02    0.4599423931E+02    0.3095376157E+02
232 2    0.3195445709E+02    0.4675937248E+02    0.3146246564E+02
233 2    0.3109624457E+02    0.4632562238E+02    0.2991487577E+02
234 1    0.3217419628E+02    0.4475290290E+02    0.3100202118E+02
235 2    0.3287269851E+02    0.4461364976E+02    0.3191425257E+02
236 2    0.3305728054E+02    0.4507431505E+02    0.3033576223E+02
237 1    0.3171208611E+02    0.4349805512E+02    0.3031484826E+02
238 2    0.3091302634E+02    0.4291413452E+02    0.3087126240E+02
239 2    0.3272030413E+02    0.2757292707E+02    0.3006517532E+02
240 1    0.3101069194E+02    0.4362161172E+02    0.2887670319E+02
241 2    0.3142320497E+02    0.2912179235E+02    0.2830274449E+02
242 2    0.3005816415E+02    0.2852278728E+02    0.2930749099E+02
243 1    0.3108290432E+02    0.4232101509E+02    0.2799947554E+02
244 2    0.3033463538E+02    0.4255012508E+02    0.2718403758E+02
245 2    0.3071704664E+02    0.4135150434E+02    0.2858294270E+02
246 1    0.3248168041E+02    0.4199176741E+02    0.2731083108E+02
247 2    0.3230879656E+02    0.4095898661E+02    0.2715575516E+02
248 2    0.3338251366E+02    0.4210485619E+02    0.2808794155E+02
249 1    0.3416051392E+02    0.3266584241E+02    0.3789658477E+02
250 2    0.3396926260E+02    0.3292564666E+02    0.3896608164E+02
251 2    0.3340173278E+02    0.3179308815E+02    0.3788946637E+02
252 2    0.3517124004E+02    0.3215173493E+02    0.3773495856E+02
253 1    0.3265350042E+02    0.4294522474E+02    0.2610935789E+02
254 2    0.3167483628E+02    0.4282892782E+02    0.2553000911E+02
255 2    0.3309717343E+02    0.4391282056E+02    0.2636295020E+02
256 2    0.3336950861E+02    0.4251629461E+02    0.4074120243E+02
257 1    0.3990507230E+02    0.3472701371E+02    0.4329743413E+02
258 2    0.3975315965E+02    0.3586997070E+02    0.4320983240E+02
259 2    0.3939103975E+02    0.3436151130E+02    0.4424870251E+02
260 1    0.3942919558E+02    0.3405797942E+02    0.4204766688E+02
261 2    0.3938531283E+02    0.3296645943E+02    0.4222204635E+02
262 2    0.4023022412E+02    0.3407459498E+02    0.4124085485E+02
263 1    0.3802030557E+02    0.3450862331E+02    0.4162152088E+02
264 2    0.3749133941E+02    0.3479874510E+02    0.4252138185E+02
265 2    0.3748491558E+02    0.3356247736E+02    0.4124714198E+02
266 1    0.3815268895E+02    0.3560079831E+02    0.4049776594E+02
267 2    0.3861418825E+02    0.3510140709E+02    0.3963985148E+02
268 2    0.3886256984E+02    0.3637204800E+02    0.4090369808E+02
269 1    0.3696788224E+02    0.3652180139E+02    0.4023576259E+02
270 2    0.3725649358E+02    0.3709955206E+02    0.3933649558E+02
271 2    0.3695652031E+02    0.3721660772E+02    0.4105795812E+02
272 1    0.3549967363E+02    0.3593329705E+02    0.4001267759E+02
273 2    0.3545404062E+02    0.3527684631E+02    0.3908007357E+02
274 2    0.3489019243E+02    0.3681729938E+02    0.3964406857E+02
275 1    0.3470947115E+02    0.3537153760E+02    0.4117597462E+02
276 2    0.3511697756E+02    0.3438015330E+02    0.4155163917E+02
277 2    0.3364198180E+02    0.3522981759E+02    0.4081199715E+02
278 1    0.3465371582E+02    0.3644178256E+02    0.4235996797E+02
279 2    0.3377387528E+02    0.3710609660E+02    0.4225248474E+02
280 2    0.3549046229E+02    0.3716430741E+02    0.4246018368E+02
281 1    0.4144806835E+02    0.3436973172E+02    0.4365991802E+02
282 2    0.4158729486E+02    0.3338876599E+02    0.4407745465E+02
283 2    0.4218529481E+02    0.3438503259E+02    0.4278765993E+02
284 2    0.4184096202E+02    0.3497610813E+02    0.4446666777E+02
285 1    0.3450249108E+02    0.3591283539E+02    0.4380820215E+02
286 2    0.3535997222E+02    0.3524779093E+02    0.4400967199E+02
287 2    0.3462897670E+02    0.3685982518E+02    0.4436177644E+02
288 2    0.3364916876E+02    0.3526291903E+02    0.4403792074E+02
289 1    0.3033176389E+02    0.3041123046E+02    0.3838398048E+02
290 2    0.2949009355E+02    0.3011865056E+02    0.3767101582E+02
291 2    0.3052696305E+02    0.3150700055E+02    0.3804376376E+02
292 1    0.2992449201E+02    0.3044814442E+02    0.3981451296E+02
293 2    0.3079608407E+02    0.3081848573E+02    0.4046652884E+02
294 2    0.2971494572E+02    0.2950608629E+02    0.4031132468E+02
295 1    0.2875135887E+02    0.3155901740E+02    0.4016715152E+02
296 2    0.2768987104E+02    0.3119722311E+02    0.4017012863E+02
297 2    0.2878652853E+02    0.3237528096E+02    0.2406081026E+02
298 1    0.2887459129E+02    0.3221994010E+02    0.2624554157E+02
299 2    0.2896905807E+02    0.3137791661E+02    0.4225154638E+02
300 2    0.2795103389E+02    0.3275242230E+02    0.2644697320E+02
301 1    0.2999109519E+02    0.3328358536E+02    0.2618550392E+02
302 2    0.2951391288E+02    0.3428196402E+02    0.2601118326E+02
303 2    0.3055315209E+02    0.3319780103E+02    0.4051680190E+02
304 1    0.3098376730E+02    0.3328505794E+02    0.2731552674E+02
305 2    0.3038833449E+02    0.3346403488E+02    0.2824226989E+02
306 2    0.3180803385E+02    0.3407859351E+02    0.2717061596E+02
307 1    0.3179045361E+02    0.3194969955E+02    0.2746991029E+02
308 2    0.3158376023E+02    0.3138578732E+02    0.2651369060E+02
309 2    0.3120230294E+02    0.3136942013E+02    0.2820807456E+02
310 1    0.3318104758E+02    0.3196407252E+02    0.2793602387E+02
311 2    0.3339634984E+02    0.3110884995E+02    0.2862045390E+02
312 2    0.3342158919E+02    0.3286042114E+02    0.2855435819E+02
313 1    0.3151633899E+02    0.2962592618E+02    0.3790529189E+02
314 2    0.3150274469E+02    0.2965004622E+02    0.3679827000E+02
315 2    0.3256013882E+02    0.2999288478E+02    0.3822813716E+02
316 2    0.3137154059E+02    0.2856968019E+02    0.3838126547E+02
317 1    0.3428193537E+02    0.3176461064E+02    0.2687489580E+02
318 2    0.3438599052E+02    0.3255417530E+02    0.2622800035E+02
319 2    0.3527963198E+02    0.3177948308E+02    0.2737012998E+02
320 2    0.3420582385E+02    0.3075370505E+02    0.2640450806E+02
321 1    0.3866896953E+02    0.3836091774E+02    0.2051648707E+02
322 2    0.3793015075E+02    0.3856468123E+02    0.2132314828E+02
323 2    0.3970380027E+02    0.3841129836E+02    0.2099710125E+02
324 1    0.3845587615E+02    0.3698963299E+02    0.3530365307E+02
325 2    0.3910991933E+02    0.3672624965E+02    0.3448988222E+02
326 2    0.3744388844E+02    0.3702304376E+02    0.3480863303E+02
327 1    0.3837448754E+02    0.3593300564E+02    0.3635930817E+02
328 2    0.3757506283E+02    0.3614544972E+02    0.3698705745E+02
329 2    0.3925070589E+02    0.3607092957E+02    0.3706765706E+02
330 1    0.3855299131E+02    0.3449714399E+02    0.3584644996E+02
331 2    0.3846066275E+02    0.3375820640E+02    0.3666495911E+02
332 2    0.3967264044E+02    0.3436808456E+02    0.3542347532E+02
333 1    0.3752454839E+02    0.3413568804E+02    0.3476739700E+02
334 2    0.3759155324E+02    0.3494695547E+02    0.3390077882E+02
335 2    0.3650114491E+02    0.3426793851E+02    0.3513247934E+02
336 1    0.3784624078E+02    0.3270402832E+02    0.3412921758E+02
337 2    0.3788804801E+02    0.3193376284E+02    0.3488594460E+02
338 2    0.3889170380E+02    0.3287970390E+02    0.3380848212E+02
339 1    0.3694724478E+02    0.3230187060E+02    0.3297394813E+02
340 2    0.3748517111E+02    0.3161415090E+02    0.3236974546E+02
341 2    0.3686102415E+02    0.3323116479E+02    0.3226521878E+02
342 1    0.3557090385E+02    0.3174530810E+02    0.3332557808E+02
343 2    0.3485505570E+02    0.3244276736E+02    0.3287778071E+02
344 2    0.3550762658E+02    0.3173901028E+02    0.3438649780E+02
345 1    0.3860022863E+02    0.3954928929E+02    0.1957228404E+02
346 2    0.3812487059E+02    0.3928969809E+02    0.1861418522E+02
347 2    0.3804375681E+02    0.4036918430E+02    0.1998681449E+02
348 2    0.3956788259E+02    0.3993537896E+02    0.1926891902E+02
349 1    0.3535361200E+02    0.3026102434E+02    0.3279806941E+02
350 2    0.3431702945E+02    0.2993753575E+02    0.3320435836E+02
351 2    0.3534673091E+02    0.3039276356E+02    0.3173448662E+02
352 2    0.3615011857E+02    0.2956174416E+02    0.3309095973E+02
0.0000000000E+00    0.0000000000E+00    0.0000000000E+00
0.1532620600E+02    0.0000000000E+00    0.0000000000E+00
0.0000000000E+00    0.1532620600E+02    0.0000000000E+00
0.0000000000E+00    0.0000000000E+00    0.1532620600E+02
}
Driver = VelocityVerlet {
  Steps = 50000
  TimeStep [fs] = 0.2
  MDRestartFrequency = 25
  Thermostat = None {}
  Xlbomd = {
    IntegrationSteps = 6
    MinSccIterations = 2
    MaxSccIterations = 200
    SccTolerance = 1e-6
    PreSteps = 0
  }
  Velocities [AA/Ps] = {
-8.31663296 0.50410841 -9.48080005
6.71485106 -0.36553418 -12.48915899
24.54600027 0.08250073 -19.95962250
-7.39439848 1.15769710 10.52122268
3.30929002 4.21733532 -11.83527847
-34.11840870 13.37243332 -10.21958971
-6.82220939 -6.72021765 -4.63350343
0.41928023 1.71232081 16.02543698
-18.86440602 12.55221457 -6.52578916
-1.57715276 6.13157638 4.00666829
-34.48528085 17.09262936 9.63602346
-32.66537876 -10.64316231 6.86032285
-5.16920816 -6.08521477 -10.80999700
15.52808288 -6.47573824 -8.72603320
13.74075208 -17.91546087 -48.12493898
-0.03170359 -4.98271574 4.36456017
2.35490233 0.98459744 29.78979928
6.04814325 -3.40224518 -23.15241012
9.02168936 10.97796078 12.20099799
27.74609827 -31.25183377 16.70943283
-7.10649054 9.26033973 1.54689333
-1.93398378 3.02841726 -5.81057734
6.41307618 11.83939701 38.31942679
12.05991893 10.52833372 17.39165421
2.33358427 4.57628942 7.47139114
2.72103147 -24.18971744 2.58282139
33.48851880 -29.57797108 7.31566994
9.90113387 17.36755735 -9.94346274
2.98342719 -7.59918999 -5.17375505
10.02842027 -16.56035035 -1.91980445
13.88019597 13.67378662 15.38157902
-5.94369790 -14.12021615 1.85969942
1.79658966 -11.52270585 0.63976417
-8.08727955 50.05294202 47.44633815
27.90832803 27.29453404 -41.37013638
-7.30291864 0.37871792 -0.25317487
61.74870144 48.60612186 14.66940954
-4.91361221 21.09149876 -66.97582210
-0.49320437 -12.94323744 9.75017130
53.49445420 7.72120497 -54.62860136
10.34000394 17.10212282 -59.03752569
-3.93786976 3.00361174 0.58834977
14.31051280 13.38908253 -1.74714651
-40.83136153 -12.86950868 -16.61417073
-4.56084470 4.57473341 -2.99324949
27.18798168 1.84551936 5.26888962
-3.45329107 -16.35482048 -1.28536529
3.36278348 3.94824089 -1.71306905
0.20788615 56.58993737 -9.14428557
4.09646654 55.21440061 7.91528529
1.71467039 -4.86881691 1.86811825
-12.67516984 -1.77240010 20.23655568
-25.16408601 -42.08795264 0.63046489
6.20891769 -10.34096940 -6.87817433
-44.17657185 3.70323554 -9.93471787
28.11103217 28.36316952 -24.33842030
0.35415454 -0.86857137 -3.23596653
-58.05996993 11.08337788 28.78406578
-23.10280225 53.49123630 -30.57777529
-3.52574915 14.84480298 40.97540291
1.48655472 -5.61948252 0.46169247
33.21237092 -15.85541246 -9.82098046
0.15046132 11.51706937 7.02817861
5.34904569 -27.17686645 4.42525927
-2.06855044 5.54668600 3.12728426
15.40170214 -48.45980218 -29.20639697
15.14385316 -23.58526803 24.76340242
-4.87868233 -3.80611388 4.07714405
-33.43612880 -14.08720737 6.10442718
-14.66746444 7.80091463 -14.45476053
10.15012944 -7.70499723 -2.82108523
-4.76520227 -43.68981129 8.22045564
10.52128128 -2.74063829 -22.36387007
6.79312614 1.66121684 -8.96897042
-1.73226593 -35.00824185 -21.75969403
-10.03607738 6.56920916 35.98066382
-0.20025333 6.21143960 3.53812683
21.14306458 -3.50396220 -2.47795871
-1.79180572 -14.37781386 -26.42327028
2.35553030 4.12324237 -5.42552511
8.16068197 -9.13197145 24.49790082
36.88695331 -25.77571962 29.86399855
-0.87442279 -12.11062737 -0.50515400
43.95074784 1.43617168 -10.71053089
18.48679199 -18.27308267 -7.81371843
-5.82183847 2.72581360 -1.44719078
-18.47956308 33.36658745 5.73432614
9.71211325 12.96506571 7.67191875
0.01399306 -5.12720146 -0.66821738
13.38879120 22.55367617 2.96364846
1.68045428 12.18403356 3.39001790
18.65406219 -19.60338557 -29.80142031
-10.86422826 6.79536286 -7.09429678
-42.59945111 10.48574033 -20.33084829
-3.84014071 4.77006892 -24.03575752
27.63999716 11.64388754 31.03661801
-0.05090377 -7.26056030 -5.98739669
0.67667706 -16.53277851 -8.69017120
-0.65532642 22.16776932 -4.01268838
0.10129932 -7.10128346 0.13430524
7.21631679 -0.72279993 -8.05106205
25.88368551 -5.40078612 -15.88354683
4.03467087 1.26743030 -2.04009109
9.02104980 7.08042166 -25.54283160
22.37398483 -8.65050036 15.04423474
5.05951820 -4.90055874 -5.13018837
9.46382071 12.80101851 17.45565219
10.06558076 25.83320903 27.03207571
4.31666701 0.33869755 -8.92690854
-5.38963229 -33.76259823 -12.36780256
14.89953760 0.36210190 23.62602438
-4.39674084 5.69118923 6.24416555
0.43462807 20.83086543 -7.56195495
-22.64700434 9.55240380 4.84429542
-4.53250339 13.97360008 14.57005912
23.76049482 20.50656761 16.42790648
-21.95351444 6.89331118 40.67093176
-7.54360842 -3.87634377 -0.42514899
0.89506210 4.78393382 15.47960945
14.07911855 20.64810736 33.67037270
5.76797938 9.35739167 4.44828640
34.74395741 2.31559685 22.57726391
5.90148125 -7.91903227 5.12372688
47.25278679 -11.57158366 38.77323015
3.48791456 12.71840974 9.64230288
33.47292562 -4.32647975 11.91559184
-13.01252703 37.55751333 3.64880511
-20.26965814 -12.68538112 44.54201232
1.61253817 1.22025980 12.27029844
19.84812359 -15.49052125 8.28255715
-41.00784995 5.25156025 -5.72288762
2.62778658 0.00139127 -1.27745523
16.65750787 6.19723494 11.86712969
-2.15983493 -0.77262762 -13.88797328
4.50980615 1.62195439 -8.51265587
-7.09292453 -3.54646603 -2.93784384
-8.67702256 1.30498502 -32.36565334
11.61144252 6.23117085 8.88303607
-9.19099649 3.35089642 18.08272317
-27.24272689 36.06493884 -15.02160220
5.75694534 10.53398782 10.99484916
-1.11307683 7.35966096 29.14202693
-22.30832863 -49.56379921 28.93367260
3.02163584 3.19740522 8.96102786
-0.51239172 -6.56171084 64.95403516
45.00318226 -0.58050617 -5.97036376
0.79463165 -2.39026991 -4.44544876
14.91970318 -33.00075310 9.49357609
-9.83171930 -18.00159795 -9.03940831
4.99233799 3.08008402 -4.37264543
28.12594454 39.28891853 -26.26360937
0.01026046 16.09549446 -6.54553094
-3.24405188 -5.87362808 -8.11579499
-49.71233424 -21.08768119 9.67975145
-6.49726386 -15.17235930 -10.84052956
-5.06418057 -5.78366922 -43.85050029
10.93960122 0.73766588 -3.53497620
-33.66102898 -48.89196833 11.30027004
5.24126869 -18.25961495 -25.66332808
5.05295939 -27.17719966 14.94154504
-4.95740377 0.40106864 4.80522671
-13.68974152 -16.86555361 -6.29595993
20.04577157 -6.67279601 35.73899631
-4.28407089 -1.50362110 -5.92822025
-13.17173856 21.89375005 -10.24499635
7.46501904 -13.21293042 -11.71916066
-6.53060502 -5.07772007 -11.20558135
15.19363319 -31.50231729 -28.22246539
-7.40882881 -24.67128227 -3.88513934
4.00525582 -0.05776814 7.35884049
3.62242328 7.93198981 20.80438596
-17.75226598 -11.18491601 -30.26127282
-0.51698533 6.89148588 -1.45060515
-3.42628929 5.43456698 -7.82008990
20.01849120 -17.13673493 27.92967364
4.57847363 -10.57545317 -5.82193021
-12.82031963 5.37321772 -8.24972730