Geometry = GenFormat {
<<< "system.gen"
}

Driver = VelocityVerlet{
  Steps = 50000
  TimeStep [fs] = 0.2
  MDRestartFrequency = 5
  Thermostat = None {
    #InitialTemperature [Kelvin] = 300.0
  }
  Xlbomd{ 
    IntegrationSteps = 6 
    MinSccIterations = 2
    MaxSccIterations = 200
    SccTolerance = 1e-6 
  }
  Velocities [m/s] {
     -9.39347187E+02      2.35695354E+02     -3.42232513E+02
      1.35170033E+02     -2.17081149E+03     -2.08491999E+02
      2.69374953E+03     -5.68402318E+02      8.82110638E+02
      5.03805476E+02     -2.63016793E+02      4.91283337E+02
      6.19644906E+01      3.27656051E+02      1.02722283E+03
     -8.70537294E+02      1.03967112E+03      2.43274965E+03
      2.69361904E+02     -1.05271257E+02      3.70747601E+02
     -1.77487261E+03     -2.09081372E+03      1.62961156E+03
      4.36522507E+02      2.09705158E+02     -2.20146299E+03
      4.09566614E+02     -4.49801141E+02     -4.32282013E+01
     -8.33108408E+02      1.92133343E+03     -2.10807715E+03
     -1.44807332E+03      2.24983470E+03     -1.32245463E+03
     -5.87388900E+02     -3.96875570E+01      3.64752077E+02
     -9.72215268E+02     -2.83361527E+03     -3.50228664E+03
     -4.05220133E+02      1.36252131E+03     -2.05504264E+03
      1.12863509E+02     -1.14936436E+02      9.37124984E+01
     -5.00824832E+02     -2.36067873E+03      2.41233575E+03
     -1.29721408E+02     -1.08949408E+03      1.58514267E+03
      5.81661874E+01     -8.91662948E+01     -4.04389270E+02
      3.29193382E+03      2.22296542E+02      2.06458675E+03
      8.40900929E+02     -1.90843379E+03     -4.96514557E+02
     -4.92364347E+02     -6.02219693E+02     -3.51430428E+02
      4.12621263E+02     -1.74596733E+03     -6.50240388E+02
     -3.80050387E+02     -2.82924069E+03      1.72376707E+03
      2.43321803E+02      2.74177429E+02     -2.63675581E+02
     -6.00524603E+02      4.56743547E+02      1.31392390E+03
      8.46735891E+02     -8.55791668E+02      2.82403739E+01
      4.70805646E+02      1.22747100E+03     -2.96856488E+03
     -7.50406822E+01     -4.57564297E+02      5.23913891E+02
      1.24213476E+03     -2.02480002E+03      1.10436624E+03
      4.25275332E+02     -1.93640289E+03      1.63021754E+03
      4.83451770E+01      3.27821424E+03     -1.43148328E+03
      5.22212045E+02     -6.89922227E+02     -5.96027394E+01
     -1.21086027E+02     -1.90840910E+03      1.05944090E+03
     -9.76211328E+02     -2.83919561E+03      2.04472921E+03
     -7.29380999E+02     -6.01972139E+02     -2.60392870E+02
      8.26615680E+02     -1.60818693E+03     -4.21617848E+02
     -1.60016812E+02     -7.91131345E+02     -3.00696386E+02
      1.59506820E+02     -3.81508161E+02      3.05577531E+02
     -2.36403819E+02     -1.44718718E+03      1.17943718E+03
     -6.59430979E+02     -1.00925217E+03     -4.12165235E+02
      5.26447034E+02     -7.61947185E+02     -2.16973244E+02
     -7.29250567E+02      1.03932779E+03      1.94853353E+03
     -1.26952860E+03      1.44161324E+03      1.71923873E+03
      6.75875112E+02     -1.22610858E+02      1.63919595E+02
     -4.97940612E+02     -7.84548919E+02      6.74517950E+02
     -5.56860887E+02      1.75811590E+03      1.41032792E+03
      5.97876202E+02     -4.52452857E+02      3.98424915E+01
     -1.57281474E+03      2.62960646E+03     -8.53716565E+02
     -2.02808991E+03      8.88225302E+02     -2.19800877E+03
     -8.48781544E+02     -2.42843066E+02      5.79815469E+02
      2.34815589E+03     -1.85443052E+03     -1.41217604E+03
      3.08435054E+02     -1.22112163E+03     -1.54847729E+03
     -4.62515106E+02     -2.67972385E+02      3.88175635E+02
     -3.10687395E+03     -2.32584275E+03      1.10357073E+03
     -2.16888491E+03     -3.48213020E+03     -5.65338084E+02
     -2.75044023E+02     -1.22860687E+02     -4.82634138E+01
     -1.01143982E+03     -2.94018371E+03     -1.87858576E+01
     -7.84200333E+02      2.58967220E+03      2.05917723E+01
      2.91781881E+03     -2.49254979E+03     -2.14515689E+02
      3.10712287E+02     -4.44791516E+02      8.82844367E+01
      2.04552602E+03      3.01210109E+03      7.11404512E+02
     -2.84342627E+02      3.99265509E+02     -1.88469131E+03
      7.17778456E+01      1.36286278E+03      6.69486062E+02
     -6.68352150E+01      2.75421489E+01      5.72584566E+02
      3.96569556E+02     -5.35695348E+02      9.10944587E+02
      3.00299770E+03     -1.11113295E+03      1.67821771E+02
      9.99121973E+01     -2.07861273E+02     -9.95302821E+01
     -2.45325989E+01     -1.07858483E+03     -2.65931880E+03
      9.11218035E+02      1.15918918E+03     -9.58794785E+02
     -3.23277635E+02      1.73340875E+02     -6.97473782E+02
      1.24108251E+03     -3.13986189E+03     -1.23423982E+03
     -1.66148816E+03     -2.29779326E+03      4.71760993E+02
      3.52065099E+02     -8.55213942E+02      3.19142266E+02
     -5.39688483E+02     -7.04519953E+02      1.80728274E+03
      1.97428972E+03     -5.50561917E+02      3.76777787E+02
      2.22439791E+02     -5.83990394E+02      7.35304757E+02
     -1.02483478E+03      2.07281943E+02     -4.12276264E+02
      1.66246677E+03      8.00517434E+02     -1.57115953E+03
     -1.05526032E+03     -4.12201326E+02      1.65484471E+02
      9.44557942E+00      1.30426576E+03      5.86322152E+02
     -1.86026038E+03     -1.46510640E+03     -1.58302973E+03
     -7.08099691E+02     -3.76096295E+02      9.30672040E+02
     -1.91334526E+02      1.88411122E+02     -5.33319051E+02
     -3.04622083E+03     -1.62539505E+03     -9.87068585E+02
     -1.12334114E+02     -6.66545203E+01     -7.49586303E+02
     -6.22350274E+03      4.98552961E+02     -1.79623054E+03
     -1.84310721E+03      2.29083188E+03     -9.42090510E+02
      5.63628885E+01     -8.04543387E+02     -4.46790630E+02
      1.33795694E+03     -1.64031778E+03      1.93926162E+02
      1.87637761E+02      7.04852335E+02     -2.91074877E+02
      5.41453371E+02      1.33572969E+03      5.90776834E+01
     -3.78696502E+02      2.24052417E+02      6.23443898E+02
      1.68916240E+03      5.03618542E+02      2.60609295E+02
      6.79658236E+02      1.05417867E+03      2.43041053E+03
      3.26782103E+02     -8.16347684E+02     -6.57541368E+02
      1.12954880E+03     -7.82986420E+02      8.49821158E+02
     -1.63888752E+03      8.94070280E+01      1.64024163E+03
     -2.39926286E+02      3.16846692E+02     -2.05398269E+03
      4.53560267E+02     -4.72088564E+01      2.94211661E+02
      7.06615282E+02      1.52623921E+03      7.08562237E+02
      8.87347971E+02      3.49138804E+02      2.98395501E+03
     -6.94664690E+02      3.71410045E+02      5.70421942E+01
      1.09500731E+02      1.81146381E+03     -1.22818824E+03
     -1.51460234E+03     -1.19455114E+03     -3.16267291E+02
     -5.35455978E+02     -1.15392208E+03     -3.53982407E+02
      1.45422603E+03      5.75480519E+02     -1.48955063E+03
     -1.29518375E+03     -2.55681065E+02     -1.96572640E+02
     -1.63091019E+01      1.55606358E+02      5.20842346E+02
     -3.18105507E+03      3.40954078E+03      1.04229569E+03
     -2.50463606E+03      1.78216080E+02      6.24862928E+02
     -9.00362536E+02      5.43509752E+01      6.73270059E+02
     -2.68135612E+02      2.08271932E+03      1.08178209E+03
      1.80288604E+03     -2.12309486E+03      7.99129354E+01
      4.33655282E+02     -7.85176572E+02     -8.76008118E+01
      2.30414469E+03      9.84574496E+02      4.35635263E+03
      2.13426952E+03      2.35676265E+03      4.59818729E+02
     -5.47663227E+01     -3.37915782E+02     -4.26057367E+02
      1.46841450E+03     -1.69809439E+03      1.26955688E+03
      3.68783805E+02      3.10285428E+03      8.18365003E+02
      2.43711092E+02      6.58337245E+02     -3.99114237E+02
      2.33770054E+02      7.16707171E+02      8.46772742E+02
      1.24673476E+03     -1.02328658E+03      2.44402888E+03
      2.18236482E+03      2.59102406E+03     -1.62143589E+03
      2.00425053E+02     -1.20623653E+03     -4.06912468E+02
      1.50577300E+03     -1.09909869E+03     -5.79895058E+02
     -9.90006304E+02      1.61787828E+03     -2.90915575E+03
     -2.29294861E+03      3.61253129E+02      1.71362488E+03
      6.95575526E+01     -4.34962694E+02      9.03995068E+01
     -7.09401423E+02     -1.62557185E+02      7.44011589E+02
     -3.61067702E+02      2.01406840E+03      2.15740868E+03
      7.13674525E+02     -1.24009120E+02     -1.97499263E+02
     -2.40778847E+02     -2.53611462E+03      2.45151788E+03
     -1.03957127E+03      7.03319502E+02      5.46723192E+02
     -3.97363937E+02     -2.45143793E+02      1.59518755E+02
      2.25328164E+03      5.81025132E+02     -8.27133419E+02
     -9.19894102E+02     -2.87074579E+03     -2.46515451E+03
      5.00287988E+02     -2.42582910E+01      1.26394920E+02
     -7.01617209E+02     -1.77354734E+02      3.88222810E+03
     -8.21191023E+02     -2.07899618E+03      2.29547747E+03
      7.41380120E+01     -2.72298316E+02      8.70466673E+02
     -1.70955183E+03     -7.57363765E+02     -4.12454817E+02
     -3.41854881E+02      1.78655396E+03     -1.28900650E+03
     -3.88643398E+02      1.50544039E+02     -2.07777863E+02
     -3.01907582E+03     -2.21150607E+03     -1.47325953E+03
     -1.46386061E+03      2.07101238E+02      7.15143280E+02
      5.35583129E+02     -1.45197709E+02      2.30209186E+02
     -2.08703839E+03      1.87788693E+02     -1.41876251E+03
     -5.43104520E+02      1.27552097E+03      1.41803727E+03
     -4.24242680E+02      3.73003485E+02     -1.14556916E+02
     -2.17875137E+02      1.48455419E+03      3.50749833E+02
     -1.25317107E+03     -1.92683713E+02     -2.09767264E+03
      6.03964846E+02     -1.30082319E+03     -8.03243647E+02
     -1.45269545E+03      1.93361276E+03     -1.41023184E+03
      2.69898092E+02     -2.09649230E+02     -3.15123506E+03
      4.20682280E+02     -5.34593804E+02      2.88137611E+03
     -9.20484717E+02     -3.26690674E+02      4.39236838E+02
      1.39692306E+03      2.93555375E+01      1.25233655E+03
      6.41742290E+02      2.39153833E+03     -2.32128515E+03
     -1.41493633E+01     -1.75169178E+03     -1.77654534E+03
     -1.55421334E+01      5.09852142E+02     -1.99026251E+02
     -2.30504411E+03     -1.77825339E+03      6.68202713E+02
      1.07823089E+03     -2.44071881E+01     -2.72699832E+02
      1.09168923E+02      8.22305754E+01      7.10547251E+01
      6.66265680E+02     -3.07062815E+03     -8.70276335E+02
     -1.01151640E+03     -1.85521195E+03      1.33476288E+03
      2.02968153E+02      1.49253744E+02     -3.64778132E+02
      1.62875659E+03      2.48449179E+03     -9.11718502E+02
     -2.36124687E+03      1.24434278E+03      4.92851960E+02
     -1.45505023E+02      1.21796299E+02     -1.10925304E+02
      6.83168288E+02     -1.73771835E+03      1.02454753E+03
     -7.06554252E+02      9.44326030E+02      1.11058244E+02
      6.34586275E+02      2.69705642E+00     -8.39171557E+02
      1.90329023E+02     -1.89842663E+02     -5.78376787E+02
     -1.75290353E+03      7.71916810E+02     -1.73231640E+03
      5.63764126E+01     -2.20293678E+02     -1.45342755E+02
     -2.63833093E+02     -3.02661737E+02     -3.26281851E+02
     -1.33450632E+03     -1.59825184E+03     -5.48015729E+02
     -1.88105596E+02      8.65269076E+01     -9.70983191E+01
      6.97912440E+02     -1.19642421E+03      2.38973696E+03
     -1.73599926E+03     -3.08858015E+02     -6.10439193E+02
     -1.25609015E+02     -3.13366071E+02      9.15663075E+02
      1.57138993E+03     -2.87201872E+03      1.22330717E+03
      1.04908518E+02     -3.55017221E+03      1.86771244E+03
      7.60268447E+02     -2.87886738E+02      4.75911066E+02
     -1.59831968E+03      6.70717001E+02      2.16970910E+02
     -1.14903821E+03      1.90304978E+03     -1.62584069E+03
      2.44999230E+03     -2.93072009E+03     -2.00280956E+03
      3.82111393E+02     -1.31621928E+02     -1.25140873E+03
     -1.63437577E+03     -1.02026971E+03     -1.73930838E+03
      1.56727909E+03      9.41114271E+02     -8.44385226E+02
     -3.72541283E+02     -1.13774674E+02      1.74145141E+03
     -2.99695479E+02      7.42547850E+01     -3.31394602E+01
     -2.10714591E+03      1.22587362E+02      9.04139399E+02
     -1.18910946E+03     -6.33795292E+02      1.79914681E+02
     -5.34182325E+02     -2.69085750E+02      4.27096404E+01
      1.39975561E+03     -6.51180337E+02     -2.04511897E+03
     -6.42231798E+02     -8.14398016E+02     -8.24994511E+02
      1.17623446E+02      5.63372529E+02     -6.92603871E+02
      6.35204413E+02     -6.17628951E+02     -2.10207571E+02
     -2.95981857E+02      8.69510604E+02     -4.44849155E+02
     -4.00391579E+02      1.12171100E+02      2.82418168E+02
     -5.42692993E+02     -2.40033793E+03     -1.54380727E+03
     -3.56425682E+02     -5.32063973E+02      2.46325310E+02
     -4.15441423E+02     -1.09010987E+02     -2.55374003E+02
      1.56545932E+03      3.10395209E+03     -5.46087548E+01
     -1.37368910E+03     -7.63895826E+01     -5.87677797E+02
     -3.04083912E+02     -7.78387138E+02     -8.25372458E+02
      2.60927956E+03     -1.52299741E+03      1.18401063E+02
      1.26759614E+02     -3.99321085E+03     -1.64790252E+03
      9.44532233E+02     -4.86263328E+00      1.01939877E+03
      3.32319597E+03     -1.49019817E+03     -1.62305052E+03
     -4.91155440E+02     -2.36779288E+03     -8.28161110E+01
     -5.35072658E+02     -1.05341935E+02      6.80945598E+01
     -2.04455563E+02      1.03088103E+03     -1.90912706E+03
     -1.01366592E+03     -1.69914926E+03     -7.06921052E+02
     -2.72425336E+02      2.36402972E+02      9.41679725E+01
     -1.06105750E+02      6.73023873E+02     -9.38181346E+02
      7.68274575E+02     -1.35451481E+02      1.80628468E+03
     -7.97721939E+02     -5.11008180E+02      4.38210609E+02
      2.93009300E+01      9.47837302E+02      1.41689093E+02
     -1.19720265E+03      7.86665030E+02      7.89356439E+02
     -2.03948085E+03      1.03108539E+03     -2.24271463E+03
      1.30924374E+03     -9.60452432E+02      1.56027825E+03
      1.96055494E+02     -6.35256853E+02      5.81243890E+02
      1.14225113E+03     -4.91921262E+02      2.31496197E+02
      1.19759054E+03      1.52246415E+03     -1.12225281E+03
     -3.46802613E+02      7.97942591E+02      7.55948770E+01
      2.63146920E+02      1.61832809E+03      1.08848112E+03
      2.15111409E+02     -1.18743492E+03      4.84142801E+02
     -2.49327022E+02     -1.40138473E+02     -4.80234783E+01
      1.13925249E+03     -1.40193617E+03      5.61405406E+01
     -3.60614240E+00     -1.29776543E+03      1.17419747E+03
     -7.65079486E+02     -3.85336315E+01     -2.06607599E+02
     -1.88351460E+03     -2.84629130E+03      8.80213483E+02
      1.16254617E+03     -1.47207137E+03     -5.06297296E+02
      1.51504498E+02      1.03122130E+02     -8.50014626E+01
      1.06510291E+03     -4.30000764E+02     -2.00349023E+03
     -9.27968798E+02     -2.47621922E+03      5.43492791E+02
      2.39397294E+02     -8.59214516E+01     -5.16462467E+02
     -2.94231317E+02     -1.10907055E+03     -9.21603849E+02
      2.11620884E+03      4.53000884E+03      8.23644792E+02
      6.14450343E+02     -4.53932648E+01      4.68628422E+01
      1.44657146E+03     -1.10685780E+03      2.42238231E+03
     -3.39157798E+02     -2.01021285E+02     -2.14205815E+02
     -1.03494697E+03      2.13454019E+04     -4.02263422E+03
     -1.47184657E+03      1.31130778E+02     -1.16766577E+03
     -2.15128791E+03     -7.58400196E+02     -4.03000325E+03
     -9.20566836E+01      6.73016249E+01     -7.14025613E+02
      4.74016616E+03      2.37770927E+03     -1.18608718E+03
      8.38588571E+01      1.80444575E+03     -3.45156965E+02
      2.79110192E+03     -9.86501418E+02      4.16162649E+02
     -6.10363306E+02      2.39838830E+02     -8.00410422E+01
     -2.60790768E+03      3.60477215E+03     -6.01207923E+02
      1.03865862E+03      1.07148764E+03      7.42484608E+02
      1.26611454E+03     -9.96774642E+02     -4.96813599E+02
      6.23189189E+02      3.22804392E+02     -5.12700372E+02
     -1.56398064E+03      8.77185802E+02      9.76177493E+01
      1.17412559E+03      1.34992504E+03     -2.76051391E+03
     -3.90519073E+01     -7.97639932E+02      4.55760097E+01
      1.94136032E+03      1.48780326E+02     -1.55017273E+02
     -9.03756522E+02      5.44809592E+02      2.26639765E+02
      1.38488824E+02     -3.09086842E+02      1.32290995E+03
      1.37304068E+03      3.48139746E+02     -1.56027575E+03
      1.95939486E+03      8.88234816E+02      1.43108417E+03
     -2.91612026E+01      6.27628074E+00      1.43559382E+02
      8.83513400E+02      1.68007566E+03     -7.77747959E+02
      1.08241109E+03     -8.64392885E+02      6.83834810E+02
      1.49329531E+01      3.35312112E+02      3.60986444E+02
      7.25882002E+02      2.67310396E+03      1.94837518E+03
     -4.51213330E+02     -1.39553049E+03     -2.56027342E+02
      3.55228801E+02      5.54589297E+01      6.45467643E+02
      8.06170282E+02      1.74475363E+03      1.39062078E+03
     -1.91796378E+03     -1.53543582E+03      8.21429833E+02
     -5.62678650E+02     -2.62414510E+02     -5.61951152E+01
     -6.47434781E+02      1.55735946E+03     -1.41823918E+03
      6.38382247E+01      2.27228386E+02      2.04880021E+03
      9.38556046E+02      2.67017586E+02      1.79631597E+02
     -1.64027213E+03      1.05402697E+03     -4.90083821E+02
      3.38717906E+03     -2.68247236E+02      7.36442518E+02
     -3.27102758E+02     -6.86066987E+02      9.11112720E+01
     -1.56362709E+02      1.36852594E+03     -1.24316003E+03
     -2.49782010E+01      5.72840583E+02     -5.27208344E+02
      4.65768344E+02      4.32248647E+03      6.95985545E+01
      6.82324903E+02     -1.73190703E+03      3.95336994E+01
     -6.02547996E+02     -3.34293804E+02     -2.26210404E+03
     -1.09463508E+03      1.25911453E+03     -2.67219301E+02
     -2.27617077E+03      4.18079116E+03      1.20918187E+02
      6.24451509E+02     -3.31626924E+02     -1.70963808E+02
     -8.24744392E+01     -1.30791486E+03      3.09256991E+03
      2.09369604E+03     -1.26302331E+03      1.24194287E+03
      2.09957257E+01      3.85070314E+01     -1.72385166E+02
     -9.41582014E+02      2.72046086E+03      1.00667544E+02
      9.53521706E+02      2.98317197E+02      4.60018664E+01
      1.77533930E+02     -1.40313481E+02     -4.69314244E+02
      1.38267059E+03      1.32056940E+03      6.42136178E+02
     -3.04462381E+03     -1.64156923E+03      3.03279087E+02
      5.17750082E+00      8.45815712E+01     -4.46595109E+01
      9.20431997E+02     -1.41654956E+03      9.58508394E+02
     -3.61247027E+03      6.30322030E+02     -1.33966821E+03
     -7.24355328E+02     -2.96084226E+02     -1.45337557E+02
     -8.12066658E+02     -2.50821074E+03      5.85558959E+02
     -6.51032205E+02      2.60197948E+02     -1.11653540E+03
     -2.47458809E+02     -5.30285011E+02      5.15141667E+02
     -3.21183459E+01      5.78118837E+02     -5.18340965E+02
     -2.50845272E+03      4.42444735E+02     -9.71786774E+02
      4.62549562E+02     -3.88539162E+02     -5.97231556E+02
      7.37921928E+01      1.66845894E+03      2.02211129E+03
     -1.65489732E+03     -1.48142684E+03     -6.83096814E+01
      1.00694858E+03     -1.04472957E+03     -2.95825375E+02
      2.39848525E+03     -3.28596289E+03     -1.67852543E+02
     -1.04755050E+02     -8.64511437E+02     -4.25358092E+01
      1.26614999E+03     -1.36211117E+02      9.98882779E+01
     -1.47574300E+03     -1.09902119E+03      1.44751036E+02
      2.67904986E+03     -1.17655915E+03     -4.40027545E+02
      3.19433111E+03      3.84430165E+02     -1.25699734E+03
      3.40491016E+02     -1.48998305E+02     -2.42528966E+02
     -4.95091654E+03      1.33413681E+03     -1.09846803E+03
      1.60281052E+03     -5.66428068E+02     -9.04248656E+02
     -7.36498451E+02      1.09258103E+02      2.13937825E+02
      7.46152057E+01     -3.39376787E+02      9.90570512E+02
      8.44372746E+02     -2.16028304E+03      1.45202653E+03
      6.58775507E+02      1.56978045E+02     -1.44559348E+03
     -1.72958022E+02     -3.26388365E+01      6.91750233E+02
      1.13963073E+03      1.46827968E+03     -6.35424052E+02
      2.19735679E+01      6.72747808E+01      1.15359098E+03
     -9.28567896E+02      2.88601946E+02      4.58009690E+02
     -1.18093706E+03     -2.13799446E+03      1.33924005E+03
      2.79698812E+03     -1.39760894E+03      1.20001206E+03
     -3.08162737E+02     -5.34224528E+00     -2.81076441E+02
     -3.84472082E+02      1.28702600E+03      1.73025218E+02
      2.72383155E+01     -9.42455668E+02      9.53343713E+01
      5.27856393E+02      2.99727972E+02      7.79977606E+02
     -6.05811799E+02     -4.95895755E+02      1.06207880E+03
      3.81881770E+02      3.59864168E+02     -2.24792940E+02
     -6.55945772E+02      1.65470847E+02     -3.96332590E+02
      4.40101202E+02     -1.85051664E+02      6.75836078E+02
     -1.63050867E+03     -3.66049318E+03     -1.60499754E+03
      4.65327067E+02      3.80284965E+01     -6.31423966E+02
      8.28096939E+01     -1.44009416E+03      1.37200282E+03
     -1.39260491E+02      2.25604201E+03     -1.26018323E+03
     -5.37856299E+02     -7.72413451E+02     -2.04862060E+01
      1.19561322E+02     -1.39567360E+03      1.55265447E+03
     -3.30301039E+03      2.10027521E+02      6.14621626E+02
      8.49718726E+02      3.34733405E+02      1.45739306E+02
     -9.24220654E+01     -6.08426332E+02     -5.19603192E+02
      1.42160956E+03     -3.29926159E+02     -1.37038645E+03
      1.67780198E+03      3.63200099E+02     -2.40163041E+02
     -1.38453593E+02     -4.03137179E+01      4.86075218E+02
      8.11869427E+02      1.40531761E+03     -6.35093096E+02
      2.05650744E+03     -7.27215825E+02      7.63012391E+02
      2.01917088E+03     -2.45485737E+02     -6.94430172E+02
  }
}

Hamiltonian = DFTB {
  SCC = Yes
  SCCTolerance = 1e-6
  MaxSCCIterations = 200
  ForceEvaluation = Dynamics
  MaxAngularMomentum = {
    C = "p"
    H = "s"
  }
  Charge = 0.0
  SpinPolarisation = {}
  Eigensolver = Standard {}
  Filling = Fermi {
    Temperature [Kelvin] = 300.0
  }
  SlaterKosterFiles = Type2FileNames {
    Prefix = "../../pbc-0-3/"
    Separator = "-"
    Suffix = ".skf"
    LowerCaseTypeName = No
  }
  KPointsAndWeights = {
    0.0000000000000 0.0000000000000 0.0000000000000 1.00000000000000
  }
  Dispersion = LennardJones { 
    Parameters = UFFParameters {}
  }
}

ParserOptions = {
  ParserVersion = 3
}
