Geometry = GenFormat {
<<< "system.gen"
}

Driver = VelocityVerlet{
  Steps = 100000
  TimeStep [fs] = 0.2
  MDRestartFrequency = 5
  Thermostat = None {
    #InitialTemperature [Kelvin] = 300.0
  }
  Xlbomd{ 
    IntegrationSteps = 6 
    MinSccIterations = 2
    MaxSccIterations = 200
    SccTolerance = 1e-6 
  }
  Velocities [m/s] {
     -1.63165736E+02      6.67686357E+02      2.30043389E+02
     -3.20551473E+03     -1.14508392E+03     -2.39120673E+03
      7.80136990E+02      1.22102962E+02     -5.24529940E+02
     -7.67882791E+02      4.80756708E+02     -7.95220351E+01
      5.67410293E+02     -1.35922702E+03     -4.37678325E+01
     -2.58125464E+03     -6.63299085E+02      5.34105086E+02
      3.08582197E+02      4.89517322E+02     -6.28641960E+01
     -6.65970573E+02     -7.78441584E+02     -1.48585214E+03
     -4.46476364E+02     -1.77860532E+03     -5.48014989E+02
     -1.88351281E+02      3.87877161E+02      3.27926696E+02
      7.79105815E+02      1.28395699E+03     -3.94357507E+02
      6.49889199E+02      6.08333377E+02     -2.98714790E+03
      4.16596350E+02     -1.64301112E+02      1.49217153E+02
      7.17757788E+02     -1.12474274E+03      1.02434275E+03
     -5.61488931E+02     -9.34610042E+02     -3.46539806E+03
      4.54258145E+01      6.98549746E+02     -5.23111721E+02
      1.73556095E+03     -2.35631978E+03      4.53090955E+01
     -7.95676829E+00      8.26206989E+02     -1.98454159E+03
     -1.54014098E+01      1.58821600E+02     -1.23988363E+02
     -7.92640800E+01      2.82324628E+03     -1.47734285E+02
     -3.89441898E+02      2.67150891E+03      1.84149574E+03
     -8.98185928E+01      1.64408696E+02     -2.68275258E+02
     -7.01718859E+02     -2.03757172E+03     -7.28740462E+02
     -5.48776792E+02      5.55034863E+02      2.63521325E+03
     -1.75568599E+02      2.41019808E+02     -3.20328255E+02
     -1.10507253E+03     -1.34667625E+03      4.61438389E+01
      1.53295468E+03      9.84034197E-01      1.28611079E+03
     -1.32800422E+03     -1.35606500E+03      1.89063133E+03
     -5.59203130E+02      8.41948913E+02     -7.43188604E+01
      1.12153606E+03     -1.43157688E+03     -7.13236061E+00
      2.32422146E+03      2.45146042E+02      1.00891347E+03
      4.69509836E+02     -2.46814384E+03      8.08666670E+01
      8.34269409E+01      2.00175102E+02     -5.01478898E+01
     -4.03861236E+03      1.01911750E+03      1.34175689E+03
      2.46137790E+03     -3.80182629E+02     -1.56203465E+02
      1.21440372E+02     -7.45497200E+01     -1.11724061E+02
     -8.77100825E+02      2.51268088E+03     -9.95001687E+02
     -6.60832559E+00      5.03280814E+01      2.29650494E+01
      1.21615378E+02     -5.88793567E+02     -6.47368994E+02
     -8.52147169E+02     -1.79274077E+03     -1.18796872E+03
     -1.65849721E+02     -9.79246640E+02      6.13623267E+02
     -4.00829427E+01     -8.67203873E+02     -6.93346645E+02
      1.23669884E+03     -4.63680097E+02      1.60800084E+03
     -9.77993068E+01      2.05908204E+03      1.93060403E+03
      2.97569635E+02     -3.87319538E+02     -7.71740940E+01
     -1.69649049E+03      1.27983817E+03     -8.17444414E+02
     -1.94270273E+03      2.26396383E+03     -4.55085681E+03
     -4.76927860E+02      5.72760765E+02      7.69130350E+02
     -1.36414197E+03      1.45250228E+03     -7.61098401E+02
     -1.27295757E+03     -3.68537920E+02     -5.98351785E+02
     -5.31631740E+02      4.84591585E+02     -3.21089091E+02
     -2.26506901E+03      7.39817574E+02     -6.43848005E+02
     -9.10871848E+01     -1.49490550E+03     -1.70407583E+03
     -1.89563921E+02     -5.23106026E+02     -6.37507655E+02
      1.05039851E+03      2.30847026E+03      2.93999500E+03
     -2.02190610E+03      1.95795115E+03     -2.30402744E+02
     -6.69926786E+02     -2.06238454E+00     -3.59424811E+02
      4.29160332E+02      2.11438624E+03      2.84270558E+03
     -3.09631030E+02     -1.66203737E+03     -1.00132707E+03
     -1.97850497E+03     -2.27122030E+03     -1.73150433E+03
     -5.83267683E+02     -1.13881178E+02      4.37887697E+02
     -1.90829303E+03     -2.45642989E+03      1.12729712E+03
     -1.27738280E+02     -2.86616536E+02     -1.43137334E+03
     -1.99171267E+03      6.85901377E+01      7.59122341E+02
     -9.13277731E+01      8.28785096E+01     -1.60060791E+02
     -3.78248620E+03      1.71800900E+03      9.18160453E+02
      1.14466873E+03      1.14005259E+03      1.32974209E+03
      1.01000458E+02      3.32737919E+02     -2.09190979E+01
     -1.67891293E+03      9.10590330E+02     -3.50445474E+02
     -3.94865891E+03      2.45958007E+02      1.31222120E+03
      3.24751650E+00      5.78717563E+02     -1.99076354E+02
     -1.74031604E+03      2.14223653E+03      1.40615714E+01
      1.85809522E+03     -3.63636611E+03      7.06817067E+02
     -8.45460166E+02     -1.78101303E+02      2.15963239E+02
     -1.07237449E+03     -1.45302971E+03     -8.03014200E+02
      2.32898516E+02     -8.25797957E+02      1.98122416E+03
      4.44315370E+02     -1.53875179E+02     -4.40982069E+02
      8.78911176E+01      3.09591218E+03      1.79358036E+03
      1.57055085E+02      3.16931666E+02     -2.66358883E+03
     -3.70206564E+02      2.63960769E+02      1.57913585E+02
     -1.57671787E+03     -1.76869300E+03      1.24764295E+01
     -7.82104549E+02      1.07937002E+03     -3.74044640E+01
     -5.83521051E+02      2.01307593E+01     -9.12213138E+01
      1.43900979E+03      2.87078783E+03     -1.75329809E+02
      8.67275882E+02      7.26815991E+02     -1.73724662E+03
      1.29133037E+02      3.47181323E+02     -3.57612907E+02
     -8.56480377E+02     -1.05228333E+03      2.52677490E+02
      1.64410369E+02      2.24039601E+03      2.16045222E+03
     -6.77483568E+02      3.48086911E+02      1.79393130E+00
     -3.16741262E+03      6.56524930E+01      3.16713159E+03
      1.04181123E+02      1.68317108E+03     -1.80907761E+02
      2.95515336E+03     -1.31594549E+03      8.15405376E+02
     -3.90272441E+02      3.78347930E+02      5.55499318E+02
     -2.58841678E+03     -4.35252453E+02      1.24652459E+03
      2.60047069E+02     -1.43555382E+03      3.07613678E+03
     -1.94106496E+03     -5.91368034E+02     -1.14296414E+03
     -6.39694678E+02      2.05127695E+02      4.08410201E+02
     -2.36352818E+03      8.01143679E+02     -1.42684545E+03
     -1.14554006E+03     -1.62203014E+03     -1.71462293E+03
      3.19404722E+02     -3.99672746E+02      1.00523128E+01
      1.16197597E+03      9.29424653E+02      7.94490724E+02
     -4.77416908E+02      9.18400606E+02      1.24526704E+03
      5.91140496E+02      4.31180548E+02      3.93445182E+02
      8.43007342E+02      1.80754548E+02      1.56049484E+03
     -1.87371501E+03     -1.16629018E+03     -1.39279107E+03
     -8.04150910E+01      1.03968421E+02     -4.91283858E+02
     -4.75044724E+02     -2.17089449E+02     -9.66754211E+02
      1.05084504E+03     -2.17919493E+03     -3.16181653E+03
      1.43740019E+01      5.97809859E+02      5.05871335E+02
      6.89188244E+02      1.99687110E+03      3.30763837E+02
      1.96407395E+03     -4.07253570E+03     -3.24534109E+02
     -1.67799528E+02      6.49769549E+02     -1.03770792E+03
     -4.70016062E+02     -1.11792213E+03      5.25220663E+02
     -1.73803738E+03     -4.80197011E+02      1.17465583E+03
      7.83891679E+02      4.17521654E+02      6.81695645E-01
     -3.88192674E+03      2.96212693E+02     -4.07344208E+02
      8.69298493E+02      5.83371385E+02     -4.02146119E+02
     -1.29690572E+03      2.29200793E+01     -3.06068130E+02
      2.82739004E+02      6.05312824E+02      1.26863406E+03
      6.61672695E+02      1.55392942E+03      1.48045734E+03
     -5.39361718E+02      5.16448465E+02     -1.57669099E+02
     -2.59042547E+03      7.24438811E+02     -8.83570127E+02
      2.45345901E+03     -6.69037963E+02     -9.93137485E+02
     -1.41253877E+03      2.44595398E+03      1.15898864E+03
     -2.49097305E+02      5.14301928E+02     -3.14031403E+02
     -9.54994487E+02     -2.99606914E+03     -1.84607545E+02
     -9.82918171E+02      2.82437464E+03      1.57983732E+03
     -2.46493599E+03      5.31319914E+02      3.98882565E+01
     -6.94790415E+02      1.35292198E+02     -2.16492377E+02
     -1.77627284E+03     -1.61820280E+03     -7.51179586E+02
      8.47982464E+02      6.03109384E+01     -2.46652666E+03
      5.64145944E+02      3.81288322E+02      5.36800228E+02
      4.13046522E+02     -1.62980051E+03      3.89095489E+02
     -7.10449508E+02      7.26352084E+02      9.76385237E+02
     -1.91365051E+02      9.70736177E+01     -6.19236499E+02
      9.43732350E+02      5.58833746E+02     -2.91456360E+03
     -2.59698150E+03     -2.56212251E+03      1.38192060E+03
      3.07483630E+01     -1.18019501E+01     -2.79772059E+02
     -1.00180592E+03     -1.15700562E+03      2.29888979E+03
     -1.32864302E+02     -8.72811251E+02     -5.23125188E+02
     -5.04137293E+02     -8.09664351E+02      1.70957563E+02
     -3.94645760E+02      2.98406494E+03      2.66786239E+03
      1.24423688E+03     -1.71093383E+03      2.36312240E+03
      3.77962470E+02     -1.17048485E+03      6.04997569E+02
     -8.73117158E+02     -3.41076919E+02      7.69480241E+02
     -4.36808749E+02     -1.66988825E+03      4.39124233E+02
     -4.13867410E+01      3.40959899E+02      7.38930361E+02
      1.08110481E+03     -1.45936894E+03     -6.76911056E+02
     -2.45540052E+03     -1.53046098E+03     -2.13621782E+02
      1.02607235E+03     -3.40044586E+01      2.79312890E+01
      2.94818712E+02     -2.46821713E+02      7.85570760E+02
     -2.02308226E+03     -1.28435966E+03     -1.11772262E+03
      5.91099070E+02      2.51284529E+02      1.30009291E+02
      9.62784926E+02     -1.25004673E+03      1.10847356E+02
     -8.44645110E+02      1.75632717E+03     -1.73112630E+03
      2.88730135E+03      5.51009404E+02      5.68852018E+02
     -4.44552785E+02      8.27455023E+02     -5.76426879E+01
      9.08254380E+01      5.86677303E+02     -1.13048048E+03
     -2.03339889E+02      1.30278154E+03     -1.71209226E+03
      9.76773418E+02      3.02216788E+02     -9.68876824E+02
     -7.52417610E+02      1.70331212E+02     -2.16317366E+02
      5.37663924E+02     -2.54481948E+02      1.31044863E+03
      2.54710476E+03     -1.38610139E+03      1.84038329E+02
     -5.23156309E+02     -3.40186098E+02      9.07828279E+02
      2.30923295E+03      1.08257479E+03     -2.14075046E+03
      4.60380893E+02     -2.80482045E+03      7.49366769E+02
     -9.28154486E+02      5.70256050E+02      6.48533225E+00
     -2.21356708E+03     -1.26514433E+01     -1.99217209E+03
     -3.41133048E+03     -1.37674142E+03     -9.08230477E+02
     -5.45954627E+02      1.64940959E+02     -2.62628194E+02
     -1.58876453E+03     -5.03833951E+02      2.37161253E+03
      6.65933113E+02     -9.09041771E+02      6.17144841E+02
     -1.43521637E+02      3.99171913E+01     -4.33264821E+02
      1.16313452E+03     -1.98575316E+03     -2.65791715E+03
      1.62433697E+03     -2.09199992E+03     -1.16797443E+03
      1.04590428E+02      2.87254012E+01     -3.29728188E+02
     -7.04851607E+02     -2.66894187E+03      9.90847533E+00
     -6.54422647E+02      3.89215253E+03      1.22606561E+03
      6.60697352E+01      6.41181805E+02     -5.64563045E+02
     -3.68925540E+02      7.87796458E+02     -9.99748811E+02
      1.68105188E+03     -1.41402446E+02      1.03393790E+03
     -2.06152017E+02     -4.26933832E+02      8.80138451E+02
      1.84667531E+03      2.86129056E+03      3.84943222E+03
     -5.70563512E+02      1.33428672E+00     -1.32183996E+03
     -3.00657148E+01     -1.66385345E+02     -9.35510340E+02
     -2.01169371E+03      4.79462153E+01      3.17751577E+03
      2.07233383E+03     -3.10398446E+02      6.05028296E+02
      3.00110829E+02      5.76478163E+02     -2.77713961E+03
      4.80334817E+01     -2.82030025E+02     -1.25715115E+02
     -8.43108540E+02     -7.72557140E+01      9.04549668E+01
     -6.60600786E+02     -8.06960536E+02     -5.34608664E+02
     -7.17384659E+01     -9.37236179E+02     -1.84381346E+03
     -6.63998146E+01      2.91705141E+02      2.27993696E+02
     -2.33266095E+03     -1.38704170E+03     -3.36695229E+01
      1.88862670E+03      5.94462411E+02      1.41846648E+03
     -2.24041732E+02      1.00293503E+02      2.37534165E+02
     -1.41301857E+03      2.92046575E+03     -2.12643621E+03
     -8.64915702E+02     -1.39123390E+03      5.70236677E+01
     -5.10957919E+02     -5.85508903E+02     -1.82064339E+02
     -8.95562858E+02     -4.38995212E+02     -1.87034455E+03
     -9.80799776E+02      1.22638699E+03      1.22072719E+02
     -1.20125834E+03     -4.79603635E+01      4.50896265E+02
      2.45572661E+02      1.43260818E+03     -1.44354500E+03
      3.36757452E+02      7.71133113E+02      1.24451744E+03
      4.03757584E+02      7.68262933E+02      7.22166481E+01
     -2.66898485E+02      5.74319118E+02     -1.36953503E+03
      9.27099634E+02      1.19006605E+03     -2.35195795E+03
     -5.41290963E+02      4.81061671E+02     -1.04392042E+02
      2.08788651E+01     -7.43411615E+02      1.77384858E+03
      9.49864049E+02      1.26208656E+02      9.50894531E+02
      5.20555569E+02     -3.16986267E+01     -2.93827794E+02
     -3.87315428E+02     -1.98647260E+03     -8.14989952E+02
     -6.12346749E+02      4.98094015E+03      2.68336225E+03
     -3.78132087E+02      3.32282966E+02      6.44429113E+02
     -1.31906415E+03      1.93122530E+03      5.30263056E+02
      1.56994469E+03      3.56465619E+03      1.06729907E+03
     -4.10810612E+02     -4.67449915E+02     -1.94523894E+01
     -3.57868159E+03     -1.32919920E+03      4.20919047E+02
     -3.89114125E+03      1.00603515E+02      5.29864969E+02
      1.10576455E+03     -2.59804440E+03     -1.03997705E+03
      1.31439961E+01      3.38104231E+02      2.61522423E+02
     -2.67272182E+03      1.90739546E+03     -1.35530925E+03
      1.90102985E+03      2.30875670E+03     -2.77764567E+03
      1.44640011E+03     -1.41602210E+03      5.64374336E+02
     -2.91592614E+02      2.62338252E+02     -8.63552631E+01
      1.01479274E+02     -7.78912772E+02     -1.05065480E+03
      2.39045043E+03     -1.93663032E+03      6.74715465E+02
     -4.81826489E+02     -2.80809599E+02      5.50602472E+02
      1.19067161E+03      1.36863002E+03      2.68563154E+02
      1.36164140E+03      5.35371457E+02     -1.44462522E+03
      3.86161488E+01      9.70207711E+02     -2.46559042E+02
     -1.23277783E+02     -2.65239418E+03      1.69354443E+03
      7.18310541E+02      2.13181449E+03      2.76157358E+02
     -2.42999064E+02     -4.82869066E+02      7.58155026E+01
     -2.85855712E+03      1.57047276E+03     -3.00153712E+03
     -1.78047342E+03      4.44080667E+02      2.80405320E+02
      5.63895356E+01      3.45900305E+02     -2.71005517E+02
      2.90054869E+03      1.96036366E+03     -5.73097444E+02
     -1.35344179E+03     -3.57550916E+02     -8.71467952E+02
     -2.41460684E+02     -7.80966971E+01     -4.85941794E+02
     -2.86088087E+02      8.38608495E+02      8.20475945E+02
      2.13654612E+02     -1.01207106E+03     -4.54532175E+03
      4.07841080E+02     -2.16380081E+02     -2.84029060E+02
     -5.61821451E+02      6.06609694E+02     -2.51153887E+03
     -5.98296560E+02      1.59826737E+03      6.60635159E+02
      1.63490814E+02      1.08338062E+03     -7.53331016E+02
     -5.77823258E+02      2.37554812E+02      2.23529014E+03
     -1.65712165E+02      7.66537630E+02     -7.59703357E+02
      2.53483511E+02      6.68864427E+02     -3.77141468E+01
     -9.00331896E+02      6.35383431E+02      5.12205470E+02
     -4.70435580E+03      1.30790091E+03      6.53161612E+02
      3.48825377E+02     -8.58424982E+01      2.79055473E+02
      4.14570752E+01      4.28764846E+02      1.59245157E+02
     -9.61337236E+02     -1.58635412E+03     -8.47481465E+02
     -1.28241339E+03      3.26049769E+03     -3.30031385E+02
     -1.95553748E+03      7.09242785E+02      2.73590612E+02
     -1.84815939E+02     -4.85367034E+02     -5.71580676E+02
     -2.19953963E+03     -1.10914069E+03     -7.06119267E+02
     -1.43520605E+02      1.71842841E+03     -1.09249925E+02
     -5.51689964E+02      4.82395602E+02      9.73309433E+01
     -1.18457649E+03      1.53247752E+02     -8.05647693E+02
      1.21069602E+03      5.71645633E+02      2.19284016E+03
      3.17799003E+02     -1.21753257E+02      6.24447064E+02
     -4.00189993E+02     -1.44144533E+01     -7.72061320E+02
     -1.03233810E+03      2.80093642E+02     -9.34501966E+02
     -8.47887699E+02      2.83060679E+01     -2.95124107E+02
     -1.32437768E+03      2.14750387E+02     -1.58037121E+01
     -2.24218722E+02     -2.89109554E+03     -2.30745513E+02
     -9.19293795E+01      3.64982292E+02     -3.46074932E+02
      6.29652981E+02     -7.50906830E+02     -6.87961523E+02
      3.48582958E+02      1.95303769E+03     -2.25758482E+02
      1.96196051E+01      2.79595684E+01     -2.57958812E+02
      1.62019620E+03      3.64038501E+01     -6.75578741E+02
     -1.25500588E+03      1.52546259E+03     -4.43712283E+02
     -4.67473581E+02      1.14537362E+02     -2.03530309E+02
      4.10816325E+02     -1.39266032E+03      2.41202497E+03
     -2.89494705E+03      2.90274377E+03     -1.06232006E+03
      1.71939335E+02     -7.27271127E+02      3.31797739E+02
      5.89336581E+02      5.24327255E+02     -2.54305860E+03
     -1.79814054E+03      1.73239500E+03      4.20857216E+02
      5.55422516E+01      1.65460630E+02     -4.71197389E+02
     -1.95735116E+03      1.87902991E+03      5.12954941E+02
      2.07155492E+03      1.43954088E+03      7.19984912E+02
      1.81784026E+02      1.38368216E+03     -3.01125995E+03
     -3.69443275E+02     -3.99169255E+02      7.29689736E+02
     -6.40284027E+02     -1.02024650E+03     -2.98385921E+03
      1.43576118E+03      1.45463390E+03     -5.43474653E+02
     -1.99424110E+03     -2.36455795E+03      2.99127179E+02
      4.14385086E+02      9.41980619E+02     -7.52927650E+02
      3.35328883E+03     -1.93784693E+03      1.51072015E+03
     -1.28341302E+03      9.70072584E+02     -2.73499889E+03
      1.76552831E+02     -4.24531200E+02      2.20541224E+02
      1.59142643E+02     -6.24959300E+02     -6.46011331E+02
     -1.08683582E+03      2.08733734E+02      2.43284078E+03
     -4.37655392E+02     -3.15819657E+02     -3.14979397E+02
     -8.39338813E+02      2.17850405E+02     -2.74792068E+02
     -6.77749873E+01      9.68067799E+02     -1.20982530E+03
     -4.90900651E+02     -7.08438093E+02     -3.91722511E+02
     -6.71131933E+02      8.57864180E+02      1.47079247E+03
     -9.25026264E+01     -1.87697843E+03      1.93416579E+02
     -4.36211768E+01      3.42376213E+02      1.99568415E+02
     -5.61502842E+01      2.03729165E+02     -2.93909791E+03
      1.53089871E+03     -8.33996461E+02      2.31911302E+02
     -6.23060320E+02     -7.20441330E+01      6.19783986E+02
      1.21069047E+03      3.33478237E+02     -1.87438899E+03
     -3.79368551E+02      1.45941108E+03     -5.01827054E+02
     -8.85342378E+02      1.59243207E+02      5.88248650E+01
      2.17188491E+03      1.83457044E+03     -1.21330143E+03
     -1.32999228E+03      6.87076289E+01      2.26953805E+03
     -1.41319210E+01     -8.67373253E+02      1.74236637E+02
     -4.38863801E+02     -2.32534092E+03      1.84400411E+03
      9.54027780E+02     -1.30707761E+02     -9.95162971E+02
     -5.71219499E+02      2.44117422E+02      9.26278209E+02
      3.33074170E+02      7.97380829E+02      2.27097540E+03
      2.43609007E+03      1.61932074E+03     -1.42176531E+03
      9.10889328E+01      8.30293352E+02      4.17219747E+03
      2.45282913E+04     -1.32342540E+04      4.19252198E+03
      2.08264786E+03     -5.74151089E+02      3.03810543E+03
      1.99194534E+03      9.41222247E+02     -9.70047181E+02
     -1.81648866E+02     -1.79775488E+03     -1.97820073E+03
      5.49043127E+01      9.14672750E+02     -1.00322980E+02
      4.45449643E+02      2.95505220E+03     -3.58690753E+02
     -1.40421894E+03     -7.54429526E+02      1.41464824E+03
     -4.03166145E+02     -2.22537464E+00      8.27704033E+02
     -2.15027327E+03      1.04271910E+03      2.51417178E+03
      3.04441101E+03      2.58484504E+03     -3.94909492E+03
     -9.66762720E+01     -2.28558645E+02      9.22278285E+02
      2.12304336E+02      4.30058447E+03     -1.66956218E+03
     -1.89952028E+03     -5.96634077E+01     -6.53722354E+02
     -8.77106538E+02     -4.75069652E+02      9.16616763E+01
      1.95332790E+03     -8.24702420E+02     -7.43705632E+02
     -1.37506330E+03      4.15837463E+02      1.54808137E+02
     -2.56250129E+02     -1.59921327E+02      4.52583644E+02
      2.45972105E+03      3.72960097E+02     -1.19436915E+02
      4.04309174E+02      1.58363237E+03     -2.62505022E+03
     -5.76234920E+02     -5.02657593E+02     -1.05075835E+02
      2.58341263E+03      1.97399709E+03     -6.11468864E+02
      4.81010592E+02      2.29053181E+03     -4.22669824E+01
     -1.69311943E+02      1.82503558E+02     -3.55137165E+02
     -1.47987426E+03     -8.49170367E+02     -5.46223915E+02
     -8.98915396E+02     -4.16885780E+02     -2.94830527E+03
      3.87244517E+02     -1.25410194E+02      1.42167551E+01
     -8.15164168E+02      6.66304999E+02      1.59023749E+03
     -9.63912609E+02     -8.82615171E+01     -3.94415932E+02
     -2.78548765E+02      3.87056541E+02     -1.50829556E+02
      2.83285248E+03     -2.95271818E+03     -1.20400632E+01
     -3.34520606E+03     -3.63216498E+03     -8.04579883E+01
      1.26109741E+03     -1.19026641E+03     -9.38596145E+02
     -1.31120796E+03      6.36147353E+01      8.43086502E+01
     -1.11702455E+03      2.11733416E+02     -7.82450226E+02
      1.33769578E+02      1.60781933E+03      2.45914739E+02
      4.59720820E+02      1.89010962E+03     -1.48969564E+03
  }
}

Hamiltonian = DFTB {
  SCC = Yes
  SCCTolerance = 1e-6
  MaxSCCIterations = 200
  ForceEvaluation = Dynamics
  MaxAngularMomentum = {
    C = "p"
    H = "s"
  }
  Charge = 0.0
  SpinPolarisation = {}
  Eigensolver = Standard {}
  Filling = Fermi {
    Temperature [Kelvin] = 300.0
  }
  SlaterKosterFiles = Type2FileNames {
    Prefix = "../../pbc-0-3/"
    Separator = "-"
    Suffix = ".skf"
    LowerCaseTypeName = No
  }
  KPointsAndWeights = {
    0.0000000000000 0.0000000000000 0.0000000000000 1.00000000000000
  }
  Dispersion = LennardJones { 
    Parameters = UFFParameters {}
  }
}

ParserOptions = {
  ParserVersion = 3
}
