Geometry = GenFormat {
<<< "system.gen"
}

Driver = VelocityVerlet{
  Steps = 50000
  TimeStep [fs] = 0.2
  MDRestartFrequency = 5
  Thermostat = None {
    #InitialTemperature [Kelvin] = 300.0
  }
  Xlbomd{ 
    IntegrationSteps = 6 
    MinSccIterations = 2
    MaxSccIterations = 200
    SccTolerance = 1e-6 
  }
  Velocities [m/s] {
      6.77094819E+01      2.11313407E+02     -2.97322128E+02
      2.74589182E+03      2.26437286E+02     -1.37769382E+02
     -1.43898886E+03      6.99806194E+02      1.69609501E+03
     -2.71417166E+02     -5.39792268E+02     -1.61531523E+02
     -9.49532265E+02     -1.54816461E+03     -2.44736110E+03
      2.01312298E+03      2.02256466E+03     -5.70805749E+02
     -4.78309623E+01     -5.13383533E+02     -1.37716966E+02
      1.26466715E+03      2.78597209E+03      3.85206083E+02
      7.08742562E+02     -1.05545126E+03     -3.17782017E+03
     -3.01847923E+02     -1.60688858E+02      6.91534272E+02
     -2.44459433E+03      8.35556904E+01     -2.22890197E+03
      3.41482389E+03     -2.39878412E+03     -3.52945891E+03
      1.32483411E+03      4.30739491E+02      7.52028675E+02
     -2.04877575E+03     -3.25170442E+02      1.13646328E+03
     -3.99873176E+02      2.30898667E+03      2.66321678E+02
     -2.82915259E+01     -4.64831521E+01      8.55668059E+02
     -1.84451125E+03     -1.71358887E+02      2.06901723E+03
      1.43803410E+03      6.72364116E+02      1.11071946E+03
      8.69458039E+02     -5.15774039E+02     -1.91971139E+02
     -2.76724708E+03      1.51257386E+03      7.61465262E+02
      9.72339069E+02      1.65082558E+03      1.50244039E+03
      3.12621557E+02      2.96663977E+02     -1.43551052E+02
      9.12521531E+02      1.22479018E+03      1.47413418E+03
     -2.17734069E+03     -8.71185223E+02      1.32893513E+03
      2.75865985E+02      1.66454906E+02      4.59566837E+02
     -9.33542393E+01     -1.17037332E+03      2.03950642E+03
      1.73641934E+03      8.92525413E+02      2.14472160E+03
      2.39949283E+03      9.88722430E+02      1.79460213E+01
     -4.20421550E+01      1.11253391E+03     -8.58505648E+01
     -1.47608916E+03      8.96455139E+01      6.03765163E+02
      1.60670553E+01      2.22038233E+03     -1.48284787E+03
     -2.27249580E+03      1.33944441E+03     -1.47431177E+03
     -7.79729982E+01      6.88453472E+02      4.24245909E+02
      1.15396076E+03     -3.13969421E+02     -9.26287413E+02
     -1.82134517E+03      1.67619191E+03      7.84391471E+02
      1.02170342E+01     -1.06664243E+02      1.00039998E+02
      1.46913389E+03      6.83989626E+02     -8.87499992E+02
     -1.41834828E+02      3.46858902E+03     -3.78446361E+02
      9.25208419E+02     -3.23924973E+02     -9.09013227E+02
      2.46181294E+02     -1.55860332E+02      6.27846018E+01
     -1.25988121E+03      5.94213406E+02     -7.55231739E+02
     -6.99589641E+02     -7.38794766E+02      3.46765823E+02
      7.49433815E+02     -1.08158813E+03      5.09642151E+02
      2.08828363E+03     -1.00552262E+03     -1.37462882E+03
      4.48997762E+02     -2.17647270E+02     -3.77949497E+02
     -1.28798351E+03      6.27557515E+02     -1.02104866E+03
     -1.87118238E+02      2.37986008E+03     -1.57581479E+03
      4.54178469E+02     -2.63182376E+02      1.55717194E+02
      2.87354754E+03     -6.05144028E+02      9.10988816E+02
      1.53439568E+03     -4.71775723E+02     -2.17044308E+03
     -2.34287344E+02      3.55942148E+02      8.99474772E+02
      2.56235368E+03      3.44158406E+02      1.69129588E+03
     -2.85270789E+02     -1.95115001E+03      2.06186902E+03
      4.87964455E+02     -4.81987461E+02     -3.06630294E+02
      1.84365277E+03     -5.99753686E+02     -1.08617857E+03
     -1.57139931E+03     -1.34405199E+03      1.12243080E+03
     -2.08872509E+04     -5.96215120E+03     -3.73850806E+02
      5.48000042E+01     -1.44999283E+03      3.34584036E+00
     -3.46178622E+02     -5.46354752E+02     -1.61204005E+03
     -1.65460231E+02     -1.64000653E+03      1.47522949E+02
     -2.39894218E+01     -6.11327533E+02      1.39063226E+03
      5.55490222E+02     -2.43961771E+02     -6.65283746E+02
      1.09351739E+03     -1.77039183E+03      1.69025202E+03
      1.41828712E+03     -1.34425151E+03     -1.33474283E+03
      3.50271530E+02      7.86675290E+01      1.89942687E+02
     -6.52266063E+01     -1.12292500E+03     -3.69532395E+02
     -6.33603286E+02      3.18311921E+03     -2.98624600E+03
      5.78361557E+02      3.40807453E+02      3.64335793E+02
      3.01477955E+02      1.08473870E+03      1.18234509E+03
     -1.70003841E+03      2.14469457E+03      1.67479851E+02
      4.26333810E+02     -2.41650588E+00      5.48196171E+01
     -1.52205323E+03      2.95470312E+03     -2.46105277E+03
     -1.12959709E+03     -9.84220402E+02      3.65343821E+02
     -4.59774859E+02      1.13128148E+01     -3.48774433E+02
      2.18815821E+03      1.19750223E+03     -1.45224699E+03
     -6.80558120E+02     -2.23832094E+03     -1.48787391E+03
      8.81093734E+01     -1.63355699E+02     -5.39874520E+02
      5.03794578E+02     -2.27337340E+03      1.98952963E+03
      7.75863358E+01     -1.70225204E+03     -7.55990377E+02
      1.88713972E+02      2.86409856E+02     -3.47916561E+02
     -1.77024213E+02      1.05023956E+03      5.14434169E+02
      4.73127344E+03      1.38041380E+01      2.47758757E+03
     -2.24745884E+02     -1.27923918E+01     -2.74264146E+02
      1.31966788E+03     -1.78495264E+03     -4.12059696E+02
     -6.38472929E+02      1.03016480E+02      2.15932196E+03
      4.68557999E+02      4.60013958E+02      2.55947552E+02
      2.47228699E+03      3.16883259E+02      1.12526742E+03
      1.26686572E+02     -2.15208750E+02     -5.97033304E+01
     -3.68646823E+01      2.87857828E+02      2.06530909E+02
     -2.13160895E+02      2.59699871E+03      6.30567244E+02
      1.55833653E+03      1.01217774E+03      3.52194380E+02
     -4.34396128E+02     -1.12804769E+03      1.55575061E+03
      6.70907507E+02      6.03850891E+02      3.26862522E+02
     -1.92901776E+03     -1.21227090E+03     -5.64329272E+02
      1.72203595E+03      4.17492838E+02      1.13521211E+03
     -9.47292983E+02      1.27323751E+03      3.56686570E+03
     -1.23877784E+02     -6.72099157E+02     -2.37828524E+02
     -1.06368546E+03      5.08047955E+02      2.92932080E+02
     -1.91387708E+03     -7.22073066E+02     -8.20785108E+02
      1.01583735E+02     -9.49341627E+01      1.28888928E+02
     -2.53419176E+03     -1.85810273E+02      4.75314149E+02
      3.60400843E+03      2.14637266E+03     -8.83804466E+02
      4.68769356E+02      3.59239121E+02     -1.88864830E+02
     -4.66534286E+02      2.26826693E+03     -1.14365114E+03
      2.42276248E+03     -1.16864537E+03     -1.00292127E+03
     -2.25408204E+02      6.42464424E+02      1.60944294E+02
     -2.66611968E+02      8.91557214E+01      1.26810903E+03
     -5.62766511E+02     -1.45886944E+03      3.56967798E+02
     -1.36891611E+02     -3.18514725E+02     -4.17189190E+01
      4.52452665E+02      1.56369730E+03     -1.67661829E+03
     -1.02202188E+03     -7.30651955E+02      3.40068326E+03
      5.18005918E+02      5.06810169E+01      2.00147548E+02
     -1.55663159E+03      5.82231760E+02     -1.84378195E+03
     -1.18273670E+03     -9.69881143E+02      9.46330318E+02
     -7.29173212E+01     -4.66333997E+02      6.35250838E+02
      3.23466927E+03     -5.34373312E+02      3.19995507E+03
     -1.21702474E+03     -1.18544541E+03     -1.22610323E+03
      4.51028907E+02      5.65190087E+02      4.11961080E+02
     -7.41483792E+02      9.67479202E+02     -4.68193287E+02
      6.04739716E+02      5.09395481E+02     -4.77772316E+02
     -4.87857767E+01      2.01271785E+02     -3.92347760E+02
      1.48073616E+03     -1.14065155E+03     -3.67276711E+01
     -2.13362600E+02     -1.15390787E+03     -4.52303584E+02
     -7.77468314E+02     -1.83157996E+03     -5.43979774E+02
      7.42454593E+02     -4.57051519E+02      2.57982777E+02
      1.93895869E+03     -1.95001547E+02      9.41922076E+01
     -1.05791063E+03      3.71990740E+01      7.18215579E+02
      7.27447735E+02     -1.88020874E+03     -3.20602867E+03
      1.10499893E+02     -8.86533376E+01     -7.30825679E+02
      9.36528975E+02     -1.13438444E+03      1.27776056E+03
      4.68288668E+02     -2.67330359E+03     -1.28137330E+03
     -8.46944508E+01     -3.14784981E+02      5.42376499E+01
     -1.93741691E+03     -5.54983019E+02     -6.10286220E+00
     -3.08548086E+02     -1.06031887E+02     -1.81572205E+03
      1.10500941E+02     -6.89591129E+02     -5.24504007E+02
     -1.42889616E+03     -1.36026892E+03     -3.79581202E+02
      8.04789934E+02     -3.84156130E+02      1.48639432E+03
      6.07795582E+02     -7.22696295E+02     -1.71099061E+02
     -1.66483736E+02      7.07939438E+02      2.77751776E+03
     -3.31956934E+03      1.40499861E+02      6.92952249E+01
      1.04627117E+02      2.41484806E+02     -6.42569549E+02
     -2.77800037E+02     -5.99265307E+02     -5.61291215E+02
     -4.30971501E+02      8.13967278E+02      6.73885358E+02
      7.59858627E+02      1.27655537E+02      6.99471118E+01
      9.12348947E+02      5.47329192E+01     -9.36190672E+02
      1.53910159E+03      5.42024931E+02      2.42174838E+02
      3.69378329E+02      4.92369598E+02     -4.19322466E+02
     -8.51476500E+02     -1.69784816E+03     -2.89281770E+01
     -6.48348803E+02     -2.84433708E+03      1.16702885E+03
      4.08333667E+02     -6.05719468E+01     -4.15545694E+02
      3.77200336E+03     -1.44211477E+03     -4.12870169E+02
     -4.01725884E+02      1.65706399E+03      1.49122340E+03
      3.68430799E+02      2.17943641E+01     -2.52289362E+02
     -2.89016091E+02     -5.16606264E+02     -6.81885984E+02
     -1.57987937E+03      3.88777241E+03     -1.58779771E+03
      1.62353173E+03      5.65798472E+02     -1.23797632E+03
      3.94833080E+01     -2.45860292E+02      3.84785264E+02
      1.49682045E+03     -6.81952457E+02      9.32496475E+02
     -1.22325719E+03     -3.35740038E+02      1.73291894E+03
      1.71329483E+03      9.42198227E+02     -8.57046071E+02
     -2.23334481E+02      3.45574127E+02      2.29576367E+02
     -1.70686948E+03     -8.23763096E+02      1.02189687E+03
     -1.48149620E+03     -4.03319305E+02     -7.36578746E+02
      4.75092607E+02      8.01920590E+01      2.40262030E+02
      1.66495387E+03     -1.08990637E+03      1.94718090E+03
     -4.38752590E+02      2.64041909E+03      1.61711438E+02
      2.08148764E+02     -5.11005452E+02     -2.37546956E+02
      1.10362189E+03      7.29682436E+02      2.03680263E+02
      1.18357503E+03      4.64476138E+00     -1.04142950E+03
     -1.17220721E+02     -5.94870337E+02      4.64576912E+02
      1.84110718E+03      5.92957446E+02     -1.47703276E+03
     -7.21435370E+02     -4.35308561E+02      6.87465537E+02
      6.92712127E+02      4.63046733E+02     -5.55721250E+02
     -2.25773593E+03      1.60842880E+03      5.48393498E+02
     -1.46760097E+03      1.41617728E+02      1.86785077E+03
      1.23794049E+02     -2.73233555E+02     -1.64634771E+01
     -1.73623410E+03     -8.78109163E+02     -2.32787620E+03
      3.69819613E+03      1.55768732E+03     -3.14014742E+03
      8.32579679E+02      2.01247335E+02     -2.85629309E+02
     -8.77282185E+02      1.67974318E+03      1.34732556E+02
     -9.94393545E+01      1.06689747E+03     -2.52882244E+03
     -2.78930817E+02      6.23567007E+01     -1.19314084E+02
     -7.53046116E+02     -4.98080262E+02     -4.31680606E+02
     -1.36889708E+02     -8.49054530E+02      2.01921758E+03
      2.06156778E+02      1.74218932E+02      5.10415486E+02
      2.56286504E+03      2.86473409E+03     -3.85991679E+03
      1.92134484E+02     -2.07012794E+03      3.67502471E+02
     -5.31202308E+01      1.00837137E+03      9.59387357E+02
      1.15292205E+03     -7.48955122E+02     -2.03056739E+02
     -7.28813154E+00      1.06491098E+03     -1.27434717E+03
      1.42904388E+03     -4.77634646E+02      2.58086799E+03
      2.12557150E+02     -7.53553226E+02     -1.34295939E+03
      6.37363904E+02     -5.09411906E+02      5.34530026E+02
     -4.50055147E+01     -1.23051733E+03      5.58426145E+02
     -3.43229131E+03     -8.29729232E+02      2.47729615E+02
      1.60125046E+02      3.28744911E+01     -2.49730171E+02
     -1.44994443E+03     -4.34394158E+02     -7.93126027E+02
     -1.48344151E+03      1.95683332E+02      1.68465999E+03
      9.02318767E+00      5.12067986E+02      1.96419852E+02
      1.36565020E+03     -1.93684152E+00     -9.25982961E+01
      1.71422725E+03      9.39174503E+02      3.50300491E+02
      2.72966659E+02      3.09068455E+02      7.63629797E+02
     -1.31538913E+03     -1.86744526E+03     -2.04076593E+03
      9.13939707E+02     -3.48135899E+02     -1.63426008E+03
      1.66226079E+02     -2.28753396E+02      7.09669432E+02
     -2.86079604E+03      3.11604886E+01     -3.15842232E+03
      3.42616286E+02     -1.50124073E+03      9.02904199E+02
     -3.35472085E+02     -8.47625556E+01      1.16544502E+02
      1.07872353E+03     -4.01823588E+03     -1.26817163E+03
      2.63885396E+03      1.88899806E+01     -3.10357936E+01
      1.14526262E+03      4.03354149E+02      5.76445434E+02
      2.06824681E+03     -6.62339703E+02     -9.09208496E+02
     -1.07895708E+02     -9.52182826E+01     -4.64395151E+02
      9.02886667E+02      3.00318502E+02     -2.21506363E+02
     -6.17116771E+02      1.77328045E+03      1.27231288E+03
      4.21544261E+03     -1.89058967E+03      5.98158071E+01
     -3.42138210E+02      3.86773689E+02      3.47890254E+02
      2.12209979E+03     -1.60196025E+01      3.17796858E+03
     -1.40331891E+03      3.07373135E+01     -1.10295423E+03
      9.90360825E+01      8.12353155E+02      2.16763151E+02
     -5.21992204E+02      8.68202239E+01      2.78680183E+02
      1.12650558E+02     -4.24083442E+02      6.61472399E+02
     -1.70131724E+02      1.36217598E+03      1.12780113E+03
      5.94396302E+02     -6.66341439E+02     -2.20187246E+03
      4.00769252E+02     -8.27679492E+02      5.71865060E+02
     -5.93216153E+02     -1.01924460E+03     -1.11736597E+03
     -6.88457700E+02     -1.85520279E+02      2.15249843E+03
      3.01572445E+02      3.20086614E+02      2.86303302E+02
      1.45586344E+03      1.15367747E+03      6.91823357E+01
      1.90391709E+03     -1.00520264E+03      2.68831502E+02
      5.76486053E+02     -2.30905219E+02     -2.66150766E+02
     -2.24519585E+03      8.06204684E+02     -1.81982855E+03
     -3.47765639E+02      1.96726460E+03      1.48580634E+03
      8.42800129E+02      6.73582781E+02     -7.54682196E+01
      7.36280914E+01      2.30206040E+03     -1.90088281E+03
      2.10541999E+03     -2.33616854E+03     -1.15451535E+03
      2.50293579E+02     -3.47117992E+02      7.67323345E+01
     -1.35721010E+02      5.58151208E+02      2.48750081E+03
      1.40267159E+03      1.37210715E+03     -9.90349658E+02
      1.79932846E+02     -1.62571385E+01     -1.23338914E+02
      4.25644626E+02      5.02406083E+02     -1.35052488E+03
      1.84882498E+03     -4.81327232E+02     -8.91930178E+02
      6.35815236E+02     -3.54784345E+01     -6.98226125E+02
     -2.00753176E+03      3.04884149E+03      2.37787790E+03
     -1.03296262E+03      6.63665951E+02     -1.37327813E+03
      8.20967928E+02      2.42677214E+02      1.75929837E+02
     -2.87093732E+02     -8.10908626E+02     -1.67472591E+03
     -6.33100027E+02      7.84151479E+02      5.21504018E+01
     -2.37633397E+02      1.92393367E+02     -5.21158984E+01
      9.51931035E+02      3.09147491E+03      8.64740216E+01
     -1.51438058E+02      5.18027060E+02      2.44015996E+03
     -2.13514718E+03     -4.05068192E+02      5.67151506E+02
     -1.83951828E+02      7.93352290E+01      5.27946090E+02
      8.26134911E+02     -1.89456723E+03      1.07351556E+03
     -1.08941476E+02      9.89895961E+01      1.20579263E+03
     -4.50238161E+01     -1.71120251E+03      7.30098121E+02
     -3.34594074E+02      3.53191203E+02     -1.79051827E+02
      9.55769164E+02      3.43347650E+02      6.68576376E+02
     -8.61972245E+02      1.75747425E+03      1.48896576E+02
     -7.45617019E+02      5.15776364E+01     -5.20865736E+02
     -1.70702859E+02      3.15521712E+03      3.72262009E+03
     -2.31771704E+03      2.46961414E+03      9.91717296E+02
      1.52299153E+02     -8.52717072E+01     -1.94325512E+02
      1.17851519E+03      2.19503030E+03     -4.08750534E+03
     -3.10810054E+02     -9.34687338E+02      1.21624491E+02
     -4.01213308E+02      9.65900345E+02      7.06063033E+02
     -1.18947486E+03     -2.33303334E+03     -2.49787144E+03
     -1.65433606E+03      4.63005483E+02      3.65737105E+03
      3.49267719E+02      8.93498677E+01     -1.46171848E+02
      3.09574974E+03      3.12692299E+03     -1.96799921E+03
     -3.44957435E+03     -7.52372940E+01     -1.24432790E+03
     -6.32878885E+00      1.41558136E+02      2.48878070E+02
      1.25592217E+03     -1.03492140E+02     -2.70293667E+03
     -2.79172300E+03     -2.71724165E+03     -2.16407759E+02
      2.56827249E+02     -2.63810887E+02      4.37155368E+02
      5.02944816E+02      1.21986532E+02      3.15945357E+02
      2.41993657E+03     -1.32074193E+03     -3.64041384E+01
     -2.68102160E+02      6.78450351E+02     -4.16339520E+02
      8.53899831E+02      1.33844643E+03     -1.68067191E+03
     -1.04785211E+03      1.34818886E+03      1.62829661E+02
     -9.83116674E+02      7.21151454E+01     -4.90070618E+02
     -4.27345438E+02      1.12532096E+03     -5.17715520E+02
      5.57929404E+02      1.29104011E+03     -2.45550906E+03
     -1.75718823E+03     -2.79100516E+02      8.95550953E+02
      4.87974856E+01     -4.71775495E+02      2.75882719E+01
      6.98934427E+02     -5.25266278E+01     -9.56484435E+02
      4.43743055E+02     -1.37497496E+03      6.67097006E+02
      6.39109574E+02     -2.09924192E+03      2.39217722E+02
      3.86841902E+02      1.76691307E+02     -1.17795023E+02
      1.64663150E+03      2.82204968E+03      3.02051069E+01
     -8.74113177E+01      4.06331183E+02     -3.05687895E+03
      1.22145911E+02     -3.66490200E+02      3.22128711E+02
     -2.26243917E+03      3.01066426E+03     -1.36442369E+03
     -5.58945532E+02     -8.65693013E+01      3.13770367E+03
      1.96183558E+02      7.71474286E+02      1.22326765E+01
      2.89888810E+03      5.30164164E+02     -2.53461336E+03
      1.52056753E+02     -4.29545996E+03      1.32910215E+03
      1.07419987E+02     -9.27625477E+02     -2.74889699E+02
     -3.21791731E+03      2.72862098E+03     -7.49441864E+02
      1.53572631E+03      2.36179564E+03     -7.75960549E+02
      5.51107852E+02      1.37087055E+02     -4.42811542E+02
      4.46995683E+03     -1.42513669E+03      2.57644863E+03
      1.28055318E+03      2.63178585E+02      2.43618228E+03
      4.29581586E+01     -1.14331696E+03     -1.77756131E+02
      1.19217092E+03      1.47824567E+02     -8.97958415E+02
      7.49528275E+02      1.80596808E+02     -3.84586437E+01
     -4.92352507E+02      5.34598458E+02     -3.60519051E+02
      2.04289011E+03     -2.41858129E+03     -1.11713690E+03
      1.75116593E+03     -7.81015205E+02      2.15150148E+03
     -4.65014430E+02      9.67197368E+02     -4.10880628E+02
     -9.38838162E+02      2.72525989E+02      3.24093855E+03
     -2.99760454E+03      9.34827076E+02     -7.05265602E+01
     -3.84968987E+01      5.72596035E+02      1.34890346E+02
     -9.05255465E+02     -1.16852032E+03     -2.10847357E+03
      1.50532010E+03     -2.90184794E+00     -2.65732893E+02
      6.72210623E+02     -6.41684214E+02     -3.33122441E+02
     -1.76696733E+02      3.49319499E+02      8.01422688E+01
     -9.05010781E+02     -2.76040872E+02     -1.06713654E+03
     -1.11477151E+03      2.52061173E+03     -2.41288207E+03
     -1.58420938E+02     -1.80805326E+03      7.36497465E+01
     -2.42029430E+02      4.68985912E+02     -1.76895859E+01
     -4.16239979E+02     -1.03329009E+03      1.40527262E+02
     -4.84004562E+02     -9.06761902E+02     -1.87629582E+03
      1.08571103E+02      8.05045404E+02     -1.05027562E+03
     -2.73574872E+02     -2.70758840E+02     -1.88908388E+03
      9.10001338E+01      2.79555206E+03     -3.56307799E+02
      1.35668783E+02      1.38387025E+02     -4.21245244E+02
     -8.33206397E+00      3.05499032E+02      8.62682705E+02
      4.10876556E+02      8.75063238E+01     -1.50990494E+03
     -1.39500740E+02     -3.00380091E+02      6.33273543E+02
      2.40891455E+01      6.97750225E+02     -1.11329705E+03
     -7.42907051E+02      9.86113892E+02     -2.00581661E+03
      2.79694151E+02     -1.10406315E+03     -2.10388160E+02
     -2.03092808E+03     -2.02864923E+02     -3.44093277E+03
     -1.52058470E+03     -1.66978495E+02      1.09260436E+03
     -5.57423756E+02      7.74359464E+02      5.39276633E+01
      2.65693471E+03     -2.19974472E+03     -1.47193168E+03
      2.53122372E+03      2.65538567E+02      8.70319107E+02
      1.08234606E+03      1.17107536E+03     -4.09370640E+02
      9.92216332E+02     -2.22806394E+03     -2.57203850E+02
      9.95921019E+02      1.83226909E+03     -3.15783594E+02
      8.99770523E+02     -6.01616363E+02     -2.63343444E+02
      1.91615746E+03     -2.46023600E+03     -1.94060809E+01
      4.91551683E+02      4.11929732E+02     -2.43903838E+03
     -4.10688748E+02      6.54029618E+02      6.57678304E+02
      1.94925586E+02      9.31164312E+02      1.24163057E+02
     -1.77909077E+03     -3.55856012E+02     -1.17909182E+02
     -1.22321089E+03      7.35147864E+02      1.57840500E+03
      3.24968983E+02      1.11104730E+02      1.27171075E+02
     -1.59459358E+03      1.20300047E+03      9.53915535E+02
      1.07415171E+03      7.06177751E+02     -1.12087491E+03
      1.08871493E+03      4.98756393E+02     -2.08966337E+02
  }
}

Hamiltonian = DFTB {
  SCC = Yes
  SCCTolerance = 1e-6
  MaxSCCIterations = 200
  ForceEvaluation = Dynamics
  MaxAngularMomentum = {
    C = "p"
    H = "s"
  }
  Charge = 0.0
  SpinPolarisation = {}
  Eigensolver = Standard {}
  Filling = Fermi {
    Temperature [Kelvin] = 300.0
  }
  SlaterKosterFiles = Type2FileNames {
    Prefix = "../../pbc-0-3/"
    Separator = "-"
    Suffix = ".skf"
    LowerCaseTypeName = No
  }
  KPointsAndWeights = {
    0.0000000000000 0.0000000000000 0.0000000000000 1.00000000000000
  }
  Dispersion = LennardJones { 
    Parameters = UFFParameters {}
  }
}

ParserOptions = {
  ParserVersion = 3
}
