Geometry = GenFormat {
<<< "system.gen"
}

Driver = VelocityVerlet{
  Steps = 50000
  TimeStep [fs] = 0.2
  MDRestartFrequency = 25
  Thermostat = None {
    #InitialTemperature [Kelvin] = 300.0
  }
  Xlbomd{ 
    IntegrationSteps = 6 
    MinSccIterations = 2
    MaxSccIterations = 200
    SccTolerance = 1e-6 
  }
  Velocities [m/s] {
     -9.97278237E+02     -4.20596692E+00     -2.42262992E+02
      2.76618011E+02      2.23471867E+03      1.63911134E+03
      9.60122966E+00     -1.36916071E+03     -2.75127390E+03
      3.89496558E+02     -4.46019253E+02     -3.23045615E+02
     -1.00328381E+03     -7.09784340E+02     -2.81140268E+02
      2.73209563E+03      1.95931471E+03      3.64392770E+02
     -1.17139523E+02     -7.51761480E+02     -1.19779763E+02
      1.19608966E+03     -3.26759420E+02     -1.27149901E+03
      9.46448521E+02     -1.08996546E+03     -3.98220453E+02
     -3.92190434E+02      7.96731699E+02     -2.43265642E+02
      1.59157905E+03      2.97617760E+03      9.81364997E+00
      1.13153455E+03      9.94455058E+02      3.28085084E+03
     -4.02054893E+01     -9.38578548E+01      1.78403447E+02
      2.89700054E+02      6.25230019E+02      8.35798502E+02
      2.70934299E+03     -4.50752660E+02     -7.57697139E+02
     -2.92937083E+01     -2.20877888E+02     -4.61631440E+02
      1.81220039E+03     -4.02441499E+03     -7.17530874E+01
     -1.01139054E+03     -1.66577179E+02      1.92979266E+03
      1.68145713E+02     -4.85670186E+02      4.97199664E+02
      8.70863407E+02     -1.67822258E+03      9.15980544E+02
     -2.02296772E+03      1.62333987E+03     -3.03355569E+03
      1.55775942E+02     -5.44969313E+02      4.09334049E+02
      3.53920784E+03     -2.11735243E+02      9.94913903E+02
     -1.12907684E+03     -2.45014502E+03     -2.71837288E+03
      2.25783770E+02     -4.86416850E+01     -2.69710613E+02
     -1.43156785E+03     -1.07195275E+03     -1.98880479E+03
     -6.57961578E+02      2.23178270E+03      3.34917812E+03
     -5.21388450E+02     -8.55488828E+01      1.43526988E+03
      3.25439339E+02     -6.68432889E+01     -9.23418364E+02
     -2.18551296E+03      2.19101014E+03      4.40076627E+02
     -2.52616365E+03     -9.17653377E+02      7.42905755E+02
      4.45747438E+02     -2.16021277E+03     -2.93172185E+03
     -1.90982296E+02      7.58594930E+02     -8.89550491E+02
      5.74709697E+02     -2.84625448E+03      1.50557080E+02
     -2.54865371E+03     -1.93736034E+03     -2.32318882E+03
      1.04891608E+02     -3.04436319E+02      5.39390999E+02
     -2.05761564E+03      8.22979500E+01     -2.29096679E+02
     -2.31580662E+03      1.32489776E+03      1.55360437E+03
     -3.46084033E+02      4.35862724E+02     -2.18206812E+02
     -1.99114606E+03     -1.02203871E+03     -2.61985375E+03
      1.16129009E+03     -1.46973407E+03     -9.03318294E+02
      3.15461303E+02      1.94352321E+02      3.85034451E+02
     -1.43284576E+03      5.36283780E+02     -1.30411902E+03
     -2.75891142E+03      2.32806152E+03      4.57385197E+02
      5.24911655E+02      3.06280897E+02      9.02604932E+02
      9.40304770E+02     -4.32283541E+03      1.48391171E+03
      1.62393308E+03      1.21991816E+03     -3.51843631E+02
      2.71509564E+02      6.89199260E+02      2.35824624E+01
     -8.09206575E+02     -5.15640831E+01      1.63940263E+03
      7.73769416E+02      4.97137678E+02      1.06607707E+03
     -8.19390147E+02     -2.71881693E+02      3.92685500E+01
     -7.29527393E+02      7.89737648E+02      1.66256731E+03
      2.51996569E+03      1.72343777E+03     -6.00536045E+02
      8.30154652E+02      1.37949915E+02     -2.21223196E+02
      1.23939880E+03      8.50096056E+02     -5.91148768E+02
     -5.23047280E+02      7.01923394E+02     -6.47678857E+02
      4.72738544E+02      1.21558946E+02     -3.29272963E+02
      2.06481482E+03      1.28211314E+03     -3.80098375E+03
     -1.16507924E+03     -7.09151558E+01      2.68535439E+03
     -2.44255502E+03      8.91807279E+02     -4.76447516E+02
     -4.24382759E+02     -6.79918933E+02     -4.95250672E+02
     -2.54407142E+02      1.11730861E+03     -2.59929617E+03
     -4.00331175E+02      2.68719832E+03     -1.06741266E+00
     -3.72077181E+02      1.94912666E+03      9.94518890E+01
     -4.43702251E+02     -8.82837006E+02     -3.70044700E+02
      7.14292481E+01     -4.81519275E+02     -7.16297250E+02
      2.20252076E+02      1.03349166E+03     -2.17372028E+03
     -3.48433622E+02     -6.06793543E+02     -8.26560159E+02
      1.61806527E+03     -1.80045048E+02      3.79633090E+03
      1.27902153E+03     -8.12972599E+02      4.54784116E+03
      5.99001528E+02     -3.70849414E+02      8.29491928E+02
     -1.61070406E+03      1.36587185E+03      9.79926873E+02
      7.02958219E+01     -1.01929150E+03     -1.58173260E+03
      1.37518431E+02     -1.47124602E+01     -6.03386086E+02
     -1.02387255E+03      2.39409429E+03      1.62123084E+03
      1.63541979E+03     -2.52979353E+03      1.08033664E+02
     -5.08537223E+02      5.04221731E+02     -6.12300220E+02
      1.02430674E+03      3.35021448E+03     -2.43846978E+03
      3.65066596E+03      2.32180700E+02      2.85192569E+03
      3.39588693E+02      4.12305716E+02     -1.86129442E+02
      7.71206213E+02      3.15695020E+03     -2.70662535E+02
     -2.59909987E+03      9.27439150E+02      3.87707580E+02
      5.83626529E+02      4.55147088E+02      4.34656417E+02
      2.71849694E+02      1.32291763E+03     -2.94093927E+03
      1.86108316E+03     -1.84327402E+03     -2.30790878E+03
     -4.02648652E+02      3.51601957E+02     -5.00895179E+02
      2.84000245E+03      2.50532927E+03     -1.92927563E+02
     -1.74115989E+03      9.06531837E+01      1.06507143E+03
     -2.04974605E+01     -4.24035052E+02      3.47516887E+01
      2.85848523E+03      2.59934369E+03     -1.66713004E+03
     -1.24538277E+03      2.26891713E+03     -1.61534123E+03
     -1.34501702E+03      1.96932199E+03     -1.64216825E+03
      6.43810262E+02     -1.75808238E+02     -9.69989135E+02
     -5.91762600E+02      4.04880689E+02      1.23346418E+03
     -2.80703994E+03     -8.12924589E+02     -6.66857742E+02
     -1.73494536E+03     -1.84380525E+03     -7.42789471E+02
     -1.82934679E+02     -8.33422973E+02      2.74239588E+02
     -4.33488522E+02      3.09058818E+03     -2.60683263E+03
      2.61927981E+03     -1.85106013E+03     -2.17666121E+00
     -4.86009073E+02      3.02684006E+02      1.07192870E+02
      6.95128206E+02      2.58334916E+03     -2.08773940E+03
      1.08294645E+02      1.70121042E+03      3.40093883E+03
      1.15497729E+02     -1.86099715E+02      3.23589286E+02
      3.43143487E+03     -1.67469530E+03     -4.12529180E+02
     -9.30462791E+02      4.60427700E+02      2.06627609E+03
      1.23862111E+03     -1.16822136E+02      1.32312895E+02
      5.59099848E+02      9.53303886E+02     -2.59775382E+03
      1.14839948E+03      9.64456191E+02     -8.78170013E+02
      6.27644600E+02     -4.13461298E+02      7.16816149E+02
     -2.08525842E+03     -1.44190908E+03     -4.09710065E+03
     -2.79567958E+02      1.67271809E+03     -1.60617602E+03
      7.86733420E+02     -3.38738965E+02      1.48276535E+02
     -4.82932446E+02      3.15884595E+03      1.10937258E+02
     -6.56113638E+02      1.02568683E+03     -2.97048758E+03
     -1.27222476E+02      2.41156560E+02     -4.85734854E+02
      4.64840847E+02     -2.14179741E+03     -1.29058114E+03
     -1.71476503E+03     -1.36836990E+03      9.17756387E+02
      3.06733819E+01      4.71075781E+02      4.78424388E+02
      2.98357042E+02     -3.22197910E+03     -2.11509759E+03
      1.40383649E+03     -2.22938810E+02     -3.76995807E+03
     -1.25567913E+02      1.42635312E+02     -3.97514024E+02
      3.05908094E+03      1.63740059E+03     -1.37815187E+03
     -7.84824730E+02      2.47759025E+03      2.75305047E+02
      9.86600924E+02     -3.69114557E+03     -7.32611870E+02
     -5.03305330E+02      2.11375053E+02      7.35695413E+01
      9.96237567E+02     -7.72268098E+02     -1.04724580E+03
      2.00223103E+03      1.12173777E+03      1.97140609E+03
     -3.94846510E+02     -7.39649373E+02     -2.76161775E+03
      2.86006563E+02     -9.91812613E+02      6.44224767E+02
      3.94967076E+02      1.97643882E+03     -2.27056489E+03
     -1.30378726E+03      4.14031180E+02     -8.10426825E+02
      6.36143209E+02     -6.23792214E+02     -1.94977154E+02
      1.95395857E+03     -2.08660870E+03      1.01757357E+03
     -1.00893412E+03     -4.07915655E+02     -5.16742743E+03
     -4.13246714E+02      7.56041231E+02      1.90647094E+02
      1.85131097E+03     -1.02399239E+03     -3.36349973E+03
      1.12572642E+03     -7.53396199E+01     -1.15455411E+03
      5.50099600E+02     -2.88302632E+02     -2.81477658E+02
     -1.62670136E+03     -3.14189187E+02     -1.50677340E+03
      4.83014417E+02     -6.96231346E+02      2.21288212E+03
     -2.73988007E+01      4.66263710E+02     -4.18039958E+02
     -4.25354713E+01      8.23241452E+01     -1.24849460E+03
      1.94830719E+03     -2.29678967E+03      2.38805728E+03
      6.36134235E+02      5.63846577E+01     -2.02492510E-01
      6.21019297E+02      1.43400530E+03     -5.15051481E+02
     -2.96443580E+02     -1.51904988E+03      3.39533888E+03
     -2.44523290E+02      5.78706402E+02      1.33565959E+02
      1.04968217E+03     -1.21635328E+03     -1.45052872E+03
      1.31699232E+03      1.94412737E+02     -3.75648016E+01
      2.58073225E+02     -3.11385162E+02     -6.91449276E+01
      5.60204991E+01     -7.26749662E+02     -2.43876798E+03
      3.15151282E+03     -1.92841783E+03      1.61094060E+03
     -4.46812760E+02      1.65010802E+02     -9.12007313E+02
     -5.73897142E+02      1.14256022E+02      1.08387195E+03
     -1.01213564E+03     -1.04899479E+03     -6.00790143E+02
      6.37239293E+02     -2.16955328E+03      2.91667034E+02
      1.61048617E+02     -1.36368036E+02     -3.66757355E+01
      1.27311897E+03      1.66406487E+03     -1.78112924E+03
     -4.60708250E+02     -2.92318702E+02     -4.86615316E+02
     -4.59598533E+03      1.24139671E+03     -3.14382297E+02
      4.16509008E+02      4.72931965E+02     -2.66276845E+02
      6.06787215E+02      1.43861173E+03      1.40496826E+02
      1.08597189E+03     -9.08331579E+02      5.26532361E+02
      3.70954052E+02     -6.07064778E+02     -4.50705284E+02
      1.68880397E+02     -2.29012492E+03      1.73484498E+03
      6.15549436E+02     -6.62137472E+02     -2.38538464E+03
      2.72722323E+02     -4.19694344E+02     -4.30357674E+02
      1.39998556E+03     -6.69173699E+01      4.77735503E+02
     -1.84653605E+03      1.44340782E+03      1.08665745E+02
     -6.01894970E+02     -6.38287193E+02     -7.01386582E+02
     -9.90096378E+02      2.88537013E+00      2.35981495E+03
      7.68473228E+02      4.50402323E+02     -9.08400675E+02
     -2.55863840E+02     -3.65293110E+02     -5.91039682E+02
     -1.90132945E+03      2.75783611E+02      3.87153914E+02
      1.84098246E+03     -1.20190790E+03      2.60886748E+03
     -1.19551782E+01     -3.69067552E+02      4.26361516E+02
     -1.00523182E+02      9.35133676E+02      1.23225982E+03
     -4.80560536E+02      8.24175885E+02     -9.81723862E+02
      1.15492345E+02      1.75394832E+02     -1.28725227E+02
      5.13195485E+02      2.63019453E+03     -7.91457976E+02
     -2.50205408E+03      3.14222642E+02     -6.10467879E+02
     -3.31559941E+02     -3.53130030E+02     -6.11837826E+02
     -9.98191845E+02     -8.12131687E+02      1.14135524E+03
     -1.84582069E+02      2.54535920E+03     -1.89795385E+03
     -1.22696511E+04      4.71882523E+02      1.79684124E+04
     -9.22091317E+02     -1.65658489E+03     -3.25446112E+03
      3.36284234E+02     -2.39900248E+03     -2.41170181E+03
      4.44756204E+02     -3.02832654E+01     -6.88388140E+02
      5.09985275E+02     -1.14736536E+02     -2.23042487E+02
      9.91509933E+02     -2.12827517E+03     -4.35917080E+02
      9.69007324E+02      2.78143689E+03      8.29013487E+02
     -1.11481399E+03      5.30377829E+02     -5.80429068E+02
     -2.69348755E+02     -1.76981220E+02      7.10780766E+01
      1.20444142E+03     -6.55711009E+02      8.19792830E+02
      2.05040978E+03      2.50471911E+03      1.35071556E+03
      3.06348770E+02      4.11729586E+02      1.72604863E+02
     -1.70168256E+03      2.68491597E+03     -1.31383801E+03
      9.14115139E+01     -3.60028443E+03      2.17910565E+01
      4.65415673E+02      4.33842463E+02     -4.44674981E+02
      7.31431777E+02      7.99849510E+01      7.71179941E+02
      6.22802461E+02     -5.46014726E+02     -2.13497640E+02
      3.07609524E+02     -1.17683767E+01      5.78696883E+02
     -5.98789844E+02      4.57120205E+02     -1.57528135E+03
      1.69461487E+03      4.16972974E+02     -1.66087371E+03
      1.70357060E+02      3.54229664E+02     -6.46100446E+01
      1.04128466E+03      9.35794386E+02     -6.63284851E+02
      2.26550810E+03     -2.82013545E+03     -5.69575128E+02
      5.46453339E+02      4.23855578E+02      4.62957137E+02
      4.84502960E+02     -2.44191254E+03     -2.34726932E+03
     -3.54552266E+02     -1.99480172E+03      5.49047594E+02
      2.12126143E+02     -8.47257150E+01     -9.05049898E+02
     -3.38204026E+03     -8.52503927E+02     -2.70678237E+03
     -2.37568738E+03      2.48910419E+03      2.22653822E+03
      6.89651042E+02     -6.43222648E+02     -2.48482928E+02
      2.03322971E+03     -1.92454131E+03     -4.79843454E+03
     -3.37504070E+02     -2.91116805E+03     -3.51212266E+02
      6.73522377E+02     -4.21355899E+02      4.83261281E+01
      1.56480386E+03      1.69058439E+03      1.73166018E+03
      7.16564920E+02     -8.60319042E+00     -2.23602513E+03
      2.01192672E+03     -1.85384200E+02      1.52186326E+03
     -2.58310827E+02     -2.22590271E+02     -1.50108523E+02
      1.96206053E+03     -4.04920612E+02     -2.93152147E+03
      1.16748479E+03      1.71118037E+03     -1.47519163E+03
     -2.62000728E+02     -5.54987180E+02      6.87560664E+01
      9.64756646E+02      3.24367617E+01      5.11299807E+02
     -1.70704636E+03     -1.23835236E+03     -6.28623819E+02
      1.55841720E+03      3.21976969E+02      1.27895237E+03
     -6.34236154E+01      2.71176827E+02     -9.78341857E+02
      2.95441608E+03      1.37274358E+02      1.08859502E+03
      8.85795664E+02     -1.18879342E+03     -9.59131749E+02
     -7.64154915E+02      3.33353896E+02     -3.20189781E+02
     -4.97799485E+02      1.55459536E+03      3.47229877E+02
      2.43289733E+03      1.39901265E+03     -7.48281025E+02
      4.72714615E+02      1.48362487E+02     -5.41916227E+02
     -1.51637146E+03      2.71346472E+03     -1.34392313E+03
     -1.69827203E+03     -2.37389131E+01      5.75113683E+01
     -2.03411364E+02      8.78916219E+02     -1.72159771E+02
     -1.16601255E+03      2.31390242E+03     -4.22603916E+02
     -4.98784744E+02      4.70904113E+02      2.11263481E+03
     -4.85441259E+02     -6.63611941E+02      4.96418501E+01
      2.06187356E+03      1.76423769E+03     -2.91417571E+03
     -9.42258709E+02      3.17000516E+02     -3.04736562E+02
      2.62728124E+02      5.56987663E+02     -4.80498047E+02
      2.12679776E+02      1.76663547E+02     -9.10172624E+02
     -2.99772551E+02      2.59419423E+02     -1.54472990E+03
     -3.26550041E+02     -3.85601474E+02     -9.77674575E+01
      1.25932056E+03     -1.63279322E+03      6.01484359E+02
     -5.29977336E+02      3.45902222E+02      2.99343555E+01
     -5.89476523E+01     -2.51184933E+02      1.60857980E+02
      1.86413362E+03      2.94970266E+03      8.94454558E+02
      9.96942841E+02      6.44144979E+02      1.61934722E+03
     -2.94544243E+02     -1.07201477E+03     -7.41549390E+02
      8.01164669E+01      2.73240120E+02      8.81667732E+01
     -4.44061215E+02     -2.03228272E+03      1.32597828E+03
      1.43286132E+03     -1.43840499E+03     -9.91602850E+02
     -2.56465313E+03      5.23143257E+02      1.63663055E+03
      1.49101798E+02     -5.48023015E+02     -5.90894460E+02
      1.00970517E+03     -2.08959202E+03      5.38586995E+02
     -1.32622693E+03     -1.44364068E+03     -4.46133873E+02
      4.43948704E+02     -5.41205848E+01      6.76761367E+02
     -1.92581694E+03      8.91134869E+02      1.24484174E+03
     -3.41515064E+02      1.36786137E+03     -1.07971683E+03
      7.16745458E+01      7.24126063E+01     -1.11018424E+02
      3.13340252E+02     -7.92579285E+02     -7.95727329E+02
     -5.29850297E+02     -2.47847867E+02      5.62759287E+02
     -5.94834218E+01     -4.78958194E+02     -5.64291585E+02
     -6.94535802E+02      1.19544429E+03     -3.37280407E+02
     -2.17794496E+03      1.71210147E+03     -1.81679566E+02
     -4.30213788E+02     -7.09652498E+01     -2.64264626E+01
      1.17612241E+03      2.31469472E+03      1.04056325E+03
     -6.17928193E+02      3.73427104E+03     -4.21360059E+02
     -6.98330678E+00      8.38593166E+02     -4.39793946E+02
      2.06200146E+03     -1.39862953E+03      7.13797818E+02
      2.37211588E+03     -3.20228346E+02      1.69349009E+03
     -1.61633836E+02      2.43350653E+02     -2.32914816E+02
      3.05055821E+01     -1.49429793E+03     -1.12135074E+02
     -2.44013287E+02      3.49953695E+02     -1.05285719E+03
      1.35163170E+02     -2.32540280E+02      4.56429447E+01
      7.50116719E+02      4.75496854E+02     -7.29074759E+02
     -3.76835574E+03     -1.30409835E+03      1.52119978E+03
      4.23282993E+02     -2.02198604E+02      2.35900905E+02
     -1.80941275E+02     -9.76102947E+02      1.38638093E+03
     -2.53919213E+03      8.82049255E+02      8.92746879E+02
      5.78850576E+02     -2.36804847E+03      2.25322919E+03
      5.87751387E+02      4.64681311E+02      3.30204320E+02
      1.01415256E+03     -1.78350518E+03     -2.89746859E+02
     -1.95277918E+01      7.24437902E+02      3.02726491E+02
     -3.79798152E+02     -8.44907116E+02      2.26591923E+03
     -5.27272666E+02      2.27372628E+02     -2.53059491E+02
     -3.55232864E+03     -8.17589119E+02      1.07456194E+03
      8.67911520E+02      2.37120767E+03     -1.69415365E+02
      3.00244076E+02      1.48996235E+02     -9.82266980E+02
      1.47135637E+03      3.02382416E+03      7.59166016E+02
     -2.25229434E+02     -1.59944110E+03      4.27159924E+02
      7.54378650E+01     -1.30555337E+02      1.74177325E+02
     -1.32875843E+03      1.92885570E+03     -4.44453994E+02
     -1.65960489E+03     -1.79940804E+03      9.68394899E+02
      1.09962503E+03     -1.30345064E+02     -4.64250396E+02
     -3.78265176E+02     -1.39097734E+03     -5.07931280E+01
      8.07314277E+02     -1.53932811E+03      5.22978719E+03
      4.65240653E+02      2.41775099E+02     -9.46477012E+02
     -9.52375014E+02      6.46305084E+02      6.23055037E+02
      2.47756723E+02     -5.59515206E+02      1.55621339E+03
     -9.58137709E+01      5.22903939E+02     -3.07043528E+02
     -4.92021553E+02     -2.92011275E+03     -3.99163330E+02
     -2.02245562E+03      1.49479888E+02      1.40013548E+03
     -1.51978666E+02     -2.11835258E+02     -1.50095655E+02
      2.95765336E+02      3.92737700E+02     -1.49002778E+03
     -1.71312716E+03      8.54033406E+02      2.54143566E+02
      2.31607312E+02      7.30914298E+02      1.28476999E+02
      1.94037728E+03     -1.31325231E+03      2.38369365E+03
     -2.22630094E+03      1.06006252E+03     -1.13396303E+03
     -4.98355248E+02     -6.35461869E+02     -2.10324911E+02
      7.30571220E+02      6.49675475E+02      3.08649019E+02
      8.99071799E+02     -2.31018298E+03     -2.80893060E+02
     -1.13421046E+03      1.24769718E+03     -1.24387253E+03
     -1.37438111E+02      5.26220854E+02     -8.83054819E+02
     -9.84456224E+02      3.07674937E+03      1.82361356E+03
     -1.89141780E+02     -3.64991202E+03      2.46778055E+03
     -1.03276517E+03     -2.38988771E+03      2.53637862E+03
      5.72448822E+02      3.40085396E+02      1.85698856E+01
     -2.06191587E+03     -6.61110607E+02     -2.03390959E+03
      1.37602113E+03      1.62363555E+03     -1.85041890E+02
      1.43924227E+02      2.17503940E+02     -1.99737454E+02
     -2.19106363E+02      3.45931557E+02      2.96882284E+02
     -1.56581657E+03      1.71926254E+03     -2.07735812E+03
      1.60852983E+02     -5.55612600E+02      1.30992674E+02
      5.83690170E+02     -5.99789756E+01      2.56804625E+03
      8.73997261E+02      6.06375545E+02      2.90251219E+03
      2.15601447E+02      6.26049082E+02      7.31006831E+01
      2.34602151E+02     -1.76772610E+03     -5.14963691E+03
     -3.02654170E+03     -6.59157215E+02      1.16199044E+03
      5.06030975E+01     -5.28717170E+02     -7.91376472E+02
      1.22939207E+03     -1.09385248E+03     -8.72317831E+02
      3.79027827E+02      1.60758485E+03      4.69514033E+01
     -1.90885771E+02      5.65304192E+02      8.64407817E+01
     -9.64831153E+02      4.03696359E+02      3.43731435E+02
      2.45619383E+03     -1.13467482E+03      9.96521048E+02
      6.06719253E+02     -1.94198644E+02     -4.74738896E+02
      7.68477607E+02     -1.41303308E+02      6.11548332E+01
     -4.34557895E+01      4.66909596E+02     -4.16639263E+03
     -3.33984022E+02      4.97351207E+02     -2.20846479E+02
      9.00100532E+02      3.88201510E+02     -2.97481964E+03
     -2.93191533E+03     -2.26071916E+02      3.05139008E+03
      6.69202140E+02      2.61492131E+01     -8.37850845E+02
      4.58545964E+02     -1.84308364E+03     -1.30376561E+03
      1.58200721E+03     -7.14536343E+02      1.38041669E+03
      1.32542254E+03      1.87149200E+01     -1.82036751E+03
      2.06780262E+02     -4.86638620E+02      1.11041754E+03
      7.05464114E+02      9.45985506E+01      2.55156656E+03
      1.18270583E+03      1.24355819E+03      9.93938717E+02
      5.60883957E+02     -1.96982298E+03      2.23635672E+03
  }
}

Hamiltonian = DFTB {
  SCC = Yes
  SCCTolerance = 1e-6
  MaxSCCIterations = 200
  ForceEvaluation = Dynamics
  MaxAngularMomentum = {
    C = "p"
    H = "s"
  }
  Charge = 0.0
  SpinPolarisation = {}
  Eigensolver = Standard {}
  Filling = Fermi {
    Temperature [Kelvin] = 300.0
  }
  SlaterKosterFiles = Type2FileNames {
    Prefix = "../../pbc-0-3/"
    Separator = "-"
    Suffix = ".skf"
    LowerCaseTypeName = No
  }
  KPointsAndWeights = {
    0.0000000000000 0.0000000000000 0.0000000000000 1.00000000000000
  }
  Dispersion = LennardJones { 
    Parameters = UFFParameters {}
  }
}

ParserOptions = {
  ParserVersion = 3
}
