Geometry = GenFormat {
<<< "system.gen"
}

Driver = VelocityVerlet{
  Steps = 50000
  TimeStep [fs] = 0.2
  MDRestartFrequency = 5
  Thermostat = None {
    #InitialTemperature [Kelvin] = 300.0
  }
  Xlbomd{ 
    IntegrationSteps = 6 
    MinSccIterations = 2
    MaxSccIterations = 200
    SccTolerance = 1e-6 
  }
  Velocities [m/s] {
      9.13803399E+02     -3.74726577E+01      1.86174514E+02
     -9.06953794E+02     -1.61443814E+03      9.47623963E+02
     -1.22118945E+03      2.96147067E+03      3.20649443E+03
     -9.47570833E+02     -6.55306861E+01     -8.14120980E+01
     -3.36581270E+01      1.48476283E+03      1.18105603E+03
      3.87672128E+02     -1.18125162E+03     -1.25341440E+03
      2.53507946E+02     -5.05868395E+02      1.00636358E+03
     -6.42872742E+01     -6.98576209E+02     -1.69286164E+03
      5.85250842E+02     -8.52928433E+02      5.59475514E+02
      2.82838564E+02     -9.62146329E+01      3.86754388E+02
     -4.92954998E+02      2.64582231E+03      6.62264978E+02
     -1.10061050E+03      2.13198880E+02      1.40844866E+03
     -7.53113878E+01      1.20699960E+02      1.04107102E+03
      1.77580209E+03     -2.96070233E+02      1.27769970E+03
     -6.05804634E+02      5.62840872E+02     -8.38216264E+02
     -4.23372312E+02      7.05980259E+02     -3.86077344E+02
     -3.66580250E+02      1.19256917E+02     -1.07667077E+03
      5.45239840E+03      1.01047742E+02      7.11878875E+02
      5.38515316E+01     -7.01431034E-01      5.04167164E+02
     -2.36759433E+01     -8.60427986E+02      3.63363415E+02
      3.99717294E+02      2.91319151E+02     -1.66699255E+03
      1.03069166E+03     -1.03703095E+03      1.22286696E+02
      8.84626849E+02      1.87485046E+02      1.89220311E+03
      3.81262702E+03      3.00949371E+02     -1.20115691E+03
      1.36550263E+02      5.95676121E+02     -2.76590570E+02
     -1.62615653E+03     -4.22602728E+02      6.72487667E+02
      1.10485248E+03     -5.09176328E+02     -3.17945123E+03
      1.83957107E+03      1.31638367E+02      1.30190295E+03
      2.57440968E+02     -1.05114436E+03      1.05290832E+03
     -2.89214926E+03     -2.22553511E+03     -1.39870504E+03
     -9.09658833E+02      8.03873675E+02     -2.80315007E+03
      1.88399300E+03     -2.47821906E+03      6.01161483E+02
      7.97530339E+02      5.01061034E+02     -1.77859391E+01
      3.66900751E+02     -9.88175595E+02     -4.32931227E+02
     -4.38164934E+02      1.15921509E+03     -1.42570886E+03
     -5.02339529E+02     -4.05712341E+02      1.23170934E+03
     -2.35288482E+02     -1.50109643E+03      3.07194134E+02
      8.94891251E+02      2.13449623E+02      2.99461910E+02
      5.79253426E+02      3.22955144E+00     -2.81355147E+02
      9.26772280E+02      1.20917212E+03      4.77413562E+02
      5.74557321E+02      2.19831567E+03     -1.35979999E+03
      1.81076474E+02     -7.11887374E+01      1.01379252E+03
     -1.87984879E+02      2.86227924E+02     -8.06672889E+02
      1.95371548E+03      2.08208740E+03     -8.51698794E+01
      5.26139873E+02     -4.86926405E+02      1.40059831E+02
     -1.15814738E+03     -1.10749281E+03     -4.37345971E+02
     -3.54347330E+02      1.59474573E+03     -1.07090483E+03
     -5.85967631E+02     -7.15398524E+02      1.49344395E+02
     -3.63467466E+02      2.00401343E+03     -1.22364179E+02
      7.56121985E+02     -5.66909495E+02      2.84762033E+03
     -4.31785117E+02     -2.13067848E+02     -2.83035496E+02
     -5.00554429E+02     -1.99680755E+03      2.09553851E+00
      2.73602452E+03     -3.26159678E+02      8.01268250E+02
      1.04723821E+02      3.08138961E+02     -8.37958371E+01
     -6.84725076E+02     -7.35032227E+01      1.31749625E+03
      2.15663052E+03     -4.01284117E+02      1.94003346E+02
      7.76657624E+01      3.28662727E+02     -2.39610574E+02
      3.43723203E+02     -1.10249631E+03      2.75650141E+02
     -1.55570533E+03     -1.05987541E+03     -5.61767282E+02
      6.57318954E+02      8.64249970E+02      9.39813699E+02
      7.87537633E+02      2.07491608E+02     -5.59245415E+02
      3.57140489E+03      1.66412644E+02     -3.23720682E+03
      7.59921606E+02     -2.00664500E+03      1.71588115E+03
      1.73266214E+03     -1.01022792E+03      1.99580400E+02
      5.97310510E+02      4.70088235E+02      2.43291733E+02
      5.87630887E+02     -5.39902800E+02      2.41505830E+03
     -8.91864391E+02     -2.94248112E+03      2.19115633E+03
     -1.52119082E+02     -8.27698139E+02      3.84710437E+02
      3.37527868E+03     -1.79797681E+03     -7.82837937E+02
      1.11902540E+03      7.79574060E+02      3.85956306E+02
     -1.72018697E+02     -4.35771234E+02      8.15881861E+02
      1.52398928E+02     -1.02960055E+03     -1.10170368E+03
      7.88270685E+02     -2.57773292E+03     -6.24397958E+02
      9.08859535E+02      5.40986496E+01     -2.13294515E+02
      7.80573078E+01     -5.98602653E+02     -2.26978574E+03
     -1.45954512E+03      3.87482956E+02      1.26041781E+03
     -1.43557640E+02      3.88713589E+02      8.72926499E+01
     -3.33849403E+02     -1.31128311E+03      1.78027509E+03
      1.15282082E+03     -1.67956432E+03      6.97772393E+02
     -6.18639775E+02      5.86336140E+02      2.88683586E+02
     -2.88528139E+03      1.65632262E+03     -1.49461264E+03
     -1.69336535E+03      1.85585499E+03     -5.13386637E+02
     -4.68970970E+02      9.93671571E+01      4.80905533E+02
     -1.01410639E+03      2.04391362E+03      8.73307910E+02
      1.08274517E+03      3.70800244E+02     -7.81031363E+01
      7.41638500E+01      1.47871902E+02     -9.93449743E+00
      9.35116838E+02     -6.37493621E+02     -1.99928277E+02
     -4.42106690E+02      6.05871149E+01     -1.80577045E+03
      1.51381357E+02     -2.53230271E+02      6.58317239E+02
      1.23428113E+03      2.38587638E+03      7.03726922E+02
     -1.77964522E+03     -2.16413340E+03     -5.04667345E+02
      2.16611165E+03      9.53005863E+02      8.10585139E+01
      7.89927529E+02      4.88585568E+02      1.22099426E+01
      1.84745173E+03     -3.38951412E+03      1.28236633E+03
      1.58372309E+03     -4.26274505E+01     -1.33971594E+03
     -9.36969587E+02      6.51431301E+02      1.08938649E+02
      3.59629189E+02     -1.48173372E+01      7.35683991E+02
      1.10778038E+03      6.09767562E+02      5.13571341E+02
     -1.58857233E+03      2.38049904E+03     -1.99749162E+02
      3.66488599E+00      1.77837574E+02      3.49659307E+02
      1.85026697E+03     -1.01961251E+02      3.49465946E+01
     -8.42138171E+02     -5.74887867E+02     -3.53101498E+02
      3.06048645E+02      1.56939390E+02     -1.33702784E+02
      1.98121357E+03     -8.99165211E+02      2.33726374E+03
     -2.72875660E+03      7.86894319E+02      5.37514636E+02
      5.70164062E+02      1.41178172E+02     -1.36348292E+02
      1.04268190E+03     -1.89636652E+02      1.16634106E+03
     -1.42124643E+03     -1.34229698E+03      1.89663013E+03
     -1.85571309E+02     -8.21286281E+02      3.34818395E+02
     -1.60482842E+03     -4.05157809E+03      1.67621838E+03
      8.82458933E+02     -1.46824356E+03     -1.54405450E+01
      1.94100387E+02      8.82718040E+02      8.47576234E+02
      4.75582540E+03      1.06295102E+01      9.96079939E+02
     -2.00197129E+03      8.14299735E+02     -2.35745182E+03
     -2.02616604E+02      1.59923696E+02     -2.27309344E+01
     -9.79779082E+02      1.63375876E+03     -1.18721174E+03
      2.05569734E+02     -7.29973560E+02     -5.48582651E+02
      1.13281180E+02     -6.92353294E+02      7.73020300E+02
     -1.68368652E+02      2.40406436E+02      4.74742691E+02
     -2.69547378E+02      1.89760003E+02     -1.25888573E+03
      2.15923627E+02     -6.06302870E+02     -3.34662161E+02
      7.19636767E+01      1.67998557E+03      1.87373721E+03
      2.29920504E+03      5.22634094E+02     -5.39839881E+02
     -1.87094663E+03     -1.50199617E+03      6.82908556E+02
     -1.27404571E+02     -4.12938335E+02     -6.27992994E+01
     -2.91197242E+02      1.32781799E+03     -1.46957104E+01
      1.23585992E+03     -4.29029650E+02     -3.89399467E+02
      3.45648535E+03     -3.53742444E+02     -2.00280815E+03
      4.36213938E+02      4.18604087E+02     -5.74150333E+02
      1.65024681E+03     -4.56833423E+02     -1.32943773E+03
     -1.74515687E+03     -2.88656979E+03      3.34503540E+01
      3.08580430E+01     -6.51883599E+02      8.80665272E+01
      2.45941086E+02      1.35833274E+03     -2.45004602E+02
     -1.18253206E+00      2.24394938E+02     -8.83430391E+02
     -5.29901226E+02     -5.30849748E+02      1.04625385E+03
      1.06506035E+03      4.45884159E+02      1.03949398E+03
     -7.54622568E+02      9.68897482E+02     -1.23526502E+03
     -5.97829339E+02     -2.86839717E+02     -8.95260732E+02
     -2.72325097E+02     -1.26175139E+03      2.31635002E+02
     -9.67532207E+02      2.33205157E+03      1.21199630E+03
     -1.51922564E+02      4.27807690E+02      3.55466039E+02
      5.09426815E+03      1.02531105E+03     -1.01625167E+03
     -2.40687580E+02     -5.23606392E+02      2.27849089E+03
     -3.41562478E+02      2.35726342E+02      5.04526665E+02
     -1.76284074E+03     -4.20350358E+02     -1.70291380E+03
     -4.62965790E+02     -1.27602583E+02      5.96368267E+02
     -4.84475352E+02     -6.29502931E+02     -8.33471768E+02
      1.68870099E+03     -6.33204516E+02     -2.39474782E+03
     -3.76612479E+02      2.89915306E+03      8.24687139E+02
      5.47398519E+02     -9.36959030E+01      5.57494248E+02
     -6.94258194E+02      2.11773880E+03     -7.70903083E+02
      7.16766311E+02     -1.17202051E+03     -3.32852209E+02
     -8.46093856E+02     -1.80641469E+02     -4.37452670E+01
      1.96413154E+03      1.32984116E+03      1.25691988E+03
     -2.07856761E+03     -2.42594781E+03     -5.07419041E+02
     -2.00730306E+03     -1.84698096E+01     -8.35901166E+02
      3.26647958E+02      8.54557252E+01     -1.15744655E+03
      3.99489393E+02     -1.31491976E+03      2.89265665E+03
     -2.05380534E+03     -5.22357197E+01     -2.03489535E+03
     -3.12445853E+03     -2.02195506E+02     -1.68147155E+03
      8.77969032E+01     -6.12542800E+02      4.60660140E+02
      5.47253230E+02      3.64238788E+03     -4.68748447E+02
     -2.46223442E+03      8.29461323E+02     -1.64648489E+03
     -1.17762614E+02     -3.22405635E+02      4.49895895E+02
      3.48376658E+02      7.70434506E+02      3.69305920E+03
     -1.73149211E+03     -3.88638269E+03     -2.48224354E+03
      4.51324735E+02      1.23242366E+02      6.89921558E+02
      2.22476211E+02     -3.13533194E+03     -9.00850831E+02
      4.17212220E+02      4.96410158E+02     -3.67297768E+03
     -3.55016534E+02      4.29381922E+01      1.94165446E+02
      5.98968211E+02     -2.03180406E+03     -1.82750446E+03
     -1.66095709E+02     -6.76858442E+02      1.90610365E+03
      2.75426271E+01      1.04348304E+02      9.35581219E+02
     -7.87108513E+02     -1.79304675E+02     -1.73306386E+03
     -1.08666086E+03     -7.66106460E+01     -7.35429386E+02
      8.17178459E+02      3.84344474E+01     -2.97615250E+02
      4.51888029E+02      3.49158535E+03      1.12006729E+03
     -4.13584181E+02     -5.05006262E+01     -2.55861651E+02
     -1.33163707E+02      1.45388737E+02     -7.63617572E+02
     -3.64690413E+03     -1.57935423E+03     -2.78135937E+03
     -7.21060778E+02      8.38812071E+02     -2.33287018E+02
      7.82680533E+01     -2.65868853E+02     -1.35574078E+02
      9.63042738E+02      2.20665994E+02      1.73408667E+03
     -1.43561363E+03      2.98684426E+02      1.44569928E+03
      6.04250128E+02      4.36600983E+02      2.34233671E+02
      4.21043598E+02      1.26208996E+03      1.35031441E+03
      2.93824132E+03     -2.19322613E+03      2.75503187E+03
     -2.32105724E+03      2.44143835E+03     -6.67774782E+01
     -1.78960937E+02     -3.95122415E+02      8.36048315E+02
     -2.48277093E+03      1.29611866E+03      1.06909960E+03
      9.38590475E+02     -1.68092917E+03      5.91718014E+02
      1.07369682E+03      1.80885539E+03     -5.70739485E+02
     -3.84426755E+02      2.36679527E+02     -3.25139243E+02
     -2.42391450E+02      2.07594328E+02     -1.47230792E+03
     -8.41865487E+02      1.02102445E+02      1.29143172E+03
     -3.94586611E+02     -6.58718508E+01      1.03905750E+02
     -2.54424317E+03     -3.68006237E+02      1.08751781E+02
      1.02119963E+03     -2.54967584E+03     -7.11592635E+02
     -2.79643034E+02     -3.67625149E+02      8.82701898E+02
      1.52749237E+03      5.96234557E+02      7.18369399E+02
     -8.86283591E+02     -2.52213983E+03      7.52794742E+02
      3.53486112E+01      6.72539303E+01      2.14844278E+02
      4.17636957E+02      2.87320034E+02      1.18912116E+03
     -1.35220534E+03     -1.62781697E+02     -3.84577983E+02
     -2.04670614E+02      3.75684381E+02      4.33272386E+02
      9.57680874E+02      1.12707142E+03      7.52847157E+02
     -5.87014820E+02     -7.25706059E+02     -1.00889091E+03
      5.35542591E+02     -7.98202228E+01      9.64481225E+02
     -2.05008053E+03      8.67580957E+02     -5.25807776E+02
     -1.30661778E+03      2.16994632E+03     -1.27423226E+03
     -4.54720545E+02     -1.56554853E+02     -5.62068355E+02
     -8.28096943E+02      5.55013816E+02      2.72299569E+03
      9.11928807E+02     -2.91818853E+02     -9.17864213E+02
      2.70578261E+01     -2.10122899E+02     -4.13910106E+02
     -1.27142816E+03      3.88648875E+02     -5.93374326E+02
      6.77265976E+02     -8.96927382E+01     -5.07747002E+02
     -4.30795976E+01     -2.74855453E+02      6.45057700E+02
     -2.61495126E+02     -1.39388466E+03     -2.20158984E+02
     -1.71491688E+03     -2.19848721E+02     -1.45345633E+03
      1.05751614E+03      7.96284106E+02     -8.72106538E+02
     -3.05070574E+02      2.33166839E+02      2.71690376E+01
     -1.18932884E+03     -1.64818639E+03      2.33826879E+03
      3.35482946E+02      9.09590432E+02      7.59051756E+02
     -5.11074678E+01      2.53321742E+02     -7.36712255E+01
     -2.13517888E+02     -2.20089192E+02      5.10264462E+02
     -2.34598709E+03     -1.75997313E+03     -3.17042801E+03
      1.09781963E+03     -1.71438040E+03      1.04557505E+03
      5.76996458E+02      5.85759542E+02     -4.99568688E+02
     -1.56380260E+03     -1.25466403E+03      1.27130406E+03
     -4.24611746E+02     -2.13920164E+02     -5.97817691E+02
     -3.46899121E+02     -9.69136615E+02     -3.35957572E+02
      1.83432982E+02     -8.66816717E+02     -2.14352708E+03
      2.70770105E+02      2.17101439E+03      2.34163019E+03
     -2.93508100E+02      4.40929354E+01      6.18612277E+02
     -5.42891430E+02      1.70758114E+03      1.84937613E+03
      9.09374971E+02     -2.14216076E+02      3.88585029E+02
     -3.85142248E+00      1.69333587E+02     -3.04795584E+02
      3.53419499E+03     -2.75438304E+03     -1.52949626E+03
      1.70048078E+03     -4.08607146E+03     -1.70322160E+03
     -2.58497208E+02      1.82770217E+02      1.99158550E+02
     -2.06745209E+02     -2.33008543E+02      9.51402117E+02
     -6.91959638E+02      1.26498166E+03     -1.61157771E+03
     -2.03496164E+02     -1.29646531E+03      3.54800448E+02
      1.23408975E+03      3.40132607E+03      2.54615871E+01
     -1.67461798E+03     -1.95996297E+03      2.28474135E+03
     -5.15521136E+02      5.27851093E+02      1.27374518E+02
     -9.23090334E+02     -9.87973904E+02     -5.76783420E+02
     -2.41313738E+03      9.35960594E+02      2.52142971E+02
     -9.36135631E+01      6.00428272E+02      2.57360975E+02
     -1.13922291E+02     -2.32843583E+03     -8.09847854E+02
      2.24961413E+02     -5.56195003E+02     -2.76998532E+03
      1.14124335E+03      1.90791189E+03     -1.20301380E+03
      5.90858676E+02     -2.37023621E+02      3.20781225E+02
     -7.51396180E+02     -9.72828113E+02     -1.81858415E+03
      9.87831814E+02      3.10080754E+03     -2.62431287E+03
     -4.78529989E+02     -3.50209054E+02      5.42902651E+02
     -8.96224015E+02     -1.01557112E+02     -2.77266062E+01
     -2.01057732E+03     -1.36067660E+02     -5.95833454E+02
      7.41568589E+02     -1.57332079E+03      1.54013757E+03
      7.18753144E+02     -8.44682842E+02     -4.77580357E+02
     -6.04962349E+02      1.67542897E+03     -2.63940213E+03
     -5.32549144E+02      1.53844536E+03      3.37566381E+03
      7.00847448E+02     -3.11241596E+01      4.93666221E+02
      1.34723293E+03      2.39938199E+02     -3.09279996E+03
      2.17971094E+03      2.12283257E+03      1.92030307E+02
      8.54856893E+02      6.80265081E+01      1.96560194E+02
      4.75646564E+02      3.83247738E+02      2.95167953E+02
      4.33259353E+02      6.58342469E+02     -6.31009740E+02
      2.13202680E+02     -2.72886508E+02      8.33386846E+02
     -7.76059343E+02      1.65188806E+03     -3.05796306E+02
      1.05022020E+03      3.09777949E+02      6.87872572E+02
      6.87692617E+01     -3.03151446E+02      7.62585848E+02
     -2.12460906E+03     -6.86927285E+02     -1.38221957E+03
     -5.73151940E+02     -1.06181418E+03      3.69529245E+03
     -2.65435093E+02     -7.24030319E+01      1.06460860E+02
      6.19317364E+02     -1.23352112E+03     -1.10896020E+03
      1.44463746E+03     -1.54077055E+03      2.00910664E+03
      5.70329166E+02      4.87818121E+02      4.74116068E+02
      4.47330513E+02     -7.06434002E+02      3.59423410E+03
     -2.45342180E+03     -1.57470392E+03      1.25897324E+03
      8.90534189E+02      2.03257198E+02      6.30221334E+02
      1.32497676E+03      1.09574574E+03      6.37415743E+02
      1.84954965E+03     -3.24179317E+03      1.01612527E+02
     -7.86389035E+02     -1.94510474E+03      1.38390278E+03
      7.02538481E+02     -1.27644733E+02      1.61317556E+02
     -5.26966929E+02     -1.72927112E+03     -2.23464781E+03
      4.04286732E+02     -2.85356440E+02      1.64463882E+03
      9.37403503E+02     -1.77154671E+03      1.72226411E+03
      7.26771699E+02     -2.83558661E+02      1.27827773E+02
      3.39361019E+03      1.34905980E+02      2.65926894E+03
     -6.98186720E+02     -1.05727353E+03     -7.98669292E+02
     -3.22345315E+01     -1.34064381E+02      1.69921230E+02
      2.24559439E+03      1.17983747E+03     -2.72258075E+03
      2.76638208E+03      3.59441056E+02     -1.17960986E+03
      4.37810473E+02      3.58647107E+02     -1.92549931E+02
     -2.42788610E+03     -1.35304822E+03     -1.87844795E+03
     -5.68017598E+02     -1.46235958E+03      5.59432509E+02
     -3.56905701E+02     -5.38691163E+01      4.98181815E+02
     -1.00868330E+03     -8.74272303E+02     -1.45900402E+02
      1.14824518E+03     -4.64626626E+02     -2.02089207E+03
     -2.13302015E+02     -2.46471058E+02     -6.46443131E+02
     -2.78226096E+03      1.47458754E+03     -4.20639793E+02
     -5.84041417E+02     -2.79393983E+03      1.37596933E+03
     -5.77586849E+02     -1.07036922E+02     -1.34496576E+02
      6.03547356E+02      1.33407896E+03     -7.08892678E+02
     -1.41542609E+03      1.05916197E+03      5.91576588E+02
     -7.88373566E+02     -5.10517249E+02     -2.77360745E+02
      7.31829164E+01     -7.66220362E+02      1.82076699E+03
     -1.11005780E+03      2.74782516E+03      1.25131047E+03
      3.40861635E+02     -5.18392711E+02      1.16588772E+02
     -3.00376827E+03     -8.02254927E+02      2.18680052E+03
     -1.52392719E+02     -1.13765389E+02     -1.41419264E+02
      5.91471405E+02      7.26205109E+02      6.23436117E+02
      1.99703473E+03      2.29717514E+03      1.52362863E+03
     -1.63618647E+03     -1.55406653E+03     -3.04713113E+02
     -2.48196189E+03     -2.61490193E+02      1.11658929E+03
     -6.13193906E+03      9.73355914E+03     -1.85065180E+04
     -3.83757755E+02      1.38121573E+03      3.95569853E+02
      1.68554873E+03     -1.59660668E+03     -1.34000320E+02
     -4.69893582E+03     -2.62598697E+03      7.12311412E+02
      8.28605082E+01      2.39842045E+02     -6.06405116E+02
      8.45199354E+01     -2.21689096E+02     -1.23216933E+03
      2.89191850E+03      2.51295792E+03      2.73488364E+03
      2.11421461E+02     -5.56817285E+02      7.68913007E+01
     -1.12250009E+03      9.20909596E+02      1.45241067E+03
      2.84674967E+03      3.94797535E+03      7.92905135E+02
      1.60779384E+02      8.85298276E+01     -4.56499457E+02
      4.18721633E+01     -7.42402503E+02     -1.29079777E+03
     -2.37800720E+02     -1.98740103E+01     -1.59974430E+03
      8.82351053E+02      3.67909003E+02      7.41234101E+01
      1.48743534E+02     -8.18877304E+02      8.05720207E+02
     -1.74993240E+03     -3.61960654E+02      2.12132929E+03
     -3.09140733E+01     -8.50910545E+01      5.99491969E+02
      1.94111755E+03     -2.41683119E+03     -1.77144713E+03
     -1.80077849E+03     -1.09132766E+03      1.33682365E+03
      3.02602204E+02     -1.68010100E+02     -2.24879578E+02
     -1.18404574E+02     -2.05531321E+03      3.38050777E+03
     -8.26611572E+02      9.43478838E+02      2.38619952E+01
     -2.74022632E+02     -7.03968384E+02      2.78292307E+02
     -3.77243450E+02      2.83143039E+03     -1.10689319E+03
     -2.24230661E+03      2.96304380E+01      1.17157222E+03
     -4.39703575E+02      4.18273105E+02      3.43322336E+02
     -1.60954243E+03     -8.27160316E+02     -1.99699254E+03
      7.53026739E+02     -7.03414219E+02     -2.45554011E+01
      1.84698291E+02     -9.41912496E+01     -4.38691546E+02
     -1.15691318E+03     -1.37247409E+03      8.54303721E+02
      2.29575106E+03      1.68872604E+03     -1.27933374E+03
     -3.11349611E+03     -3.56120413E+02      5.65406592E+02
     -1.23490623E+03     -2.34206384E+02      4.38380215E+02
      1.21196300E+03      5.90437034E+02     -2.04305904E+03
     -1.06544326E+03     -2.38942151E+03     -1.06482848E+03
      2.41316574E+01     -2.72625852E+02      3.37749791E+02
  }
}

Hamiltonian = DFTB {
  SCC = Yes
  SCCTolerance = 1e-6
  MaxSCCIterations = 200
  ForceEvaluation = Dynamics
  MaxAngularMomentum = {
    C = "p"
    H = "s"
  }
  Charge = 0.0
  SpinPolarisation = {}
  Eigensolver = Standard {}
  Filling = Fermi {
    Temperature [Kelvin] = 300.0
  }
  SlaterKosterFiles = Type2FileNames {
    Prefix = "../../pbc-0-3/"
    Separator = "-"
    Suffix = ".skf"
    LowerCaseTypeName = No
  }
  KPointsAndWeights = {
    0.0000000000000 0.0000000000000 0.0000000000000 1.00000000000000
  }
  Dispersion = LennardJones { 
    Parameters = UFFParameters {}
  }
}

ParserOptions = {
  ParserVersion = 3
}
