Geometry = GenFormat {
<<< "system.gen"
}

Driver = VelocityVerlet{
  Steps = 100000
  TimeStep [fs] = 0.2
  MDRestartFrequency = 5
  Thermostat = None {
    #InitialTemperature [Kelvin] = 300.0
  }
  Xlbomd{ 
    IntegrationSteps = 6 
    MinSccIterations = 2
    MaxSccIterations = 200
    SccTolerance = 1e-6 
  }
  Velocities [m/s] {
      9.94210130E+02      9.01031198E-01     -7.94356440E+02
     -2.47248052E+03     -2.70622282E+03     -1.85606412E+03
      1.89015054E+03     -1.93686938E+03      3.47398297E+03
      1.08863875E+03      1.67024079E+02     -9.61408557E+01
      2.55613871E+03      9.77868271E+02      1.14143666E+03
      1.19723714E+03     -6.85564103E+02      2.19864061E+03
      6.50971925E+02      3.33544375E+02      2.28726782E+02
     -1.04357325E+03     -5.21603434E+02      2.03570140E+03
      2.51029855E+03     -1.22269451E+03     -8.51076978E+02
      2.56318474E+02      8.41120448E+02      2.04576981E+02
     -1.18426142E+03     -1.20278486E+03     -7.70427676E+02
      1.25754121E+03     -7.63935133E+02     -8.72052711E+02
      9.49468556E+01      5.14742125E+02     -5.43790840E+02
      1.42300268E+03      2.90778964E+02      1.44923591E+03
      2.38066896E+03     -1.98182488E+03      8.36978477E+02
     -7.95284654E+01     -3.29242175E+02      2.65281452E+02
     -1.99715169E+03     -7.39315504E+01      2.22319793E+03
     -1.69241881E+03      2.82802454E+02      1.41631920E+02
      7.51185963E+02     -1.90972672E+02     -4.22171454E+02
     -3.53328821E+02      2.31780291E+03      2.61545811E+02
     -9.29100883E+02      2.08206932E+03      2.28670237E+02
      1.61973777E+02     -3.66413735E+01      3.67284171E+02
      8.09822323E+02      4.07083303E+03     -2.04003528E+03
      6.81860679E+02      5.77547738E+02     -2.57384403E+02
      3.50868814E+02     -1.13046827E+02      9.42609770E+01
      8.85756835E+01      2.77834412E+03      2.52888755E+03
      2.14951225E+03     -1.27533976E+03     -1.47497279E+03
     -1.06171018E+03     -1.25067303E+03     -2.78067741E+03
      8.51489517E+01     -2.90613037E+02      4.48463963E+02
      7.00343289E+02      5.49862995E+02     -2.42411835E+03
      1.80981405E+03     -1.37867796E+03      8.38323069E+02
     -2.11691673E+01      2.09389834E+01      1.34098212E+03
      3.15977378E+02     -6.54591764E+02      5.97949485E+02
     -9.66141231E+02      1.08126836E+03     -2.57150187E+03
     -9.80995726E+02     -2.97058269E+03      1.96461854E+03
      2.96769578E+02      3.57364192E+02      6.88879468E+02
      1.53436169E+02      8.66889163E+02     -9.11829331E+02
      1.31288052E+03     -4.19005127E+03      3.33627020E+03
     -2.52956991E+02     -9.74206906E+02      2.93648988E+02
      2.93138554E+03      1.94461743E+03     -2.96749982E+03
     -2.74200676E+03      2.11955626E+03     -1.85340537E+02
      5.30914827E+02     -5.04067588E+02     -1.49671010E+02
     -2.83608984E+02      1.42098785E+03     -4.19317426E+03
      1.70836770E+03     -1.59630473E+02      3.08185135E+02
      2.29774404E+02      1.49584440E+02     -4.65031613E+02
      3.21341387E+02      2.65869853E+02      8.95536428E+02
      1.49979001E+03     -1.44038637E+03     -4.41406980E+02
      1.93085468E+02      4.43348700E+02      3.58628033E+02
      7.03980970E+02     -1.08899119E+03      3.71253060E+02
      2.26897078E+03     -1.12482396E+03      1.10810972E+03
      3.59190316E+02     -5.45116011E+02      3.17781327E+02
     -1.85564456E+03      1.30604584E+03      1.65375713E+03
     -1.70693297E+02     -2.29479681E+03     -1.87582350E+03
      1.04040132E+03      5.87175190E+01     -3.08261285E+02
     -2.55403406E+03      1.17593993E+02      2.03809124E+03
      5.42097573E+01      7.14482467E+02     -1.43791017E+03
      1.68814229E+02      1.41110000E+02     -6.97793759E+02
     -4.18790679E+02     -3.43025833E+03     -7.71035658E+02
      2.67881136E+03      2.43150803E+03      5.32127396E+01
     -5.32304525E+02     -2.53264296E+02     -2.50823839E+03
      6.70497880E+02      1.11373669E+03      6.33545154E+01
      8.03971339E+02      6.12788964E+02     -2.14807817E+03
      1.89910410E+02     -2.03070821E+03      1.46471848E+03
     -2.42816686E+03     -4.26675439E+02      7.89933666E+02
     -4.11358766E+01      6.41710739E+02      1.76683194E+02
     -1.24469381E+03     -2.27765021E+03     -1.19280360E+02
     -2.09239841E+02      3.78101043E+03      2.08821920E+03
      6.47760560E+02     -2.03538772E+02     -5.75633061E+02
      2.91589911E+03     -3.70825636E+03     -4.12851043E+03
      6.75139265E+02     -1.11791656E+03     -1.03520855E+03
      4.33603063E+02      2.52317517E+02      3.67508987E+00
     -1.07815839E+03      4.22312692E+02      1.48698669E+03
      4.15385523E+02      1.39763766E+01     -1.16449602E+03
     -4.07821014E+02      2.20529999E+02     -2.06442026E+01
      1.49812312E+03      2.37541063E+03     -8.14111699E+02
      2.82214313E+03      5.58611903E+02      2.63365717E+02
     -3.07255901E+02     -3.32929210E+02      1.01542340E+02
     -1.67554276E+03      9.83776248E+02      1.08278317E+03
     -8.99446521E+01     -1.35055089E+03     -1.70962271E+03
      4.23759174E+02     -9.14514189E+02     -1.49427541E+02
      2.39280538E+03     -1.72155039E+02      2.50227308E+02
     -1.50427870E+03     -2.67008374E+03     -1.04674164E+02
     -7.79740444E+02     -4.48676543E+01     -3.77611591E+02
      5.50126278E+01     -1.73229670E+03     -1.39690264E+03
     -5.91837658E+01      1.59905443E+03     -8.92626929E+02
     -6.80019732E+01      3.19560947E+02     -1.60762753E+02
      2.69511726E+03     -2.11020258E+03      1.61824275E+03
     -9.88190506E+02      7.27565243E+02     -3.50075485E+03
      3.56425467E+02      2.32386704E+01     -9.03565099E+02
     -2.32971900E+03      1.11250868E+03     -8.12801931E+02
      1.08521352E+02     -3.74273809E+02     -1.52782653E+03
     -9.33090114E+01     -1.16642534E+02     -1.32706416E+03
      2.56481059E+02     -6.84942158E+01     -4.23717215E+02
      6.79290698E+02     -7.51123269E+02     -1.76043485E+03
     -3.20957746E+02     -3.57289556E+02      7.16794306E+01
     -2.23833457E+01      3.54531618E+02      3.86589622E+02
      2.95322983E+02     -5.57392897E+02      4.32799136E+02
     -8.30476014E+01      1.86782360E+03     -2.09180414E+03
      2.87207421E+03      5.02437331E+02      2.07530253E+03
      2.37484581E+02      3.92010751E+02      4.20092806E+02
      4.84656133E+02     -2.46699300E+03      3.77076248E+02
     -5.30367846E+02      2.83985413E+02     -1.77268057E+03
      5.72971516E-01     -3.89712951E+02     -3.78178459E+01
     -1.76184748E+02     -1.60659924E+03     -2.83019770E+03
      3.07632788E+03      1.11480122E+03     -1.57953508E+03
      7.46311675E+02     -6.53965038E+01     -8.44489882E+02
      8.54231613E+02     -1.50855470E+03     -2.89760256E+03
      1.90649857E+03      1.67720715E+03      1.57222315E+03
      1.52190279E+02     -1.35692083E+03     -6.71370575E+02
     -1.63577064E+03     -8.43815443E+02     -4.27961513E+02
      6.55953754E+02      3.06612256E+02     -2.89455573E+02
     -2.21041470E+02      3.60109703E+02      4.44581109E+02
      8.00951162E+02      7.07020651E+02     -2.98668701E+02
     -1.77125612E+03      2.31866966E+03      2.79069441E+03
      1.14183945E+03      1.01198524E+03     -1.24287288E+03
     -1.03264938E+03      2.49253193E+03      2.26940568E+01
      3.19622809E+02      5.22204121E+02     -2.00825255E+03
     -1.95197816E+02      1.70872914E+02      4.99198244E+02
     -1.84630597E+03      1.92948935E+02      1.03881702E+03
     -6.09793200E+02     -9.13780604E+02      1.02862492E+03
      3.57158830E+02     -2.03214955E+02      1.50017895E+02
     -2.60054109E+03      1.13224116E+02      5.15122882E+02
     -1.19073967E+03      1.68484582E+03      1.80637637E+03
     -3.68438462E+03      1.25886351E+03     -2.09860203E+03
     -6.35975517E+02      2.06195048E+02     -9.34233060E+01
     -1.39505906E+03      4.43693017E+02      3.29596781E+03
      2.57768390E+03      3.71805356E+03      5.90763462E+02
      1.06921268E+03     -1.48211417E+03     -2.78539557E+02
      2.80011020E+02     -4.60246937E+02      1.39951436E+02
     -1.59087646E+03     -1.15275819E+03      3.23398419E+03
      3.73164638E+03      3.00783935E+03      2.72399910E+03
      5.69402431E+02      8.88993523E+02     -5.15346852E+02
      1.27737588E+03      4.47322089E+02      1.10847350E+03
      7.45979414E+01      1.04775573E+03      5.68219084E+02
      9.73065074E+02      4.50912118E+02     -9.64783183E+01
     -1.38077109E+03      1.05177291E+03     -2.12781032E+03
     -1.40530189E+03     -1.80767182E+03     -1.70865178E+01
      3.02073540E+02     -2.12066537E+01     -2.12059708E+02
      1.43312144E+03      1.14337226E+03     -1.06229347E+03
      1.57242011E+03      2.86295821E+02     -1.70383456E+02
      6.66952493E+01     -7.23367155E+02     -8.08431073E+01
      1.30198471E+03      1.16652284E+03      1.95057389E+03
      2.91963317E+03      1.34673554E+03     -2.44888467E+03
      1.97250109E+02      3.99268225E+02     -4.02337307E+02
      2.58343150E+03     -1.76745643E+03      9.54512022E+02
      2.43007219E+02     -1.17273440E+03     -8.72247265E+02
     -2.70509307E+04      7.20617357E+03      1.79103664E+04
     -2.86748955E+03     -9.24303185E+02     -5.10923790E+02
     -9.40449644E+00      4.98237828E+02     -7.54902974E+02
      4.49109938E+02      7.26194691E+02     -9.12752008E+02
     -5.95733162E+02      1.52646783E+03     -2.65532318E+03
      2.36496018E+03     -5.66285117E+01      1.04839253E+03
     -4.58441270E+02     -3.84611593E+02     -1.98170497E+02
      1.45003124E+03      6.04195932E+02     -1.89890252E+00
      2.53949346E+02     -3.06139312E+03     -6.80439277E+02
      5.92930840E+02      4.80935626E+02      1.04974520E+03
      5.51546906E+02     -4.72548006E+02     -1.83778009E+02
     -3.85561090E+03     -3.51886928E+02     -5.52148236E+02
     -1.87514539E+03      2.16279322E+03     -3.91895613E+02
     -5.94172796E+02     -6.57336112E+02     -2.19242117E+03
      7.72551309E+02     -1.77552578E+02      2.09564683E+02
      2.60580603E+03      1.00469194E+03     -1.54992276E+03
      7.29979145E+02      8.72337872E+02      2.71624215E+03
      6.16957279E+02     -6.14371509E+01      1.47201113E+02
      2.28575953E+03     -2.75761910E+02     -1.11836372E+03
      2.02958458E+03     -3.15109490E+03      2.09660030E+03
     -2.72399225E+02      2.21999945E+02     -4.48795667E+02
      2.96165478E+03     -1.88448099E+03     -3.40428755E+02
     -2.36512927E+03     -2.22798175E+02     -4.27151241E+03
      6.21775211E+02     -2.25925993E+02     -7.38422423E+02
      9.84223577E+02     -1.62269691E+03     -2.03578137E+03
     -1.26450737E+03      1.56520210E+02     -1.64466081E+03
      3.66787059E+02      3.70250797E+02     -4.75697797E+02
      6.71351498E+02      7.55931829E+02     -2.58313674E+03
     -1.15477543E+03      1.16014670E+03      1.06136780E+03
      1.04796929E+02     -1.01763286E+03     -9.60032501E+01
     -9.50782467E+02     -4.68304273E+02      5.35115776E+02
     -2.30545795E+03     -1.33019958E+03     -1.51602414E+03
     -1.40008882E+02      1.39743307E+02     -5.17917890E+02
      1.47591005E+03     -1.78498086E+03      7.34874834E+02
      4.98020084E+02     -1.40574671E+03      1.66967855E+03
     -2.35880238E+02     -4.76645231E+02     -1.28964983E+02
     -2.55836438E+02     -4.50135326E+02      1.88369222E+03
     -9.32299624E+01     -4.71453284E+03      2.37690766E+03
     -1.01524244E+02     -4.68405951E+02      9.13227141E+01
      1.53270217E+03     -4.32976970E+03      3.99964926E+01
     -3.07853293E+02      6.17872237E+03     -1.15823319E+03
      2.84123553E+03     -1.72273706E+03      2.01174269E+02
     -7.14946520E+02     -5.00434817E+02      2.83498892E-01
     -2.53680174E+03      2.06673637E+03     -8.06134997E+02
      8.89602474E+02     -7.93535972E+02      1.90706676E+02
     -3.37410147E+02     -2.45007646E+03     -2.32861815E+03
      2.78704372E+01      2.00387222E+02     -1.02365966E+03
     -1.57856608E+03      2.56083575E+03     -2.75623512E+02
      2.93740389E+02     -1.29928291E+02     -9.22256101E+02
      3.17540478E+02     -4.46606237E+02     -7.58912114E+01
      1.20229671E+03     -1.00109210E+02     -5.76836019E+02
      1.06526382E+03      3.29124770E+02     -7.02566178E+02
     -6.53566289E+02     -3.18704906E+02     -5.56911856E+02
     -1.41287927E+03      1.17663707E+03     -3.73033265E+01
     -1.31350322E+03      6.36557834E+02      2.42967176E+03
      7.91024892E+01      3.24204385E+02     -2.89413677E+02
      8.74450460E+02     -7.45752259E+02     -4.73369009E+01
      3.63828842E+03     -1.30866744E+02     -5.26279213E+02
     -4.95188379E+02     -2.22444237E+02      1.49759195E+02
      9.83083116E+02     -1.56719197E+03     -2.95761086E+02
      1.57246394E+02     -1.04642358E+03     -1.89945399E+03
      5.59740548E+02     -5.02537645E+01     -5.46189372E+02
     -6.60927632E+02      5.59163147E+02      1.35830509E+03
      6.93924403E+02     -2.77177504E+03      7.85831913E+02
      1.21054452E+02      6.96822070E+02     -4.44959479E+02
      8.65203722E+01      1.13654203E+03     -1.91816164E+03
     -1.33913500E+03     -4.54923476E+02     -1.15606463E+02
     -1.24380569E+02     -2.56961222E+02     -9.90796989E+01
      3.65277046E+02     -1.04062712E+03     -2.16996360E+03
     -8.52555683E+02      1.46508566E+03      8.78055385E+02
      6.24530744E+02     -4.45025342E+02      1.46740875E+02
     -2.01167825E+02     -3.17743671E+03      1.06222515E+02
      1.57276656E+02     -9.01909319E+01     -7.86307319E+02
      1.08353796E+03     -8.20454976E+02     -5.22447545E+02
      4.68044202E+02     -6.23272739E+02      4.09100203E+00
      6.97159927E+02     -1.24911123E+03     -8.46863470E+02
      1.09634057E+03      7.54076490E+01     -1.33899027E+03
      1.38958140E+03     -2.79769634E+03      6.60491601E+02
      5.40180536E+02      1.67889290E+02     -3.83062249E+02
      1.30726171E+03     -3.38501893E+03     -1.86711565E+03
      8.10619765E+02     -3.21290297E+01      2.14498996E+02
      5.87233184E+02     -3.55977983E+02      5.04102664E+02
      1.60148584E+03     -7.56141069E+01      2.85558830E+02
     -5.41954413E+02     -3.92113925E+02     -7.17234773E+02
      3.62169247E+02     -4.11008935E+02      2.74681055E+02
     -2.10888173E+02      8.54551508E+02     -1.12332989E+03
      1.15137027E+03      1.05708386E+03     -4.76671681E+02
      3.86471311E+02      7.05230910E+01     -2.04576237E+02
     -9.31566167E+02     -5.90929080E+02     -1.19498804E+03
      8.57460607E+02     -1.75788652E+03      2.88237330E+02
      2.15977373E+02      3.56668820E+02     -2.88955698E+02
     -1.15008043E+03      1.55407743E+03     -7.78247443E+02
     -8.35811467E+02      6.88349614E+01      6.49760352E+01
      6.23240807E+02     -3.74308668E+02      5.94653921E+00
     -9.45134419E+02      2.35886425E+02     -1.68553767E+02
      2.84571110E+03      3.16406880E+03     -2.14138549E+01
      1.11350061E+03     -4.66253317E+02      2.89779912E+02
      2.92599654E+03     -1.29623345E+03      2.07060092E+03
     -1.36173797E+01      1.00154061E+03     -4.66310124E+02
      5.05561364E+02     -6.06352521E+02      1.34045634E+02
      1.29365020E+03      1.98387205E+03      1.20590969E+03
      8.93197460E+02      1.31238941E+03      1.21155807E+02
      7.91645565E+02     -3.62134108E+00      2.23318188E+02
     -1.52648712E+02      4.97789982E+01     -3.09536969E+03
      9.71097746E+02     -1.63440563E+03     -4.13507183E+02
      6.06147720E+02      1.11387118E+03     -1.57564619E+03
     -3.47773833E+02      9.38292872E+02     -5.89300944E+02
     -1.46328744E+03     -8.30992073E+01     -1.11207406E+03
      1.37739591E+03     -2.89574542E+02     -2.31063135E+03
     -4.51590482E+02     -4.06878148E+03      9.66914223E+02
      2.15412979E+02     -1.14182821E+02     -4.06701000E+02
     -1.94344087E+03      2.61746180E+03     -2.26507455E+03
      1.68085925E+03     -1.47473616E+03     -1.67887165E+03
     -1.16033345E+02     -2.89770855E+02     -9.06656024E+02
      1.63116488E+03      1.19452908E+03      1.34662890E+03
      4.90670779E+02      5.26515022E+02      3.01581551E+01
      2.12615001E+02      2.65855850E+02     -7.10844808E+02
     -1.31433483E+03      1.89491629E+03     -3.59404488E+03
      6.61636977E+02     -3.32865527E+03      8.30937526E+02
      6.44989463E+02      2.62462429E+02      5.87373320E+02
      1.17285166E+03     -1.00048081E+03     -6.44686179E+02
      2.64938531E+02      1.74741127E+03      9.25676869E+02
     -7.80592010E+02     -4.75319652E+02     -3.08643617E+02
      1.12870930E+03      7.77398827E+02      1.33223655E+03
      3.72667871E+02     -3.42611482E+03     -1.41771391E+03
      1.04242146E+02     -5.60353221E+02     -1.33776458E+01
      2.38069528E+03     -2.65797123E+03      4.83744147E+02
     -1.92259240E+03      1.00027400E+03     -7.51032309E+02
     -3.78729193E+02     -2.20401012E+02     -3.19018550E+02
     -4.28143539E+02     -1.94317471E+03      1.14178743E+03
     -9.92424411E+01     -6.11547067E+02     -2.21494335E+03
      1.58147729E+02      1.76308794E+02     -4.97267054E+02
      9.48532196E+02     -3.08520001E+02      3.94758553E+01
     -5.68693157E+02      5.17165629E+02      9.54238979E+02
     -2.01689023E+02     -4.70635337E+02     -8.68185666E+02
     -4.81360238E+02     -7.91835280E+02     -7.51868894E+02
      3.48103285E+02      1.08270920E+03     -1.17465815E+03
      1.50446667E+03      9.17967596E+02     -1.64724028E+03
      3.46309477E+02      2.40677740E+01      8.97967105E+01
      3.71501552E+02     -7.41149359E+02     -2.99199105E+03
      1.09569393E+03      4.61455222E+02     -1.04506690E+03
     -5.56616605E+02     -2.05032518E+03     -7.63144922E+02
     -1.50206250E+02     -1.11584224E+03     -3.27032828E+02
     -4.37561566E+01      2.47738342E+03      6.78184483E+02
      1.53476922E+03      7.34372980E+02     -1.11429708E+03
      4.85927697E+02     -9.80223826E+01      4.15473451E+02
     -5.31083602E+02     -7.16179674E+02     -9.05153354E+01
      9.67567292E+02     -3.04047176E+03     -2.35972188E+03
      8.19646916E+02      8.47716291E+00      5.41777023E+02
     -1.28426780E+03     -1.88301753E+03     -1.64631388E+03
     -2.96598056E+02      5.78262230E+02     -8.71036635E+02
     -3.83840087E+02      2.78019051E+02      5.14095027E+02
      2.40075089E+02      7.56684924E+02      4.19282758E+02
      1.23907291E+03      5.14171317E+02      4.22846684E+01
     -3.22063155E+02     -7.32544708E+01      1.40641406E+02
     -6.80451645E+00      2.48295019E+03     -1.96119734E+03
      8.74738777E+02     -6.93420622E+02      1.32657844E+03
      9.57193230E+02     -8.44693015E+02     -4.55030274E+02
     -3.57106388E+03     -1.71592149E+03      8.35746977E+02
     -1.59670846E+03      7.30400512E+02     -1.88264083E+03
      1.89141050E+02     -6.24541558E+02      4.54243740E+02
     -7.41051366E+02      5.24090170E+02     -3.45889757E+03
      3.44640507E+02     -3.46347383E+02      2.54268212E+03
      1.41171541E+02      1.17531125E+02      4.58040973E+02
      2.33145809E+03     -3.08396474E+03     -1.99299924E+03
      1.10633746E+03      2.40111590E+03      1.24133164E+03
     -7.02406768E+02     -4.16090616E+02     -1.83122352E+02
      1.07320826E+03     -1.29334956E+03      1.53294506E+02
     -5.09300326E+02     -1.89394740E+03     -3.73216519E+02
     -1.07747740E+03      5.84787209E+00      1.93250968E+03
     -1.29629815E+02     -1.17669257E+01     -1.25721889E+02
     -1.80489768E+03      2.11415233E+03      1.47358710E+03
      2.08258420E+03      9.55248658E+02     -2.98974756E+03
     -7.35044767E+02      2.15438061E+03      2.56755425E+02
      8.77778368E+02      2.65269250E+02      1.92060134E+02
     -2.68784032E+03     -7.58510161E+01      6.11331184E+02
     -1.44843902E+03      1.19095461E+03     -1.19813376E+01
      6.65496257E+02      4.07196940E+02     -3.58809748E+02
      1.02327607E+02     -7.40173106E+02     -1.77242642E+03
      3.89701537E+03     -3.44669522E+02      1.54009448E+03
     -6.15332334E+01      4.87226766E+02     -1.63250354E+02
      6.23567650E+01     -2.08903438E+03     -3.21355802E+02
      8.14970936E+02      1.29625811E+02      1.47666658E+03
      3.39397286E+02      4.85649792E+01     -5.14826155E+02
      1.16445178E+03     -1.65784513E+03      2.75781909E+03
      2.03295071E+02     -3.98359408E+02     -8.63704110E+02
     -7.46190403E+02     -3.87746306E+02     -3.73402218E+02
      8.03063913E+02      6.52588246E+02      2.19189947E+02
      2.36568915E+03      6.99413021E+02     -7.66685418E+02
     -5.28512295E+01      3.06505263E+02      2.76658018E+01
      9.39031975E+02      1.90452475E+03      2.47847610E+03
      4.37964684E+03     -1.89433260E+02      2.01816121E+02
      4.07386024E+02     -1.18429761E+02      1.71110534E+02
      4.28969174E+02      2.31223263E+02      3.12784304E+03
     -3.56822603E+02      1.93437378E+02     -3.39292978E+02
     -4.59468392E+02      4.19288369E+02      1.92185377E+02
     -8.81427944E+02      1.72662428E+03      6.26074194E+02
      1.65929367E+03      2.35893138E+03      2.19146256E+03
     -3.98883811E+02      2.88736623E+02      1.65689535E+02
     -8.85323467E+02     -5.49753537E+02      3.02884774E+03
     -8.68819723E+02     -1.55015634E+03     -4.97906066E+03
     -1.29015170E+03      7.43723699E+02     -1.32462583E+03
      4.83281127E+02      6.99915108E+02     -9.07570175E+02
     -3.67891523E+02      1.19637299E+03      1.62175374E+03
     -3.58492482E+02      1.91917350E+02     -3.63417342E+03
      1.77651361E+03      1.15649572E+03      2.93390447E+03
  }
}

Hamiltonian = DFTB {
  SCC = Yes
  SCCTolerance = 1e-6
  MaxSCCIterations = 200
  ForceEvaluation = Dynamics
  MaxAngularMomentum = {
    C = "p"
    H = "s"
  }
  Charge = 0.0
  SpinPolarisation = {}
  Eigensolver = Standard {}
  Filling = Fermi {
    Temperature [Kelvin] = 300.0
  }
  SlaterKosterFiles = Type2FileNames {
    Prefix = "../../pbc-0-3/"
    Separator = "-"
    Suffix = ".skf"
    LowerCaseTypeName = No
  }
  KPointsAndWeights = {
    0.0000000000000 0.0000000000000 0.0000000000000 1.00000000000000
  }
  Dispersion = LennardJones { 
    Parameters = UFFParameters {}
  }
}

ParserOptions = {
  ParserVersion = 3
}
