Geometry = GenFormat {
<<< "system.gen"
}

Driver = VelocityVerlet{
  Steps = 100000
  TimeStep [fs] = 0.2
  MDRestartFrequency = 5
  Thermostat = None {
    #InitialTemperature [Kelvin] = 300.0
  }
  Xlbomd{ 
    IntegrationSteps = 6 
    MinSccIterations = 2
    MaxSccIterations = 200
    SccTolerance = 1e-6 
  }
  Velocities [m/s] {
     -7.75069800E+02      2.38188083E+02     -1.59250826E+02
      1.30639630E+02      4.89557006E+02     -3.51210534E+03
     -1.64457757E+03      6.35616898E+02     -7.54184746E+02
     -1.93124389E+02     -2.13492692E+02     -1.45512571E+03
      2.76775016E+03      1.38895756E+02      1.15824334E+03
      2.75262200E+02     -3.15011734E+02      1.64277267E+03
      2.32220112E+02      6.74782150E+02     -2.22665123E+02
      1.92546434E+02     -7.41352488E+02      6.50465198E+02
     -1.59313525E+03      7.23498101E+02      1.65529549E+03
      3.63686634E+02      3.92540883E+02     -1.24474457E+02
     -4.32945155E+02     -1.75538087E+03     -8.21719149E+02
     -1.44340162E+03      1.23238252E+03      2.03126104E+03
     -3.88203241E+02     -6.08134431E+01     -3.82415488E+02
     -8.53299388E+02     -9.53950355E+02      1.04655054E+03
     -2.04297975E+03      2.15799168E+03      2.89602220E+02
     -1.17037809E+02     -2.10410958E+02      3.59874601E+02
     -1.45598698E+03      1.24914679E+03     -3.80695644E+03
     -1.20211667E+03     -3.61726367E+02      1.03103841E+03
      2.78800157E+02     -4.80234623E+02      7.67750176E+01
      9.86647585E+02      1.32697300E+01     -8.50551035E+02
      1.39528373E+03      1.31520617E+03     -5.44017480E+02
     -5.65108163E+02      9.37417144E+02      1.69568307E+02
      1.88918383E+03     -2.14613239E+01     -9.24276423E+02
     -1.79819086E+03     -1.15266175E+03     -3.23221751E+03
      2.26946568E+02      1.04914443E+03     -1.44511387E+03
      1.60453148E+03     -2.17590574E+03      8.62894890E+02
     -3.50304044E+03      4.04858312E+02     -3.65078358E+02
      4.37168947E+03      1.21588810E+03     -9.85301816E+02
      1.14465761E+02     -1.08891370E+02      3.37757491E+02
      1.88031613E+03      4.94787320E+02      2.91810357E+03
     -2.09824443E+01      9.25300377E+02     -1.07925382E+03
      2.47988340E+03     -2.21514455E+03     -1.51312258E+03
      8.08912744E+02     -6.57560987E+02     -4.53909249E+02
      5.02865944E+02     -6.75295821E+02     -5.86566974E+02
     -1.69073667E+03      8.27897844E+01     -3.65464747E+02
     -7.04175989E+01      4.28425350E+02     -8.64979057E+00
      1.34082203E+03      2.11415911E+03      1.75687396E+03
      5.80617502E+01     -3.29554909E+02     -1.56134620E+03
     -1.26296256E+01      3.62657726E+02      6.44460833E+02
     -9.18472972E+02     -1.29880585E+03      1.68435053E+03
      3.58900160E+02      1.18969596E+03     -8.15424170E+02
     -6.72800965E+02      2.20840469E+02     -5.93316270E+02
     -3.76769031E+03     -4.08944756E+02      5.48253462E+02
     -4.14148880E+03     -1.41476516E+03      9.52002120E+01
     -1.34261365E+02      5.77225261E+02     -2.15546983E+02
      2.77895087E+01      1.09533800E+03      2.76489957E+02
      5.90500622E+02      7.87486919E+02     -1.56228325E+03
      2.01325097E+02     -3.07403481E+02      3.04027330E+02
      1.57010430E+03     -1.09015320E+03     -1.04058292E+03
     -6.62654217E+02     -1.06577075E+03      7.63780906E+02
      2.57047443E+02      2.03316741E+02     -3.95817405E+02
     -3.22952875E+03     -1.79326334E+03     -1.80073964E+03
     -9.44389214E+02      3.48642031E+02     -9.63490373E+01
      3.73245029E+02     -3.30459792E+02      7.96354047E+01
      2.24760449E+03      1.75365965E+03     -1.98359737E+03
      2.39593058E+03      1.12876189E+03     -4.90396032E+02
      1.00802075E+03      5.07852008E+02     -2.75092040E+02
      5.40745889E+02     -1.26748219E+03     -2.69476972E+03
      5.36810447E+02      2.55039693E+03     -6.38214711E+02
      7.76628468E+02      8.48024976E+02      6.94842111E+02
     -4.74543017E+02      5.52190163E+02     -5.54816724E+02
     -1.11319419E+03      1.27149155E+03     -2.15968536E+03
     -2.53687330E+03     -1.37121546E+03     -7.01337618E+01
      1.89842108E+03     -3.75926340E+03      2.26427934E+03
     -7.79426024E+02      6.47275691E+02     -2.49540907E+02
     -4.33034665E+02     -6.10263161E+01     -2.49269021E+03
     -1.79994800E+02     -1.21890165E+03     -1.89709985E+02
     -2.43454949E+02      1.61149840E+02      3.54485977E+02
     -1.63175940E+03     -1.80056591E+03     -1.66654713E+03
     -9.53937647E+02     -1.24720699E+03      2.29038223E+03
      8.44267620E+02     -2.86311882E+02     -1.98656681E+02
      3.80417743E+02      1.82259405E+03      2.74159206E+03
     -1.43930250E+03      3.91420132E+02      1.59519678E+03
      5.42004291E+02     -6.68793646E+02     -3.10858940E+01
      9.81942561E+02     -6.97367872E+02      1.33169502E+03
     -1.69133622E+03      1.40519508E+03     -1.59838241E+03
      4.73847701E+02      7.46503505E+02      2.41941042E+02
      5.19381058E+02     -5.23254498E+01     -2.20653106E+03
      1.27645731E+03     -9.32110542E+02      1.35508711E+03
      6.19879324E+02      4.17153230E+02     -4.22483802E+02
      1.08975749E+02      3.56285659E+02      2.65884210E+03
      1.30298188E+03      1.39925281E+03     -2.17145364E+03
      1.24692216E+02     -1.13289510E+02      7.30893881E+01
     -3.14794985E+03     -2.23416346E+03     -4.59836261E+02
      1.53101348E+03      5.52853883E+02      1.32145511E+02
      9.87148655E+01     -1.08588122E+02      7.29760901E+02
     -1.89266923E+03     -7.61511290E+02      7.81055885E+01
     -2.78597609E+02      2.40023626E+03      4.79170845E+02
      1.02575726E+02      4.31242723E+02     -7.81563788E+02
      1.43536959E+03     -1.05262348E+03      1.79603068E+03
      1.61209457E+02     -4.36762584E+02      8.85429827E+02
      2.07578526E+03      1.10436863E+03      1.57802325E+03
     -1.56250056E+02      3.45361734E+02     -7.56081410E+02
     -3.31223868E+02      1.60982270E+03      7.76593291E+02
      2.83205278E+03      6.13704362E+02      2.90686450E+03
      7.67532070E+02      1.66742028E+03      4.36206650E+02
      5.48391144E+02      8.14375096E+02     -2.73905675E+00
     -1.03146833E+01     -2.73902332E+02     -3.05865069E+03
     -1.55497497E+03     -4.24208474E+03     -1.82241891E+03
     -5.12415859E+02     -1.04069207E+02     -3.46761750E+02
     -1.95543281E+02      7.11752244E+02     -2.37608015E+03
      1.17073382E+03      1.72200621E+03      2.26717288E+03
      1.86938378E+02      6.65628567E+02      4.57757260E+02
     -1.38158549E+03     -3.26909335E+02     -1.51488305E+02
     -2.68452619E+02      3.93707267E+02     -1.41583880E+03
     -6.70466120E+02     -8.76176245E+02      1.03201376E+02
      1.18132295E+03      6.92337669E+02     -3.03471772E+03
     -5.04494197E+02      1.15534542E+03     -5.42242667E+02
     -9.98395428E+01      9.13920677E+02     -5.51246283E+02
      3.37825511E+01     -8.59050502E+02     -8.87586978E+02
      1.33394739E+03      9.59329101E+02      2.13897887E+03
     -4.87013035E+02      3.72296084E+02      1.40382597E+02
     -1.49342934E+03      1.90610331E+03      5.13877629E+00
      4.57678458E+02      2.82077894E+03     -6.52737907E+01
     -2.38381145E+02      4.10912830E+02     -6.58522447E+02
     -2.90598214E+02     -6.00130368E+02     -4.11199914E+02
     -7.07491914E+02     -1.95856168E+03      6.01915708E+02
     -1.52450998E+02      5.20316489E+02     -2.05618984E+01
      2.65057748E+02     -1.09305122E+03      2.19447932E+03
      6.26123492E+02      1.47748813E+03      9.00703849E+02
      1.64274997E+02     -3.83447370E+01      2.85592081E+02
      8.18802309E+02      2.59988313E+03     -9.02563582E+02
     -1.07521039E+03      6.79686983E+02      2.19060036E+03
      5.86143636E+02     -2.15815494E+02     -1.46247975E+02
      4.97538462E+02      1.15724673E+03     -9.71717267E+01
     -4.53511264E+02      3.92951092E+02     -6.77349435E+02
      5.75832819E+01      1.52177901E+02     -9.48753400E+02
      1.34700905E+02     -4.01022421E+02     -1.83894911E+03
     -8.66090856E+00      4.36885788E+02     -6.36108164E+02
      2.09217304E+03      2.60140065E+03     -2.97585789E+03
      3.10620737E+03      7.06185444E+02     -1.50891701E+03
     -4.33577671E+02     -5.93115705E+02      7.48076415E+02
      2.25532843E+03      1.84959626E+02     -8.04717534E+02
      1.79123874E+03     -1.26461528E+03     -5.42446018E+02
      6.77393372E+02      1.01013760E+03     -3.26178670E+02
      2.73106397E+03      8.30297524E+02      1.11603532E+03
      8.91319452E+02     -9.23049710E+02     -2.93182625E+01
      2.17017289E+02      4.78231761E+02     -5.50807440E+02
      1.05349569E+03      1.55022738E+02     -2.45363741E+03
     -1.26956417E+03     -2.90151794E+02     -3.24712492E+02
      9.41973372E+01     -4.61209500E+02      4.73945228E+02
      2.47283910E+03      9.80792137E+02      1.78544021E+03
      8.02849636E+02     -1.98567720E+03      1.88050857E+03
      3.77544201E+02     -2.76233589E+02      4.10650788E+02
     -4.35663064E+02      8.72640498E+00     -9.48472479E+02
      1.58154015E+03     -2.50191741E+03     -2.68223212E+03
      1.02514154E+02      5.44345202E+01      8.65963057E+02
     -2.27938904E+02      1.12567959E+03      2.45310103E+03
      4.03516532E+01      8.31883472E+02      1.09089583E+03
      2.82090647E+02     -1.19095881E+02     -1.81307980E+01
      1.90884256E+03      1.74287659E+03     -2.44158499E+02
     -4.04982789E+02      8.16028226E+02     -6.73832021E+01
      2.46942784E+01     -5.07041292E+01     -2.21974894E+02
      1.94676715E+03     -2.44184656E+03     -4.17179239E+02
     -9.69755079E+02      2.28136512E+03      4.92822411E+03
     -2.10016951E+03     -1.02171869E+03      2.56679323E+02
     -5.85418320E+02      5.68698450E+02      3.81694199E+01
     -4.88409767E+02      1.41323791E+02      9.53024563E+02
     -5.54045982E+02      3.66970902E+03      1.03064027E+03
      4.87328284E+02     -3.61253808E+02      1.83644036E+03
     -3.48420724E+02      1.63838064E+01      2.81315337E+02
      1.60509670E+03      1.09352199E+03     -1.80845299E+03
     -2.83910339E+03      2.40798671E+03      1.83372326E+03
      5.53498138E+01     -4.66292889E+02      1.91108643E+02
     -1.44074059E+03      1.94454267E+02      1.55398821E+03
     -1.68937310E+02     -9.04137882E+00     -3.45333950E+03
     -2.88388443E+01      3.28638137E+02      1.07067526E+02
     -2.56135533E+03      1.76717750E+03     -5.06502272E+02
      2.17902108E+03      9.19271109E+02      1.63788237E+03
     -1.07653447E+02      8.64545518E+02      2.56592701E+02
     -5.28466234E+01     -2.17792936E+03      2.89390895E+03
      1.73627670E+03     -2.12015125E+03     -5.91842996E+02
     -8.35621279E+02     -2.40962390E+02      1.80240929E+01
      8.41154990E+02     -6.91915269E+02     -3.34861869E+03
      1.67919990E+03      1.91761238E+03      2.75144479E+02
     -3.11366191E+02     -5.33506954E+02      1.78282923E+01
      1.34474196E+03      2.84643252E+03      1.99552076E+03
      4.02935660E+02     -1.44392189E+03     -1.06355198E+03
     -4.00968901E+02     -3.15493330E+02      4.16818428E+01
      1.22514522E+03      1.16841748E+03     -2.14108167E+03
     -4.65040523E+02      1.92311549E+03      9.95188422E+02
      2.93491411E+02     -7.36973212E+02     -4.67376082E+02
     -1.15186788E+03     -1.13529205E+03     -6.55589479E+02
      8.62716024E+02      2.75284624E+02     -4.03785831E+02
     -2.58575877E+02     -6.62196053E+01      2.11893770E+02
      4.47139490E+02      1.04995086E+03     -4.71565107E+02
     -9.83483085E+02     -2.45922737E+03     -2.29926563E+03
      6.93870771E+02      1.99272115E+03     -3.29715063E+02
      3.23179108E+01      7.73078710E+02     -8.18813612E+01
     -2.83379499E+02     -9.78990630E+02     -1.35080852E+03
     -5.15142129E+02     -1.01006824E+02      7.77460267E+02
     -5.45343827E+02     -3.24662355E+02      8.61867362E+02
      1.72351392E+02     -3.89276774E+02      4.48103705E+02
      1.16880236E+03     -6.84664600E+02      5.95126096E+02
     -2.88765359E+03      5.72757671E+02      8.03969578E+02
     -2.82536707E+01     -7.07605041E+02      5.71673654E+01
      1.30342749E+03      1.68307859E+03     -1.06889109E+03
      1.81064863E+03      5.57366052E+02     -2.95266340E+03
     -1.30048909E+02     -6.97102634E+02      5.62783412E+02
      1.85763332E+03      4.28624284E+02     -1.00803063E+03
     -1.43824553E+01     -2.66282456E+03     -1.53589300E+02
      7.90933738E+01      1.92177927E+01     -7.37026972E+01
     -2.25094153E+02      4.86353236E+03     -1.93842066E+03
     -5.03251428E+02      1.77531198E+03     -2.18414488E+01
      1.02863298E+02     -1.09098372E+00      7.66618556E-01
      8.54466345E+02      1.36752633E+03      3.52673314E+02
     -7.61744869E+02     -3.77395704E+02     -1.38315626E+03
     -3.99988033E+02     -6.75586795E+01     -4.57079945E+02
      1.23251707E+03     -6.91314240E+02      1.82941382E+03
     -8.27476590E+02     -3.12547907E+02     -6.11917892E+02
      8.03059649E+03     -1.51841079E+04      1.34474145E+04
      1.12249704E+02     -4.28157548E+02      1.53247441E+03
      5.36821157E+02     -1.12011039E+03      1.37893314E+03
     -4.74113960E+02      4.74184688E+02     -5.13856058E+02
      2.51149782E+02      3.87830422E+02      8.68425895E+02
      5.21996384E+02     -8.25003648E+02      1.05589278E+03
     -4.77962474E+02      2.66426160E+02     -2.15964890E+02
      5.24264215E+02     -4.49224939E+02      6.90062579E+02
      2.17089886E+02      4.58554913E+01     -1.30097148E+03
     -2.01353912E+03      1.17177507E+03     -7.22141844E+02
      1.26325646E+02     -2.42850881E+02     -8.67220097E+02
     -1.11550636E+02     -1.15218705E+03     -1.54440181E+03
     -1.00438552E+03     -3.12897597E+03      6.20557909E+02
      5.31933468E+02     -3.80985639E+02      2.59169729E+01
     -2.28534630E+02     -7.07237548E+01     -2.43047992E+02
      1.95701974E+03      4.05624305E+02     -1.40611217E+03
     -4.58852945E+02     -1.39077343E+03     -1.33946929E+03
      3.58919392E+02      2.97511418E+02     -6.56959558E+02
     -1.23988794E+03     -2.68506791E+00      1.84018956E+03
     -2.01345824E+03     -1.38031050E+02      8.43293109E+02
     -7.09512945E+01      2.50318232E+02     -6.92657670E+02
     -1.98924616E+03     -2.01591004E+02      2.13639568E+03
     -2.17316686E+03     -8.73149909E+02     -1.12451461E+02
     -5.58092299E+02      1.36794156E+02      2.88348541E+02
      1.81271746E+02      1.61430665E+02     -2.63242424E+03
     -1.31060463E+01     -9.29519761E+02      5.65763392E+02
     -1.34048720E+02     -4.74310750E+02     -9.89501973E+02
      5.64343416E+02     -1.31967610E+02      2.21851142E+03
     -1.94119147E+03      8.18508709E+02     -3.66098853E+03
     -8.30626778E+02     -9.61151788E+02      9.42028919E+02
      6.62843818E+02      1.95253669E+03      7.48065388E+02
      3.60204822E+02      5.89975216E+02     -1.07281013E+03
     -8.19218085E+02     -5.30577344E+02     -6.80078855E+02
      1.34302245E+02      1.50860123E+03     -7.78134985E+02
     -1.85208792E+03      1.44671385E+03     -1.69419856E+02
     -2.17013697E+02      2.58879811E+02      5.02216289E+01
     -1.58429181E+03      1.69566609E+02     -1.28796845E+03
      6.04785958E+02      1.62555772E+03      1.37304484E+03
      7.28237768E+02      6.55159315E+02     -7.75076258E+02
      4.93937050E+02     -1.15231037E+02      1.56330474E+03
     -1.37690048E+03      2.86572034E+03     -1.07462855E+03
      1.52994746E+02      1.32567920E+03     -2.11383602E+03
      4.29541020E+02     -8.86390211E+02     -5.33530189E+02
     -5.63268282E+02      3.08124886E+03     -1.78902118E+03
     -2.61614702E+03      1.25132009E+03      2.56443244E+03
     -1.53849528E+03      1.78349320E+03      3.15289934E+03
     -7.33044772E+02      8.82490705E+02      3.12290037E+01
      1.56145811E+03     -3.01552991E+03     -1.22593619E+03
      8.32853650E+01     -2.50112465E+03      1.07845526E+03
     -2.34648994E+02     -2.77789623E+02     -2.00293934E+02
     -3.68872080E+03      1.56701588E+03     -2.58287426E+03
     -1.76310098E+02      8.25494216E+02      1.45002099E+03
      4.89301418E+01     -1.61166650E+02     -4.69126004E+02
      1.01206940E+03     -2.39754218E+02      3.71010147E+02
      3.57623217E+02     -6.46176879E+02      3.07898552E+02
      9.56842870E+01     -2.94014158E+02      3.64759064E+02
     -1.89894800E+03     -7.63066954E+02     -2.97345280E+02
     -1.61314323E+03      3.26754463E+02     -3.41986206E+02
     -1.75470939E+02      7.21656336E+02     -2.06056052E+02
     -2.77867348E+03      5.64035543E+02      2.44051228E+02
      8.28397979E+01     -4.59780775E+02     -1.07291251E+03
      7.20990759E+02     -1.69499642E+02      4.06681002E+02
     -1.03618376E+02      1.28323154E+03     -5.54999735E+01
     -1.64894020E+03      1.17997846E+03     -3.28503362E+02
      1.02902526E+02      3.87658560E+02     -3.85858522E+02
     -3.89762467E+02     -8.32978801E+02      3.49538948E+03
     -8.12616670E+02      2.76060202E+03     -2.26553955E+03
      6.37557527E+01      1.01997270E+03     -2.03305397E+02
      1.42833336E+02      1.01827045E+03     -9.06270870E+02
      1.42333558E+03      1.92813890E+02     -2.95652367E+02
     -2.93591264E+02      7.47140350E+02     -3.54721573E+02
     -2.20623860E+03      4.57765705E+02      4.89003249E+03
      1.88203061E+03      5.82986287E+02      5.24332120E+02
     -5.88976054E+01      8.18474621E+02     -7.68289496E+02
     -1.92037699E+02     -2.80158845E+02      2.27941920E+02
     -2.55673854E+03     -9.55992818E+02     -1.57229050E+03
     -8.43652398E+02      2.81296909E+03     -1.73136014E+03
      9.02692697E+02     -1.75955865E+02     -9.22884226E+02
     -9.44322572E+02     -3.47952801E+02     -1.48032745E+02
     -3.65060110E+02     -1.75381617E+03      1.78656969E+03
      7.62617052E+02      3.21696399E+03      1.02560144E+03
     -2.14939490E+02      5.47334607E+02     -5.11128673E+02
      5.03218681E-02      1.43109905E+03      3.82196053E+02
      3.55038660E+02      1.68938235E+03     -1.52412331E+03
     -3.47625744E+02      4.97604568E+02     -2.62660161E+01
      8.42950019E+01     -1.41897359E+03     -9.12701931E+02
     -2.06835389E+03     -8.11560082E+02      1.42271197E+02
      5.26842505E+02      4.39753232E+02     -4.26631063E+02
      8.11551999E+02     -7.08262113E+02      3.97185766E+02
     -4.75653657E+02      1.24971958E+02      1.50253507E+03
     -5.07338916E+02     -4.14168114E+02      5.01653403E+02
      7.02341265E+02     -1.33482873E+03     -1.26415162E+03
      2.52729719E+03      2.18210099E+03     -2.58539363E+03
      4.01016460E+01     -5.54445078E+02      9.82825073E+01
     -2.31310381E+03      3.54022479E+03      2.69766248E+02
      1.64621872E+03      8.59722153E+02     -2.00346602E+03
     -3.51302720E+02     -3.95290988E+02     -6.62730698E+02
      4.34754603E+02      3.11581167E+02     -1.24935200E+03
      5.75715152E+02      9.39665211E+02      1.02963931E+03
     -7.03229413E+02     -4.95001710E+02     -6.29411748E+02
     -8.77022042E+01      3.34994446E+02      1.59824058E+03
     -4.68363579E+02      1.02933323E+03     -9.77789334E+02
      1.12261127E+02     -3.69702285E+02      6.95588100E+02
      2.76374305E+03     -1.38562389E+03     -1.19475005E+03
      2.39789095E+02     -1.77027224E+02      1.55323025E+03
     -6.98517386E+02      1.12983398E+03      6.35973891E+02
     -1.02196856E+02     -1.57995500E+02      1.70025233E+02
      1.92890967E+03      3.58297972E+03     -5.10710032E+02
     -5.26213075E+02      9.23332982E+02      1.20666085E+03
      2.23435729E+03     -2.77922945E+02     -1.07489779E+03
     -3.39345690E+02      1.09156255E+03     -8.03273194E+02
      3.11596661E+03     -2.96869146E+03     -1.98827413E+03
     -6.02341090E+02      9.04828257E+02     -2.34042572E+03
     -5.42297614E+02      3.58282419E+02      2.33636877E+02
     -1.35222092E+03     -2.75036334E+02      1.72628409E+02
     -3.89486965E+02      6.18881984E+01      1.32566050E+02
     -5.92748934E+01     -3.06513303E+02     -3.20234933E+02
      1.20993305E+03     -6.23723779E+02      3.30841787E+03
     -3.25214145E+03     -1.21569727E+03      2.25592189E+03
      1.32858066E+02      5.91507744E+01      1.90772955E+02
     -2.15951141E+03      6.15303836E+02     -5.04506629E+02
      3.58256464E+03     -1.76216915E+03      9.06443597E+02
      2.88165155E+02      2.97463778E+02      6.90898035E+02
     -4.89059651E+03     -1.39618666E+02      1.88614264E+03
      3.10243889E+03     -4.80132203E+03     -9.39219384E+02
     -6.13656147E+02     -8.81920294E+01      9.40633504E+02
     -2.62993296E+03      4.60879590E+02     -1.77126302E+02
     -9.31814439E+02      1.71971982E+02     -8.89329720E+02
      9.50403593E+01      5.16295107E+02     -6.29323962E+02
     -1.98287552E+02      3.11873572E+03     -6.51873447E+02
     -3.79142356E+03      6.32913716E+01     -1.65983443E+03
     -3.13442991E+02      2.87571768E+02     -1.06446273E+03
      2.55832371E+02     -2.98473463E+03     -1.40207186E+03
      2.21989512E+03      8.01469294E+02     -1.35809010E+03
     -3.51776851E+02      6.79912620E+02      1.89495958E+02
     -1.14310760E+02      5.48857909E+02     -2.29677356E+03
     -7.75688478E+02     -2.05377711E+03      8.84814968E+02
      4.10623968E+02     -9.65867894E+02     -2.26635811E+03
     -7.63081820E+00     -2.20690963E+02     -4.19483923E+02
     -3.01171893E+03      2.34438509E+03      2.96053393E+02
      8.99898853E+02      2.38286912E+03      1.71676086E+03
     -2.60367526E+03     -2.53275938E+01      3.74860333E+03
  }
}

Hamiltonian = DFTB {
  SCC = Yes
  SCCTolerance = 1e-6
  MaxSCCIterations = 200
  ForceEvaluation = Dynamics
  MaxAngularMomentum = {
    C = "p"
    H = "s"
  }
  Charge = 0.0
  SpinPolarisation = {}
  Eigensolver = Standard {}
  Filling = Fermi {
    Temperature [Kelvin] = 300.0
  }
  SlaterKosterFiles = Type2FileNames {
    Prefix = "../../pbc-0-3/"
    Separator = "-"
    Suffix = ".skf"
    LowerCaseTypeName = No
  }
  KPointsAndWeights = {
    0.0000000000000 0.0000000000000 0.0000000000000 1.00000000000000
  }
  Dispersion = LennardJones { 
    Parameters = UFFParameters {}
  }
}

ParserOptions = {
  ParserVersion = 3
}
