Geometry = GenFormat {
<<< "system.gen"
}

Driver = VelocityVerlet{
  Steps = 50000
  TimeStep [fs] = 0.2
  MDRestartFrequency = 5
  Thermostat = None {
    #InitialTemperature [Kelvin] = 300.0
  }
  Xlbomd{ 
    IntegrationSteps = 6 
    MinSccIterations = 2
    MaxSccIterations = 200
    SccTolerance = 1e-6 
  }
  Velocities [m/s] {
      7.40871203E+02      2.89325830E+02     -2.66514342E+02
      1.02422463E+03      3.24189505E+02      9.08828057E+01
     -2.17214529E+02      1.74506473E+03     -4.09796930E+02
     -3.44367929E+02      5.09672931E+02      3.93799794E+01
      1.35243695E+03      2.01048394E+03     -9.41835480E+02
      3.05607977E+02     -1.64983207E+02     -2.86036964E+03
      1.51168186E+02     -3.91109039E+02     -6.13513759E+02
     -9.75460692E+02     -1.12827395E+03     -3.08957536E+02
      1.04081403E+03     -2.31418894E+03      1.75195374E+03
      7.33632610E+02      5.03839090E+02      1.65977876E+02
     -3.35769310E+02      2.22764001E+02     -1.16027573E+03
     -2.18514117E+02      1.55685238E+03     -2.64887629E+01
     -4.85333679E+02      4.59463182E+02      1.47598915E+03
     -9.64323527E+00      8.25296256E+02     -1.16941795E+01
      9.94526274E+02      2.56443760E+03      8.85531717E+02
     -1.06075929E+03     -3.10522080E+02     -7.90062061E+02
      1.01575332E+03      4.92984901E+02      2.58669095E+03
     -7.45275463E+02     -3.74997327E+02      1.01944928E+03
     -3.01377054E+02      4.43050222E+02     -1.50539640E+02
      4.78019910E+02      2.86700254E+03     -9.22413754E+02
      2.28550441E+03      1.32321465E+03     -4.11823013E+03
     -1.11241220E+03      4.86759427E+02      4.31436185E+02
     -1.42599404E+03     -1.18618238E+02     -1.67767819E+02
      2.78795316E+03     -1.48457198E+03     -1.55014965E+03
      5.30414510E+02     -1.56582629E+02     -4.11861770E+02
      1.11659755E+03      2.54022447E+03     -1.01747848E+03
     -7.64832075E+02      8.06842324E+02     -6.39811938E+02
     -1.45200258E+03     -1.50141256E+03      1.10123318E+03
      6.78617882E+02     -3.06999752E+02      9.40498900E+01
     -2.47896045E+03     -3.72382162E+03      1.63258163E+03
      1.51802354E+03     -1.33536157E+02      1.18601859E+03
     -1.63472204E+03      8.41346532E+02     -3.09173624E+03
     -4.33843326E+02      1.01349745E+02     -4.74172768E+02
     -1.39598381E+03      1.58135721E+03      3.53408324E+03
      1.32140772E+03     -3.15326497E+03      1.91546460E+02
      4.78297563E+02     -5.81644497E+02      2.97989624E+02
     -2.15150383E+03      1.49213936E+03     -1.44812750E+03
      1.64532847E+03      1.71858182E+03     -3.07675217E+03
     -2.31272375E+02     -2.71133158E+01      3.50403347E+02
     -1.39316942E+03     -1.99344602E+03      5.95339626E+02
     -7.87833490E+02     -8.64222333E+01      1.26266128E+03
      2.58272997E+02     -3.36490597E+01     -4.71514790E+02
      1.13138819E+03     -2.22596214E+02     -1.87459875E+03
     -7.98406941E+02     -2.16407076E+02     -1.00740365E+03
     -5.58765765E+02     -6.82409734E+02     -1.04911643E+02
      4.36825002E+02     -6.65638437E+02     -1.76536015E+01
      2.20004687E+01     -2.49453724E+02      2.69685336E+02
     -1.24876434E+02      1.33530886E+03     -2.03463342E+02
      9.46840951E+02     -1.52921308E+03      2.09504364E+03
      1.30638459E+03     -9.53979752E+02      6.65540288E+02
     -6.54827457E+01     -1.80267432E+02     -2.39495755E+02
     -2.32264944E+02     -1.98043504E+03     -1.97120249E+03
     -1.66542851E+03     -3.73848977E+02      3.60023963E+02
      2.04771241E+02      5.72444708E+02      1.69951210E+02
      3.24436488E+02     -2.05731142E+03     -2.23000721E+03
     -4.11358111E+03     -6.79664248E+01     -1.71893999E+03
     -4.46527468E+02     -4.92584859E+01     -5.23881299E+01
      4.99127162E+01     -3.19700070E+02     -5.15489259E+02
     -1.56950881E+03     -1.62297079E+02      2.29815717E+03
      4.17678958E+02     -2.71126916E+01     -1.08307504E+02
     -2.17077344E+02      9.21213523E+02      1.41025336E+01
     -2.23011656E+02      5.46762067E+02     -5.73871018E+01
     -2.96870173E+03      2.07063963E+03     -1.86603686E+03
      1.43632158E+02     -1.94982677E+03     -1.67407093E+03
      1.38968725E+02      1.60861461E+02      3.44525332E+02
      7.01757704E+02     -1.85478130E+03     -1.06536880E+03
     -2.69529428E+02      8.25388331E+02      6.56348024E+02
     -1.12886231E+02     -4.38380153E+02     -6.87013027E+02
     -1.15398085E+03     -2.02843614E+03      4.35745232E+03
      4.82009396E+02      1.24247149E+03      1.40819840E+03
     -5.94685287E+00      3.83440296E+02      2.46535011E+02
      1.31984262E+03     -5.70056998E+00      6.71109072E+02
      2.56191669E+02      4.69315580E+02     -2.37978684E+03
      4.53711174E+02      9.56046561E+01      4.45992174E+02
     -1.86882437E+03     -1.48029073E+03      1.51176913E+03
     -6.44477347E+01      2.72545368E+03      6.60038057E+02
      1.19780129E+04     -6.63045705E+03      1.69301502E+04
     -1.67825523E+03      9.49043755E+02      1.57481119E+01
     -3.14922802E+03     -1.92542718E+03      1.23372860E+03
      3.52997580E+02      7.41188970E+02     -4.16131928E+02
     -3.51403438E+03      2.64370693E+02      7.89561136E+02
      4.62413659E+02      1.07446471E+03      1.42358726E+03
     -3.42772658E+02     -9.01331718E+01      1.51964808E+02
      8.26183917E+02      2.74606063E+02      7.71836021E+02
      1.55420659E+02      7.99469399E+02     -3.47575422E+02
      1.02238956E+02      6.22955152E+01      1.54050196E+02
      4.68643004E+03      5.59283876E+02     -3.72921094E+01
     -1.06777664E+03      2.85773728E+03      1.57220416E+03
     -8.63346792E+01     -8.57681930E+01     -9.69239103E+02
     -2.03001148E+03     -2.89480914E+01      1.19677509E+03
      1.86932517E+03     -5.42860416E+02     -1.04337793E+03
      7.44905311E+02      1.40956082E+02     -2.02370748E+03
     -1.33748474E+02      3.61476162E+02      7.32963124E+01
      1.14665990E+02      3.03319462E+02      1.98740328E+03
     -7.77508252E+02      4.42049639E+02      6.57821099E+02
     -1.26784928E+03     -3.77116748E+03      1.47555169E+02
      1.02770674E+03      1.90154763E+02     -8.37097574E+02
      1.30734599E+03      4.75368546E+02      9.20171772E+01
     -2.38348535E+02      1.66600100E+03      5.13381379E+02
     -4.61159414E+02      1.04593788E+03     -5.37003226E+02
     -1.85422319E+02      1.35548396E+03      2.78310182E+01
     -1.03660464E+01      4.72822016E+02     -1.70340069E+02
     -2.84287538E+02      3.18948017E+02      1.63239173E+02
     -3.61662560E+03      7.37418106E+02     -2.95457426E+03
      8.03825424E+02     -7.14103658E+02     -4.42533093E+02
      6.10660073E+01     -1.55417246E+01     -2.17040722E+02
     -1.35969921E+03      1.27229011E+03      7.77701877E+02
      1.90571708E+03      1.37610954E+03     -3.91731752E+03
     -6.37151064E+02     -3.70766807E+02     -3.32699892E+02
     -2.61111692E+03      1.83997801E+01      1.29691982E+03
     -3.48051092E+02      2.72879438E+03      1.02665105E+03
     -2.99873034E+02     -7.19190355E+02     -7.78936959E+02
      1.74408391E+03     -7.65296091E+02     -1.22307326E+03
     -4.20372975E+02     -4.50660121E+01      8.75597660E+02
     -2.85086337E+02      2.80063938E+02     -7.94538075E+01
     -7.27219985E+02     -1.42803610E+03      1.19565637E+03
     -6.03038537E+02      1.93862462E+03     -2.15838256E+03
     -7.96182548E+02      2.59725635E+02     -1.01334593E+03
     -1.26087392E+03      4.80290495E+02     -1.13604638E+03
      3.33066843E+02      8.27409717E+02      3.92059702E+02
     -1.41294072E+01      3.47229328E+02      7.89383122E+02
     -1.01547209E+03     -8.66354194E+02      4.87754869E+02
     -3.07621657E+02      3.33626841E+02     -1.63298541E+03
      1.02432547E+03     -7.17723550E+02     -6.79195030E+02
     -5.98544856E+02      2.11743274E+02     -3.62638496E+02
     -8.08814853E+02      9.60894213E+01      1.39765082E+03
     -2.40108375E+03      1.23657741E+02      2.35746631E+02
     -1.41154612E+03     -1.87729186E+03      1.58638112E+03
     -7.59462632E+02      1.96800271E+01     -8.64177431E+02
      1.62489122E+03      2.71089876E+03     -1.65247558E+03
      3.89488953E+02     -8.78183976E+02      7.75458833E+02
      7.61105988E+02      1.52227452E+02     -4.67835627E+02
      1.01258740E+03     -1.00462221E+03     -2.35078045E+03
     -1.23933040E+03     -4.08711574E+03     -1.49254458E+03
      7.81058942E+02      2.22649779E+02     -6.60245817E+01
      9.34031228E+02     -5.34560031E+02      1.06732646E+00
      1.34116285E+03     -1.50245733E+03      2.54241653E+03
     -4.06600469E+02      3.19445434E+02      4.82447078E+00
      4.61831791E+02     -1.42855205E+03     -3.91286609E+02
     -9.92228661E+02     -9.78867479E+02     -2.30949332E+03
      2.56463171E+02      9.77768430E+01      2.48175635E+02
      1.88354591E+03     -5.60024537E+02      3.74281455E+01
      7.68550376E+02     -9.61898357E+02      6.08894967E+02
     -3.00304569E+02     -2.49308083E+02      7.72059325E+02
     -1.41526245E+03      2.61474988E+02      2.55846093E+03
      6.82502266E+02     -2.45992034E+02      9.64611251E+02
     -2.76988946E+02      1.73737102E+02     -5.96789093E+02
      1.63638418E+02     -2.51428315E+03      1.48745643E+02
      1.12264339E+03      2.34741031E+03     -2.10769342E+03
     -2.98461351E+02      2.04507794E+02     -4.11565371E+01
      7.44725684E+02     -2.65509822E+02     -5.69106814E+02
      3.66101855E+02     -8.52780954E+01     -6.79111478E+02
     -4.94504546E+00     -1.35348279E+02     -8.58226109E+02
      6.49545243E+02     -1.82942970E+03     -4.98329835E+03
     -1.69944902E+03     -1.96882532E+03     -3.43137405E+02
      2.41118227E+02      3.47453285E+01      2.35995245E+03
     -8.15288391E+01     -2.48381840E+02     -2.92268145E+02
     -1.44140877E+03      2.38307763E+03      2.16370488E+03
      1.29650065E+03     -3.19242101E+03      2.41518957E+03
      4.46485744E+02      2.74934502E+03     -1.32683622E+03
     -2.44479069E+02     -4.46426710E+02     -5.41960814E+01
      2.08265301E+02      1.64734925E+03      1.64633019E+02
     -9.51913543E+02      2.58189478E+02      7.17778406E+02
     -5.32564799E+02     -3.99081554E+02     -7.94522498E+02
     -1.70798478E+03     -7.89051562E+02     -1.77437567E+03
      1.51012021E+03     -1.62459160E+03     -3.67591580E+02
     -3.93198338E+02      2.61692240E+02     -1.85974963E+02
     -2.24643296E+03     -1.83459296E+03      1.07551874E+03
      7.56306763E+02      4.85042768E+02      2.35914863E+03
     -1.85551349E+01     -3.69853175E+02      3.17352680E+02
      1.78571322E+03      1.68712701E+03      1.91033020E+03
     -9.30211965E+02      2.20627187E+02      1.50777847E+03
     -1.33883183E+02     -8.74144570E+02     -1.17194103E+02
     -3.54426545E+03     -7.36884960E+01      1.79068774E+03
     -1.35928986E+03      1.10607777E+03     -4.11308468E+03
      3.59279900E+01     -6.13767908E+02     -1.38335501E+03
     -4.78170049E+02     -2.27513339E+02      1.40106722E+03
      1.19145309E+03     -4.62349845E+02     -1.94781256E+03
      4.49638544E+02      3.44528193E+02      4.02192045E+02
      1.27300471E+03      1.90842524E+03     -1.10421424E+03
      6.76472330E+02     -9.09207923E+02     -1.14630846E+03
     -4.76778556E+02     -5.84114990E+02     -5.21387908E+02
      5.33499677E+02      3.24422047E+02      1.58918331E+03
      2.38118880E+02     -1.95890244E+03     -1.43728872E+03
     -5.74332024E+02     -8.25241777E+01      2.51332178E+02
      1.67950729E+03     -2.46878361E+03     -5.26066156E+02
     -1.07867928E+03      1.03914936E+03      7.82321956E+02
     -8.17682355E+01     -3.24028786E+02     -1.40289911E+03
      6.30952056E+02     -1.89733798E+02      1.36083863E+02
     -9.35699528E+02      2.05297739E+03     -6.44262943E+02
      1.98472899E+03      3.56069808E+02      5.68829637E+02
      1.18995464E+03     -1.80599291E+02      2.70170916E+03
      5.84323626E+02      4.83703651E+02      3.73117048E+02
      4.73808591E+02     -1.03322742E+03     -1.34676730E+03
      1.48419093E+03      2.39170586E+02      2.92840180E+03
      1.43358684E+02     -4.46859753E+02      6.75165566E+01
     -1.66631464E+03     -9.37555662E+02     -9.97259528E+01
     -1.17405049E+03     -7.27948934E+02      1.47849997E+03
      3.00135925E+02      7.45309229E+02     -7.77358280E+01
     -6.27612653E+01      3.30965196E+03     -1.97740051E+03
      1.39743118E+03     -1.31448987E+03      1.32376449E+03
     -6.37861593E+02     -1.05681700E+02     -5.27918635E+01
      9.04630696E+02      2.97906162E+03      1.89499025E+01
     -1.19358360E+03     -1.55811720E+03     -6.95804964E+02
      4.01471999E+02      6.93892475E+02      3.35645006E+02
     -5.03723307E+02      1.98430594E+02      1.10310116E+03
     -2.04312871E+03     -9.23598287E+02     -4.30261499E+02
     -7.90633085E+01      6.69898573E+02     -5.18829567E+02
      1.46772010E+02      5.06122712E+02      1.27649017E+02
      1.12677793E+03      1.68949952E+03      8.04876301E+02
     -7.89769598E+02     -3.42429132E+02     -7.93117666E+02
      1.00109520E+02      2.26439569E+03     -1.11121258E+03
      3.87401541E+02      3.49191133E+02      6.35864334E+02
      1.33002494E+02      2.02475479E+02     -6.96559257E+02
     -9.30898709E+02      6.88758476E+02     -4.20990026E+03
     -3.67726564E+02     -3.91769071E+02     -1.11719828E+03
      7.82542015E+01     -1.32216877E+01     -9.86350811E+02
      2.35089998E+03      1.47461957E+03      2.02492521E+03
     -5.68614812E+02      1.15125707E+02     -3.43872990E+03
     -1.96410702E+02      8.89723764E+02      7.94292654E+02
      6.24574765E+02      2.93021126E+02      1.43259183E+02
     -2.35606116E+03      1.96263028E+03      2.82600897E+02
     -9.00077741E+02     -5.18119723E+02      1.93714664E+03
     -1.00471708E+03      3.10878567E+03     -1.92123141E+03
      3.98844945E+02      3.70585670E+02      1.59017135E+02
     -1.21896065E+03      5.31639237E+02     -2.98880639E+03
      2.67697897E+02      2.46276449E+02      1.31052888E+03
      6.67232612E+01      4.40316505E+02      2.21900552E+02
     -3.48075554E+03      4.93190373E+02      1.72464795E+03
      1.13958593E+03      1.46470021E+03      4.94728771E+02
      5.61643861E+01     -1.12220397E+02      4.67337921E+02
     -2.36561968E+02      3.67001985E+02      1.24706941E+03
     -1.26363119E+03      8.19735907E+02     -1.57399269E+03
      3.98469422E+02      7.06711071E+02      1.08760284E+02
      1.05843282E+03     -5.46663702E+02     -1.53466165E+03
      2.44750080E+02      1.70824355E+03     -1.18071607E+03
     -9.46268000E+01     -4.80946698E+02      6.14184195E+02
     -9.83387809E+02      1.85078337E+03      5.32316289E+02
     -3.41553972E+03     -8.56001263E+02      1.57265560E+03
      2.96682551E+02     -4.66787951E+02      3.59529299E+02
     -5.14090470E+02      2.35393385E+02     -1.60989865E+03
     -4.17334055E+01     -6.48244673E+02     -5.70115161E+02
     -8.57677965E+02      6.26764440E+02     -1.56863404E+02
     -1.32084010E+03     -8.97759469E+02      7.32545068E+02
     -1.00103543E+03      9.96625803E+02      1.75291110E+03
      5.57376568E+02     -6.66080597E+02     -2.64591660E+02
      2.46512516E+02     -3.27460994E+02     -1.32080285E+02
     -1.77127807E+03     -1.15939310E+02     -2.54853591E+02
      9.65999858E+02      3.47057486E+02     -9.44016766E+02
     -2.18547498E+03      3.39693058E+03     -4.55536326E+02
     -1.04457887E+03      1.56230956E+03     -5.22728148E+02
      4.01082142E+03      1.76213089E+03     -2.86826960E+03
      1.15974295E+02      1.71160495E+02      6.05093242E+02
      2.78378450E+03      2.22892200E+03      3.43002724E+03
     -3.33834906E+02      1.62793746E+03     -6.19608747E+02
      2.33011577E+03     -3.09036677E+03      8.69325792E+02
     -3.04731371E+02     -5.74322368E+02      3.93100129E+02
     -1.46721267E+03     -8.90079007E+02     -8.30915750E+02
     -2.97526383E+02      1.23172504E+03     -1.08325901E+02
     -5.74783058E+02      1.00222956E+02     -1.44428859E+02
     -2.18176214E+03      1.20400534E+03     -1.08353961E+03
      3.35513646E+02     -1.24950952E+03      1.05538773E+03
      9.09185131E+02     -2.44050870E+02      6.20265143E+01
      2.36926731E+03     -2.22654584E+03      3.05928300E+02
     -1.71745848E+03      1.07063033E+03      2.47748383E+03
     -8.28255926E+02      3.50931821E+02     -4.08415023E+02
     -2.67388658E+02      1.20822662E+03     -2.79883207E+03
      1.10598315E+03     -6.00953882E+02     -4.25602292E+02
      6.30420939E+02      3.84503617E+02      2.52937463E+02
      1.55394299E+03      1.71598641E+03      1.36332709E+03
      8.08805372E+02     -3.35374441E+02      2.56714976E+02
     -5.77096107E+02      4.99090181E+01      2.16458695E+02
      2.49160276E+03      2.30048361E+03      1.93839085E+03
     -9.76931251E+02     -3.85007731E+02     -3.84906968E+03
     -3.42240287E+02     -7.05257123E+02      6.62246157E+01
      2.75098915E+03      2.95147647E+03     -2.84659419E+03
     -1.47304722E+03     -4.20982618E+02     -1.33021672E+03
     -7.44098080E+02      3.37511715E+01     -4.41434441E+02
      1.13196966E+03     -7.46509058E+02     -1.28644954E+02
     -1.91954924E+03      9.35738094E+02     -3.15798691E+02
      2.54783533E+02     -2.34751930E+02     -9.56238861E+02
     -1.57197721E+03     -3.36934793E+02     -1.19086503E+03
      2.90110174E+03      1.68073043E+03     -1.08691040E+03
     -2.85605426E+02     -6.82405692E+02      7.60917978E+02
     -3.15920949E+02     -7.18900995E+02     -4.91735204E+02
      2.53872496E+03      5.84882919E+02      4.59418363E+02
      9.41431898E+02     -1.13847656E+03     -1.93327841E+03
     -2.57935793E+03     -3.47553407E+02      1.74319297E+03
      1.56544440E+02     -2.89179806E+02     -1.14822120E+02
      1.56926894E+03     -2.20153890E+03     -2.42361743E+03
     -1.77479286E+03     -3.95556271E+02     -1.68359512E+03
     -5.94927211E+02     -2.93162654E+01      6.15593266E+02
     -1.63826300E+03     -2.20378482E+03     -2.73937753E+03
     -3.91474349E+01     -1.96626836E+03     -1.50111990E+02
      1.49561706E+02     -4.78666156E+02      3.62368063E+02
     -2.63255093E+02      1.13969224E+03     -1.53036506E+03
     -3.52308106E+03      3.41388578E+03      2.07985629E+03
     -1.13300172E+02     -1.14518694E+01     -6.33486184E+02
     -1.12501971E+03     -1.45649574E+03      1.34275039E+03
      9.57725841E+01     -8.11907676E+02     -5.45563929E+02
     -8.09409782E+02      8.07149037E+01     -7.53656661E+01
     -2.74590357E+03     -1.00554670E+03      1.03716134E+03
     -4.84040543E+02     -3.12447578E+02     -7.50560077E+02
     -2.49983558E+02     -5.66084945E+01     -2.44662127E+02
     -1.05455550E+03      2.17601062E+03      3.81996494E+01
      9.90113735E+02      1.89899216E+03     -2.19639115E+03
      1.31511283E+01      1.20173467E+02      3.26901777E+02
      1.91231936E+03     -1.70036753E+03     -5.75530624E+02
     -2.95750786E+03     -1.22321313E+03     -8.09902464E+02
     -3.36881143E+02     -4.70818200E+02     -5.97238905E+02
     -1.31566094E+03     -2.08895851E+03      1.82536911E+03
      9.97270951E+02     -1.50798432E+02     -7.71078299E+02
      6.87808691E+01      3.60531565E+02     -6.50151599E+02
     -1.61841764E+03      1.76100010E+03     -8.84666826E+02
     -4.20636141E+02     -1.55307811E+03     -5.38577416E+02
      3.02496873E+02      8.97866951E+02     -4.05501136E+02
     -4.97458452E+02      1.10886693E+02     -4.70691859E+02
     -2.57556288E+03      4.12365876E+03      1.49276041E+03
      1.36516475E+03     -1.76491847E+03      1.35749205E+03
     -8.80806022E+02     -6.40749541E+02     -1.27246833E+03
     -1.55976840E+02      7.72288299E+01     -6.42692373E+02
     -6.86796244E+02      1.43767183E+01     -1.25297924E+03
      3.48333984E+03     -2.03576294E+03     -1.24602625E+03
     -3.18560492E+02      2.89787098E+02     -2.83296302E+02
     -3.05461525E+03     -2.28272936E+02      2.26160185E+03
      1.56028004E+02     -2.18102783E+03      3.80596569E+02
     -3.02530204E+02      3.10757909E+02     -6.42249499E+01
     -5.07715978E+02      1.04628307E+03      1.69271770E+03
      1.26004174E+03     -9.36025283E+02      1.59168201E+03
     -8.27820483E+02      4.58901477E+02      4.21312012E+02
      2.05751720E+03      2.42002117E+03     -1.11183910E+03
     -2.39008441E+03      5.04895611E+02     -1.05029038E+02
      3.40686894E+01      7.78693285E+01     -3.02088160E+02
      6.65155195E+02     -1.44122447E+03      3.78666402E+02
      1.16218582E+03     -4.17487919E+02      2.08480143E+02
      1.07605951E+02      7.35801565E+02     -1.14570980E+03
      5.88600490E+02     -8.24322556E+02      1.13080611E+03
     -9.32734148E+02     -2.07304772E+03     -1.41191860E+03
     -8.85216855E+02     -5.19752184E+02     -4.12301275E+02
      9.81262044E+02     -5.49165464E+02      3.51633566E+02
     -1.46735159E+03     -5.12935744E+01      1.00438663E+02
      2.00586781E+02      6.13210806E+01      6.80500176E+02
      6.93366398E+02     -4.88121929E+02      9.25305089E+02
      1.30814957E+03     -7.00833033E+02     -1.65836231E+03
     -5.59512217E+01      9.69620292E+02     -7.35051976E+02
     -2.17639645E+03     -8.65452594E+02      3.27253171E+03
      1.08658905E+03     -8.29259888E+02     -3.07902439E+01
      7.72816170E+02     -2.45216957E+03      6.00466766E+02
     -1.83881599E+02     -4.00609131E+02     -2.78584614E+02
     -3.43220581E+03     -3.01910024E+03      1.94528833E+03
      4.36148172E+02     -1.37593298E+03     -6.06747358E+01
      4.55591307E+02     -1.07740365E+03      5.50545521E+02
  }
}

Hamiltonian = DFTB {
  SCC = Yes
  SCCTolerance = 1e-6
  MaxSCCIterations = 200
  ForceEvaluation = Dynamics
  MaxAngularMomentum = {
    C = "p"
    H = "s"
  }
  Charge = 0.0
  SpinPolarisation = {}
  Eigensolver = Standard {}
  Filling = Fermi {
    Temperature [Kelvin] = 300.0
  }
  SlaterKosterFiles = Type2FileNames {
    Prefix = "../../pbc-0-3/"
    Separator = "-"
    Suffix = ".skf"
    LowerCaseTypeName = No
  }
  KPointsAndWeights = {
    0.0000000000000 0.0000000000000 0.0000000000000 1.00000000000000
  }
  Dispersion = LennardJones { 
    Parameters = UFFParameters {}
  }
}

ParserOptions = {
  ParserVersion = 3
}
