Geometry = GenFormat {
<<< "system.gen"
}

Driver = VelocityVerlet{
  Steps = 50000
  TimeStep [fs] = 0.2
  MDRestartFrequency = 5
  Thermostat = None {
    #InitialTemperature [Kelvin] = 300.0
  }
  Xlbomd{
    IntegrationSteps = 6
    MinSccIterations = 2
    MaxSccIterations = 200
    SccTolerance = 1e-6
  }
  Velocities [AA/Ps] {
-4.26747007 1.49625529 -13.21292266
-25.85355519 -14.54276504 -19.39141864
24.98352138 33.49995945 -21.03586263
4.21849379 8.16800128 -8.57754156
-15.28613166 11.34972405 55.03349895
-5.99593157 -2.56105584 26.73032682
-6.03963937 4.68842962 19.55811886
15.43978740 -28.58430769 9.58353271
0.68011108 30.67865501 -50.36455311
-0.80964970 4.87355646 -4.59853801
39.52576498 27.33238383 21.22042752
-23.12931572 11.48474199 -11.52647115
6.60127379 7.08312186 -5.41292541
39.61708277 40.72974875 -32.51360572
-10.47004789 0.39022406 9.31923990
4.22520686 8.75821381 3.78531326
-2.02099560 10.31579668 26.64167917
-6.38519738 15.28982024 13.79178928
2.26935614 3.85415047 -5.23597268
-41.53855268 -1.08989562 -19.94033744
42.55550361 -18.12089562 22.80464057
-0.81489204 12.72921955 -6.70423583
0.26716500 -20.06656518 -30.47305744
-3.06805383 -6.78634479 23.01941490
0.82574728 -3.84970156 -4.79850187
-8.01996128 39.43830019 -24.17123588
-31.42268455 61.56375913 34.59293409
8.52063299 3.65838725 -25.09108646
-4.95196763 7.81083130 0.41701043
20.22819327 5.70225707 -37.84927744
-27.59461527 26.26633771 -10.35582524
42.29023411 -32.45613182 -0.03354338
8.32097747 0.36375195 9.84569579
-20.55416020 -17.47269760 -18.54636193
-23.73305882 -5.91572008 6.25909019
-6.78733995 0.67856589 -5.79413541
-35.79631151 34.08460647 14.47180392
29.56735723 1.37442223 15.35031883
10.54328441 -2.29304434 2.30419603
-7.76352500 -7.81884122 -7.51117687
-0.44771420 -37.45546642 -43.58071267
-6.17629986 -0.54264891 10.61874447
-23.76306611 25.02957318 10.35582228
13.28791189 -17.39438315 18.31215951
-1.31001153 -3.55065321 2.83765356
24.83211715 -24.84663997 -16.06711197
15.24530987 -0.14081575 -17.64687505
-13.63433914 -9.06572844 10.33374219
0.74383098 16.01892358 -15.48923306
-14.51004244 3.36789364 19.71769559
7.50312492 2.43301349 4.59859028
-7.53637254 42.36566609 37.13936517
-25.58726676 -35.05945985 -15.94992889
-9.29147715 6.77890229 0.48535422
-10.56017016 -31.24684348 -25.58737988
-14.40723502 22.28504575 -1.84158060
-6.79706429 -7.45887709 16.42163844
15.48435368 16.25789251 -22.33214594
0.13279431 -24.33611574 -34.67080071
-0.55102818 16.75752694 39.33084847
5.87906130 -4.49408098 0.10603070
-25.44889097 0.91494711 16.45076945
-12.82844392 10.96252647 22.04721748
9.24077583 22.66413739 -2.54748812
1.14663572 0.49915193 3.29528388
18.25467960 1.80256914 7.92251410
-23.45737884 -9.30913608 -26.11873478
8.27016287 7.53090086 -6.79068148
-12.87822394 7.91773110 8.91761597
13.87177552 25.87046451 -0.83022588
-3.07048970 4.70466660 -2.22651480
-15.09992509 21.05794395 1.73782783
29.49458576 -14.25771046 -3.22038120
-13.74328632 -8.73882901 -3.75872817
-25.42117038 -47.62102766 29.66222007
-20.68115228 -14.45995245 -25.11899911
-6.30580287 -11.74909662 -0.00965567
31.07430038 -27.14592846 -7.27431539
-1.27518380 -10.85629722 17.84193975
5.19026315 -2.27275631 0.34218233
26.26929771 28.33614001 12.17739157
62.91576781 -25.85367147 -28.68646468
3.18643917 -1.92696976 1.13402968
10.12557196 -8.97183757 24.45411788
-16.10954470 -9.40432918 15.10349071
2.20027093 -12.05539865 18.08982790
-17.21928365 -7.58183257 -8.96534421
19.02064523 28.26989936 -13.87616716
-1.90935447 -5.59227512 -5.42240125
15.57631233 -18.13031200 -27.58627819
27.19118707 1.50941679 -27.80453111
15.99401018 24.01514870 52.09011748
-1.50135196 -10.32288740 11.93100155
-27.04060768 38.31896917 -7.01456394
-10.12156598 14.74069879 1.68788197
-7.02440943 20.72325778 -9.31302542
1.14340992 -1.80035747 -1.19559731
7.64565639 22.59496820 -27.16349094
10.26343310 7.01408629 13.03566615
9.01301069 -0.76008643 -0.09618121
-9.82369819 -10.78019832 -16.00274918
43.16153746 49.28830729 -9.34665370
2.83329726 -6.05562643 1.41687602
-29.89758598 18.78989677 0.69433384
11.46059631 -40.48615219 -56.27229361
-9.89926090 -5.48074735 16.69938267
-7.93157438 -2.21158405 -5.12352139
28.97578063 -30.35364802 31.50265591
3.78947318 3.72520731 3.21951001
4.57963680 27.16293417 27.84302818
-10.01248133 12.17844032 -14.49617435
-10.79491272 1.91681832 4.86295914
7.73241540 14.97451151 -13.64849109
-19.36036160 2.75130300 3.20550758
-6.01203087 -6.23086659 3.72878499
14.83740827 2.69369145 14.72726648
10.96564366 -11.43145267 18.52296557
-2.04390303 -7.65746419 -15.35961054
-0.71058024 -1.68046098 -22.34763343
-30.55814451 19.94912962 10.98060184
-1.90500884 4.73145030 -14.16367067
-31.24478417 -9.72311509 -11.76561892
-1.75348090 0.83563765 16.91766884
-1.80106421 -3.16223843 22.72163606
8.04651630 -6.68624682 2.79876825
16.49322210 0.04480831 12.69287985
-15.44625286 10.96356581 5.08042457
30.94126293 -15.17737457 -8.27781885
-0.29772503 8.20306931 -9.00167005
11.83686836 24.58362145 2.77686843
-36.79139072 -29.25429792 -9.58705834
-11.19006297 -1.01425581 3.69897735
-2.49858443 -13.48664080 37.71447759
-8.59659332 -21.08011890 -8.98402410
5.48936173 -3.34279738 -9.76394662
-4.65633644 3.28710243 -26.21773344
-6.70153918 -12.74027086 -7.80847893
5.56505310 4.24417541 4.10025771
-17.57202433 -1.86202284 5.75998408
-9.55430184 35.90918539 47.79699431
-2.56783529 -7.47108043 0.51885848
3.89833561 5.74281693 -22.43520298
-23.93586407 24.20479458 -5.42918434
4.54958312 -1.42566841 6.58077346
-38.80645085 7.58740211 -33.46003619
-29.30980493 -0.68110361 -5.27307880
4.24172098 9.70589925 -0.62233513
-11.75883597 -40.15531040 12.73960789
-8.18159005 -7.96890761 14.60882299
-1.76114405 -5.63172264 -3.34368365
1.42173157 -14.90274031 14.53583325
-34.14393818 -6.35512213 0.32494223
2.18834656 9.52588969 -5.83343673
23.47826068 -0.79383292 19.87971563
15.55544660 8.87459444 -10.31708055
-40.38636865 8.37415161 -31.13248627
-0.54908561 -0.61264124 2.19420344
-9.30047505 -18.56580490 -46.10600628
-22.80367569 -31.46140837 -10.73201337
-2.18397627 14.08762545 20.09462075
1.24007310 0.54138135 -3.20393322
-10.49562983 41.42318193 -12.96466074
2.66764322 -27.71416936 -3.04288079
-0.51903609 3.10725348 -2.99167148
-19.82893403 -10.90046316 17.03332294
-0.20363473 -40.93886593 -5.47282822
-6.02079615 -1.68853292 -1.47795956
17.21800166 -50.57659576 -8.45976040
-12.14113166 -1.70166640 0.09212767
0.75868860 0.94666603 2.04065517
-30.74693514 -8.14349815 18.25437317
6.02583505 14.35042754 -27.08084774
-0.48068870 -4.01222311 1.69438410
-24.70495471 11.76866586 -10.77157762
-7.12205976 -26.31605275 -9.60409122
4.57208011 -2.74837689 -2.50626461
-7.09349732 -1.23329571 1.93002284
-14.35030887 -4.14786973 -13.74911332
5.83224193 -0.94642136 -0.02510369
7.73226604 -36.13019137 23.09415210
-4.33149385 32.41704605 1.88042502
0.22809405 1.15500083 8.54236940
-39.70907569 -49.19255432 0.65769854
12.18993560 -9.37200006 37.52696997
1.71277630 5.44130143 -2.24598681
19.42358943 35.68433526 -3.79833529
-16.66961016 40.34031934 16.56764261
-41.15496165 18.64858031 15.44448205
3.96920890 5.41957010 8.29995665
4.80766895 24.20961466 -27.47642397
11.97076898 -7.12666650 37.02786804
16.98441984 -26.27345774 -5.65005972
1.23694762 -5.76519058 -1.89525194
7.15114736 -13.39079004 15.36573735
-24.67364464 -39.06589038 9.79088269
6.68152408 -4.93067202 -4.30531311
23.30836189 -2.41632944 6.59787916
9.40624993 -24.79969917 1.58755219
-1.24316698 6.17574982 -3.37485596
32.94726052 -1.46578837 -15.33567028
32.14981389 22.03394428 15.95426451
-3.36115325 5.97950250 1.72848302
4.50057591 -5.73399848 10.86271066
-27.04434268 -28.95539574 -35.41963394
0.24110308 1.75566697 -2.75913446
-19.07547800 18.10421057 -16.31400957
-30.59536847 -9.68800056 20.71491693
-3.91251138 -10.02114537 -3.22163406
-3.83557750 44.34901427 25.63081574
6.92910900 -1.30221360 11.40187868
-1.80275327 -3.42899408 5.33226668
18.61878110 -2.94810201 -4.98661278
-4.31669313 -19.85450711 8.28066559
-1.85256848 -6.41884315 2.99418958
-8.49288245 47.67203756 -22.66252144
-11.29079473 -17.73079206 -12.94468466
3.15414297 -1.12813253 5.70430030
2.37868876 -11.29446273 -0.98747985
14.53816661 34.72156175 17.76049600
-13.43056409 9.50961558 4.73204289
1.62354519 -5.40286001 7.28026468
-3.41598614 -19.96593906 -29.53194793
-15.82428034 1.14250190 9.27990080
45.79099848 -19.83998681 12.51842360
-3.10330627 -7.73700107 -3.93747395
2.86431420 12.23852397 -4.60814621
11.97404172 -2.37282242 -2.12286688
-13.84568908 -2.29577356 -2.15706340
19.79142594 4.55202690 -3.71871696
31.27813631 30.41679182 -6.20495357
-1.82740607 5.77418180 -2.03462706
-2.26664752 39.42132078 32.33176712
19.92428279 -47.24352070 12.15743284
3.56743645 5.20471941 -6.07549708
-3.37351711 12.31092616 -11.75344122
0.00704626 -5.33581216 -13.73341245
14.11738381 -6.16970158 -0.72882817
17.26234558 -23.62090211 -8.76182106
21.31475868 35.27031447 -5.66174636
4.55788852 2.85101813 -8.71577818
-17.89840767 -19.67205977 -43.04072126
7.89520432 4.69045855 -23.02355298
-1.94179470 -1.99162833 7.24131913
-39.23781474 -4.26198355 13.55978149
-12.05781021 -1.57660454 -60.82806005
-4.04846775 3.00076377 -2.57308710
9.73752119 -18.89044243 -0.19088326
39.26941180 -2.77642695 -5.90019781
7.80284530 8.17332680 -1.10929521
4.96416729 5.47716635 -23.03142461
-6.88308976 19.05715179 10.64216691
4.33531001 9.20072395 19.29633266
5.25821225 1.24858194 -9.05586990
-17.33165760 15.20683200 8.47866959
-17.65855274 -17.33839627 22.21451810
47.50691028 26.93504106 -2.93649478
-4.78613687 -12.76187695 6.42429603
-35.34177077 -19.63900471 -30.77692077
-29.53481566 4.11495543 27.59469023
-4.26753772 1.10201002 -11.05729426
-3.86474371 -2.81270984 -7.02832716
0.77338957 11.66459408 -9.58975696
1.36743495 -10.26893702 -9.43824084
-16.65279261 -36.42096562 31.78147366
-7.63462136 -10.21609843 -17.42983870
3.23215667 0.77703849 -2.93456070
20.33468058 6.71863763 -21.43487813
4.28291490 -2.02752528 -1.30487509
3.14571589 1.54213669 11.60277879
1.65632855 15.20612416 -34.42174174
34.00925838 -13.77336857 8.84740147
2.43893149 -8.70356393 -4.84841792
7.77660542 -33.93472863 -16.09991112
16.02751108 44.84822988 -2.57247507
6.58607785 -2.12393617 -1.80119126
-9.35137533 2.19541698 39.61880863
-1.18242834 14.92181261 41.93689516
1.72688491 6.35233620 -0.46654411
-26.77000621 15.10917227 -11.16715025
-16.34923403 19.19722712 21.01579231
-1.16136114 -3.87943279 -3.40055667
30.78550758 35.96059665 -35.59023229
20.86485446 -21.87837181 0.05546613
34.12679549 12.77993535 -35.82832558
-4.82019413 4.76798899 -5.74638284
31.88643651 -31.17547311 44.50549636
38.40111205 -12.31871879 14.77206619
27.15514570 -14.82772915 -37.98942508
-3.39964327 -6.73375614 5.83047108
-23.66392372 -18.08559371 -12.64142497
20.36100085 21.42286885 -11.09071335
-3.63941733 -6.75428823 -1.65186791
6.65104007 8.49677977 2.55896192
-27.06248316 -21.25375171 8.52502867
6.69386408 -8.49772098 -1.01246036
8.36024274 18.27307359 -1.62730320
4.26616361 6.20967842 26.13366917
-5.04627188 7.14010703 9.24159117
23.44116112 21.26535165 -3.56372210
20.92761705 15.55653773 -5.18014944
-6.92319872 5.32588138 -7.80074913
11.44071513 5.90538691 10.65129891
-18.64142946 5.34894874 41.36000564
-0.42262907 14.41281240 -1.50766437
-16.09817143 13.38755796 48.19051603
-17.65742033 -31.10128890 13.04709279
-1.65808054 2.26101234 10.59612105
22.33205114 7.74823683 12.31339423
-14.42811811 39.99576934 -1.62036454
-0.12129016 -2.11042804 6.45545000
-50.34970149 -2.47350796 -1.92171934
-41.13627419 4.36086040 -28.62316191
-4.17875763 -7.32968983 6.97894840
-11.83690274 -0.39182706 -21.44728831
-0.48597397 33.23291679 -1.85082147
-18.91672508 -42.09526843 15.97283771
2.62648930 6.81404712 2.69104833
-2.47808681 2.37545085 -17.17589383
-17.92966249 18.77074979 30.40461260
-13.86057689 -4.41662021 3.82856137
7.70777560 -4.89162841 6.91040321
38.18882204 -45.96127578 11.19217456
-4.50952517 24.72863173 -6.22920753
-0.10267167 2.25846117 0.33041829
-1.14038802 25.44773461 11.55695837
-8.91468641 -4.49320499 27.04048500
-1.81824219 6.56635583 -9.78322927
-2.77172946 -47.13030970 -10.72492639
-18.91038152 -23.89467695 19.76901284
2.08861677 14.78956342 -3.02050601
13.03906282 4.32239359 -13.18962066
22.85062910 3.24509842 6.27307634
2.93172574 3.13931793 -8.44540681
30.03737355 -22.26908555 -21.19126360
14.91320322 72.05110963 -29.89390671
10.91743937 1.44211160 -8.14501794
0.28842849 -12.39517825 22.28141179
12.93088536 -20.88002450 26.40678709
-4.36228754 3.60689904 -3.33450779
-49.49234972 -12.08166761 47.65288143
-1.87322291 20.38308435 -43.23201402
0.76124111 2.90028170 -1.18754800
-22.64138039 2.81298404 3.58392149
-29.16326511 -19.13539705 -20.54643277
-3.89859860 -0.11090526 2.53131236
0.12547437 -0.66085862 -3.55303663
-9.73374464 -3.11755036 16.47695969
23.21163944 -33.87461286 -23.33187242
7.16239677 -3.99480469 0.10278608
13.39506300 -24.21728422 15.38373244
16.32992394 -7.13083077 -5.19135007
13.32436694 39.96666997 -12.82670568
  }
}

Hamiltonian = DFTB {
  SCC = Yes
  SCCTolerance = 1e-6
  MaxSCCIterations = 200
  readinitialcharges = yes
  ForceEvaluation = Dynamics
  MaxAngularMomentum = {
    C = "p"
    H = "s"
  }
  Charge = 0.0
  SpinPolarisation = {}
  Eigensolver = Standard {}
  Filling = Fermi {
    Temperature [Kelvin] = 300.0
  }
  SlaterKosterFiles = Type2FileNames {
    Prefix = "/usr/workspace/troup1/second_set/real_data/decane_run_first_50/pbc-0-3/"
    Separator = "-"
    Suffix = ".skf"
    LowerCaseTypeName = No
  }
  KPointsAndWeights = {
    0.0000000000000 0.0000000000000 0.0000000000000 1.00000000000000
  }
  Dispersion = LennardJones {
    Parameters = UFFParameters {}
  }
}

ParserOptions = {
  ParserVersion = 3
}
