Geometry = GenFormat {
352  S
C  H
1 1    0.3689686039E+02    0.2501452440E+02    0.4169446194E+02
2 2    0.3596181166E+02    0.2546565859E+02    0.4211747059E+02
3 2    0.3662878801E+02    0.2417563991E+02    0.4104984029E+02
4 1    0.3754386946E+02    0.4133455011E+02    0.4068393988E+02
5 2    0.3859416060E+02    0.4095651224E+02    0.4069094143E+02
6 2    0.2232480393E+02    0.4241126858E+02    0.4122260960E+02
7 1    0.3689026080E+02    0.4152325044E+02    0.3930930643E+02
8 2    0.2050763430E+02    0.4196274786E+02    0.3952015393E+02
9 2    0.3669917010E+02    0.4050165607E+02    0.3884748177E+02
10 1    0.2212629612E+02    0.4250156792E+02    0.3835752704E+02
11 2    0.2146789209E+02    0.4251683494E+02    0.3743875139E+02
12 2    0.2310110471E+02    0.4200958992E+02    0.3791160110E+02
13 1    0.3789824058E+02    0.4389493276E+02    0.3884698969E+02
14 2    0.3758541020E+02    0.4413620918E+02    0.3985782016E+02
15 2    0.3742953141E+02    0.4453156626E+02    0.3805332054E+02
16 1    0.2406004580E+02    0.4415034069E+02    0.3869796753E+02
17 2    0.2457360617E+02    0.4349730565E+02    0.3796967428E+02
18 2    0.2476830461E+02    0.4395078593E+02    0.3957850132E+02
19 1    0.3972172806E+02    0.4559140992E+02    0.3834075847E+02
20 2    0.3889180151E+02    0.4618042078E+02    0.3858284455E+02
21 2    0.3993733350E+02    0.4572603104E+02    0.3724085694E+02
22 1    0.4083488756E+02    0.4619458186E+02    0.3918868758E+02
23 2    0.2557228216E+02    0.4723968312E+02    0.3873289212E+02
24 2    0.2648716050E+02    0.4567092996E+02    0.3910843724E+02
25 1    0.3778020670E+02    0.2452096436E+02    0.4290989695E+02
26 2    0.3873808806E+02    0.2386428496E+02    0.4257798055E+02
27 2    0.3818343101E+02    0.2531830066E+02    0.4343463797E+02
28 2    0.3718642560E+02    0.2406695425E+02    0.4371706307E+02
29 1    0.4030206790E+02    0.4637918644E+02    0.4058809222E+02
30 2    0.4034543976E+02    0.4543949458E+02    0.4122386905E+02
31 2    0.4088996468E+02    0.4715422154E+02    0.4100470708E+02
32 2    0.3918490891E+02    0.4680554269E+02    0.4058557614E+02
33 1    0.3112457580E+02    0.3320605365E+02    0.2514183379E+02
34 2    0.3142224239E+02    0.3274586252E+02    0.2423936419E+02
35 2    0.3007544391E+02    0.3342685188E+02    0.2500845391E+02
36 1    0.3102503980E+02    0.3207870101E+02    0.2622669454E+02
37 2    0.3082958952E+02    0.3250778582E+02    0.2729213981E+02
38 2    0.3207224655E+02    0.3157161221E+02    0.2630767616E+02
39 1    0.3006862370E+02    0.3090107159E+02    0.2572260416E+02
40 2    0.3056834728E+02    0.3005788316E+02    0.2621705424E+02
41 2    0.3014015269E+02    0.3077237518E+02    0.2462261035E+02
42 1    0.2867741353E+02    0.3110069195E+02    0.2622003447E+02
43 2    0.4338355489E+02    0.3038128237E+02    0.2565928354E+02
44 2    0.2836384335E+02    0.3220320806E+02    0.2612039855E+02
45 1    0.2847171677E+02    0.3056075161E+02    0.2766416614E+02
46 2    0.2735494296E+02    0.3077930510E+02    0.2791175171E+02
47 2    0.4448947589E+02    0.3103601808E+02    0.2839834334E+02
48 1    0.4398765479E+02    0.2912608603E+02    0.2796539630E+02
49 2    0.4408653718E+02    0.2908214482E+02    0.2906748730E+02
50 2    0.4513082998E+02    0.2892138766E+02    0.2774325229E+02
51 1    0.2796827898E+02    0.2794512629E+02    0.2740375645E+02
52 2    0.2692660092E+02    0.2793150471E+02    0.2773462654E+02
53 2    0.2832324472E+02    0.2700102144E+02    0.2771748829E+02
54 1    0.4324802961E+02    0.2777078125E+02    0.4116849123E+02
55 2    0.4417869206E+02    0.2781203145E+02    0.4065668413E+02
56 2    0.4260068487E+02    0.2853897941E+02    0.4061350686E+02
57 1    0.3212122229E+02    0.3428114108E+02    0.2560833964E+02
58 2    0.3268510558E+02    0.3391604172E+02    0.2642418554E+02
59 2    0.3281207025E+02    0.3450685833E+02    0.2482673471E+02
60 2    0.3165698057E+02    0.3519645621E+02    0.2590468740E+02
61 1    0.2748765739E+02    0.2629375073E+02    0.4101940496E+02
62 2    0.2646184606E+02    0.2602577017E+02    0.4147546494E+02
63 2    0.2749777184E+02    0.2597811709E+02    0.3988544929E+02
64 2    0.2816216289E+02    0.2561110256E+02    0.4145715098E+02
65 1    0.3556862875E+02    0.4058565640E+02    0.4744633757E+02
66 2    0.3448060095E+02    0.4042873510E+02    0.4748367705E+02
67 2    0.3600466104E+02    0.3972237364E+02    0.4791931984E+02
68 1    0.3745695695E+02    0.4396720900E+02    0.3209712526E+02
69 2    0.3655420523E+02    0.4445677629E+02    0.3244893755E+02
70 2    0.3842576509E+02    0.4449142322E+02    0.3209689968E+02
71 1    0.3750615960E+02    0.4247906327E+02    0.3209600798E+02
72 2    0.3829103479E+02    0.4185748030E+02    0.3257977797E+02
73 2    0.3754333530E+02    0.4223003043E+02    0.3104726712E+02
74 1    0.3615458018E+02    0.2668632843E+02    0.3276678875E+02
75 2    0.3597231290E+02    0.2510966776E+02    0.3110024298E+02
76 2    0.3534763374E+02    0.2748782915E+02    0.3252254166E+02
77 1    0.3648989975E+02    0.2654587714E+02    0.3424776897E+02
78 2    0.3751901272E+02    0.4215254731E+02    0.3454643066E+02
79 2    0.3665973264E+02    0.4069936852E+02    0.3440155697E+02
80 1    0.3555740168E+02    0.2720365130E+02    0.3525820032E+02
81 2    0.3574153544E+02    0.2829671646E+02    0.3517638504E+02
82 2    0.3586596884E+02    0.2700453272E+02    0.3630188129E+02
83 1    0.3411441359E+02    0.2691494350E+02    0.3544705290E+02
84 2    0.3385116763E+02    0.2609414825E+02    0.3476941897E+02
85 2    0.3337879074E+02    0.2764650427E+02    0.3537176694E+02
86 1    0.3371837378E+02    0.2640532326E+02    0.3687660567E+02
87 2    0.3399446885E+02    0.2730889364E+02    0.3743579035E+02
88 2    0.3441903724E+02    0.2565171905E+02    0.3722275352E+02
89 1    0.3157709425E+02    0.4145073289E+02    0.4080844562E+02
90 2    0.3177980718E+02    0.4039853281E+02    0.4131660090E+02
91 2    0.3162059404E+02    0.4224516342E+02    0.4164775807E+02
92 2    0.3240184350E+02    0.4164517783E+02    0.4023803645E+02
93 1    0.3210557330E+02    0.2618207497E+02    0.3704401657E+02
94 2    0.3188597311E+02    0.2533406644E+02    0.3780763180E+02
95 2    0.3156925502E+02    0.2705307660E+02    0.3747800371E+02
96 2    0.3152448159E+02    0.2583661747E+02    0.3621577640E+02
97 1    0.2807239888E+02    0.3716837665E+02    0.4174419428E+02
98 2    0.2878545797E+02    0.3634565401E+02    0.4189913670E+02
99 2    0.2889843601E+02    0.3802128382E+02    0.4167632786E+02
100 1    0.2757625213E+02    0.3714135388E+02    0.4031412461E+02
101 2    0.2843909919E+02    0.3740589563E+02    0.3967765654E+02
102 2    0.2680620735E+02    0.3788495857E+02    0.4014049733E+02
103 1    0.2691888719E+02    0.3576911764E+02    0.3971283373E+02
104 2    0.2627176434E+02    0.3610551772E+02    0.3887813705E+02
105 2    0.2639371550E+02    0.3536684436E+02    0.4054380102E+02
106 1    0.2804424953E+02    0.3491819110E+02    0.2384649050E+02
107 2    0.2819462474E+02    0.3411348803E+02    0.2454959429E+02
108 2    0.2900418796E+02    0.3536518657E+02    0.2396301616E+02
109 1    0.2793792587E+02    0.3434413756E+02    0.2251940216E+02
110 2    0.2850019841E+02    0.3336021120E+02    0.2259927688E+02
111 2    0.2849264073E+02    0.3507963193E+02    0.2184320906E+02
112 1    0.2656044514E+02    0.3404634577E+02    0.2199734433E+02
113 2    0.2600130961E+02    0.3496419104E+02    0.2210067122E+02
114 2    0.2599463881E+02    0.3332954135E+02    0.2265294849E+02
115 1    0.2667994235E+02    0.3360756797E+02    0.2044934616E+02
116 2    0.2580385695E+02    0.3297981391E+02    0.2028887816E+02
117 2    0.2757985423E+02    0.3304881504E+02    0.2020067285E+02
118 1    0.2658882355E+02    0.3482137622E+02    0.1955105296E+02
119 2    0.2760545185E+02    0.3518549923E+02    0.1937497079E+02
120 2    0.2594465482E+02    0.3562241079E+02    0.2005264998E+02
121 1    0.2704847881E+02    0.3744394795E+02    0.4283328547E+02
122 2    0.2743829552E+02    0.3749017345E+02    0.4386730382E+02
123 2    0.2669720439E+02    0.3841917541E+02    0.4272327270E+02
124 2    0.2628929076E+02    0.3669310591E+02    0.4278100019E+02
125 1    0.2615475064E+02    0.3451315164E+02    0.1808239271E+02
126 2    0.2635334162E+02    0.3539178982E+02    0.1748873066E+02
127 2    0.2682361946E+02    0.3377604293E+02    0.1771835181E+02
128 2    0.2518273669E+02    0.3410748049E+02    0.1793285415E+02
129 1    0.3173991029E+02    0.3855867226E+02    0.2873890170E+02
130 2    0.3240211481E+02    0.3929274693E+02    0.2818883150E+02
131 2    0.3211794474E+02    0.3829061701E+02    0.2970100482E+02
132 1    0.3035637761E+02    0.3931226123E+02    0.2900893679E+02
133 2    0.2960630584E+02    0.3887596156E+02    0.2834507217E+02
134 2    0.3061598303E+02    0.4037781795E+02    0.2868603377E+02
135 1    0.2975321040E+02    0.3946808542E+02    0.3044437537E+02
136 2    0.2876426893E+02    0.3993685378E+02    0.3031753906E+02
137 2    0.3035908453E+02    0.4030368867E+02    0.3090305445E+02
138 1    0.2963787228E+02    0.3810226268E+02    0.3102160691E+02
139 2    0.3032060214E+02    0.3739007621E+02    0.3045206084E+02
140 2    0.2860691952E+02    0.3765317670E+02    0.3082916036E+02
141 1    0.2997272573E+02    0.3805405413E+02    0.3245705531E+02
142 2    0.2927942065E+02    0.3876823951E+02    0.3286767375E+02
143 2    0.3094402256E+02    0.3842334931E+02    0.3255895284E+02
144 1    0.2987902899E+02    0.3663494033E+02    0.3306280362E+02
145 2    0.2887423393E+02    0.3614121576E+02    0.3299125976E+02
146 2    0.3005895262E+02    0.3675608259E+02    0.3413227810E+02
147 1    0.3094436347E+02    0.3572551470E+02    0.3242739839E+02
148 2    0.3191429645E+02    0.3621470908E+02    0.3252098740E+02
149 2    0.3064562728E+02    0.3554916089E+02    0.3138784664E+02
150 1    0.3109277229E+02    0.3442725517E+02    0.3319949309E+02
151 2    0.3104159933E+02    0.3460603064E+02    0.3428171123E+02
152 2    0.3210386327E+02    0.3391478388E+02    0.3295739475E+02
153 1    0.3154499440E+02    0.3723181775E+02    0.2799613507E+02
154 2    0.3096262034E+02    0.2135209081E+02    0.2868951666E+02
155 2    0.3092257656E+02    0.3733926505E+02    0.2702114476E+02
156 2    0.3245977272E+02    0.3671637792E+02    0.2792789336E+02
157 1    0.3018248963E+02    0.3325096980E+02    0.3301971761E+02
158 2    0.3009984937E+02    0.3267363044E+02    0.3394065957E+02
159 2    0.2924719606E+02    0.3362921143E+02    0.3274469864E+02
160 2    0.3042252398E+02    0.3267271239E+02    0.3209958516E+02
161 1    0.4237220416E+02    0.3004143419E+02    0.3152873939E+02
162 2    0.4301065611E+02    0.2940726490E+02    0.3089776702E+02
163 2    0.4154296752E+02    0.3039081186E+02    0.3084050105E+02
164 1    0.4172854695E+02    0.2931963454E+02    0.3267119897E+02
165 2    0.4159593093E+02    0.2822413621E+02    0.3246517653E+02
166 2    0.4074639755E+02    0.2975511733E+02    0.3308056008E+02
167 1    0.4264497891E+02    0.2935602604E+02    0.3383828880E+02
168 2    0.4275524753E+02    0.3021771038E+02    0.3443974901E+02
169 2    0.4363395362E+02    0.2907792884E+02    0.3349601352E+02
170 1    0.4212461883E+02    0.2815347887E+02    0.3467693305E+02
171 2    0.4235129990E+02    0.2716341193E+02    0.3426977911E+02
172 2    0.4103592755E+02    0.2820607031E+02    0.3465453867E+02
173 1    0.4268369776E+02    0.4333771593E+02    0.3614611636E+02
174 2    0.4189253101E+02    0.4313549245E+02    0.3678890286E+02
175 2    0.4287803713E+02    0.2906254249E+02    0.3668875446E+02
176 1    0.4379639118E+02    0.4229753657E+02    0.3641178491E+02
177 2    0.4438964039E+02    0.4246235019E+02    0.3736007200E+02
178 2    0.4463843602E+02    0.4250491731E+02    0.3565917111E+02
179 1    0.4317637167E+02    0.4088984640E+02    0.3636990344E+02
180 2    0.4208685578E+02    0.4103190593E+02    0.3631374153E+02
181 2    0.4325043884E+02    0.4028020317E+02    0.3736182943E+02
182 1    0.4359497863E+02    0.4001357083E+02    0.3516175662E+02
183 2    0.4458162878E+02    0.3971246547E+02    0.3542620864E+02
184 2    0.4374995012E+02    0.4053469171E+02    0.3418266144E+02
185 1    0.4321019470E+02    0.3124826246E+02    0.3202368229E+02
186 2    0.4428914302E+02    0.3104063153E+02    0.3175292668E+02
187 2    0.4288270198E+02    0.3217471734E+02    0.3151239866E+02
188 2    0.4318315521E+02    0.3154609343E+02    0.4842239504E+02
189 1    0.4282539362E+02    0.3870188367E+02    0.3510722678E+02
190 2    0.4183622603E+02    0.3880922317E+02    0.3483883803E+02
191 2    0.4328299806E+02    0.3784701885E+02    0.3463239104E+02
192 2    0.4270585809E+02    0.3829346382E+02    0.3616348375E+02
193 1    0.3937058572E+02    0.2805420509E+02    0.4429304077E+02
194 2    0.3913783249E+02    0.2750321225E+02    0.4329858567E+02
195 2    0.3835667964E+02    0.4361576550E+02    0.4465061543E+02
196 1    0.4041581797E+02    0.2742705113E+02    0.4517721455E+02
197 2    0.4043386706E+02    0.2789477514E+02    0.4619592546E+02
198 2    0.4138102705E+02    0.4298115045E+02    0.4462403521E+02
199 1    0.4036562428E+02    0.2591380665E+02    0.4548892134E+02
200 2    0.4075061973E+02    0.2539458292E+02    0.4468259096E+02
201 2    0.3943155116E+02    0.2553241537E+02    0.4567213245E+02
202 1    0.4121154124E+02    0.2553070731E+02    0.4673642014E+02
203 2    0.4071240084E+02    0.2584001950E+02    0.4771734414E+02
204 2    0.4218522370E+02    0.2601379893E+02    0.4647439914E+02
205 1    0.4141845575E+02    0.2403221121E+02    0.4691527380E+02
206 2    0.4220746831E+02    0.2393432328E+02    0.4765920205E+02
207 2    0.4200860206E+02    0.2358076897E+02    0.4610895746E+02
208 1    0.4028199280E+02    0.2316130836E+02    0.4737828059E+02
209 2    0.3949168813E+02    0.2362413114E+02    0.4802290361E+02
210 2    0.4069829592E+02    0.2233971914E+02    0.4806191335E+02
211 1    0.3956976711E+02    0.3772545989E+02    0.4623177684E+02
212 2    0.4043872069E+02    0.3740441032E+02    0.4563990382E+02
213 2    0.3914361251E+02    0.3857555640E+02    0.4576235436E+02
214 1    0.3857664960E+02    0.3663319871E+02    0.4664776478E+02
215 2    0.3901592784E+02    0.3604876850E+02    0.4754143712E+02
216 2    0.3870402243E+02    0.3592404060E+02    0.4574833578E+02
217 1    0.3990055259E+02    0.2950358291E+02    0.4402030015E+02
218 2    0.4004725294E+02    0.3011962964E+02    0.2961889077E+02
219 2    0.4097239368E+02    0.2941943854E+02    0.2821642562E+02
220 2    0.3912715191E+02    0.3001672325E+02    0.4328631807E+02
221 1    0.3711835554E+02    0.3702496643E+02    0.4689322121E+02
222 2    0.3660534564E+02    0.3719512257E+02    0.4585465759E+02
223 2    0.3664400862E+02    0.3615227461E+02    0.4734879376E+02
224 2    0.3701489917E+02    0.3795535182E+02    0.4753918244E+02
225 1    0.3238713588E+02    0.4566619548E+02    0.3553387088E+02
226 2    0.3212992047E+02    0.4530954785E+02    0.3657380248E+02
227 2    0.3328750822E+02    0.4502762460E+02    0.3520065509E+02
228 1    0.3112577290E+02    0.2984798661E+02    0.3476651265E+02
229 2    0.3026517108E+02    0.3055088037E+02    0.3487787696E+02
230 2    0.3081107352E+02    0.2884488949E+02    0.3518534294E+02
231 1    0.3121084169E+02    0.4492750342E+02    0.3317495800E+02
232 2    0.3211436115E+02    0.4550967511E+02    0.3275058813E+02
233 2    0.3034960987E+02    0.4538711786E+02    0.3280443726E+02
234 1    0.3151467995E+02    0.4352210341E+02    0.3256577880E+02
235 2    0.3106006021E+02    0.4262579361E+02    0.3313624343E+02
236 2    0.3259185237E+02    0.4341236554E+02    0.3249990650E+02
237 1    0.3081101672E+02    0.4354640585E+02    0.3124741006E+02
238 2    0.2978348186E+02    0.4392668880E+02    0.3137280570E+02
239 2    0.3078370007E+02    0.2724623112E+02    0.3078303002E+02
240 1    0.3148842292E+02    0.4434374737E+02    0.3015398680E+02
241 2    0.3126154916E+02    0.3006016186E+02    0.3028828833E+02
242 2    0.3101254627E+02    0.2865601431E+02    0.2929202880E+02
243 1    0.3295134883E+02    0.4395094290E+02    0.2995042819E+02
244 2    0.3322047900E+02    0.4287114655E+02    0.3026048537E+02
245 2    0.3368910596E+02    0.4449922059E+02    0.3068717599E+02
246 1    0.3337834255E+02    0.4410060414E+02    0.2846885713E+02
247 2    0.3335127495E+02    0.4510273308E+02    0.2802775518E+02
248 2    0.3283078901E+02    0.4324855852E+02    0.2799902344E+02
249 1    0.3270282269E+02    0.3180620793E+02    0.3547611615E+02
250 2    0.3365147409E+02    0.3192047378E+02    0.3606252043E+02
251 2    0.3285127007E+02    0.3219654528E+02    0.3447399737E+02
252 2    0.3189390651E+02    0.3243097900E+02    0.3592932839E+02
253 1    0.3489949530E+02    0.4378370751E+02    0.2854092038E+02
254 2    0.3496676061E+02    0.4266831630E+02    0.2875421245E+02
255 2    0.3539100820E+02    0.4386335952E+02    0.2758212579E+02
256 2    0.3543451401E+02    0.4436613418E+02    0.4461846673E+02
257 1    0.3361939275E+02    0.3747116071E+02    0.3777311746E+02
258 2    0.3315115284E+02    0.3850983913E+02    0.3796718336E+02
259 2    0.3458589604E+02    0.3749396808E+02    0.3722137408E+02
260 1    0.3401568990E+02    0.3714037041E+02    0.3939100950E+02
261 2    0.3379863697E+02    0.3601490122E+02    0.3954732248E+02
262 2    0.3333430934E+02    0.3774722403E+02    0.3991055755E+02
263 1    0.3552674602E+02    0.3754527374E+02    0.3967325915E+02
264 2    0.3567635573E+02    0.3847397566E+02    0.4027144353E+02
265 2    0.3589113646E+02    0.3768458167E+02    0.3867734159E+02
266 1    0.3646445528E+02    0.3646186840E+02    0.4029618707E+02
267 2    0.3626717613E+02    0.3541608171E+02    0.3988692747E+02
268 2    0.3636311734E+02    0.3635059212E+02    0.4140418334E+02
269 1    0.3807171071E+02    0.3682426947E+02    0.3994891428E+02
270 2    0.3868160042E+02    0.3640027150E+02    0.4073553166E+02
271 2    0.3800323729E+02    0.3795310604E+02    0.4016362184E+02
272 1    0.3835858964E+02    0.3651112992E+02    0.3848348205E+02
273 2    0.3736017262E+02    0.3625272302E+02    0.3796241413E+02
274 2    0.3894213997E+02    0.3556932582E+02    0.3839821911E+02
275 1    0.3916773546E+02    0.3775001161E+02    0.3774723879E+02
276 2    0.4010934976E+02    0.3803817976E+02    0.3808737598E+02
277 2    0.3844348476E+02    0.3862930261E+02    0.3781308870E+02
278 1    0.3943637972E+02    0.3759836831E+02    0.3623247574E+02
279 2    0.4002233584E+02    0.3669471792E+02    0.3597250069E+02
280 2    0.3979857883E+02    0.3856952692E+02    0.3585715462E+02
281 1    0.3253694515E+02    0.3660187665E+02    0.3702869423E+02
282 2    0.3200617938E+02    0.3721054075E+02    0.3621100408E+02
283 2    0.3305251472E+02    0.3583098794E+02    0.3645222390E+02
284 2    0.3180268980E+02    0.3622179028E+02    0.3779095781E+02
285 1    0.3808194506E+02    0.3724839451E+02    0.3564652617E+02
286 2    0.3821757030E+02    0.3692097013E+02    0.3465061074E+02
287 2    0.3770583413E+02    0.3627494457E+02    0.3612903994E+02
288 2    0.3748894045E+02    0.3816283251E+02    0.3567671671E+02
289 1    0.3448918537E+02    0.3375780784E+02    0.4518763865E+02
290 2    0.3476685796E+02    0.3292877684E+02    0.4593149612E+02
291 2    0.3486238069E+02    0.3475537727E+02    0.4564184929E+02
292 1    0.3536569512E+02    0.3360934908E+02    0.4391927313E+02
293 2    0.3506315402E+02    0.3422592288E+02    0.4311886502E+02
294 2    0.3521577752E+02    0.3250675032E+02    0.4356503734E+02
295 1    0.3690403751E+02    0.3375589304E+02    0.4427559079E+02
296 2    0.3730050501E+02    0.3294084510E+02    0.4498443707E+02
297 2    0.3704962337E+02    0.3459688795E+02    0.2964957209E+02
298 1    0.3771241848E+02    0.3382148768E+02    0.2762045996E+02
299 2    0.3724673355E+02    0.3426247795E+02    0.4212346938E+02
300 2    0.3787958541E+02    0.3275901973E+02    0.2725928196E+02
301 1    0.3915059987E+02    0.3445522389E+02    0.2781924955E+02
302 2    0.3898183996E+02    0.3545977487E+02    0.2831639525E+02
303 2    0.3951207490E+02    0.3478263036E+02    0.4216449860E+02
304 1    0.4011314193E+02    0.3345850103E+02    0.2851302602E+02
305 2    0.4013921895E+02    0.3261776314E+02    0.2781466773E+02
306 2    0.3976682175E+02    0.3295175847E+02    0.2945368893E+02
307 1    0.4154291199E+02    0.3375586623E+02    0.2854774567E+02
308 2    0.3063799577E+02    0.4184099602E+02    0.2505362114E+02
309 2    0.4238977007E+02    0.3339247202E+02    0.2772864713E+02
310 1    0.4209446722E+02    0.3448448018E+02    0.2979632470E+02
311 2    0.4182734799E+02    0.3393072539E+02    0.3077535730E+02
312 2    0.4147966755E+02    0.3546918253E+02    0.2979929332E+02
313 1    0.3298072065E+02    0.3379727303E+02    0.4484425362E+02
314 2    0.3235979181E+02    0.3422501509E+02    0.4567740126E+02
315 2    0.3260168312E+02    0.3439187025E+02    0.4393846670E+02
316 2    0.3263454272E+02    0.3277493733E+02    0.4465494982E+02
317 1    0.4362727036E+02    0.3443783574E+02    0.2976085979E+02
318 2    0.4384162342E+02    0.3497555631E+02    0.2881099438E+02
319 2    0.4429691400E+02    0.3491631014E+02    0.3057452614E+02
320 2    0.4403026629E+02    0.3339082189E+02    0.2973583055E+02
321 1    0.3484128787E+02    0.3028281150E+02    0.2442247116E+02
322 2    0.3567596182E+02    0.2954245268E+02    0.2454473648E+02
323 2    0.3470016872E+02    0.3076994442E+02    0.2534072493E+02
324 1    0.3541458160E+02    0.3132322170E+02    0.3876839509E+02
325 2    0.3452577540E+02    0.3207156230E+02    0.3843266358E+02
326 2    0.3572874111E+02    0.3072266653E+02    0.3791649580E+02
327 1    0.3661104037E+02    0.3213513415E+02    0.3924565781E+02
328 2    0.3745471560E+02    0.3143127834E+02    0.3937582594E+02
329 2    0.3641179624E+02    0.3264481262E+02    0.4012567243E+02
330 1    0.3692965396E+02    0.3319350946E+02    0.3818995495E+02
331 2    0.3783231586E+02    0.3380129706E+02    0.3846733917E+02
332 2    0.3615346090E+02    0.3391651791E+02    0.3810324882E+02
333 1    0.3743204312E+02    0.3280624100E+02    0.3678538428E+02
334 2    0.3752901419E+02    0.3168320170E+02    0.3665168960E+02
335 2    0.3834944093E+02    0.3347903118E+02    0.3660195834E+02
336 1    0.3629456910E+02    0.3324831943E+02    0.3563330339E+02
337 2    0.3608903447E+02    0.3428085198E+02    0.3596158963E+02
338 2    0.3537138248E+02    0.3267175194E+02    0.3561451299E+02
339 1    0.3685706521E+02    0.3333034865E+02    0.3416589352E+02
340 2    0.3772179827E+02    0.3415789278E+02    0.3403981562E+02
341 2    0.3596522043E+02    0.3366107530E+02    0.3348454510E+02
342 1    0.3742980273E+02    0.3201125926E+02    0.3364640110E+02
343 2    0.3657179902E+02    0.3129379344E+02    0.3345755624E+02
344 2    0.3803300888E+02    0.3144669070E+02    0.3443246780E+02
345 1    0.3357465051E+02    0.2951817933E+02    0.2390103754E+02
346 2    0.3269131089E+02    0.3011390640E+02    0.2414126864E+02
347 2    0.3353696333E+02    0.2928099250E+02    0.2282870394E+02
348 2    0.3359583476E+02    0.2861040366E+02    0.2450161738E+02
349 1    0.3830670752E+02    0.3231937594E+02    0.3241051225E+02
350 2    0.3796468208E+02    0.3328439198E+02    0.3202185896E+02
351 2    0.3930661150E+02    0.3246118571E+02    0.3280711072E+02
352 2    0.3820105573E+02    0.3156039797E+02    0.3160025240E+02
0.0000000000E+00    0.0000000000E+00    0.0000000000E+00
0.1532620600E+02    0.0000000000E+00    0.0000000000E+00
0.0000000000E+00    0.1532620600E+02    0.0000000000E+00
0.0000000000E+00    0.0000000000E+00    0.1532620600E+02
}
Driver = VelocityVerlet {
  Steps = 50000
  TimeStep [fs] = 0.2
  MDRestartFrequency = 5
  Thermostat = None {}
  Xlbomd = {
    IntegrationSteps = 6
    MinSccIterations = 2
    MaxSccIterations = 200
    SccTolerance = 1e-6
    PreSteps = 0
  }
  Velocities [AA/Ps] = {
-4.26747007 1.49625529 -13.21292266
-25.85355519 -14.54276504 -19.39141864
24.98352138 33.49995945 -21.03586263
4.21849379 8.16800128 -8.57754156
-15.28613166 11.34972405 55.03349895
-5.99593157 -2.56105584 26.73032682
-6.03963937 4.68842962 19.55811886
15.43978740 -28.58430769 9.58353271
0.68011108 30.67865501 -50.36455311
-0.80964970 4.87355646 -4.59853801
39.52576498 27.33238383 21.22042752
-23.12931572 11.48474199 -11.52647115
6.60127379 7.08312186 -5.41292541
39.61708277 40.72974875 -32.51360572
-10.47004789 0.39022406 9.31923990
4.22520686 8.75821381 3.78531326
-2.02099560 10.31579668 26.64167917
-6.38519738 15.28982024 13.79178928
2.26935614 3.85415047 -5.23597268
-41.53855268 -1.08989562 -19.94033744
42.55550361 -18.12089562 22.80464057
-0.81489204 12.72921955 -6.70423583
0.26716500 -20.06656518 -30.47305744
-3.06805383 -6.78634479 23.01941490
0.82574728 -3.84970156 -4.79850187
-8.01996128 39.43830019 -24.17123588
-31.42268455 61.56375913 34.59293409
8.52063299 3.65838725 -25.09108646
-4.95196763 7.81083130 0.41701043
20.22819327 5.70225707 -37.84927744
-27.59461527 26.26633771 -10.35582524
42.29023411 -32.45613182 -0.03354338
8.32097747 0.36375195 9.84569579
-20.55416020 -17.47269760 -18.54636193
-23.73305882 -5.91572008 6.25909019
-6.78733995 0.67856589 -5.79413541
-35.79631151 34.08460647 14.47180392
29.56735723 1.37442223 15.35031883
10.54328441 -2.29304434 2.30419603
-7.76352500 -7.81884122 -7.51117687
-0.44771420 -37.45546642 -43.58071267
-6.17629986 -0.54264891 10.61874447
-23.76306611 25.02957318 10.35582228
13.28791189 -17.39438315 18.31215951
-1.31001153 -3.55065321 2.83765356
24.83211715 -24.84663997 -16.06711197
15.24530987 -0.14081575 -17.64687505
-13.63433914 -9.06572844 10.33374219
0.74383098 16.01892358 -15.48923306
-14.51004244 3.36789364 19.71769559
7.50312492 2.43301349 4.59859028
-7.53637254 42.36566609 37.13936517
-25.58726676 -35.05945985 -15.94992889
-9.29147715 6.77890229 0.48535422
-10.56017016 -31.24684348 -25.58737988
-14.40723502 22.28504575 -1.84158060
-6.79706429 -7.45887709 16.42163844
15.48435368 16.25789251 -22.33214594
0.13279431 -24.33611574 -34.67080071
-0.55102818 16.75752694 39.33084847
5.87906130 -4.49408098 0.10603070
-25.44889097 0.91494711 16.45076945
-12.82844392 10.96252647 22.04721748
9.24077583 22.66413739 -2.54748812
1.14663572 0.49915193 3.29528388
18.25467960 1.80256914 7.92251410
-23.45737884 -9.30913608 -26.11873478
8.27016287 7.53090086 -6.79068148
-12.87822394 7.91773110 8.91761597
13.87177552 25.87046451 -0.83022588
-3.07048970 4.70466660 -2.22651480
-15.09992509 21.05794395 1.73782783
29.49458576 -14.25771046 -3.22038120
-13.74328632 -8.73882901 -3.75872817
-25.42117038 -47.62102766 29.66222007
-20.68115228 -14.45995245 -25.11899911
-6.30580287 -11.74909662 -0.00965567
31.07430038 -27.14592846 -7.27431539
-1.27518380 -10.85629722 17.84193975
5.19026315 -2.27275631 0.34218233
26.26929771 28.33614001 12.17739157
62.91576781 -25.85367147 -28.68646468
3.18643917 -1.92696976 1.13402968
10.12557196 -8.97183757 24.45411788
-16.10954470 -9.40432918 15.10349071
2.20027093 -12.05539865 18.08982790
-17.21928365 -7.58183257 -8.96534421
19.02064523 28.26989936 -13.87616716
-1.90935447 -5.59227512 -5.42240125
15.57631233 -18.13031200 -27.58627819
27.19118707 1.50941679 -27.80453111
15.99401018 24.01514870 52.09011748
-1.50135196 -10.32288740 11.93100155
-27.04060768 38.31896917 -7.01456394
-10.12156598 14.74069879 1.68788197
-7.02440943 20.72325778 -9.31302542
1.14340992 -1.80035747 -1.19559731
7.64565639 22.59496820 -27.16349094
10.26343310 7.01408629 13.03566615
9.01301069 -0.76008643 -0.09618121
-9.82369819 -10.78019832 -16.00274918
43.16153746 49.28830729 -9.34665370
2.83329726 -6.05562643 1.41687602
-29.89758598 18.78989677 0.69433384
11.46059631 -40.48615219 -56.27229361
-9.89926090 -5.48074735 16.69938267
-7.93157438 -2.21158405 -5.12352139
28.97578063 -30.35364802 31.50265591
3.78947318 3.72520731 3.21951001
4.57963680 27.16293417 27.84302818
-10.01248133 12.17844032 -14.49617435
-10.79491272 1.91681832 4.86295914
7.73241540 14.97451151 -13.64849109
-19.36036160 2.75130300 3.20550758
-6.01203087 -6.23086659 3.72878499
14.83740827 2.69369145 14.72726648
10.96564366 -11.43145267 18.52296557
-2.04390303 -7.65746419 -15.35961054
-0.71058024 -1.68046098 -22.34763343
-30.55814451 19.94912962 10.98060184
-1.90500884 4.73145030 -14.16367067
-31.24478417 -9.72311509 -11.76561892
-1.75348090 0.83563765 16.91766884
-1.80106421 -3.16223843 22.72163606
8.04651630 -6.68624682 2.79876825
16.49322210 0.04480831 12.69287985
-15.44625286 10.96356581 5.08042457
30.94126293 -15.17737457 -8.27781885
-0.29772503 8.20306931 -9.00167005
11.83686836 24.58362145 2.77686843
-36.79139072 -29.25429792 -9.58705834
-11.19006297 -1.01425581 3.69897735
-2.49858443 -13.48664080 37.71447759
-8.59659332 -21.08011890 -8.98402410
5.48936173 -3.34279738 -9.76394662
-4.65633644 3.28710243 -26.21773344
-6.70153918 -12.74027086 -7.80847893
5.56505310 4.24417541 4.10025771
-17.57202433 -1.86202284 5.75998408
-9.55430184 35.90918539 47.79699431
-2.56783529 -7.47108043 0.51885848
3.89833561 5.74281693 -22.43520298
-23.93586407 24.20479458 -5.42918434
4.54958312 -1.42566841 6.58077346
-38.80645085 7.58740211 -33.46003619
-29.30980493 -0.68110361 -5.27307880
4.24172098 9.70589925 -0.62233513
-11.75883597 -40.15531040 12.73960789
-8.18159005 -7.96890761 14.60882299
-1.76114405 -5.63172264 -3.34368365
1.42173157 -14.90274031 14.53583325
-34.14393818 -6.35512213 0.32494223
2.18834656 9.52588969 -5.83343673
23.47826068 -0.79383292 19.87971563
15.55544660 8.87459444 -10.31708055
-40.38636865 8.37415161 -31.13248627
-0.54908561 -0.61264124 2.19420344
-9.30047505 -18.56580490 -46.10600628
-22.80367569 -31.46140837 -10.73201337
-2.18397627 14.08762545 20.09462075
1.24007310 0.54138135 -3.20393322
-10.49562983 41.42318193 -12.96466074
2.66764322 -27.71416936 -3.04288079
-0.51903609 3.10725348 -2.99167148
-19.82893403 -10.90046316 17.03332294
-0.20363473 -40.93886593 -5.47282822
-6.02079615 -1.68853292 -1.47795956
17.21800166 -50.57659576 -8.45976040
-12.14113166 -1.70166640 0.09212767
0.75868860 0.94666603 2.04065517
-30.74693514 -8.14349815 18.25437317
6.02583505 14.35042754 -27.08084774
-0.48068870 -4.01222311 1.69438410
-24.70495471 11.76866586 -10.77157762
-7.12205976 -26.31605275 -9.60409122