Geometry = GenFormat {
<<< "system.gen"
}

Driver = VelocityVerlet{
  Steps = 100000
  TimeStep [fs] = 0.2
  MDRestartFrequency = 5
  Thermostat = None {
    #InitialTemperature [Kelvin] = 300.0
  }
  Xlbomd{ 
    IntegrationSteps = 6 
    MinSccIterations = 2
    MaxSccIterations = 200
    SccTolerance = 1e-6 
  }
  Velocities [m/s] {
     -9.52151427E+02      5.81137764E+02      7.07944295E+02
      2.99345762E+01      2.12258454E+03     -1.39347557E+03
      3.73910634E+02      5.67454474E+01     -2.73169125E+02
     -3.52782834E+02     -1.24839234E+02      3.46035956E+02
     -7.51383411E+02      3.01393522E+03      9.69776143E+02
      3.87823074E+02      7.23526614E+02      1.65493287E+03
     -9.19263963E+02     -1.30457224E+02      4.18735511E+02
     -9.04106407E+02     -6.21681708E+02     -2.07014915E+03
     -7.65364901E+02      1.43925199E+02     -6.32241221E+02
     -1.17240622E+03      7.76197783E+02     -1.23687963E+02
      6.75687275E+02      7.77353693E+02     -8.38665558E+02
      1.39768938E+02     -4.41225977E+02      8.49518776E+02
      8.89098282E+01     -4.94565071E+00     -7.50724661E+02
     -3.60812907E+02     -9.57010054E+02     -2.73249898E+03
      2.56179430E+03     -9.18726235E+02     -1.18109213E+03
     -2.82411846E+02     -1.02528893E+02     -1.01144042E+03
     -2.28938065E+03     -2.21968180E+03     -1.83097829E+03
      4.45496536E+02     -2.41064437E+02     -1.10794133E+03
      2.72567380E+02     -3.67813932E+02      8.38156114E+01
     -5.97769029E+02     -3.56165360E+02     -1.42268106E+03
     -2.10820739E+03     -2.25621689E+03      5.99251285E+02
     -8.83397130E+02      4.85465966E+02      3.01635327E+01
      9.26685146E+02     -1.39538165E+03      6.80395537E+02
     -1.68327880E+03      5.84404564E+02     -8.40415443E+02
     -3.86819935E+02     -4.22143552E+02     -3.86236929E+02
     -1.14392489E+03      2.67355176E+03      5.99242437E+02
      3.90838757E+02     -2.43496612E+03     -1.41668515E+03
     -2.06043967E+03     -1.61683359E+03     -1.35222341E+03
     -1.84731249E+02      7.88090045E+02      5.78460196E+02
     -1.93315480E+03     -1.59903207E+03     -1.98668624E+03
      9.35731681E+02     -8.68014145E+02     -3.74616047E+03
     -1.93109951E+02     -7.83738180E+02     -1.56307335E+03
     -3.59642871E+02     -1.36218731E+02      4.75555066E+01
     -1.60128875E+03     -3.40330314E+02      2.12427051E+03
      6.06150851E+02      1.19509043E+03      5.82768292E+01
     -3.16625509E+01     -1.86254203E+02      4.93760014E+02
      1.13527644E+03     -7.73779617E+02     -4.70988432E+02
      2.22188043E+03      1.56598629E+03      6.32161190E+02
     -9.92795045E+02      8.34399061E+02      7.76341789E+02
     -1.65096596E+03     -2.95657502E+02     -1.36912689E+03
      2.40214238E+03     -8.49935294E+02      1.06574372E+03
     -6.52935485E+02      4.34659693E+02      9.59424604E+02
      1.84332899E+03      1.88559377E+03      1.72395710E+03
      1.13707352E+03      2.05786271E+03      2.42776740E+03
     -2.78126696E+02     -8.62916597E+01     -7.52436593E+02
     -2.93014577E+03      6.29788711E+02      3.10215237E+02
     -8.24685184E+02      4.34773390E+02      2.30418971E+02
      1.46678903E+02     -5.70505199E+02     -8.04911938E+02
     -1.68203637E+02      1.81896102E+03     -2.14695847E+03
      4.25871966E+02      7.28376974E+02     -8.52582755E+02
     -9.24369115E+02      3.45157390E+02      7.66857481E+01
     -2.72475221E+03     -3.21640098E+02      7.43365011E+02
     -1.53088985E+03     -1.28289612E+02      9.55629447E+02
     -1.96022136E+02      6.43717663E+02     -4.33405079E+02
     -6.12863627E+02      2.07650506E+03     -4.33264691E+03
     -8.05258231E+02      4.51006132E+02     -2.05360593E+03
      7.86714350E+00      3.56109092E+02     -9.40795294E+01
      1.51639463E+03     -8.05649902E+02      8.57060321E+02
      7.98612537E+02      1.80049192E+03     -2.90628522E+02
      8.46744193E+02      1.62056459E+03     -6.62230387E+02
      2.57671015E+02     -1.96271249E+02      4.02208565E+02
      3.58218241E+02      3.04078148E+02      8.44740464E+02
      3.90410000E+03      2.52206155E+02      3.38702265E+03
      2.03035063E+03     -1.53550503E+03     -3.28758660E+02
      1.82075869E+02     -9.13140185E+02      4.34237229E+01
     -3.12317076E+01      1.11391921E+03      2.53807000E+03
      3.93380704E+02     -6.24391016E+02      1.36246968E+03
     -2.12389739E+01      5.63730882E+02     -3.79524345E+02
     -1.12045451E+03     -1.41411065E+03      3.67693233E+03
      1.82149519E+03     -2.00925545E+02      2.34601325E+02
     -5.21528805E+02      2.35187704E+02      4.44414660E+02
     -2.89988129E+03     -3.44193650E+03     -2.32361713E+02
     -2.77768382E+03     -1.00231678E+02     -4.26549883E+02
      2.57564995E+02     -5.75868860E+01     -5.73359526E+02
     -2.96547401E+03     -1.92437745E+02     -6.40785309E+02
      1.31898336E+03      4.22190694E+03      1.88775069E+03
     -5.04449453E+01      3.78514082E+02     -6.45099434E+02
      1.16057310E+03     -2.61902866E+03      1.08913198E+03
      1.14127041E+03     -1.54115449E+03      1.69705482E+03
     -1.65945175E+02      5.16349949E+02      6.91446909E+02
      6.54049887E+02      3.51087808E+03      1.85231086E+03
      1.04914354E+03     -1.88545589E+03      1.21847893E+03
      3.26868884E+02      1.15243779E+03     -2.60851977E+02
      1.80300661E+03      7.69649045E+02     -4.40971228E+02
     -4.09531744E+02     -2.22183088E+03     -1.05595167E+03
      4.17121665E+02      2.61971695E+02      5.14777000E+02
      6.86973622E+02      5.29585087E+03      2.03903719E+03
     -1.86743465E+03     -1.29867389E+03      2.92831516E+02
      5.15888766E+01      1.38773313E+02     -2.13119755E+02
     -7.54765800E+02      9.46615365E+02     -5.03581306E+02
     -2.03448785E+03      3.58360698E+03     -6.71740444E+02
     -9.48934216E+02      8.02040941E+02      1.04787780E+03
     -4.13456110E+02     -4.62489599E+02      7.05844815E+02
      8.32496630E+01      1.82953613E+03     -9.99205411E+02
      1.80520475E+03     -8.53769165E+02     -1.03159594E+02
      1.09161926E+03      1.45960637E+03     -1.27296293E+03
     -8.46080539E+02     -5.89832411E+02     -9.90636744E+01
     -1.58793793E+03      1.60263041E+03     -1.55097660E+03
     -1.49810313E+03      2.40056290E+02      7.37183657E+02
      6.87933057E+02      2.62570444E+02     -4.97758536E+02
      1.26827316E+03      2.29525432E+03     -1.82496224E+03
     -5.21245831E+02      6.22340055E+02     -1.73441518E+02
      3.10972513E+02      3.29669065E+02     -3.02689505E+02
     -1.23868143E+03      1.56278933E+02     -1.37469530E+03
     -1.15546523E+03      1.08892791E+03     -1.92820565E+03
      1.11753874E+02     -2.34061907E+02      9.93328830E+02
      7.48731957E+02     -9.71487484E+02     -3.51549219E+02
      8.39251739E+02      5.24735977E+02     -7.26500732E+02
     -2.62814004E+02     -1.08731753E+02      3.55799333E+02
     -1.48245473E+03      4.17227740E+02     -3.66018990E+03
      2.85216826E+03     -2.04994278E+03     -1.21720115E+03
      3.52351362E+02      5.83138991E+02      6.31190371E+01
     -1.18826972E+03      9.74434596E+02     -9.61252658E+02
     -2.31974345E+03      6.20808738E+02     -2.06803050E+03
      6.58039509E+01      7.64240655E+01     -2.57946311E+02
      1.08139572E+02      7.75151613E+02     -2.64061475E+02
     -1.86370978E+03     -1.51667190E+03      4.08392743E+02
      5.38503978E+02      3.94385663E+02     -8.06990054E+02
     -1.60925266E+03      3.56709161E+02      1.57658125E+03
      2.28113306E+02     -1.63447134E+03      2.47781485E+03
      2.69979798E+02      9.24337784E+02      8.18176670E+00
      1.84213225E+02     -1.58987231E+03      4.01991150E+02
      9.77932628E+02      5.89562053E+02      8.71262201E+02
     -1.16605416E+03      9.19624756E+02      1.49027522E+03
      4.77385876E+02      7.43114098E+02     -9.36107704E+01
     -1.45122247E+03     -2.89220414E+03      1.98651819E+03
      1.95530851E+03      2.01761143E+03     -1.59118858E+03
      4.98560926E+03      7.02680487E+02     -1.28018053E+03
     -4.30775518E+02      7.13172655E+02     -8.77757992E+01
      1.63088847E+03      1.29532971E+03      3.18681626E+03
     -2.23354613E+03     -1.05740278E+03     -1.76611369E+03
     -1.98513912E+01     -8.72131328E+01      9.19822668E+01
      5.00631495E+02      2.23499650E+03      1.96591594E+03
      1.22975640E+03     -3.10307287E+02      1.04307133E+02
     -6.77857639E+01      9.97758777E+00      2.81477725E+02
     -2.06152200E+03      2.75818596E+02      1.81690196E+03
      1.92481595E+03     -1.94179087E+03     -1.79647824E+03
      4.40989802E+02      8.68532931E+01     -3.97384275E+02
      1.59403588E+03      1.13765577E+03     -2.42853791E+03
      7.69977623E+02      2.80482283E+03     -2.36401302E+02
     -4.05030598E+02      5.12882465E+02     -2.07885421E+02
     -4.06450600E+03     -1.46236381E+03     -6.41367153E+02
     -2.59450354E+03      1.65480534E+03     -2.40493638E+02
      5.51684739E+02      4.06267113E+02     -9.26836117E+02
     -9.27424739E+02     -6.47418857E+01      1.07948909E+03
      3.10988076E+02     -2.25741384E+02     -6.56654345E+02
     -6.48149340E+01      5.17504646E+01      1.81259440E+02
     -5.03263794E+02     -1.96657604E+03      9.34296079E+02
     -1.31179330E+03     -2.78763895E+02     -3.62373781E+02
      1.04320334E+03      1.23601261E+02      3.00797840E+02
      1.31219929E+03     -1.85214945E+03     -2.00330091E+03
     -2.86548506E+02     -7.61135778E+02      1.88236413E+03
     -7.91967473E+02      5.76761170E+02      1.02139968E+03
      2.67097168E+02      1.92635830E+03      3.77750148E+02
     -6.07347655E+02     -5.47436230E+01     -1.90619684E+03
      2.20881601E+03     -8.66742756E+02     -1.24055907E+03
     -4.41715767E+02     -4.99801600E+02     -7.36014407E+02
      5.65149133E+02     -4.44820888E+02     -1.07722755E+03
      1.97174687E+02     -5.30932437E+02     -8.79702643E+02
     -1.74774498E+03     -8.79971228E+01      1.08832079E+03
     -7.63934417E+02      1.71503326E+02      2.45745328E+01
      1.10461306E+03      1.81452995E+03     -1.90468963E+03
      4.28908831E+02     -7.24049478E+02     -2.29942601E+00
      3.85748044E+02     -1.07369809E+02     -5.73910064E+02
      5.51544006E+02     -3.06113994E+03     -8.17356280E+02
     -1.29043232E+03      2.23205137E+02     -1.04587516E+03
     -8.06526586E+02      5.93858795E+02     -9.27600336E+01
     -1.20516756E+03      1.45773952E+03     -2.98539342E+02
     -2.89015597E+03      1.23497254E+03      2.14443970E+02
      4.24640217E+01     -4.03710876E+02     -1.03436638E+02
     -4.42649040E+02     -7.04562759E+02      3.48102175E+01
      1.50676757E+02      7.75894516E+02     -1.71323483E+03
      2.23894793E+02      5.15230749E+02     -9.22805151E+02
     -1.34273631E+03     -1.40335382E+03     -3.54594055E+02
      3.72149118E+02     -2.42056675E+02      1.71599357E+03
     -1.04067484E+02     -1.02007342E+02     -4.12803588E+02
      6.04850204E+02     -8.21263915E+02     -1.29623496E+03
     -4.94061144E+01     -5.56010547E+02      1.77838537E+03
     -1.73824246E+02      5.92413051E+02     -9.35196075E+01
      1.21558922E+03      1.24482011E+03      5.33028027E+02
     -1.49927615E+03      2.90542115E+02      3.04083389E+03
     -2.40205873E+02      5.43138831E+02      4.05373243E+02
      9.15064060E+02     -2.14711936E+03     -2.91923155E+02
     -3.68729006E+03     -1.86311693E+03     -1.44098656E+03
     -8.38111781E+02      9.91308911E+01     -8.15425850E+02
     -7.11593097E+02      1.63661231E+03     -1.18094125E+03
     -7.31873436E+02     -1.45882708E+03     -2.39132567E+03
      2.53156166E+03     -1.05385235E+02     -1.16657033E+03
      2.18721109E+02     -8.13623438E+02     -2.23223056E+02
      1.21010539E+03      6.30628735E+02      2.40669309E+03
      2.45767693E+02     -1.03430720E+03     -3.35354517E+02
     -5.35015446E+02      1.16742832E+03      6.54070149E+02
      1.12836633E+02     -9.52966153E+01     -3.17171003E+02
      2.94239141E+03     -2.88847859E+03      3.63745760E+02
     -1.51694418E+01      8.60281201E+02     -8.33734539E+02
      1.60826351E+02     -6.24800867E+02     -1.34696249E+02
     -1.08122468E+03      3.99700251E+03     -1.12653236E+03
      1.45565541E+02      4.09356144E+03      1.31455706E+03
     -1.28715646E+03      6.54774094E+02      4.70712947E+01
      7.78740795E+02      3.62446260E+01      2.23232361E+02
      1.75662562E+03      2.98435251E+03     -1.33092579E+03
     -1.67295987E+02     -3.30476330E+02     -4.75296413E+02
     -6.61364609E+02      4.58253210E+02     -1.20553182E+03
      3.11049541E+03      1.36091834E+03      1.25376328E+02
     -1.55358489E+01      1.86939341E+02      1.12098655E+03
     -1.27807384E+03      8.43130370E+02      7.48735706E+02
     -2.32378986E+03      1.27974923E+03     -2.02003301E+02
      2.59301196E+02      4.66288813E+02     -5.92400961E+02
     -4.01040708E+02     -8.21994029E+02      1.74304295E+03
      2.71316071E+02      5.73688579E+02      1.75398887E+03
      8.26324617E+02      3.16576174E+02     -4.25944644E+02
      1.62282722E+03     -3.32210593E+03      1.19145705E+03
     -5.75103747E+02     -1.07692063E+03     -1.86697980E+03
      3.87002312E+02     -6.87884610E+02     -4.01522472E+02
     -1.59051402E+02     -3.90235344E+01      9.18231309E+02
     -1.48686315E+02      6.91610386E+02     -2.34249463E+03
      1.72554266E+02      6.23331607E+02      6.70547486E+02
      1.15271252E+03     -2.99894299E+03     -2.55727004E+03
     -1.72314411E+03      2.26629586E+02     -1.99582429E+03
     -7.65303007E+02     -1.84295237E+02      1.97959654E+03
     -3.87676133E+02      1.81812644E+02     -1.76430649E+01
     -1.52331446E+03     -3.33755644E+03     -6.72377843E+02
      1.01231118E+02      3.34744035E+03     -2.60582923E+03
      1.51315701E+03     -3.48515172E+02      4.97465742E+02
      3.28579336E+02     -2.34485921E+02     -2.27737827E+02
      2.70686587E+02      6.66149655E+02      2.83349645E+03
     -1.70324673E+03     -1.51098761E+03      8.27789608E+02
     -7.70033700E+02      6.49300552E+02     -1.99239469E+02
      8.22171024E+02      4.85328869E+03     -1.39815965E+03
     -2.80534174E+02      1.40044402E+03      4.47828235E+03
      1.88205043E+02      2.80867520E+02      3.59937898E+02
      1.89971359E+03      3.58752791E+02     -1.13629808E+03
     -4.47214771E+02     -2.71761583E+02      1.44421824E+03
     -3.36821891E+02      2.66238211E+02     -1.01639830E+03
     -1.06580383E+03      2.98219191E+02     -1.87716008E+03
      2.14174299E+02      3.33192587E+02     -3.73932510E+03
      4.45912231E+02     -8.45286888E+02      4.33060485E+02
      2.37634528E+02      2.69549798E+03      2.51424445E+03
      1.98198010E+03     -1.65250618E+03      1.44016842E+03
     -7.21936921E+02      4.91018348E+02     -1.32079062E+01
      1.61219863E+03     -1.60276295E+03      5.91948398E+02
      1.56670283E+02      3.20750284E+03      2.56989120E+03
     -1.19128304E+02      2.62034984E+02      1.35151776E+02
     -2.07548276E+03     -2.76992615E+03     -1.46975542E+03
     -7.07856930E+02      2.62807460E+03     -3.70826971E+02
      1.63959889E+01     -2.08470939E+02     -1.19521832E+02
      1.61668184E+03      1.29785211E+03      1.94294251E+03
      1.73419386E+02     -3.38182004E+02     -2.02077372E+03
     -4.02064437E+02      2.18607617E+01     -5.22997704E+02
     -9.54672253E+02     -7.53482122E+02      2.82450203E+03
     -4.37689181E+02      3.24739670E+02     -9.98488003E+02
     -2.82290533E+03     -1.39920827E+03     -2.49647327E+03
      1.53011604E+01     -1.01510390E+01     -8.88940978E+02
      9.30354972E+02      2.02305769E+03      2.13504227E+03
     -2.94970967E+03      2.01582420E+02      1.02985422E+03
     -9.10323457E+02     -1.07042796E+03     -3.30930402E+02
     -6.82889584E+02     -1.40477045E+02      1.09349205E+03
      4.33272000E+02     -1.90064103E+03     -1.88669783E+02
     -7.67723813E+02     -5.37790551E+02     -1.37004763E+03
     -2.26146988E+02      4.18532442E+02      2.45183838E+02
     -1.22402869E+03      1.47831151E+02     -2.12201369E+02
      3.09694483E+03      1.92378345E+03     -1.07673892E+02
     -4.85345674E+02      9.52381717E+01     -2.94514892E+02
      2.25622344E+02      1.76718968E+03      1.20617525E+03
      8.69116432E+02      1.39878583E+03      3.11495585E+03
      1.56267775E+01      1.14047788E+03      8.84710233E+01
      4.28524628E+02     -2.52982164E+03      7.42716651E+01
      4.26239548E+02      3.10524100E+03     -1.78384057E+03
      4.20605859E+02      5.00503748E+01     -1.18266873E+02
      6.35487889E+02      2.89529580E+03      7.18946734E+01
     -1.70951687E+03      3.22563804E+02     -1.48138501E+03
     -4.35647225E+02      2.86205504E+02     -1.35269407E+02
     -1.64229079E+03     -8.73021431E+02     -2.17695747E+03
      2.58233239E+03      1.85330806E+03     -5.48389627E+02
     -4.81206012E+02      4.34551189E+02     -6.91967413E+02
      2.48519810E+02     -3.94462594E+02     -1.48183486E+03
      9.06188188E+02     -6.29725764E+02     -2.83810051E+03
     -4.98515697E+01     -5.03595176E+02      1.62838021E+02
      4.37922457E+00     -5.61015190E+02     -3.76773134E+03
      1.59787839E+03     -1.12352641E+02      7.66191600E+02
     -4.56679490E+02     -2.92592429E+02      2.70852119E+02
     -2.01134240E+03     -1.04827924E+02      8.53137930E+02
      2.67052853E+03      3.57576542E+02      8.23922065E+02
     -1.56693938E+03     -4.08491599E+02      4.24323323E+03
      1.71971985E+04     -2.02456946E+04      9.10361572E+03
      8.83751349E+01     -1.33446103E+02      3.81852524E+02
     -3.08254487E+03     -1.27304374E+03      5.36401306E+02
      4.72020637E+02     -1.31851728E+03     -2.56863871E+03
      4.50189305E+02      1.07004536E+03     -3.60943757E+02
     -9.88147994E+02      3.39904715E+03      3.35110420E+02
      2.71373494E+02     -1.25598008E+03     -2.10698354E+03
      3.38303904E+02      6.43393881E+01     -3.71122102E+02
      6.40409417E+01     -1.17625089E+03      1.62650794E+03
     -1.07756710E+02      8.10002506E+02     -1.49280242E+03
     -3.87564333E+02      5.91263599E+02     -7.68383058E+02
      7.25085154E+02     -6.30294181E+02     -2.04279819E+03
     -5.01301194E+03      1.93202159E+03      2.60860070E+02
     -5.04023113E+02     -2.30773115E+01     -1.14272504E+02
     -2.38405904E+03      1.41645609E+03     -3.78427349E+02
     -8.89082030E+02     -4.60640562E+01      2.47046709E+03
     -3.25004763E+02     -6.10114773E+02     -2.65167444E+02
      6.03322176E+02     -4.60880796E+01      2.87884928E+03
     -2.33087612E+03      8.58654058E+02     -1.35036173E+03
     -2.94534291E+02      3.58669620E+02     -4.18897247E+02
     -2.88918889E+03      9.56128476E+02     -2.59247080E+01
      1.33053063E+03      2.52162046E+03     -1.13452705E+03
      7.26276447E+02     -3.58131343E+02      1.53181958E+02
     -1.64557966E+03      9.24502538E+01     -7.29324476E+02
      2.10540664E+03     -1.15900856E+03      5.40635640E+02
      1.38712201E+01      1.76316342E+02     -3.45868292E+02
     -2.98442017E+02      5.41651947E+02      6.43802541E+02
     -9.29748606E+02     -7.71974160E+02      5.23623113E+01
     -1.17417833E+02      4.14178855E+01      9.07204931E+01
      6.41909267E+02      2.12764019E+03     -6.60362028E+02
     -8.90396113E+02      1.91704733E+03     -1.17087944E+03
      6.54290004E+02     -1.39588348E+03     -6.39949323E+02
     -1.77087369E+02     -4.46478089E+02     -1.94448556E+02
      4.50856923E+02     -2.35954611E+03      1.21894847E+03
     -3.44807558E+02     -1.88645543E+03     -2.04689333E+03
     -1.36338385E+03     -3.56605052E+03      1.35640077E+03
      5.91446226E+01      6.14289047E+02      1.49213869E+02
      3.99044328E+02      2.38134218E+02      8.60545769E+02
     -1.96271777E+02     -5.94237583E+02      4.87026501E+02
      2.45755762E+02      2.19108147E+02      5.40567092E+02
      3.04868413E+03      1.30370868E+03     -9.43493157E+02
     -2.55940460E+03      5.38121856E+01     -6.04273464E+02
     -2.14998288E+02      1.86840186E+02     -5.09075129E+02
      1.21259839E+03     -1.26726669E+03     -3.10144760E+03
     -1.78224757E+03      6.40647077E+02     -1.79101486E+03
     -1.30424465E+03      2.67880198E+02      2.84471688E+02
     -4.60101130E+02     -1.76553615E+03      4.95298340E+02
     -1.11167576E+03      7.43176916E+02     -6.01897026E+02
      7.39223309E+02      2.46148262E+02     -4.34041864E+02
      6.44289225E+02     -1.83673602E+02     -2.80114671E+03
      4.21273673E+02     -2.23308477E+03      7.43200862E+02
     -6.04882421E+02      5.53064368E+02      9.52830713E+01
      8.01867393E+02      1.31341687E+03      5.89371476E+01
      1.13484013E+03     -1.62114055E+02      2.11610894E+03
     -2.25986649E+02      2.75598452E+02      6.26130563E+02
     -4.20392325E+01     -1.70411804E+02      1.98291046E+03
     -1.22636688E+03      2.00500253E+03     -7.08541998E+02
     -9.69116531E+02      8.02606049E+02     -5.52400060E+01
     -1.37135803E+03      9.47203039E+02     -2.90893758E+02
      1.76850762E+03      1.69204647E+03      1.88240352E+03
      2.09788079E+00      6.01373957E+01     -2.37066724E+02
     -4.40717068E+02      9.94228756E+01      1.65576240E+03
     -2.09798441E+01      2.73985603E+03      3.17184495E+03
      1.96942326E+03     -1.51902043E+03     -2.53852505E+03
     -4.92252758E+02      3.82475210E+01     -1.39454201E+02
     -2.69059597E+03      9.57203883E+02      1.58604590E+03
      2.20381936E+03      8.14913347E+02      2.18969920E+03
      3.74610277E+02      8.79309012E+02     -4.65767780E+02
  }
}

Hamiltonian = DFTB {
  SCC = Yes
  SCCTolerance = 1e-6
  MaxSCCIterations = 200
  ForceEvaluation = Dynamics
  MaxAngularMomentum = {
    C = "p"
    H = "s"
  }
  Charge = 0.0
  SpinPolarisation = {}
  Eigensolver = Standard {}
  Filling = Fermi {
    Temperature [Kelvin] = 300.0
  }
  SlaterKosterFiles = Type2FileNames {
    Prefix = "../../pbc-0-3/"
    Separator = "-"
    Suffix = ".skf"
    LowerCaseTypeName = No
  }
  KPointsAndWeights = {
    0.0000000000000 0.0000000000000 0.0000000000000 1.00000000000000
  }
  Dispersion = LennardJones { 
    Parameters = UFFParameters {}
  }
}

ParserOptions = {
  ParserVersion = 3
}
