Geometry = GenFormat {
352 S
C  H
1   1         36.77730600         30.57266100         38.42279800
2   2         36.90624200         31.49976100         39.05126600
3   2         36.26586200         30.81136800         37.47823600
4   1         38.11953900         45.12210000         38.29625000
5   2         37.84345200         44.11439000         37.83617500
6   2         23.10103200         45.04136800         39.36916400
7   1         38.99866900         45.84501300         37.28616400
8   2         23.86145000         46.94298900         37.66436300
9   2         38.49582800         45.73362100         36.24645500
10   1         25.06750300         45.34195500         37.07121000
11   2         25.71581900         45.47923500         37.97042300
12   2         25.49990100         46.00421000         36.30280300
13   1         40.59926500         43.93636200         36.47566800
14   2         41.34904100         44.04157200         35.63297900
15   2         39.57209800         43.57169200         36.10105900
16   1         25.87436400         42.81248600         37.33207900
17   2         25.37770400         42.70777100         38.26680400
18   2         26.91292200         43.11560000         37.64777100
19   1         41.28213200         41.53686900         36.39600600
20   2         41.89964800         41.91757200         35.48536700
21   2         40.34456100         41.38825400         35.82930500
22   1         41.98133500         40.33219700         37.05606000
23   2         26.13417400         40.05614200         37.91907500
24   2         27.64283000         40.69913800         37.44216800
25   1         35.71851700         29.73411000         39.14986400
26   2         34.68351800         30.15405100         39.14909500
27   2         35.62729900         28.76175900         38.66299900
28   2         35.96424500         29.49666400         40.20494400
29   1         41.99490800         39.08300700         36.15107200
30   2         41.03284500         38.89646800         35.71449000
31   2         42.80317300         39.16360600         35.39816100
32   2         42.16078000         38.11516400         36.72754400
33   1         29.35418100         31.57354400         34.15318400
34   2         30.22497200         31.56531900         34.81879600
35   2         28.92822900         32.59820600         34.28280300
36   1         29.70680100         31.47442700         32.70296100
37   2         30.22348500         32.43868900         32.39497000
38   2         28.84101300         31.48657600         32.07234100
39   1         30.60560000         30.34638200         32.22908600
40   2         30.77824000         29.67264500         33.05109700
41   2         31.65459400         30.57709800         32.07146600
42   1         30.06781400         29.48328900         31.08383500
43   2         44.53113700         28.87618600         31.48187300
44   2         30.79217900         28.69035900         30.85534600
45   1         29.63729400         30.20472900         29.77334700
46   2         30.45820200         30.95945700         29.47844800
47   2         44.16792000         30.95912300         30.02477700
48   1         44.46580000         29.27105000         28.72137100
49   2         43.65802900         28.70525700         29.09677900
50   2         45.19692500         28.40849900         28.60347900
51   1         29.00740200         29.92391500         27.37130300
52   2         29.99667600         30.40698600         27.08559400
53   2         28.25372600         30.79367300         27.50514900
54   1         43.89207500         28.99193900         41.56723600
55   2         42.77622700         28.96466900         41.52678400
56   2         44.36268300         28.00209000         41.79558800
57   1         28.28045600         30.57005600         34.64528600
58   2         28.40053400         30.31666800         35.73306300
59   2         27.31234600         30.94658200         34.38824000
60   2         28.39282300         29.69934400         34.00942800
61   1         29.06869000         29.46880800         40.18053800
62   2         28.58541700         28.83663100         39.41610300
63   2         28.81348200         30.53311000         39.80559100
64   2         30.14415000         29.40288900         40.18869000
65   1         37.08620500         39.67047700         37.54303800
66   2         37.17754700         40.35903700         38.42729100
67   2         36.05148800         39.38157300         37.52027200
68   1         37.36533100         40.44048100         36.26573700
69   2         37.24200800         39.74925700         35.41515000
70   2         38.43885200         40.72345900         36.26526700
71   1         36.29343900         41.67594400         36.11436300
72   2         36.19960400         42.32756000         37.02631100
73   2         35.23292000         41.33054300         35.89946800
74   1         36.52421100         27.25803400         34.85800600
75   2         36.19788100         26.66848100         33.95406200
76   2         37.61309200         27.42355200         34.74013000
77   1         35.86027700         28.64394200         35.00579800
78   2         36.08438900         44.43809000         35.99987300
79   2         34.75048800         43.78314900         35.14986400
80   1         36.06596300         29.63561300         33.79917900
81   2         37.10158700         30.00232100         33.80143500
82   2         35.41403900         30.46921000         34.06920500
83   1         35.72260000         29.10710800         32.44035400
84   2         36.20691100         28.07765600         32.25482500
85   2         36.19622100         29.82076900         31.68012100
86   1         34.20454700         28.95832200         32.05453300
87   2         34.07411200         29.10055700         30.91490900
88   2         33.58814200         29.76020300         32.39009000
89   1         37.86537200         38.31589500         37.71552600
90   2         37.90718200         37.81041900         36.70350300
91   2         38.90789700         38.61742700         38.01439700
92   2         37.54393400         37.57273800         38.45136700
93   1         33.66397600         27.64643300         32.47374600
94   2         33.34616200         27.54189200         33.52523300
95   2         32.68435100         27.40974400         32.00986700
96   2         34.28071100         26.71000300         32.31831800
97   1         30.53844500         38.93134200         40.18352600
98   2         29.71431800         38.33837300         40.53941600
99   2         30.83935600         39.65360900         41.04118900
100   1         31.73543500         38.00246100         40.04342200
101   2         32.73942800         38.51212300         39.66780200
102   2         31.57395500         37.17897300         39.33075500
103   1         32.01016300         37.31104600         41.37482700
104   2         32.78437500         36.52115300         41.11522000
105   2         31.07050900         36.64403000         41.61505600
106   1         32.48279900         38.11712700         27.28509700
107   2         31.71248100         38.85251400         27.57958800
108   2         33.35099300         38.75654500         27.02845300
109   1         32.87599800         37.19225300         28.40927200
110   2         33.90611500         37.40278300         28.72511700
111   2         32.94910400         36.18639000         28.04034400
112   1         32.05856700         37.31383200         29.79067300
113   2         30.96364700         37.19800500         29.65474600
114   2         32.17785400         38.38273600         30.01925800
115   1         32.55528200         36.45258100         30.92034400
116   2         33.50263100         36.72333700         31.37033400
117   2         32.71598300         35.43956700         30.62513400
118   1         31.54296400         36.40537800         32.14811600
119   2         31.36275600         37.42966800         32.43980800
120   2         32.10371300         35.92991600         32.99804000
121   1         30.13495100         39.78098800         38.96910000
122   2         30.82447600         40.53717900         38.65452300
123   2         29.87223400         38.94684900         38.21680600
124   2         29.18625800         40.31826600         39.15942200
125   1         30.25772000         35.69750800         32.03685600
126   2         30.38300500         34.77026000         31.44821300
127   2         29.72423400         35.53684200         33.02660200
128   2         29.54158100         36.26874800         31.40757000
129   1         35.31475100         39.20843000         30.89929600
130   2         35.28335900         38.11758800         30.62283500
131   2         34.23706000         39.46340100         31.13131000
132   1         36.17070300         39.24871200         32.22664300
133   2         36.23581000         40.26893200         32.60301300
134   2         37.14860500         38.95761500         31.89631000
135   1         35.66991200         38.41700100         33.36424900
136   2         36.59938600         38.20682600         34.07562400
137   2         35.45937000         37.36550300         33.04870800
138   1         34.43936300         38.91378200         34.10479700
139   2         33.54077000         38.90885300         33.42829900
140   2         34.62681200         39.95200200         34.43577900
141   1         34.25770100         38.10563300         35.40398100
142   2         35.26953400         37.98813500         35.88235600
143   2         33.89745500         37.10478200         35.14577900
144   1         33.29671400         38.67342100         36.40771600
145   2         33.44349000         39.74506400         36.60499000
146   2         33.52922400         38.23732500         37.41351200
147   1         31.87888600         38.54050800         35.90526600
148   2         31.76046900         38.88444500         34.83729400
149   2         31.26497200         39.21132200         36.42822900
150   1         31.30642000         37.03585400         35.97576300
151   2         31.66663300         36.54190800         36.92252400
152   2         31.77715900         36.46565000         35.07482900
153   1         35.86956600         39.98378000         29.71465000
154   2         35.24236700         24.63317400         28.80500600
155   2         35.93617300         41.05320500         29.92580800
156   2         36.92511800         39.55538800         29.49422400
157   1         29.77368400         36.94520000         35.97039100
158   2         29.34972200         37.11126800         34.95968100
159   2         29.46188700         35.92237300         36.15452800
160   2         29.34022100         37.74465900         36.63925100
161   1         41.06548100         29.79552300         30.48580200
162   2         41.38282700         30.34003500         31.35794800
163   2         41.90017900         29.06958200         30.29479400
164   1         39.70438300         29.03260700         30.70273600
165   2         39.52125300         28.35610500         29.82754600
166   2         38.91253400         29.82410700         30.68624800
167   1         39.52542700         28.22083500         31.99175700
168   2         38.47983600         27.89740300         31.95827000
169   2         39.66783500         28.84422800         32.91347600
170   1         40.44275400         26.94138400         32.01414400
171   2         41.50267800         27.07973300         32.36539200
172   2         40.59402900         26.53768600         31.04776500
173   1         39.91950500         41.14719200         32.92920800
174   2         38.86298900         40.89586200         32.74903300
175   2         39.92911700         26.23834700         33.95430900
176   1         40.81661600         39.92080900         32.96787800
177   2         40.44961400         39.35729500         33.80649600
178   2         41.86131700         40.05690300         33.25960600
179   1         40.70846100         38.92513800         31.78248900
180   2         40.99106100         39.32049200         30.81700600
181   2         39.64024900         38.62797600         31.58865100
182   1         41.44416800         37.61369700         32.11500100
183   2         42.47958100         37.80111900         32.34010800
184   2         41.49998300         37.01994400         31.14808100
185   1         41.02144000         30.62233700         29.24672400
186   2         41.06708500         30.02334300         28.34546600
187   2         40.11537000         31.26468600         29.21301900
188   2         41.89879600         31.36153600         44.50951500
189   1         40.93448100         36.77775800         33.31887200
190   2         39.86935000         36.98596100         33.40174100
191   2         41.15360300         35.72065500         33.29227300
192   2         41.49715100         37.08312100         34.24469800
193   1         32.45106300         27.31168700         42.29073200
194   2         31.88021000         28.31239400         42.20821800
195   2         31.71206800         41.87636100         42.01955700
196   1         33.61721400         27.32087900         41.27805000
197   2         34.25317100         28.21694000         41.61135700
198   2         33.39805000         43.02643000         40.23982800
199   1         34.33818200         25.94094200         41.08754900
200   2         33.65498600         25.22883300         40.63409000
201   2         34.56466100         25.47526900         42.09407100
202   1         35.71405800         26.06472800         40.45009700
203   2         35.60847600         26.69645200         39.50204300
204   2         36.06115100         25.04503000         40.13619500
205   1         36.78626000         26.61826600         41.36351400
206   2         36.95742200         25.90728600         42.23318300
207   2         36.46806400         27.60561800         41.76088400
208   1         38.13495600         26.87773700         40.64025100
209   2         38.06226800         27.40963400         39.71277500
210   2         38.63158600         25.96727400         40.26655800
211   1         39.08912900         43.02119300         41.49657000
212   2         38.59857100         43.78517200         42.09932300
213   2         39.77097600         43.57686900         40.81747600
214   1         40.07103900         42.24886700         42.42301900
215   2         39.49657600         41.60717000         43.20626900
216   2         40.57940000         43.00558700         43.05859700
217   1         32.87393300         27.08710700         43.71031400
218   2         32.01855300         27.38038300         29.02842700
219   2         33.20452600         25.98928600         28.56329600
220   2         33.71616600         27.67595700         44.03664300
221   1         41.13482900         41.48495900         41.72124900
222   2         40.70383700         40.56372000         41.26189500
223   2         41.51963000         42.05481600         40.83651300
224   2         42.00970300         41.26119900         42.34007400
225   1         30.77733400         43.32731300         37.11912300
226   2         29.92422000         44.06355600         37.20160700
227   2         30.53153000         42.47962900         37.73517500
228   1         30.87048300         27.52923100         35.66806100
229   2         31.56137300         26.70486400         35.61114200
230   2         31.31923800         28.39508100         34.98604600
231   1         29.55335200         42.43071800         35.14422600
232   2         28.87020500         43.33015200         35.28487500
233   2         29.04468600         41.67804100         35.85342200
234   1         29.45447200         42.02097000         33.67842700
235   2         29.79201800         42.88939000         33.12519600
236   2         28.38005900         41.86513600         33.45279000
237   1         30.12294400         40.69861500         33.21445300
238   2         29.56423700         39.90514400         33.61508600
239   2         31.18485600         25.22646600         33.56376100
240   1         30.18250700         40.63461600         31.67897900
241   2         31.12347800         24.80104900         31.48133600
242   2         30.33834100         26.31730700         31.34685700
243   1         29.06714200         39.93812600         30.90031200
244   2         28.12033000         40.39158300         31.35001900
245   2         29.13069600         38.82166300         31.15547400
246   1         29.25588500         40.29910000         29.43991700
247   2         30.25780300         39.94917000         29.09041400
248   2         29.08673900         41.40893600         29.36166500
249   1         32.07317700         28.65070200         37.55878300
250   2         31.98975400         28.97033400         38.61851000
251   2         32.99324300         27.99752600         37.48211700
252   2         32.26039200         29.57811800         37.00209900
253   1         28.17433000         39.71871900         28.53103900
254   2         28.16575500         38.64060300         28.27549300
255   2         27.15979100         39.90900600         28.78515900
256   2         28.37263600         40.05951400         42.86549600
257   1         42.22285000         36.79189600         40.98029000
258   2         43.21158600         36.85353300         41.45483800
259   2         41.95802600         37.80695200         40.63088200
260   1         42.29399700         35.78070200         39.83014800
261   2         42.68847100         34.84900500         40.21843900
262   2         42.91697500         36.23083100         39.01753600
263   1         40.89221900         35.50068900         39.06835300
264   2         40.48368700         36.52748500         38.74501900
265   2         40.12373900         35.07397300         39.75542900
266   1         41.13285100         34.67997200         37.86203200
267   2         41.35266500         33.61236500         38.06563800
268   2         41.85868800         35.23544800         37.21385200
269   1         39.83952000         34.75936000         36.96044000
270   2         39.98496000         35.83166400         36.55713500
271   2         38.83242600         34.71896900         37.51400100
272   1         40.05001500         33.82718800         35.64340200
273   2         40.39689200         32.82010900         35.92048200
274   2         40.88954800         34.34853700         35.18777800
275   1         38.84565200         33.74897800         34.74450000
276   2         38.62882000         34.73216300         34.28077200
277   2         37.99378500         33.54258900         35.42540300
278   1         38.77007300         32.58523600         33.66855800
279   2         37.72866100         32.39696700         33.64990600
280   2         39.17852800         31.66915200         34.10558900
281   1         41.26233700         36.33848500         42.07022400
282   2         41.28907900         35.24072300         42.28527300
283   2         41.48703400         36.86820600         43.02418000
284   2         40.24139400         36.67161400         41.80205500
285   1         39.24803600         32.85198500         32.26286700
286   2         39.11567900         31.95223400         31.67376500
287   2         38.53863900         33.67996100         31.91292200
288   2         40.26537300         33.25627900         32.37112800
289   1         30.87108400         33.04467500         38.55671900
290   2         29.89525700         33.47997100         38.95260300
291   2         31.42821700         33.99181200         38.25378400
292   1         31.55943900         32.37086500         39.75606200
293   2         32.38271700         31.74867100         39.35821100
294   2         30.80848500         31.63865600         40.15045000
295   1         31.98039900         33.32305500         40.89869200
296   2         31.12165600         34.00612700         41.10451900
297   2         32.80168700         33.95648700         25.17047100
298   1         32.55930600         32.55266400         26.81593400
299   2         31.70269200         32.13481400         42.72111900
300   2         33.07915200         33.25337000         27.52515500
301   1         33.49393600         31.43894700         26.47277700
302   2         34.31961200         31.88216300         25.89586000
303   2         33.01988100         30.67684200         41.12773500
304   1         34.15733900         30.73799700         27.66070900
305   2         34.84402200         29.96654900         27.18949300
306   2         33.31260900         30.26000400         28.16742100
307   1         35.01560700         31.51260000         28.64877400
308   2         35.06491600         30.90630300         29.54345600
309   2         34.43700400         32.49439800         28.84264500
310   1         36.40301000         31.83903000         28.17557300
311   2         36.92104500         32.67795300         28.75907500
312   2         36.35024200         32.32698300         27.17729500
313   1         30.57861700         32.18349400         37.39520500
314   2         31.43828300         31.73282500         36.84916300
315   2         29.72929500         31.56541600         37.70929100
316   2         30.11529200         32.79926900         36.65772700
317   1         37.37411900         30.57118700         28.00802500
318   2         37.15528500         30.08712500         27.07120400
319   2         38.37705900         30.89438000         27.82282700
320   2         37.33885600         29.82970400         28.83733700
321   1         36.72684600         37.05177400         27.12208900
322   2         35.73870300         37.40425300         27.42090300
323   2         37.24968400         36.85026800         28.04701100
324   1         36.67383400         35.74985100         41.62729000
325   2         36.27097700         34.82838200         42.14848600
326   2         37.70145200         35.38784100         41.48923800
327   1         35.86410400         35.86663700         40.33483700
328   2         36.33147400         36.69125800         39.70464100
329   2         34.88887400         36.30647800         40.52581300
330   1         35.68989100         34.62277300         39.44856000
331   2         35.51644900         33.76464100         40.20647700
332   2         36.74935700         34.39478300         39.07170900
333   1         34.72296800         34.78399100         38.23970300
334   2         34.87563400         35.82429900         37.95241200
335   2         33.68738100         34.81134600         38.70031800
336   1         34.86927700         33.77546100         37.12753200
337   2         34.78776000         32.72566600         37.56665500
338   2         35.90414900         33.78222100         36.73931600
339   1         33.80463900         33.92005900         36.00478400
340   2         33.58427700         35.02296000         35.80122800
341   2         32.79111000         33.74474300         36.35367000
342   1         34.09275300         33.01039400         34.80584100
343   2         34.04421000         31.91301800         35.02887600
344   2         35.12227800         33.14879600         34.46228400
345   1         37.50769600         38.23330700         26.55975600
346   2         36.91156000         38.70680100         25.75295400
347   2         37.75253800         39.04336700         27.34048600
348   2         38.54047400         38.00107300         26.12766200
349   1         33.08327600         33.28799900         33.56401800
350   2         32.00863600         33.05217000         33.94924500
351   2         33.19914100         34.38584100         33.31140800
352   2         33.32868100         32.72486000         32.71010200
0.00000000          0.00000000          0.00000000
15.32620600          0.00000000          0.00000000
0.00000000         15.32620600          0.00000000
0.00000000          0.00000000         15.32620600
}
Driver = VelocityVerlet {
  Steps = 100000
  TimeStep [fs] = 0.2
  MDRestartFrequency = 5
  Thermostat = None {}
  Xlbomd = {
    IntegrationSteps = 6
    MinSccIterations = 2
    MaxSccIterations = 200
    SccTolerance = 1e-6
    PreSteps = 0
  }
  Velocities [m/s] = {
-9.52151427E+02      5.81137764E+02      7.07944295E+02
2.99345762E+01      2.12258454E+03     -1.39347557E+03
3.73910634E+02      5.67454474E+01     -2.73169125E+02
-3.52782834E+02     -1.24839234E+02      3.46035956E+02
-7.51383411E+02      3.01393522E+03      9.69776143E+02
3.87823074E+02      7.23526614E+02      1.65493287E+03
-9.19263963E+02     -1.30457224E+02      4.18735511E+02
-9.04106407E+02     -6.21681708E+02     -2.07014915E+03
-7.65364901E+02      1.43925199E+02     -6.32241221E+02
-1.17240622E+03      7.76197783E+02     -1.23687963E+02
6.75687275E+02      7.77353693E+02     -8.38665558E+02
1.39768938E+02     -4.41225977E+02      8.49518776E+02
8.89098282E+01     -4.94565071E+00     -7.50724661E+02
-3.60812907E+02     -9.57010054E+02     -2.73249898E+03
2.56179430E+03     -9.18726235E+02     -1.18109213E+03
-2.82411846E+02     -1.02528893E+02     -1.01144042E+03
-2.28938065E+03     -2.21968180E+03     -1.83097829E+03
4.45496536E+02     -2.41064437E+02     -1.10794133E+03
2.72567380E+02     -3.67813932E+02      8.38156114E+01
-5.97769029E+02     -3.56165360E+02     -1.42268106E+03
-2.10820739E+03     -2.25621689E+03      5.99251285E+02
-8.83397130E+02      4.85465966E+02      3.01635327E+01
9.26685146E+02     -1.39538165E+03      6.80395537E+02
-1.68327880E+03      5.84404564E+02     -8.40415443E+02
-3.86819935E+02     -4.22143552E+02     -3.86236929E+02
-1.14392489E+03      2.67355176E+03      5.99242437E+02
3.90838757E+02     -2.43496612E+03     -1.41668515E+03
-2.06043967E+03     -1.61683359E+03     -1.35222341E+03
-1.84731249E+02      7.88090045E+02      5.78460196E+02
-1.93315480E+03     -1.59903207E+03     -1.98668624E+03
9.35731681E+02     -8.68014145E+02     -3.74616047E+03
-1.93109951E+02     -7.83738180E+02     -1.56307335E+03
-3.59642871E+02     -1.36218731E+02      4.75555066E+01
-1.60128875E+03     -3.40330314E+02      2.12427051E+03
6.06150851E+02      1.19509043E+03      5.82768292E+01
-3.16625509E+01     -1.86254203E+02      4.93760014E+02
1.13527644E+03     -7.73779617E+02     -4.70988432E+02
2.22188043E+03      1.56598629E+03      6.32161190E+02
-9.92795045E+02      8.34399061E+02      7.76341789E+02
-1.65096596E+03     -2.95657502E+02     -1.36912689E+03
2.40214238E+03     -8.49935294E+02      1.06574372E+03
-6.52935485E+02      4.34659693E+02      9.59424604E+02
1.84332899E+03      1.88559377E+03      1.72395710E+03
1.13707352E+03      2.05786271E+03      2.42776740E+03
-2.78126696E+02     -8.62916597E+01     -7.52436593E+02
-2.93014577E+03      6.29788711E+02      3.10215237E+02
-8.24685184E+02      4.34773390E+02      2.30418971E+02
1.46678903E+02     -5.70505199E+02     -8.04911938E+02
-1.68203637E+02      1.81896102E+03     -2.14695847E+03
4.25871966E+02      7.28376974E+02     -8.52582755E+02
-9.24369115E+02      3.45157390E+02      7.66857481E+01
-2.72475221E+03     -3.21640098E+02      7.43365011E+02
-1.53088985E+03     -1.28289612E+02      9.55629447E+02
-1.96022136E+02      6.43717663E+02     -4.33405079E+02
-6.12863627E+02      2.07650506E+03     -4.33264691E+03
-8.05258231E+02      4.51006132E+02     -2.05360593E+03
7.86714350E+00      3.56109092E+02     -9.40795294E+01
1.51639463E+03     -8.05649902E+02      8.57060321E+02
7.98612537E+02      1.80049192E+03     -2.90628522E+02
8.46744193E+02      1.62056459E+03     -6.62230387E+02
2.57671015E+02     -1.96271249E+02      4.02208565E+02
3.58218241E+02      3.04078148E+02      8.44740464E+02
3.90410000E+03      2.52206155E+02      3.38702265E+03
2.03035063E+03     -1.53550503E+03     -3.28758660E+02
1.82075869E+02     -9.13140185E+02      4.34237229E+01
-3.12317076E+01      1.11391921E+03      2.53807000E+03
3.93380704E+02     -6.24391016E+02      1.36246968E+03
-2.12389739E+01      5.63730882E+02     -3.79524345E+02
-1.12045451E+03     -1.41411065E+03      3.67693233E+03
1.82149519E+03     -2.00925545E+02      2.34601325E+02
-5.21528805E+02      2.35187704E+02      4.44414660E+02
-2.89988129E+03     -3.44193650E+03     -2.32361713E+02
-2.77768382E+03     -1.00231678E+02     -4.26549883E+02
2.57564995E+02     -5.75868860E+01     -5.73359526E+02
-2.96547401E+03     -1.92437745E+02     -6.40785309E+02
1.31898336E+03      4.22190694E+03      1.88775069E+03
-5.04449453E+01      3.78514082E+02     -6.45099434E+02
1.16057310E+03     -2.61902866E+03      1.08913198E+03
1.14127041E+03     -1.54115449E+03      1.69705482E+03
-1.65945175E+02      5.16349949E+02      6.91446909E+02
6.54049887E+02      3.51087808E+03      1.85231086E+03
1.04914354E+03     -1.88545589E+03      1.21847893E+03
3.26868884E+02      1.15243779E+03     -2.60851977E+02
1.80300661E+03      7.69649045E+02     -4.40971228E+02
-4.09531744E+02     -2.22183088E+03     -1.05595167E+03
4.17121665E+02      2.61971695E+02      5.14777000E+02
6.86973622E+02      5.29585087E+03      2.03903719E+03
-1.86743465E+03     -1.29867389E+03      2.92831516E+02
5.15888766E+01      1.38773313E+02     -2.13119755E+02
-7.54765800E+02      9.46615365E+02     -5.03581306E+02
-2.03448785E+03      3.58360698E+03     -6.71740444E+02
-9.48934216E+02      8.02040941E+02      1.04787780E+03
-4.13456110E+02     -4.62489599E+02      7.05844815E+02
8.32496630E+01      1.82953613E+03     -9.99205411E+02
1.80520475E+03     -8.53769165E+02     -1.03159594E+02
1.09161926E+03      1.45960637E+03     -1.27296293E+03
-8.46080539E+02     -5.89832411E+02     -9.90636744E+01
-1.58793793E+03      1.60263041E+03     -1.55097660E+03
-1.49810313E+03      2.40056290E+02      7.37183657E+02
6.87933057E+02      2.62570444E+02     -4.97758536E+02
1.26827316E+03      2.29525432E+03     -1.82496224E+03