Geometry = GenFormat {
<<< "system.gen"
}

Driver = VelocityVerlet{
  Steps = 100000
  TimeStep [fs] = 0.2
  MDRestartFrequency = 5
  Thermostat = None {
    #InitialTemperature [Kelvin] = 300.0
  }
  Xlbomd{ 
    IntegrationSteps = 6 
    MinSccIterations = 2
    MaxSccIterations = 200
    SccTolerance = 1e-6 
  }
  Velocities [m/s] {
      5.55585984E+02      2.80988313E+02     -1.19931160E+02
      5.29490936E+03     -2.12223717E+03      7.15614868E+02
     -1.93180824E+03     -9.69720213E+02      6.41903319E+02
      4.04782010E+01     -5.13335959E+01     -5.55253886E+01
      4.57466248E+02     -2.55949672E+02      8.96211285E+02
     -1.79763169E+03     -4.08607872E+02     -9.40647937E+02
      2.82534455E+02     -1.29178734E+02      1.79586035E+02
     -1.58425124E+03     -2.39875282E+03     -2.62568211E+03
      9.87759293E+02     -1.19180123E+03     -3.11973486E+02
     -6.16621911E+02      7.70070807E+01     -1.80670004E+01
      2.44681873E+02     -1.81050186E+03     -3.83580950E+02
     -7.77467815E+02     -7.26373685E+02     -7.93746844E+01
      5.86357808E+02     -2.06181028E+02     -6.07301007E+02
      4.26002387E+02      1.49175834E+01      9.12784440E+02
      1.18854934E+03     -1.44808876E+03      1.13108902E+03
      6.60041698E+02     -1.36271929E+02      1.64418411E+02
     -1.46317618E+02     -6.39987836E+02     -1.34966777E+03
     -5.69559068E+02      9.70343076E+02      1.84378480E+03
     -1.53006255E+02     -8.32722377E+02      9.23674940E+00
      9.61598556E+02     -5.90212157E+01     -3.20431616E+03
     -2.10675587E+03     -4.79758800E+02     -7.83775029E+02
      2.16065245E+01     -4.36864731E+02      2.27501261E+02
      1.57533721E+03     -3.62561659E+02      7.70762843E+02
      1.10875663E+03     -1.18566026E+03     -1.72442145E+03
     -3.44347738E+02     -1.81391132E+02     -1.50769928E+02
      9.33014900E+02     -9.70477393E+02     -6.87687061E+01
     -3.60191040E+03     -7.41330517E+02     -1.93233521E+03
     -1.21773723E+03      7.17302529E+01     -1.14738535E+03
      3.41164790E+02     -1.86880170E+02      4.98860722E+02
     -1.12852015E+03     -2.51375337E+02      6.72334332E+02
     -1.04217684E+03     -1.14791424E+03      1.17620209E+02
     -1.25480121E+03     -6.41615838E+02     -1.25656839E+03
      6.72606563E+02     -3.24366930E+02     -6.19617530E+02
     -1.83184452E+03      1.85803817E+03      1.65208846E+02
     -7.62109347E+02     -4.82162068E+02     -1.32957224E+03
      3.45611166E+01     -2.74132070E+02     -7.16402186E+01
      1.59435765E+03      5.65207656E+02      3.04357087E+02
      3.77448476E+02     -1.21951302E+03      1.68365325E+03
      3.63008737E+02     -4.12863463E+02     -5.85332175E+02
     -7.06820066E+02     -1.73984541E+02      1.62635693E+03
     -6.84247091E+01     -7.17062996E+02      2.45258851E+03
     -1.12949660E+02     -8.51518466E+02     -8.35555542E+02
     -1.03337827E+03     -2.87884848E+03      1.83074685E+02
      1.00844301E+03     -7.54138591E+02     -3.89256810E+02
      3.92015266E+02     -8.18353836E+02     -1.33109395E+02
     -5.31647795E+02      1.57396359E+03      1.48429648E+03
     -7.48011260E+02      1.60287623E+03      1.94680679E+03
     -2.32812706E+02      2.17555249E+02     -3.25666209E+02
     -3.15396506E+03     -6.16557451E+02     -3.17004761E+03
      1.32104796E+03     -6.36361346E+01      1.75175728E+03
      4.12625978E+02      6.54361597E+02      7.85101332E+02
      3.61906318E+02      1.41931676E+03     -6.16369124E+02
      4.01137579E+02      2.61935308E+03      1.23044688E+03
     -3.06075593E+02      1.78336831E+02     -1.44345015E+03
     -1.50217031E+03      1.54109778E+03     -3.47937540E+03
      2.36195721E+02      4.50421941E+02      1.06912199E+03
     -2.37505651E+02      4.36902748E+01     -1.26961882E+02
     -3.00707146E+02     -7.66607690E+02     -5.27129538E+02
     -1.74581514E+02     -2.66049406E+03      1.89052975E+03
     -1.10827192E+03      1.68684316E+02     -1.30778112E+03
     -6.41035605E+02     -1.43345136E+01     -2.79739983E+02
      1.06469878E+03      5.51984203E+02      5.22455728E+02
      1.96920665E+03     -2.33117357E+03      4.22996536E+01
     -3.12777079E+03      1.00368136E+03     -3.91478924E+02
      1.30768376E+02     -6.04747438E+02     -7.23147302E+02
     -1.90615520E+03     -1.37764364E+03      9.62864242E+02
      5.52216412E+02     -2.39215923E+03      9.20193772E+02
      2.14483027E+02     -2.51540926E+02      8.96994986E+01
      2.82788145E+03      8.59951225E+02     -2.65134862E+03
     -3.18896036E+03      2.60948044E+03     -2.05305823E+03
      7.50996165E+01     -1.11285079E+03     -7.80866434E+02
      5.52947047E+02      8.94810198E+02     -1.72381343E+03
      7.46490220E+01      6.23205319E+02      1.31916719E+02
     -1.15372833E+02      7.52006451E+02     -2.13232869E+02
      1.79896645E+03     -3.78108407E+03     -6.03405428E+01
      4.38950270E+02     -1.41998274E+03     -1.10617547E+03
     -6.09748512E+01      9.53579185E+00     -1.04842283E+03
      1.66769660E+03      4.34227776E+02      1.31132527E+03
      3.34838068E+03      2.43634291E+02     -1.60621273E+03
     -8.84021303E+02     -7.02967118E+02     -8.18695627E+02
      4.98987883E+02     -4.05286244E+03     -1.79251668E+03
      1.92270639E+03     -1.72646080E+03      5.86043934E+02
      1.96587720E+01     -4.59620526E+02      8.73370150E+01
     -2.60700017E+02     -3.69275617E+03      6.47642392E+02
      1.81459318E+03      1.04687682E+02      2.70336855E+01
     -5.13996331E+02      3.41857491E+02     -7.39864102E+02
     -8.54901953E+02      1.20253342E+03      3.05431317E+02
      2.12347000E+03     -1.64587710E+03     -3.01065996E+03
      5.85182056E+02     -4.07296301E+02     -6.72370758E+02
      9.86564824E+02      3.38563248E+02      1.50042590E+03
     -6.85748580E+02     -1.32701420E+03      1.67953649E+03
     -1.81725203E+03      8.60419685E+02     -2.37067612E+03
     -9.17889245E+01      2.05761899E+01      3.30160702E+02
      2.43301630E+02     -2.54318238E+03      8.70557022E+02
     -3.82967410E+01      8.33677382E+02     -2.15747442E+03
      3.63873769E+02     -1.55257235E+03      7.17901501E+02
      1.09505210E+03      1.36995438E+02     -7.37590760E+02
     -1.44777771E+03     -1.46748224E+03      4.11990353E+02
      7.55043330E+02     -1.89796009E+03     -3.01859322E+02
      4.80053448E+02      2.45533704E+02     -9.05922079E+02
      1.27676937E+03      8.10989469E+01      5.47440379E+02
      8.11370642E+02     -4.15365802E+02     -6.46775353E+01
     -1.35932286E+02      4.00417293E+02     -1.03895293E+03
      3.68618867E+03      2.20931021E+03     -6.86256829E+02
      9.82350686E+02     -8.79500440E+02      2.64982838E+02
      4.43275433E+01     -1.54118421E+02      2.80939156E+02
      7.91914157E+02     -1.22718201E+03      4.76973312E+02
     -7.84707335E+02      1.04271727E+03     -1.26325526E+03
      1.02158675E+03     -8.52472177E+02      5.38937539E+02
     -9.04562430E+02      1.19764963E+03     -1.56703965E+03
     -2.08703445E+03     -1.05077242E+03      1.43425618E+03
     -1.63697081E+02     -3.75946805E+01     -1.46902546E+02
     -1.20066399E+03      1.21395198E+03      3.61029573E+03
     -2.30244422E+03     -3.38216953E+03     -5.43021479E+02
     -1.31999257E+02      9.67623325E+02      4.75157044E+02
      1.36263257E+03      2.40002132E+03     -1.27809043E+03
     -2.59381928E+03      3.37611271E+03     -6.01570134E+02
      1.90807460E+01     -8.02162444E+00      1.15439697E+02
     -8.84912568E+02     -1.79040396E+03      1.70960206E+03
      1.79556206E+03     -1.02351935E+02      1.61648058E+03
     -4.06567755E+02      3.04952093E+02     -4.02248514E+02
     -1.65310718E+03     -6.45357898E+02      2.82358308E+03
      2.40356468E+03      2.26628538E+02     -7.28557443E+02
      2.90253189E+02      9.87575720E+02      6.05090495E+02
      6.21408575E+02     -2.48937006E+02      3.13716033E+02
      1.78845359E+03     -3.33283307E+03     -2.38579670E+03
     -8.06959595E+02     -5.04002875E+02     -1.45443767E+03
      1.78803071E+03     -1.48117251E+03      1.33892426E+03
      5.50769027E+02      1.74752202E+02      1.89205927E+02
     -3.90024870E+02     -2.61884894E+03     -1.74203957E+02
     -1.81664800E+03     -1.32017310E+03      4.77719271E+02
      3.43866194E+01     -8.17654207E+02     -3.31667970E+02
      4.70302138E+03     -1.51666661E+03     -4.79624342E+02
      2.77724877E+03      2.25275046E+02      3.04728435E+03
      5.40535045E+02      5.98992980E+02      5.07300230E+02
      2.05824841E+03     -1.33342615E+03      1.66964263E+03
      1.40254894E+03      1.81374093E+03      7.36177571E+02
      2.78549537E+02      7.01042352E+02      1.48555360E+02
      1.86860021E+03     -1.12525912E+03      1.42579889E+03
      2.37636941E+02     -1.51601914E+02     -4.85720652E+02
     -2.04497028E+02      6.41472972E+02      1.20719988E+02
     -3.58831673E+02     -2.11684401E+03      8.29873313E+02
     -6.95252978E+02     -2.29684271E+03     -1.85522769E+03
     -1.99493906E+01     -9.74846448E+01     -1.06271842E+01
     -4.56544254E+02     -7.48965380E+02     -2.19706402E+03
      7.16514797E+02      9.44026651E+02     -1.74155095E+03
      7.79668682E+02     -9.47244615E+02     -1.72945761E+02
      5.20733016E+01      1.79998922E+03     -8.53797078E+02
      3.94911333E+03     -8.85622762E+02     -2.18240782E+03
     -6.52929074E+02     -2.70790233E+02     -5.77701402E+02
      1.68621881E+03      1.15533602E+02     -1.89943324E+03
      7.03910091E+02     -1.19842544E+03     -2.70510224E+03
     -3.11439320E+02     -5.88973826E+02     -6.90681843E+02
      7.99265257E+01     -3.79661726E+03      1.01405918E+03
      2.91418918E+02      1.98235726E+03     -9.26102569E+02
     -1.11810799E+03      9.81609702E+02     -4.72934955E+02
      9.70015124E+01      6.11285497E+02      6.55011331E+02
     -2.10860214E+03      5.54997329E+02      1.46809263E+03
      8.43594271E+02      7.05644180E+02     -1.40758343E+03
     -8.46287402E+02      8.60834362E+01      3.96202158E+03
      3.84364107E+02     -1.02449237E+03     -2.60283366E+02
     -2.03893271E+02     -4.65547502E+02      8.89379788E+02
     -1.25216851E+03     -4.39783076E+02      8.83356943E+01
      3.31500367E+02     -5.31958932E+02     -4.57073542E+02
     -6.53871680E+02     -1.21271753E+03      1.86291090E+03
      2.58650729E+01      1.10273455E+03      1.83917416E+03
      2.15061004E+02     -1.83607602E+02      1.29118954E+02
      1.13782378E+03     -9.33926599E+02      1.64213785E+03
      4.35432164E+02     -2.07612766E+03      9.26218091E+02
      6.59796160E+01      3.49916365E+02     -2.79439364E+02
      1.41599296E+03     -2.58222367E+02     -8.14788367E+02
     -9.25629507E+02     -2.39793195E+03      1.36392501E+03
     -2.35057289E+02      1.39851546E+02      8.69331369E+01
     -2.46609141E+02     -1.10699075E+03      6.26384990E+02
      8.23703478E+02      1.70961658E+03     -1.21108711E+03
      1.71768491E+02      2.15832865E+01     -3.82373930E+02
     -1.76359206E+03     -2.74735724E+03     -2.13485355E+03
      6.05680387E+02     -4.50833389E+02     -3.57921909E+03
     -4.23484581E+02     -2.26709242E+02     -1.01538502E+03
      6.19284766E+02     -2.94649389E+03      9.60087273E+01
      6.47259898E+02     -6.24589157E+02     -1.62241770E+03
      1.32742281E+02     -5.86342815E+02     -1.77431954E+02
      9.07383789E+02     -6.95552163E+02      2.20001825E+03
     -2.20584861E+03      4.93084735E+02      1.50130834E+02
     -1.01387377E+03      6.43178529E+02     -3.98061093E+02
      1.06924263E+03     -1.41589426E+03      2.83324917E+03
     -7.78252704E+02     -2.51419916E+03     -2.86581964E+03
      1.46767833E+03     -1.66097262E+03     -2.04995518E+03
      2.19225277E+02     -1.05084094E+02     -7.70543282E+02
      5.02478866E+02     -2.95043277E+03      1.79951451E+03
     -1.30618929E+03      6.26925056E+02     -1.20243274E+03
      8.13653347E+02      1.74810830E+03      1.08886278E+03
      1.59954700E+02      8.98571588E+02     -2.24657555E+01
      9.49173234E+02      1.02937216E+03      5.05795866E+02
     -3.83178677E+02      2.29091704E+03      1.21694879E+03
      3.19052960E+02      2.04481187E+02     -1.24777430E+02
      1.34193937E+03      2.44325144E+03     -2.21414002E+03
     -1.93411486E+01     -1.22073861E+03     -2.32856732E+03
      3.60027394E+02     -2.57665826E+02      2.07634721E+01
      2.47213944E+02      2.15908128E+03     -1.33865816E+03
      1.07131353E+03      6.76008162E+01      9.85596530E+02
      1.11962807E+03     -3.88593062E+02      5.36766445E+02
     -1.42934104E+03      2.39639752E+02      1.95006430E+02
     -9.75978400E+02      8.96861501E+02      1.48585405E+03
     -7.06539774E+02     -5.81761971E+02     -5.26829658E+02
     -8.13253458E+02      7.51487461E+02      1.63452239E+03
     -3.64921466E+03      2.38559861E+03      1.68571833E+03
      3.23064664E+02      9.48862215E+02      6.30770691E+02
     -6.54367652E+02      1.31652108E+03     -6.60826829E+01
     -1.83261399E+03     -3.10361984E+02      2.89450593E+03
      1.07224256E+02     -8.71469383E+01      3.85622551E+02
      6.28035800E+02     -1.04022562E+03     -1.19205447E+03
      4.10489980E+03     -3.91262979E+02     -1.02898725E+03
     -2.47022863E+02     -7.53395705E+01     -4.56582454E+02
      1.42089972E+02      1.02243964E+03      1.87985667E+03
     -1.25992416E+03      1.85664203E+03     -1.50591463E+03
      5.50231807E+01      1.42076921E+02     -7.59972532E+02
     -7.52000123E+02     -4.01799266E+02      1.14665001E+02
      2.14763242E+03     -1.33734275E+00      6.81300606E+02
     -1.55804035E+03     -2.50176811E+03      3.12017756E+03
      8.14603000E+02     -5.85262903E+02     -1.44158673E+02
      1.06088510E+03      4.56560994E+02     -1.06297510E+03
      1.48227365E+03      3.45309566E+02     -3.07068633E+02
      2.50379757E+02     -2.79292375E+03      1.64190571E+03
     -4.11231170E+02     -1.23469785E+02     -2.61772496E+01
     -2.72074057E+01      5.97013545E+02     -1.37746990E+03
     -1.79501460E+03     -2.13884155E+03     -4.14490354E+02
      1.97832181E+02      5.75044707E+02      4.39660196E+02
     -3.78709607E+02      4.98822152E+02      1.71892999E+02
      1.47821504E+02     -8.93377526E+02      1.59775663E+03
      7.82172453E+02      1.18901581E+02     -1.05767565E+03
      2.10912724E+03     -5.59862923E+02      2.29608028E+03
     -1.30683539E+03      1.45333889E+03     -3.08470470E+03
      5.08950229E+02     -4.34928617E+02     -5.25363438E+01
      1.32127630E+03      3.76037569E+03      6.57603123E+01
      1.66818900E+03     -4.49974876E+03      2.30203686E+03
     -3.21727379E+01      1.40937724E+02     -1.04416004E+02
     -2.39593837E+03      4.08479058E+02     -1.51595596E+03
     -1.72145601E+03     -1.21496747E+03     -3.81936326E+02
     -2.36876967E+02     -3.65410767E+02      4.69997612E+02
     -9.98328300E+02     -2.93048875E+03     -6.30012594E+02
     -1.72541851E+03     -6.61607023E+02      3.07766885E+03
     -1.07283671E+03      8.70611276E+02     -6.39461220E+02
      2.12719653E+03      2.13393406E+03     -1.05096040E+03
     -2.74800613E+02     -1.63848504E+03     -3.70219569E+02
      3.35414747E+02     -2.78123681E+02     -5.12171363E+02
      1.68128028E+03      2.17350872E+03     -2.24452392E+03
      1.37806957E+03     -1.94746076E+03      6.85266854E+02
     -1.31385632E+02      2.38704880E+02      7.06582591E+01
      2.40601340E+03     -1.55021090E+03     -9.82290015E+02
     -6.28647694E+02     -2.82176073E+03      9.58189654E+02
      1.82961292E+03      8.36251735E+02      1.72960789E+03
      6.58758023E+02      1.57954967E+02     -7.40379290E+01
     -2.37407581E+03     -2.54645225E+03      4.97744248E+02
     -7.57062970E+02     -5.41692375E+01     -1.41538306E+03
     -9.33401561E+02      1.29496900E+03      1.91425634E+03
     -5.49816592E+02     -5.41866004E+02      9.36284894E+01
     -1.83667743E+03     -1.97736500E+02     -1.76126961E+03
     -3.49182609E+03      1.49565964E+03      2.10515769E+03
     -4.12880482E+02     -2.29380717E+01     -4.33148180E+02
     -1.74488567E+02     -1.44491569E+03      5.17325059E+02
     -9.79045449E+02     -1.74450445E+02      1.93911841E+03
      4.95841216E+02     -7.58528383E+02     -9.94206192E+02
     -4.44985199E+01      1.23559875E+03     -6.27978257E+02
     -1.47003633E+03     -1.80353857E+03      4.59252607E+02
      1.29687313E+02      3.57184888E+02      1.52131332E+02
     -7.69618025E+02     -2.66813716E+02     -2.91323444E+02
      1.15688883E+03      1.24379998E+03     -8.94272095E+02
     -5.60029769E+00     -4.16344553E+02      1.55731777E+02
      1.93290345E+03      8.22512860E+02      3.62889315E+02
     -1.94585668E+03     -3.78115741E+03     -1.37830724E+03
     -3.85814359E+00      2.66618033E+02      3.64122577E+02
     -3.37109965E+02     -3.23076491E+03      1.16194222E+03
      7.76124828E+02     -4.15113098E+03      1.15696891E+03
     -4.07119314E+02     -5.02175324E+02      4.20890897E+01
     -1.61614601E+03     -2.98688739E+02      1.23185353E+03
      2.58627866E+03      7.72641855E+02     -1.55660723E+03
     -3.24480349E+02     -1.20370504E+02     -2.49798210E+01
     -3.34483344E+02     -4.15238720E+02      1.42392517E+03
     -1.61284698E+03     -2.96308990E+02      1.38348860E+03
     -3.97099636E+02      3.24450827E+02     -1.09752104E+01
      1.25838981E+03     -9.91684317E+01     -5.81075530E+02
      2.86867356E+03     -9.85354724E+02      3.75425098E+02
     -3.31982580E+01      4.48051798E+02      1.01727380E+03
      1.24498841E+02     -2.17858098E+02     -1.05284870E+02
      4.55430761E+03     -2.99640341E+03      1.18725900E+03
      3.14779361E+03     -7.82021790E+02     -1.91803751E+02
     -1.65216183E+01      2.67037379E+03      1.39150830E+03
     -1.30175102E+02     -3.65485336E-01     -2.05099303E+01
      1.78014247E+02      5.01118798E+02     -1.06949135E+03
     -4.89998258E+02     -1.13431268E+03     -8.84234525E+02
      9.43684453E+02     -8.92611477E+02      1.17956877E+02
     -5.78141900E+02     -5.24508666E+00      1.64718510E+03
     -1.10015507E+03     -1.67678058E+03      2.58652255E+02
     -9.41294851E+02     -2.74965333E+02     -3.53358593E+02
     -2.99861315E+02      3.70277994E+02     -4.79676480E+03
      6.17017555E+02      5.65553214E+02      1.35628932E+03
     -1.95566177E+01     -6.57859303E+02     -3.11073450E+02
      1.37762651E+03     -2.94258530E+01     -6.80869716E+02
      1.78243106E+03     -8.97117130E+02     -1.52072331E+03
      2.55264400E+02     -9.98439229E+00     -1.34559209E+02
      6.05133074E+02      1.36208563E+03      4.20072372E+02
     -1.47282584E+03     -9.38246787E+02     -2.42490290E+03
     -8.08598720E+03      1.81431029E+04      1.98848288E+04
     -1.87002428E+03     -1.09940567E+03     -2.11192847E+02
     -7.78210756E+02     -8.75727836E+01     -1.45950057E+03
     -2.92299795E+02      3.61195939E+01     -2.85583157E+02
     -2.36240620E+03     -6.44452872E+02     -4.07399685E+02
      1.34508501E+02      5.42529115E+02      1.41896945E+03
     -5.05755002E+02     -5.57386132E+02     -1.47200631E+02
      1.06027324E+03      4.08468029E+02     -1.08599299E+03
      4.24562049E+02      4.05320192E+03     -9.05860522E+01
      2.71417385E+01      4.60237870E+02     -2.42917580E+02
      2.04703904E+03      3.72407377E+02      3.03261178E+02
      8.72631447E+02      9.89203068E+02      1.18638764E+03
      2.41184645E+02      1.98427254E+02      4.11375039E+03
      1.74696962E+02     -3.24580036E+02     -4.44316295E+02
     -4.02941591E+02      2.02641948E+02     -1.56693317E+02
      9.70638978E+02     -1.08424337E+03      8.62932505E+02
     -1.42752706E+03     -8.88368059E+02     -5.28313237E+02
      9.33666953E+01      1.94848979E+02     -6.40768104E+02
      1.05511801E+03      2.99163842E+02      1.01033613E+03
      8.94882868E+02     -1.78032471E+03     -4.97773487E+02
      5.87954841E+02     -4.46148244E+02      1.55019487E+02
      9.85215840E+02     -2.22019979E+03      2.15150980E+03
      4.43834017E+02     -1.89805605E+03      2.01481641E+01
     -1.00091029E+02      6.80883437E+02     -6.88051552E+02
     -1.19888688E+03      1.87158850E+02     -8.03991903E+02
     -1.81220563E+03     -7.65421195E+02     -1.22963543E+03
      5.72220401E+02     -5.92927688E+02      5.93883777E+02
      2.02243620E+03     -5.25029765E+01     -3.44438985E+03
     -2.33194475E+03     -3.70866058E+02     -5.47217108E+02
     -3.07328507E+02     -1.70181553E+02      7.86617968E+01
      1.16227142E+03     -6.32644272E+02      2.68594182E+02
      5.48000415E+01      5.71221286E+02     -2.45315262E+03
     -1.23103297E+02     -6.58412199E+02     -5.96131387E+02
     -1.76783936E+01      3.59024608E+02      1.27034997E+03
      1.67240405E+03     -1.19751009E+03      1.78330280E+03
      1.35888167E+02     -4.11317445E+02     -7.75833550E-01
     -8.94873679E+02     -5.37077440E+02      1.05282119E+03
     -8.97504206E+02     -1.30446196E+03     -7.59671059E+01
     -1.20402467E+02      4.35725623E+01     -7.54430022E+02
      1.24155496E+02     -9.47562833E+02     -6.17463186E+02
     -6.42069198E+02     -7.04388319E+02     -1.75681397E+03
      1.19087233E+02      4.74941950E+02      2.76925708E+02
     -5.65474091E+02      1.85279442E+03      2.12555739E+03
      2.66825787E+03     -2.67493546E+03      1.33437734E+03
     -7.86211811E+02      4.21029029E+02     -1.97033376E+03
     -3.03841433E+02     -3.28155885E+01     -6.93757056E+02
      1.95822337E+02      1.51154763E+03     -3.07242572E+03
      1.04921300E+03     -2.57747761E+03      1.47603602E+03
      5.86715202E+02     -2.02444067E+03      4.30007715E+02
  }
}

Hamiltonian = DFTB {
  SCC = Yes
  SCCTolerance = 1e-6
  MaxSCCIterations = 200
  ForceEvaluation = Dynamics
  MaxAngularMomentum = {
    C = "p"
    H = "s"
  }
  Charge = 0.0
  SpinPolarisation = {}
  Eigensolver = Standard {}
  Filling = Fermi {
    Temperature [Kelvin] = 300.0
  }
  SlaterKosterFiles = Type2FileNames {
    Prefix = "../../pbc-0-3/"
    Separator = "-"
    Suffix = ".skf"
    LowerCaseTypeName = No
  }
  KPointsAndWeights = {
    0.0000000000000 0.0000000000000 0.0000000000000 1.00000000000000
  }
  Dispersion = LennardJones { 
    Parameters = UFFParameters {}
  }
}

ParserOptions = {
  ParserVersion = 3
}
