Geometry = GenFormat {
<<< "system.gen"
}

Driver = VelocityVerlet{
  Steps = 50000
  TimeStep [fs] = 0.2
  MDRestartFrequency = 25
  Thermostat = None {
    #InitialTemperature [Kelvin] = 300.0
  }
  Xlbomd{ 
    IntegrationSteps = 6 
    MinSccIterations = 2
    MaxSccIterations = 200
    SccTolerance = 1e-6 
  }
  Velocities [m/s] {
      5.86311760E+02     -2.16174666E+02      4.14919049E+02
     -1.76448108E+03     -1.98183683E+03      4.62896762E+01
      2.04335471E+02      1.32208723E+03      3.61789003E+03
      2.52335558E+02      2.58435507E+01      4.60356604E+02
     -7.85737817E+01      1.30558584E+03      9.93041124E+02
     -1.24319099E+03      6.79073455E+02      7.90232879E+02
     -4.14942903E+02      1.92824648E+02      4.28171443E+02
     -7.47789052E+02      1.88521011E+02      7.40211452E+02
     -6.53362249E+01      1.16195296E+03      9.97498674E+02
     -3.55734680E+02      5.25924452E+02     -3.10462075E+02
     -4.58480844E+02     -2.35443020E+02      2.40517827E+03
      1.72828709E+03     -8.41337016E+02     -9.20924538E+02
     -2.91384651E+02      8.39291716E+02      7.29572465E+02
      4.43695833E+02     -5.02434874E+02      8.14193231E+02
     -1.12018611E+02     -2.57132526E+03      1.13820161E+03
      2.09523499E+02      4.04882431E+02     -2.24849788E+02
      5.93324562E+02      2.45989617E+03     -4.92019041E+02
     -2.69280323E+03     -4.47727144E+02     -2.05074762E+03
     -7.62175387E+01      3.49233567E+02      4.07451945E+02
     -1.03309636E+03     -7.31609442E+01      5.28908332E+01
     -9.45648726E+02      1.45297033E+03      6.12709153E+02
     -6.96100783E+00      3.08733582E+02     -3.98249438E+02
      2.11184913E+03     -3.07869327E+02     -6.04538034E+01
     -3.07232580E+03      1.62382499E+03      2.93246340E+03
      3.06622422E+02      5.55029448E+02     -3.66632156E+02
     -1.24826634E+03     -1.72452091E+03      9.49113036E+02
      1.47510149E+02     -1.69012135E+03     -3.05546507E+03
     -1.65462191E+02      1.80091967E+03     -1.48511288E+03
      1.36847874E+03      2.49904219E+02     -5.71430457E+01
      1.56340384E+02      1.02475166E+03      1.26359192E+03
      4.81209725E+02     -4.25768986E+02      1.84851007E+03
      2.61406025E+02     -1.65380235E+03      4.09369793E+02
      2.01381701E+02      1.19132803E+02      6.72136049E+02
     -2.59223219E+03     -2.08901109E+03      4.19234934E+02
     -2.07684812E+03     -9.15255762E+02      1.16869005E+03
      1.34478354E+02     -9.40995455E+01      1.75992805E+01
      1.57725905E+03     -2.22394329E+03      2.91989439E+03
     -1.03503561E+03      1.29826811E+02      9.84505528E+02
     -1.79428298E+01     -9.66100253E+02      1.47871262E+02
      1.77450009E+03      2.47497037E+02     -1.09614080E+03
     -1.26076231E+02     -7.25511279E+02      2.91492600E+02
      8.36554123E+02      3.31521126E+02      6.41404014E+02
      3.48779938E+02     -4.64030196E+02     -1.64306866E+03
      6.80545392E+02     -9.91594121E+02     -1.61322332E+03
      4.04515430E+02      7.06701325E+02     -7.64155475E+02
     -7.19664159E+02     -1.76317103E+03      9.32389817E+02
      5.96581878E+02      8.21906786E+02     -7.08609296E+02
     -7.58328462E+01     -2.42143462E+02     -4.47845882E+02
      7.08496470E+02      2.69300971E+02     -1.71449606E+03
      2.02481647E+03      1.76879285E+02      3.54944492E+03
      3.69889270E+02      1.99564830E+02     -3.36571866E+02
     -1.92204894E+03      5.33435859E+03      1.17316564E+03
      9.48520398E+02     -1.38394680E+03     -1.42672968E+03
     -1.42092383E+03      6.86984637E+02      2.92156798E+02
     -1.58461582E+02     -2.18259628E+03     -7.53997412E+02
     -8.99359424E+02     -1.18869341E+03     -3.65050076E+02
     -2.28741695E+01      9.26255757E+01      2.06195890E+02
     -4.33515619E+02      2.93601901E+02      1.88078850E+03
      2.71318518E+02      2.87035035E+03      7.31742976E+02
      1.71035946E+03     -1.06040371E+03      1.77503548E+03
      1.03779125E+01      8.57762471E+02      4.22785159E+02
     -3.10758457E+02      2.46865552E+03      2.58349152E+03
     -9.74884924E+02      6.05608321E+02      3.78918914E+03
     -6.49864301E+02      1.88885417E+03      1.98536868E+03
     -7.32210822E+02      4.70965347E+02      3.94481488E+02
      2.67670571E+03      9.36053172E+02     -9.93947485E+01
      2.14705331E+03      1.72553867E+02     -1.42110706E+03
     -4.94672204E+02      1.50413466E+02      1.59473436E+02
     -2.32948991E+03     -5.82228173E+02      1.42624356E+03
      9.97728365E+02      3.86552268E+02     -6.39470212E+02
      6.88778586E+01     -4.87597489E+01     -1.03932760E+02
     -8.29299709E+02     -3.96169383E+03      4.14960560E+03
      3.43849782E+02      1.49705986E+03      4.52486099E+02
     -7.19223104E+02      4.47099539E+01     -2.87515951E+02
     -1.07902195E+03     -1.19266800E+03     -3.23670265E+03
     -4.60311705E+02     -1.01657492E+02     -1.39354028E+03
     -3.67132782E+02      5.52809442E+02      4.88536794E+02
     -1.21764213E+03      1.09721272E+03      9.31607021E+00
     -1.05406558E+03      8.18598256E+02     -3.00278005E+03
     -5.37785755E+02      9.86905984E+01      2.33079409E+02
      3.79345674E+02      1.33242798E+03      2.53430749E+03
      1.47403162E+03     -3.47211409E+02      2.27851226E+03
     -4.24060299E+02     -7.82216099E+02     -5.55392412E+02
      1.77416227E+03      2.30622635E+03      1.54155870E+03
      4.91731861E+01      7.00710009E+02     -1.34664168E+03
     -2.37212235E+02     -5.28469693E+01     -9.24328433E+01
     -1.19092313E+03      1.36814346E+03      6.59276417E+02
     -9.79079945E+01     -4.63677594E+01     -1.75016784E+03
     -7.10966573E+02      5.25517805E+02      5.92307844E+01
     -1.29294519E+03      5.03497828E+02      1.27609280E+03
     -7.22286006E+02      9.45950624E+01      8.38260955E+02
     -1.39792303E+03      2.46061835E+03      5.16953572E+02
     -2.59456339E+02     -5.32846319E+02     -7.12582359E+02
      1.76760351E+02      2.93150266E+03     -1.44095279E+03
      1.89053719E+03     -6.45269852E+02      2.39615345E+02
     -3.99789165E+03     -1.00661797E+03      8.71442023E+02
      7.85020365E+01     -1.30851070E+02     -3.52248495E+02
      4.68089371E+02      1.58385308E+03      1.09968554E+03
      1.15673771E+03      1.19614305E+03      9.33987126E+01
     -5.40704253E+02      2.48406837E+02     -4.05455205E+02
      2.86317850E+02     -1.35317914E+03     -9.87567682E+02
      2.91906171E+03     -4.43395657E+02      3.23250664E+03
     -4.02974026E+02     -2.30029835E+02     -4.72191019E+02
      2.41763771E+02      1.57681167E+03      4.92340404E+02
      2.44271044E+03     -1.66377915E+03     -3.05345178E+02
     -9.98718467E+02      1.52972041E+02     -2.28620796E+02
     -1.84533697E+03     -1.30617667E+03      1.04846623E+01
      9.41957844E+02     -2.78372573E+02     -2.00200499E+03
     -1.56873131E+02      7.22485194E+01      3.17965167E+02
     -1.73509996E+03     -1.95264053E+03     -3.34628931E+03
     -3.74062958E+02      2.99506572E+01     -1.30896844E+03
      1.15957227E+02      1.08425532E+03      1.78786918E+02
     -3.42094808E+02      7.45853303E+01     -1.61195738E+03
     -1.96673541E+02      2.60739704E+03      8.34849825E+01
      1.87432550E+04     -9.33439263E+03     -6.10078501E+03
     -1.84146809E+03      1.77490338E+02      2.68986217E+03
     -4.66606205E+02      1.14519248E+03     -1.27099554E+03
     -5.09856025E+02      6.14283482E+02     -4.48622501E+01
     -2.01930830E+03     -8.41149490E+02      3.88320916E+03
     -1.01289153E+03      1.77480181E+03     -8.27754772E+02
     -4.27096046E+02      3.64443464E+02      7.40534156E+02
     -1.18175575E+03     -1.15030246E+02     -1.68654069E+03
      3.61053653E+02      3.10843098E+01     -1.54644224E+03
     -2.07153206E+03     -1.82692962E+03      7.27738156E+02
      1.19495425E+02     -2.18505357E+02      5.07826855E+02
     -7.02659940E+02      8.00149480E+02     -1.39938832E+02
     -4.97121571E+02     -1.52756521E+03     -3.43660757E+02
      1.04397844E+03      1.81255476E+03      3.76414414E+02
     -1.21492086E+02      1.47880228E+02     -8.01744746E+01
     -1.55850374E+03      1.90638973E+03     -1.19976833E+03
     -1.22000078E+03      1.84449739E+03     -2.09906215E+03
     -9.07805676E+01      5.17550811E+02      2.58740376E+02
      1.24550222E+03     -7.98303326E+02      1.58158228E+03
      8.83795768E+01      4.63952130E+01     -8.87167731E+02
     -8.45473592E+00      2.57510159E+02      1.64212085E+02
      1.49564967E+03     -1.33271218E+03      5.29198119E+02
     -1.64767252E+02      2.16967885E+02      2.21726893E+03
      5.72245155E+01      4.07755797E+02     -6.58406474E+01
     -3.81207431E+02      2.54676393E+03      4.42630197E+03
      1.76575144E+03     -1.57022302E+03      1.82865282E+03
      1.37207751E+02     -1.97088620E+02     -2.81577807E+02
      1.19656169E+03      3.02729503E+03      1.89668777E+03
     -5.28269898E+02      1.53002914E+03     -2.14407564E+03
      4.27776211E+01     -3.29739608E+02      3.25468578E+02
      9.65661806E+02      1.63441498E+03     -3.02327886E+03
      7.34739242E+01     -3.54500699E+02     -9.60089255E+02
      4.64683979E+02     -1.75015172E+02     -1.87635881E+02
     -1.11270023E+03      2.41157554E+03     -9.13827451E+01
     -2.92370809E+02      1.43191874E+01     -4.98854469E+02
     -4.82660844E+02      3.30889976E+02     -5.62631596E+02
      5.42011282E+02     -6.46008912E+02     -2.15707323E+03
     -1.57497836E+03      2.63087312E+03      8.89101483E+02
     -1.51927435E+02     -2.45133201E+02     -1.65525962E+02
      7.22893242E+02      3.33152496E+02     -2.19115127E+02
     -2.66802294E+03      3.40284335E+03     -1.23870180E+03
      4.47904224E+02     -5.77033131E+02      1.02111840E+03
     -7.53438005E+02     -2.22655589E+01     -1.50337517E+02
     -3.60659945E+03     -3.18521797E+02     -1.66158516E+03
     -5.86700820E+02     -1.43004360E+03     -9.77347427E+02
      1.43102336E+03     -4.43697041E+02     -1.86603690E+03
      1.61751183E+01     -2.79733552E+02      2.84414814E+02
     -1.85397255E+03     -1.46715077E+03      1.80113795E+03
      1.22831246E+03      8.20842284E+02      1.17337678E+02
     -6.15567377E+02     -3.90336004E+02      5.50389071E-01
     -1.05003822E+03      1.90808906E+03     -6.74985641E+02
      1.36334907E+02     -5.84498059E+02      1.57978609E+03
      1.05676409E+02      3.03610526E+02      5.76119461E+02
     -1.90173383E+03      1.09628513E+03     -3.15688753E+03
      1.28434755E+03     -1.72775301E+03     -2.73626958E+02
     -1.67904730E+02     -8.09559615E+02      8.74373159E+01
     -4.35441254E+02      4.57330049E+02      3.53465106E+03
      3.12603126E+01     -2.46145913E+03     -7.30731077E+02
     -1.95188759E+02     -5.57334675E+02      5.92199360E+01
     -2.46433674E+03      2.05459551E+03      1.43334646E+02
      1.20014949E+03      4.04394044E+03     -6.32958125E+02
      2.32169819E+02      2.25511939E+02      6.23781102E+02
     -5.78860114E+02     -6.18483728E+02      6.46813653E+02
      5.57552909E+02      1.21210431E+03      7.83581994E+02
      3.46830175E+02      3.87991202E+02     -1.28735820E+03
      8.20721976E+02     -2.84316540E+03     -1.70511865E+03
     -1.80637274E+03      1.64736023E+03      1.56997436E+03
      8.07289778E+01     -8.53803262E+02      2.23961550E+02
     -1.88552793E+03      9.41283657E+02      1.23069174E+03
     -8.86603773E+02      2.84098329E+01     -8.97927120E+02
     -1.41066670E+02     -2.23240419E+02      3.62757143E+02
     -2.97648853E+02     -2.91542668E+02     -8.57468726E+02
     -5.25748062E+02      1.71218775E+03      3.93452244E+03
      2.55259169E+03      2.34483054E+03      8.42821052E+02
      2.87353066E+01      1.16551809E+02      4.99858551E+02
     -1.55489286E+03     -1.07465706E+03      3.30674298E+03
     -1.23748359E+03     -1.14884610E+03      2.86087134E+02
     -3.25603841E+02      1.21435485E+03      1.92412683E+02
     -5.54737836E+02      4.38531474E+02      2.50365058E+02
     -8.47629440E+02      2.65993780E+01      2.16119270E+02
     -1.57277561E+03     -1.99156340E+03     -1.12336048E+03
      6.83300129E+02     -1.06020425E+03     -1.92386881E+02
      5.10698407E+02     -1.95094712E+03     -9.07098240E+02
     -6.34535855E+02     -1.70874851E+03      5.18944067E+02
     -2.52218937E+02     -3.01069472E+02      2.00831676E+02
     -8.33264968E+02     -9.80382151E+02     -2.93015578E+03
     -6.08324634E+02     -1.10101885E+03      1.09437885E+03
      7.91629143E+02      3.61880692E+02     -2.63145913E+02
     -2.23142199E+03      9.09374679E+02      6.45085352E+02
     -1.99809786E+03      2.86904144E+03     -9.07477992E+02
     -2.04590417E+01      2.71171120E+02      2.58461088E+02
      1.14970666E+03      2.14555656E+03     -4.75375149E+02
      1.98894516E+03     -2.85125403E+03     -1.66643758E+03
     -3.60377204E+02     -1.37826163E+02     -1.87038935E+02
     -2.22236831E+03      4.33020394E+02      1.74265096E+03
     -1.75647080E+03     -2.06640786E+03      3.11156055E+02
      3.31231995E+02     -7.79974153E+02      7.06840487E+01
      5.32437687E+02      9.65252562E+02     -4.47934756E+02
     -1.09724663E+03      1.35935878E+03     -3.53636240E+03
      3.09809405E+02      1.01562938E+02     -2.66951011E+02
      2.72555989E+03      1.20770773E+02      9.91846696E+02
     -3.84585708E+03     -6.89035019E+02     -5.90626148E+02
      4.91542620E+02      2.10131221E+02     -1.03082118E+02
     -1.01984415E+03     -3.69490991E+01      1.75904542E+03
      1.18994603E+03      8.37112396E+01     -8.69047281E+02
      1.53317402E+03     -3.06063389E+02      1.11340479E+03
      6.48310744E+02      1.85253521E+02      4.84918015E+02
      9.13289364E+01     -4.35821607E+02     -2.38988465E+03
     -9.12176773E+02      4.21871052E+02     -6.51143014E+02
     -1.38418808E+03     -1.09561743E+03     -8.26377713E+02
     -8.04655812E+00      3.09531662E+02      9.68018414E+02
     -1.86811763E+03      1.08590122E+03     -2.81307705E+03
     -1.69045139E+02      2.61356028E+03      2.39563327E+02
     -2.19602841E+02     -1.16329259E+01      4.63727279E+02
     -8.37817739E+02      1.11674367E+03     -1.92699990E+02
      1.26995367E+03      1.80611313E+03     -2.54073251E+03
     -1.99522930E+02      2.63391435E+02     -1.82257514E+02
      4.51467672E+02     -5.31073370E+02      3.31390415E+03
      1.45990463E+03      1.48071267E+03     -9.31362788E+02
     -2.66989493E+02      3.38085112E+02      6.96758140E+02
      3.17243962E+03      2.13751738E+03      2.41243756E+03
      3.42716761E+02      3.53226344E+02      1.52407584E+03
      2.34538170E+02     -1.18025955E+02     -6.05255676E+01
      3.12245878E+03      2.88213563E+02     -3.67101670E+03
      1.42172958E+02      5.98824976E+01     -3.51477969E+02
      7.58020753E+00      8.09349222E+01     -2.89317011E+02
      4.90735755E+02     -2.50925447E+03     -3.02785114E+03
     -1.12682422E+02      2.93902746E+02     -6.43653186E+02
      7.17190044E+01     -2.55352382E+02     -8.91596856E+02
      1.19204854E+03      5.47189577E+02     -1.71917705E+03
      7.64347331E+02      2.55295582E+02      3.67027496E+01
     -8.97246288E+02      5.15510339E+02      3.27758718E+01
     -8.74348453E+02     -1.22009581E+03      3.87247559E+01
      1.84681995E+03      5.06955572E+02     -1.43921989E+03
      2.58356524E+02      9.30844585E+02     -2.13897213E+01
      2.36706303E+03     -3.61283101E+02     -1.90516599E+03
      9.55978705E+02     -2.41165462E+02      1.42471810E+03
     -1.66750486E+03     -6.81728899E+01      1.08071389E+03
     -9.38831651E+02     -6.77971692E+02     -1.35011339E+02
      1.07386371E+03      1.37852504E+03      1.83348834E+03
     -1.71546816E+03      5.89231160E+02      1.35557040E+02
     -8.12276595E+02     -1.54460979E+03      1.57123556E+03
     -1.70846039E+02     -5.53465628E+01      4.59094395E+02
     -1.93866855E+02     -1.39087517E+03     -5.66034925E+02
      6.14916404E+02     -3.00430383E+03      2.17039241E+02
     -2.71774950E+02     -3.87665445E+02     -7.33201598E+01
     -1.05359504E+03     -2.08166587E+03      2.37742682E+03
      5.20412334E+02      1.05218800E+03     -3.74790623E+01
      1.88550169E+02      9.97261019E+02      6.54832167E+02
      6.01363378E+02      1.53613876E+03      5.05728417E+03
     -5.71717574E+02      8.86670513E+02      2.49678827E+03
     -3.32098242E+02      1.23865416E+02      2.53004030E+02
     -1.38070254E+03      1.10848197E+03      6.18189416E+02
      6.25465737E+01      3.13418037E+02      1.55982002E+03
      1.98614850E+02      2.04210756E+02     -1.83779006E+02
      1.79963618E+03      4.82105986E+02     -3.76529432E+03
     -5.44215825E+03     -1.36191336E+03     -1.30430433E+03
     -2.43020276E+02      1.31125204E+01     -4.70513289E+01
     -2.09427737E+03      5.29318700E+02      4.57982485E+02
      1.55566311E+03     -3.47297890E+03     -1.21159278E+03
     -7.67262099E+02     -4.66465705E+02      5.58852627E+02
     -5.59305401E+02     -6.09307343E+02      5.86286551E+02
     -1.58985417E+03      3.45934578E+02     -1.36510749E+03
     -5.41798240E+02     -3.23354273E+02     -6.54056622E+02
      4.54855692E+02     -1.52617347E+03      2.31120861E+03
     -1.60245902E+03     -2.59620386E+03     -2.11829691E+03
     -3.67357848E+02      4.18600019E+02      2.39636425E+02
     -4.73880744E+02      1.18773496E+03      5.08641558E+02
     -1.40631586E+03      7.46797402E+02      2.72695118E+03
      1.84464700E+03      1.30617684E+03      9.34918219E+02
      2.13766103E+02     -4.69049120E+02      4.40513726E+02
      1.08879688E+03      1.12243086E+03     -2.87637600E+02
      1.77077333E+03     -4.20812289E+02     -3.83544024E+03
      3.64595792E+02      7.40362277E+02     -5.55296170E+02
     -1.95114129E+02      5.13302494E+02      1.10826411E+02
      3.65661497E+01      5.39202861E+02      4.48268193E+02
     -2.87341516E+03      1.87465099E+03     -2.08266438E+03
     -6.81858122E+02      1.78835540E+02     -1.31786598E+01
      4.94381052E+02     -1.88751354E+03      4.64883077E+02
      4.98486125E+03      8.60133959E+02     -1.06701835E+03
     -7.52227494E+02     -1.91937835E+02      5.00410443E+02
      1.78755431E+03     -7.95978212E+02      6.09921754E+02
     -1.51171904E+03     -1.86354610E+03      5.70681811E+02
      5.52962455E+02      3.68540465E+02      5.21298536E+02
      1.16888979E+03      2.22200292E+00     -4.95585105E+02
     -8.89620928E+02     -3.97305973E+02      7.64673386E+02
     -3.53614736E+02     -4.87826315E+02      5.72533181E+02
      4.86497487E+02      8.13348309E+02     -5.12532881E+03
     -3.75200798E+02     -1.81634031E+03     -1.46681629E+03
     -4.41638698E+02      5.29529473E+02      6.41487187E+01
     -1.36173890E+03      3.21420795E+03     -7.14955264E+02
      7.44540289E+02     -9.56123533E+02     -1.02415645E+03
      1.12362160E+02      2.65870216E+02      2.41231223E+02
      6.41700839E+02      8.48143802E+02     -3.90102196E+03
     -5.32309546E+02     -1.77164957E+03     -1.90755518E+02
     -5.21679895E+02     -6.53516005E+01      4.05560111E+02
     -5.94122619E+03      4.10208565E+03      1.32692458E+03
      8.27051068E+02     -1.58585692E+03     -1.17345876E+03
     -3.85932110E+02     -4.62775434E+01      7.42397692E+00
     -3.52219066E+02     -1.01797880E+03      2.62834790E+03
     -2.44843796E+01     -8.32515694E+02      2.29696580E+03
      2.00111966E+03     -1.73518188E+03      3.84529370E+02
     -6.10008299E+02     -3.56058687E+02      8.23177800E+02
     -1.72024370E+03     -9.87149321E+02     -3.14763293E+02
     -8.02523162E+02     -1.25519254E+03     -1.91210241E+03
     -1.41761239E+03      5.80181698E+01      1.54099963E+03
     -2.43919837E+02     -8.09897675E+02      1.29562204E+01
     -2.09464182E+02     -1.12364466E+03      1.02141534E+03
     -8.86781944E+02     -5.02081404E+02     -7.99849559E+02
     -9.20718864E+01     -4.12230958E+02     -2.31252524E+02
      4.91509591E+02     -1.40480728E+02      1.40276279E+03
     -2.32436719E+03      2.23485346E+03      2.42235162E+03
     -1.07448431E+02     -3.98130658E+01     -7.00981328E+01
     -8.16067538E+02      1.36378712E+03     -2.00103129E+03
     -1.73288425E+03      9.08749697E+02      7.79402691E+02
      4.80627799E+01      8.39243540E+01      1.91371448E+02
     -6.02238574E+02     -1.01985332E+03      2.04804657E+02
     -1.90243147E+03      5.22022941E+03     -3.58750277E+02
     -2.32769498E+02      3.46908314E+02     -5.91535858E+02
     -1.36503577E+03      1.36376379E+02     -3.56067025E+03
     -1.63657458E+03      1.97163439E+02     -3.29388662E+03
     -4.56589732E+02      8.12597962E+02     -7.07067547E+02
      1.12069359E+03     -1.01098080E+03     -1.39023991E+03
      6.46305324E+02     -2.31827963E+03      9.97700112E+02
      3.25039953E+02     -1.72048515E+01     -1.26680000E+03
     -2.68761939E+03     -1.03096943E+01     -8.74486208E+02
      1.63709017E+03      1.15788085E+03     -8.06087951E+01
     -5.78716313E+02     -7.27899599E+02     -4.75843012E+01
     -1.55500443E+03     -6.39190343E+02      2.71261158E+02
     -1.32824638E+03      2.52814291E+03     -1.36447106E+03
     -5.33217010E+02      3.11084904E+01      2.36903867E+01
     -2.58589156E+03     -7.24308799E+01     -1.63141433E+03
      2.13151459E+01     -1.48961377E+03     -6.84997970E+02
     -1.18794290E+03     -3.94069382E+02     -8.68325005E+02
     -4.52719647E+02      3.30301269E+02      3.08589484E+02
      2.34547471E+03      2.07177364E+03      2.97397434E+02
     -3.72153853E+03     -1.50024315E+03      3.05674144E+00
      1.65033801E+03     -1.88351613E+03     -1.10520649E+03
  }
}

Hamiltonian = DFTB {
  SCC = Yes
  SCCTolerance = 1e-6
  MaxSCCIterations = 200
  ForceEvaluation = Dynamics
  MaxAngularMomentum = {
    C = "p"
    H = "s"
  }
  Charge = 0.0
  SpinPolarisation = {}
  Eigensolver = Standard {}
  Filling = Fermi {
    Temperature [Kelvin] = 300.0
  }
  SlaterKosterFiles = Type2FileNames {
    Prefix = "../../pbc-0-3/"
    Separator = "-"
    Suffix = ".skf"
    LowerCaseTypeName = No
  }
  KPointsAndWeights = {
    0.0000000000000 0.0000000000000 0.0000000000000 1.00000000000000
  }
  Dispersion = LennardJones { 
    Parameters = UFFParameters {}
  }
}

ParserOptions = {
  ParserVersion = 3
}
