Geometry = GenFormat {
<<< "system.gen"
}

Driver = VelocityVerlet{
  Steps = 100000
  TimeStep [fs] = 0.2
  MDRestartFrequency = 5
  Thermostat = None {
    #InitialTemperature [Kelvin] = 300.0
  }
  Xlbomd{ 
    IntegrationSteps = 6 
    MinSccIterations = 2
    MaxSccIterations = 200
    SccTolerance = 1e-6 
  }
  Velocities [m/s] {
     -2.94002561E+02      2.95378888E+02      2.18252496E+02
     -2.21254970E+03     -7.01011971E+02     -4.14513283E+02
     -1.09715907E+03     -1.96569476E+03      4.53906973E+02
      8.48043584E+02      2.31172651E+02     -3.01684990E+02
     -2.90421254E+02     -2.62485836E+02      3.84795956E+01
     -9.68034347E+02     -9.62507561E+02     -6.85997655E+02
      3.43113910E+02     -1.54747157E+02      1.26058393E+03
      1.79617910E+03      8.06062788E+02     -8.94764198E+01
      1.03524136E+03     -3.41977046E+02     -3.54487875E+02
     -1.91936816E+02     -7.22327715E+02      9.48506046E+01
     -3.95198946E+03     -6.65507523E+02     -2.12718840E+02
     -8.11582567E+02      2.57080114E+02     -1.04849987E+03
      2.07045182E+02     -2.08016424E+02      2.15222915E+02
     -2.78577292E+03     -2.37035953E+03     -2.38517839E+03
      2.93104760E+00      1.79554235E+03     -1.82317656E+02
      4.44170716E+02      1.80008717E+02     -4.38598464E+02
      1.89301067E+03      8.04050730E+02     -1.33748921E+03
      1.20895986E+03     -2.31887676E+03      7.45884796E+02
      6.43574432E+02      2.98704777E+02     -6.50802124E+02
      5.67469480E+01     -1.24832792E+03     -8.83804737E+02
      1.87401440E+03      1.63582562E+03      9.47316487E+02
     -4.78775935E+02     -5.19952925E+02     -2.55415149E+02
      4.01912103E+01     -3.14794146E+03      7.40609727E+02
     -2.67129920E+03      1.66016694E+03     -3.34372054E+03
     -4.62223425E+02      1.07757741E+02     -6.57551292E+01
      1.31008115E+03      2.23554092E+03      1.05362488E+03
     -2.43496393E+02     -1.14366449E+02     -3.91829265E+03
      5.31007175E+02     -1.79820960E+03     -1.57386950E+03
      3.16266602E+02     -4.69582261E+02      8.33631847E+02
     -8.24503137E+02     -2.69020807E+03      1.05578361E+03
     -7.93428469E+02      2.11908818E+03     -8.97475215E+02
      3.02986638E+03      9.67664719E+02      1.86059590E+02
      5.21270794E+02      4.65394273E+02     -9.63292807E+00
     -4.12867853E+02      1.18836540E+03     -6.12424207E+02
     -2.93261055E+03      1.39212600E+03      1.23407180E+03
      2.56447048E+02     -3.16247336E+02     -2.34088111E-01
     -1.17943301E+03     -1.11896578E+03      1.86693639E+03
     -3.40868121E+03     -3.39449923E+03     -1.62015895E+03
      4.98125362E+02      1.40737896E+02      7.79362871E+01
      9.56393187E+02      7.80501173E+02     -8.71756809E+02
      2.15342662E+03      9.16995294E+02     -1.43750529E+02
     -6.29873162E+02      3.32465626E+02     -4.90344209E+02
     -3.22122887E+03     -4.78069674E+02     -5.18663497E+02
     -1.13785543E+03      3.08222933E+02      8.29610399E+00
     -2.59632558E+02     -2.60916038E+02     -2.19658658E+02
      7.83145945E+02     -2.02605994E+03      7.45612966E+02
      1.74775735E+03     -6.47177465E+02      1.78510658E+03
      3.80460427E+02     -1.76752433E+02     -2.65399494E+02
      2.11438913E+01     -2.65802611E+03      1.78501902E+03
      1.07902416E+03      1.45006318E+03      2.09256234E+03
      4.10089073E+02     -5.00762137E+02      2.55863151E+02
     -5.33371695E+02      1.92309284E+03     -1.70301078E+03
      5.36067062E+02     -3.97303351E+00      2.38722887E+03
     -7.14853930E+02     -2.81836315E+01      7.11002602E+02
      1.81788606E+03      9.26827545E+02      1.79471397E+02
      1.36284720E+03     -2.92315079E+03      2.55109918E+02
     -4.21489650E+02     -1.56844083E+02      3.50551599E+02
      2.16579531E+03      1.59034342E+03     -9.12136705E+02
     -1.37103192E+03      1.97012060E+03     -5.75771050E+01
     -5.91647555E+02     -1.44301299E+02      7.20542016E+01
     -1.02063939E+02      8.23631625E+02      8.11581688E+01
     -1.11323295E+02     -1.05625166E+03      1.08666239E+02
      6.46247679E+02     -3.65441665E+03     -7.63444852E+02
     -1.86216529E+03      1.29150536E+03     -7.17519534E+00
      5.18912022E+02      7.65512213E+02      3.29314500E+02
      6.63148884E+02     -2.33639454E+03     -1.20660122E+02
      2.51858163E+02     -1.19593615E+03      9.35547293E+02
     -1.28859958E+02     -8.38019832E+01     -1.69236428E+02
      4.56463964E+02     -2.42800069E+03      6.18419912E+02
      2.65433450E+03     -2.11052420E+03     -6.82089868E+02
     -2.13286907E+01     -2.05806922E+02     -1.83032713E+02
      2.20739818E+03     -1.70277668E+03      1.88728054E+02
     -1.70900428E+03     -8.77510889E+02     -2.81024033E+03
      2.68499402E+02      3.24531985E+02      4.13506959E+02
      2.15774456E+03      7.63248457E+01     -3.78238474E+03
     -1.24550893E+03      6.47710737E+02     -1.07940415E+03
      3.10996060E+02     -1.67165509E+02     -8.20870753E+02
     -1.64853022E+03      1.35091896E+03     -2.10161255E+02
     -1.93297660E+03      1.88234433E+02     -1.16622649E+03
      7.45325385E+01      1.68690051E+02      6.87719339E+02
      1.26279268E+03     -1.19467075E+03     -7.30225254E+02
     -1.36767178E+03     -2.14683162E+02      2.00351304E+03
     -5.46371095E+02      4.32227481E+02     -6.84614786E+02
     -1.67083462E+03     -1.62019293E+03      9.75121404E+02
      1.78105822E+03     -1.36080411E+03      1.04045518E+03
      7.31582541E+01     -3.15487813E+02     -5.44861474E+01
     -6.38820493E+02      3.68781586E+02     -2.76401037E+03
      4.15880854E+01     -3.81660820E+02      1.84385210E+03
     -5.21395646E+01      1.78981608E+02     -6.44553279E+02
     -3.67724560E+03      3.08359394E+03      2.29995032E+03
      8.99066703E+02     -2.07265865E+03      6.63662576E+01
      4.29185627E+03     -1.35198930E+02     -5.77270366E+02
     -1.47077453E+02      4.49208500E+02      5.44533757E+02
     -2.44126213E+03     -4.77307189E+02      2.05060181E+03
      1.46186404E+03     -2.15669888E+03      2.42046187E+03
      1.46837038E+03     -6.89027812E+02     -1.64180662E+03
     -2.22688341E+02      4.39473424E+01      3.90899146E+02
      7.09419096E+02     -1.19926642E+03      2.01723866E+03
     -2.80213163E+03     -1.30875154E+03      3.03592695E+03
      7.01482640E+02     -1.67786829E+01      1.81610901E+02
      1.85260550E+03      2.07783861E+03     -1.68813248E+03
      8.57595672E+01      1.21795806E+02      9.46952196E+01
     -3.57066995E+02      5.08405663E+02     -2.88964220E+02
     -1.50420152E+03      1.28007809E+03      4.66143494E+02
     -5.00350435E+03      1.72568867E+02      1.19168617E+03
      3.01681902E+01     -4.98398740E+02     -3.19379341E+02
      6.97439337E+02     -5.15614345E+01      1.33304782E+02
     -8.88799898E+01      3.63466370E+03      5.81370745E+02
      2.97845800E+02      6.47958403E+02      1.70971226E+02
      2.53720087E+03      1.55193287E+02     -6.31351522E+02
      1.87854938E+03     -1.15915706E+02     -2.24976541E+03
      2.53652506E+02     -2.43270012E+02     -3.91513439E+02
     -2.03026458E+03      5.18684170E+02     -1.35032775E+03
     -2.23903787E+03     -6.14582409E+02      6.14888765E+02
      5.13994556E+03      7.55703977E+03      8.72597227E+03
      1.34037290E+03      1.03203383E+03     -9.54888861E+02
      1.27224477E+03     -1.46259107E+03      2.81410414E+01
      1.40250782E+02      8.26055223E+01     -5.14038808E+02
     -3.31672822E+02      7.64536130E+02     -1.35158925E+02
      3.97839585E+02     -4.73518402E+02      1.45709621E+03
      6.37062169E+01     -7.50343775E+02     -5.36099555E+01
     -1.91842785E+01      1.92647572E+02     -1.37594696E+03
     -1.51771792E+02     -1.47032871E+03     -1.50188912E+03
     -6.48903089E+02      7.90356685E+02      4.01386765E+02
      4.76847706E+02     -1.54085262E+02     -7.01282131E+00
      2.74620957E+03     -1.47443789E+03      6.01469307E+02
      9.30660276E+01      1.52499225E+03      1.51718584E+03
      2.08986526E+03     -1.71800197E+03      1.39552248E+03
     -1.96191223E+02      5.18195948E+02     -1.27789171E+03
     -1.23797239E+03      2.80849990E+02      9.40056856E+02
     -1.24180244E+02     -2.41956734E+02      3.25962845E+02
      7.61704963E+01     -4.09120360E+02     -6.38687188E+02
     -2.05001115E+03      8.08777715E+01     -2.54717146E+03
      6.53764330E+02     -4.23299118E+02     -6.83429647E+02
     -9.83505123E+01     -6.81573780E+02     -7.86857635E+02
      1.33051637E+03      8.57019351E+02     -6.30242030E+02
     -2.17794230E+03      7.28862412E+02      1.65795186E+03
     -1.99506862E+02     -1.14034849E+02     -1.55555644E+02
      6.40984523E+02      1.65599318E+03      1.13663001E+03
      4.44747969E+03     -3.78684987E+03      3.37665167E+03
      4.77321897E+02     -8.41825222E+02     -1.10002624E+02
      8.03138088E+02      1.54234400E+03     -2.16537173E+02
      3.06486154E+01      2.12697434E+03     -2.27337593E+03
      3.62435908E+02     -8.93745464E+01      5.56820785E+01
      1.98645743E+03      2.38728782E+03     -1.90041875E+03
     -1.33014303E+03      2.29024105E+03      2.76992110E+02
     -2.06917831E+01      3.06179244E+02     -2.66704304E+02
     -4.99211726E+01     -1.75861572E+03      4.72607766E+02
      1.22072475E+03      1.56594166E+02     -1.73136158E+03
     -4.59800303E+02      5.11027614E+02     -1.66517688E+01
     -4.98337154E+02      2.97915578E+03     -3.31515128E+03
      1.76069907E+03     -5.37862375E+02     -4.75519920E+02
     -7.20440776E+02     -3.50867107E+02      5.81897293E+02
     -2.47704457E+03     -1.35209727E+03     -1.75792189E+03
      2.65928601E+02      1.25340462E+02     -7.33949088E+02
     -2.04889229E+03      2.47561738E+03     -2.59712116E+02
     -4.06554311E+02     -2.88633254E+02     -8.45205738E+02
      5.60930441E+02     -2.85464026E+03     -8.87376603E+02
      2.47559487E+03      2.52625853E+03      1.65842592E+03
      3.45329465E+03      9.25092994E+02      3.32063775E+03
     -1.30791321E+02      1.80895775E+02     -2.11501731E+02
      3.33806361E+03      1.30911161E+03     -2.67393986E+01
      1.70181074E+03     -6.83430147E+02      1.06171764E+03
     -2.38091731E+02     -3.11704290E+02     -7.46503440E+02
     -4.25933939E+00     -4.47725530E+03     -7.18600739E+02
     -6.55023296E+02      1.36583494E+03     -3.42339261E+03
     -8.99350233E+02     -3.11316573E+02      1.90439158E+02
     -2.21413838E+03      1.69602604E+03     -1.49182312E+03
      1.69477569E+03     -1.21488627E+03     -2.85709500E+03
      7.27958062E+02     -6.03589416E+02      2.01196246E+02
     -5.02552760E+02      6.43491654E+02     -9.98536218E+02
      8.27533063E+01     -5.83413783E+02     -1.43278681E+02
     -6.44908989E+02     -9.68831072E+02      4.16658861E+01
      8.18794938E+02     -5.61029948E+01     -1.47954587E+03
      3.18865453E+02     -5.70791182E+02     -3.57847232E+03
     -6.99533846E+02     -5.93305847E+02     -3.93103675E+02
      1.93725621E+03     -1.83986465E+03      1.98329228E+03
     -2.89615514E+03     -3.68381657E+03      2.92683520E+03
      2.96559999E+02      1.66287387E+02     -1.38012026E+02
      1.18012512E+03     -6.79768308E+02      3.08754737E+02
     -1.15176169E+03     -1.73639881E+03     -2.00987992E+03
     -4.35563692E+02      1.51631613E+02      3.49486547E+02
      4.59402650E+02      7.82277085E+02      1.83876092E+03
     -2.32228583E+03      1.53857202E+03      5.26855433E+02
     -1.68525037E+01     -6.69432767E+02      4.83340256E+02
      1.09383020E+03      3.18143268E+03     -9.66886922E+02
     -4.15511889E+02     -2.38060421E+03      1.27702828E+03
     -3.93943885E+02      2.88632169E+03     -4.50987360E+02
      1.92325603E+01     -2.10268085E+02      1.14583640E+03
     -5.18208520E+02      1.78743712E+03      1.81784128E+03
     -2.02496362E+03     -2.36717393E+03     -5.45542071E+02
      1.64892382E+03     -3.00389223E+03      1.45070370E+03
     -1.70894155E+01      3.50021738E+02     -3.16208622E+02
     -8.00452432E+02      4.63106689E+02      3.14275769E+02
      1.91348504E+02      7.80674686E+02     -1.75387833E+03
      2.32859902E+02      1.10434462E+02      1.22611425E+02
     -2.17372986E+03     -9.47364293E+02      7.49465661E+02
     -1.64679635E+03     -1.45883926E+02      1.10936432E+03
     -5.51520448E+01      3.17021248E+01     -4.25281403E+02
     -1.41155881E+03      1.24241163E+03     -1.04961069E+03
      1.55413491E+03      1.21912368E+02     -8.04330025E+02
     -2.13158261E+02     -3.43920917E+02      3.94803795E+02
     -4.03483656E+02      1.88029992E+03      3.28974363E+02
      1.31160690E+03     -3.90218119E+02     -6.98557126E+02
      8.69876267E+01      2.96019101E+02      7.79345715E+02
     -2.95663451E+03     -9.99992782E+02     -1.36468353E+02
      3.52638838E+01      1.36519963E+03     -2.74758129E+03
     -1.37504052E+02      5.50179154E+02     -2.83329552E+02
     -2.29236912E+03     -2.99381910E+02      2.06182108E+01
     -4.34252838E+02      7.22802991E+02      7.10382639E+01
     -1.21333391E+03     -1.69731181E+02      6.94562322E+01
     -9.54961109E+01     -3.09495794E+02     -9.01599359E+02
     -2.29848809E+03     -4.48696075E+02     -3.53090544E+02
     -1.91876946E+02     -2.79371786E+02     -7.12927314E+02
      2.58091018E+03     -9.81444270E+02     -1.10008825E+03
     -3.52868403E+02      1.34251030E+03     -2.02782401E+03
      7.81247470E+02      2.18751590E+02     -7.45792158E+01
     -1.51455919E+03     -7.26327558E+02     -9.85869601E+02
      2.05293953E+03      4.50337925E+01     -1.08472294E+03
     -5.43351864E+02      6.29706897E+02      3.74038269E+02
      1.91274382E+02     -3.70091133E+02     -8.26626386E+02
     -6.75106871E+02      1.45060605E+03     -1.14212869E+03
     -1.15029982E+03     -6.54687025E+02     -9.14301071E+02
     -1.12005155E+02     -3.09327639E+03      2.65442202E+02
     -2.47239497E+02      5.19333308E+02      3.73682779E+02
     -1.09346953E+02      1.96249521E+03     -3.99336088E+02
     -1.52088566E+03     -2.15803451E+03     -8.97363145E+02
      3.78571488E+02     -8.67853773E+02      1.60760733E+02
     -1.31326193E+02     -5.90443682E+02      2.19964787E+03
     -9.81299603E+02     -1.44845156E+03     -9.80409655E+02
      5.17703892E+02     -6.42374554E+02     -1.10444741E+02
      2.37735611E+03     -1.29882544E+03     -1.68826965E+02
     -2.66289508E+03     -2.96354285E+03      2.36767692E+02
      1.15677899E+02      5.59588280E+02     -1.59963741E+02
      3.97953861E+03     -9.03227032E+02      9.24521242E+02
     -3.91024748E+03     -1.62539606E+03      7.92423168E+02
     -2.55167183E+02     -1.43973757E+02     -4.81119666E+01
      2.60707126E+03      3.19103320E+02     -1.96247512E+03
      1.66000870E+03     -2.76430985E+03      2.81106893E+02
     -6.82301732E+02      1.08939655E+02     -2.97916121E+02
      2.63441494E+03     -2.69199737E+03     -1.71782961E+03
     -2.72871180E+03     -1.90280023E+03     -2.00876030E+03
     -6.17008444E+01      5.85859062E+02     -9.14106427E+01
      6.72528149E+02      2.35715601E+03     -6.94151672E+02
     -1.42295380E+03      5.62543014E+02     -2.01092813E+03
      8.24018003E+02      4.90614547E+01      1.25322589E+03
      1.22888871E+03     -8.99881293E+02      2.41677944E+03
     -6.39423305E+02     -5.96011559E+02      1.19441772E+03
      1.36951138E+02      6.03857370E+02     -2.37644363E+02
     -1.26733162E+03      1.78267234E+03     -3.17282570E+03
      3.88213619E+02     -1.90830377E+03      3.07416513E+02
      2.02993402E+03      1.17807973E+03     -9.42058980E+02
      4.14696878E+02     -2.02814581E+02     -2.84711413E+02
     -1.20771061E+03     -3.01766683E+02      1.28771984E+03
      1.31993343E+03     -2.60381903E+03      7.10714612E+02
      1.10971068E+03     -7.99556573E+02      2.53170494E+02
     -4.62735820E+01      8.16641499E+02      3.75701558E+02
      1.33253371E+03     -3.74494499E+03      6.29427667E+02
      1.00060658E+02      3.10731130E+02     -1.13432538E+01
     -1.18992382E+02     -3.37898252E+02      3.12725276E+02
     -5.35741211E+02     -1.49156700E+03     -4.97242267E+02
     -2.63956562E+03      1.17974957E+03      1.78890984E+03
      2.49684248E+01      1.11247477E+02     -4.72116164E+02
     -2.35781237E+03      8.98384828E+02     -1.22350465E+03
     -2.21752557E+03     -7.74287489E+01      5.11999014E+02
      1.33033399E+01      1.08164520E+03      6.14395415E+02
     -1.30737177E+02      5.23314165E+01     -1.76881595E+03
     -2.38100363E+03      5.20148140E+02     -1.05676851E+03
      7.65218975E+02      3.96002029E+02      2.67163269E+02
     -5.03304849E+02     -2.78704115E+01     -1.73789240E+03
     -1.56037034E+03      1.11024765E+03      9.52316807E+02
     -2.25940505E+02     -1.63491611E+02      5.49216656E+01
     -1.70450730E+03     -4.92345776E+02      4.07945299E+02
     -1.87305872E+03     -1.37891250E+03     -1.11340810E+03
     -9.98017735E+02     -1.24619924E+02     -6.96990158E+02
     -1.76586101E+03      2.94646908E+02     -3.79184991E+03
     -8.04056115E+02      1.72772860E+03     -7.97578713E+02
      3.98333455E+02      1.19881176E+02      2.16663088E+02
     -9.40642275E+02     -1.52228870E+03     -1.37985497E+02
      3.30349674E+03      2.41654155E+03     -9.14584344E+02
      3.32748405E+02      1.90699286E+02     -6.91802235E+02
      1.05997360E+03     -1.13844723E+03      1.59938342E+03
      8.16835024E+02     -1.56110495E+03     -1.50294583E+02
      5.36090113E+01     -5.98265435E+02      1.49584188E+03
     -7.81260362E+02      4.96260246E+02      1.56011727E+02
      1.72307259E+03     -2.80981270E+03     -1.16693833E+03
      1.79803165E+03     -5.51250896E+02      2.19296116E+03
     -1.23599367E+01     -3.34121957E+03      1.02871432E+03
      5.37065842E+02      3.73994286E+02      3.85199167E+02
      2.73260601E+03     -3.18975736E+03      5.66640133E+02
      1.76674043E+02     -3.92451458E+03     -5.94174860E+02
     -7.20262282E+02      1.03332035E+03      2.48359093E+02
      1.08081647E+02     -3.68602965E+03     -2.83207661E+03
      1.53657413E+03     -6.19174758E+02     -4.14923105E+01
     -5.92356561E+02     -2.41430516E+02     -6.43902053E+02
     -9.98139800E+02     -1.80230477E+03     -8.63399784E+02
      6.08039757E+02     -2.75417596E+03     -4.76240976E+03
     -2.81155207E+02     -1.66908620E+02      6.86230085E+01
     -1.16577273E+03     -2.02750254E+03     -9.76700639E+02
      1.70144037E+02     -1.82051788E+03      2.81153364E+02
      1.72016797E+02     -2.07454800E+02      6.49008250E+02
     -1.92135512E+02      3.01179845E+03      5.91033680E+02
     -9.64502295E+01      1.07068575E+03     -1.03272880E+03
     -6.25526784E+02     -4.88505561E+02     -6.85051129E+02
      5.48467699E+02     -1.28853758E+03      5.23299758E+02
     -9.61260818E+02     -3.64035297E+02      6.30833563E+02
     -4.66334688E+02     -3.82062451E+02     -1.95507370E+02
      2.86223563E+03      7.84650742E+02      8.85918851E+02
     -2.28982722E+03      1.90322218E+02      1.44645521E+02
     -1.03299539E+02     -5.41630273E+02     -2.95393811E+02
     -1.71052678E+03     -2.64710227E+03     -2.08606698E+03
     -1.06705911E+03     -5.54722294E+02     -4.72224240E+02
     -1.86525492E+02      6.28000492E+00     -9.17885127E+02
      2.13207865E+03      1.86157115E+01      3.71141987E+03
     -1.12447876E+03     -1.59010958E+03     -7.87938970E+02
     -1.68821916E+03      6.36877861E+02     -1.52003299E+03
     -4.65674315E+02     -8.38408847E+00      2.90440630E+01
     -2.01201452E+03      2.44992011E+03      1.58286624E+03
      1.84079219E+02      1.48137684E+02      5.63793236E+01
     -9.03281695E+01     -2.22835157E+03     -8.84928305E+02
     -4.31512065E+02     -1.96746551E+02      4.36076177E+02
      4.13687728E+02      1.77462448E+03      1.76628726E+03
      3.73661459E+02      1.62146454E+02     -2.77232804E+03
     -1.94220447E+02      1.08733170E+02     -6.81815696E+02
     -9.05615939E+02     -2.81915868E+03      2.31380088E+02
     -2.95946541E+02     -1.49741976E+03     -1.46761501E+03
     -3.52222781E+02      6.16372264E+01      1.01516649E+02
      1.19371717E+03      1.52510726E+02     -4.15622778E+02
      2.60890767E+03     -7.85436760E+02      2.66152944E+02
     -6.50732992E+02     -1.11137410E+02     -3.92427424E+01
      1.51383405E+02     -1.84864840E+03      7.49477586E+02
     -4.18410832E+02      6.06301920E+02      2.37917497E+03
     -5.42230681E+02      1.54205348E+02      3.83202135E+02
     -2.61958503E+03      1.69923467E+02     -1.29350032E+03
     -1.08025823E+02      1.62685576E+03      1.22038949E+03
     -4.35154121E+02      3.87810093E+02     -5.25569688E+02
     -1.11285551E+03      1.46376557E+03     -1.09770164E+03
     -1.20757705E+03      1.01011296E+02     -3.45936283E+03
      6.16149270E+02      9.81773715E+01      3.28910089E+02
      1.60190935E+03     -1.37265952E+03      1.40377028E+03
     -1.28856189E+03     -1.83694371E+03     -8.66085060E+01
     -8.18626744E+02     -9.27870458E+01     -2.28978943E+02
     -9.60269025E+01      1.91047613E+03      9.70652115E+01
     -3.37593706E+02     -2.28150534E+03     -1.13519240E+03
      8.63856473E+02     -3.20990855E+02     -6.11037321E+02
      1.64805260E+03      1.17034100E+03     -1.30457588E+03
      1.18907011E+03      3.96688855E+01     -6.16178971E+02
     -2.03340490E+03     -1.96560265E+03      2.67727452E+03
      8.97379748E+02     -7.64786677E+01     -9.77995581E+00
      1.69716531E+03     -1.31389008E+03      3.23619686E+03
      3.77743410E+02     -2.19959203E+03      2.13253350E+03
     -1.09957614E+03      3.94865687E+02     -4.94184937E+02
  }
}

Hamiltonian = DFTB {
  SCC = Yes
  SCCTolerance = 1e-6
  MaxSCCIterations = 200
  ForceEvaluation = Dynamics
  MaxAngularMomentum = {
    C = "p"
    H = "s"
  }
  Charge = 0.0
  SpinPolarisation = {}
  Eigensolver = Standard {}
  Filling = Fermi {
    Temperature [Kelvin] = 300.0
  }
  SlaterKosterFiles = Type2FileNames {
    Prefix = "../../pbc-0-3/"
    Separator = "-"
    Suffix = ".skf"
    LowerCaseTypeName = No
  }
  KPointsAndWeights = {
    0.0000000000000 0.0000000000000 0.0000000000000 1.00000000000000
  }
  Dispersion = LennardJones { 
    Parameters = UFFParameters {}
  }
}

ParserOptions = {
  ParserVersion = 3
}
