Geometry = GenFormat {
<<< "system.gen"
}

Driver = VelocityVerlet{
  Steps = 50000
  TimeStep [fs] = 0.2
  MDRestartFrequency = 5
  Thermostat = None {
    #InitialTemperature [Kelvin] = 300.0
  }
  Xlbomd{ 
    IntegrationSteps = 6 
    MinSccIterations = 2
    MaxSccIterations = 200
    SccTolerance = 1e-6 
  }
  Velocities [m/s] {
     -2.70752043E+02      1.53476461E+02      2.59464253E+02
     -1.88463923E+03      1.78478676E+03     -2.09547335E+02
     -4.52735157E+01      1.11529998E+03      2.17115946E+03
      1.47088079E+02     -4.46965794E+02     -2.64696919E+02
      3.74626567E+02     -1.64028607E+03      4.14175369E+02
      3.41718726E+03     -8.17627466E+02     -3.73877034E+01
     -7.51791327E+02     -3.72061824E+02      4.88291601E+01
      4.52318266E+03     -2.25449049E+03      1.68007077E+03
     -6.06522478E+02      2.67971498E+02     -5.56838055E+02
     -7.13153680E+02     -1.67121063E+02      5.91706126E+02
      2.40973546E+03      1.00181221E+03     -2.40466323E+03
     -9.80804984E+02      1.95436076E+03      1.67169029E+03
      4.47813250E+01      9.77868375E+01     -2.72594064E+01
     -5.13300529E+02     -8.95500532E+02      1.18269719E+03
     -2.60040610E+03      4.78702444E+02     -2.56013308E+03
     -4.46738507E+02     -4.25307225E+02      8.60172185E+02
      9.18340472E+01      1.91843810E+03      1.21188023E+03
     -2.30607486E+03     -4.24564737E+02      2.04238336E+03
      1.87277347E+04     -1.00963624E+04     -4.51395558E+03
      9.33498538E+02     -1.72612806E+03      1.44485483E+03
      1.41777927E+03     -2.16813798E+02     -1.70430590E+02
     -3.83369461E+02     -2.16886940E+02      6.01537850E+02
      2.18375324E+03      6.98596050E+02      1.36579757E+03
      1.97606437E+03     -9.25145940E+02      6.69189852E+02
      2.65598664E+02      1.33999826E+03     -1.47237073E+02
      6.48453122E+02     -1.05534691E+03      1.12134453E+03
      2.58067647E+03      1.02225202E+03      1.89544266E+03
     -1.33063377E+03      2.07270999E+03      2.42339072E+03
      1.04439213E+03     -2.08902366E+01     -2.52178058E+02
     -2.03420055E+03      1.44088123E+03      4.28285232E+02
     -4.94362230E+02     -8.77338809E+02     -9.29586908E+01
      3.56882574E+03     -1.07805302E+03     -5.28117981E+01
     -7.96154976E+02      4.18810092E+02      2.73401531E+02
     -6.10818512E+01      1.16598764E+03      1.25351236E+02
      4.70875932E+02     -1.85011836E+03      8.47476574E+02
     -1.36857588E+03      9.15401017E+02     -2.24911943E+02
      6.60718182E+02      7.78306761E+02      1.67733639E+03
     -1.84783201E+03      9.85113138E+02     -1.76908064E+03
      6.97638926E+01      6.07980352E+02     -2.09796104E+02
      1.28018913E+03     -9.37371174E+02     -2.76695969E+03
     -1.72354966E+03      6.53164062E+02     -1.18307422E+03
      2.87682686E+02     -5.45539599E+02     -1.13019968E+03
     -1.65328907E+01     -2.90784556E+02      1.12078786E+03
     -1.26747350E+03      1.83619962E+03     -1.20495717E+03
     -2.19221353E+02     -3.09446431E+02      2.45307921E+02
     -6.51162029E+02     -1.66799658E+03      3.30451053E+02
      5.93133002E+02     -1.02272141E+03     -3.02859207E+03
     -8.29766791E+01     -2.65339959E+02      2.68674177E+02
     -2.92558582E+02      1.93577221E+03     -1.23911255E+03
     -4.31198764E+02      1.61938779E+03     -1.34418631E+03
      1.82058631E+02     -1.05094715E+02      5.50006058E+00
     -1.84511187E+03      4.98919472E+02      3.37784254E+02
     -1.97329240E+03      4.35989113E+03      2.71072264E+03
     -6.57726898E+02      4.71565033E+02     -8.63798719E+02
      2.49639606E+03      1.12305437E+03     -4.31296004E+02
     -1.26794922E+02      2.30990214E+03     -1.16126176E+02
     -4.64830919E+01      3.69903668E+02      7.40708211E+02
     -1.56059084E+02      1.61739769E+03      7.88791318E+02
      3.99375031E+02     -1.39469640E+03      6.65665155E+02
     -1.93517637E+03      1.14816180E+03      3.72295461E+03
      7.53939411E+01      9.02804445E+02     -1.75148898E+02
      1.53230312E+03      3.42149465E+02      2.09616030E+03
     -6.41345840E+02      1.81817735E+03      1.18993119E+03
     -1.62465189E+03      3.01836489E+02     -2.51979237E+03
     -6.96785121E+02     -2.29764431E+02     -6.37265969E+02
      7.39704627E+02      1.21966055E+02      3.60780734E+03
      1.35742830E+02     -5.74029737E+01      2.62583949E+03
     -2.24820872E+00      5.55724776E+02      2.80510467E+02
      2.32316851E+03     -4.33945345E+02     -1.42159679E+03
      2.34023562E+02      1.70910184E+03      1.52390877E+03
      2.25524428E+02     -5.19195143E+02      1.39762273E+02
     -1.34200982E+03     -1.25202373E+03     -1.30460606E+03
     -1.26738487E+03     -1.53196661E+03      1.15844776E+02
     -6.16499496E+02      5.58058108E+02     -1.84210762E+02
      9.20795481E+01      6.61896457E+02      8.29600955E+02
     -2.30293866E+01     -1.67754622E+02      1.40404353E+03
      2.77861181E+02     -8.66610454E+01      5.91369571E+02
      1.71372984E+03      4.10061945E+02     -2.22484262E+03
     -1.44645336E+03      3.22503617E+02     -3.13602061E+02
      2.07167433E+02      2.87021367E+02     -7.35553191E+01
     -1.84410421E+03     -1.35084332E+03      6.00286862E+02
      1.98301138E+02      8.93088311E+02      4.63725957E+02
     -2.98676516E+02      5.31500013E+02      8.37974348E+02
      2.12180468E+03     -8.25518367E+02      7.32273908E+02
     -7.88590754E+02      1.16731690E+03     -2.45311049E+03
     -9.74017796E+02     -3.19950510E+02      1.08535928E+02
      1.44099650E+03      1.58287422E+03     -2.48745193E+03
     -4.08673045E+02      3.13208123E+03      1.88534363E+02
      1.40396361E+02      2.52094054E+01     -1.19336128E+02
      5.10401994E+02     -9.20431757E+02      5.48747436E+02
      7.85117753E+01      2.69037938E+02     -2.56415189E+03
     -8.50030888E+02      1.32604446E+03     -1.11468809E+02
     -1.74503540E+02      1.74907844E+02     -1.44923624E+02
     -2.45065907E+03     -6.62813146E+02      8.49553378E+02
      9.30180477E+02     -1.89111283E+03      2.35862629E+02
     -2.43922282E+03     -1.16408232E+02     -7.90222345E+02
     -3.76360768E+02      1.30157767E+00      5.70444570E+01
      3.89251312E+02     -2.25091426E+03     -1.07538675E+03
      2.39449451E+03     -1.25501375E+03      6.37727885E+02
     -1.01528757E+02      4.92088422E+02      3.12362050E+02
     -1.77067042E+03      1.67724029E+02      6.80932867E+02
      6.67873220E+02     -3.32379475E+01     -1.51712236E+03
      9.74021652E+01     -2.70174817E+02     -8.31078527E+02
      2.78933848E+03     -4.05149071E+02      5.63461301E+02
      3.39337353E+02     -2.02724975E+03     -1.36583877E+03
     -2.40811328E+02      3.19058368E+02      1.40196493E+02
     -3.35851026E+03     -2.38120775E+03     -4.73761904E+02
      6.39478772E+02     -6.93292278E+02      1.87142041E+03
     -5.13716555E+02      3.56672483E+02      3.39442972E+02
      5.38937424E+02      1.73678233E+03     -9.44192357E+02
     -2.78013548E+02      1.10494134E+03      7.27119157E+02
     -7.71025471E+02     -8.24415263E+02      1.86893017E+02
     -8.01350430E+02      1.36912549E+03      1.36764631E+02
      1.33925308E+03     -1.42579716E+01     -1.15892674E+03
      3.36689866E+02     -3.23603259E+01      5.42568816E+01
     -1.51459914E+03      1.65153966E+03      5.42016910E+02
     -5.30018354E+02      4.23539151E+02      2.84966835E+02
      5.27331462E+02     -7.03272790E+01     -2.07284857E+02
      2.24960782E+03      1.05334160E+03      2.27486725E+02
      1.83097188E+03     -4.62020754E+03      3.97044726E+03
      1.03850811E+02      1.16672588E+00     -6.66336289E+02
      2.10951554E+02      2.53945958E+03     -7.49511073E+02
      1.44498662E+03      6.58573485E+02      8.99433760E+02
     -2.72621108E+03     -9.51240172E+02      9.63328871E+02
     -4.16413348E+02      3.37582180E+02     -1.58307467E+02
     -7.52190577E+02      7.86051241E+02      2.03298062E+03
      1.05765855E+03     -1.41798858E+03     -3.69254588E+01
     -7.41603234E+02      1.06107134E+03      1.71399720E+01
     -2.59986488E+02      4.16431341E+02     -6.36100889E+02
     -3.88076035E+02     -1.32467413E+03      5.13806318E+02
     -6.72885963E+02      5.95001909E+02      1.04730470E+03
     -2.79584151E+02      1.62252372E+02      1.28242438E+02
     -8.98191323E+02      4.10625696E+02     -2.27517879E+02
     -1.54351774E+03      9.99503335E+02     -2.18637955E+02
     -6.00977567E+02     -1.61493406E+02     -1.02211064E+02
      1.72236711E+03      1.26850932E+03     -4.17655711E+02
      3.61906273E+03     -1.34352815E+03      1.82865895E+03
      2.06685245E+02      4.67425403E+02      5.77304325E+02
     -2.52535280E+03     -1.06373495E+03      2.03935331E+03
     -9.85803222E-01      6.67896226E+02     -1.53723816E+03
     -3.52183603E+02     -1.67408540E+02      5.60758912E+02
     -1.19069291E+03      3.81817904E+02     -9.46631960E+02
      1.87707640E+03     -2.12292845E+02      4.10220775E+03
     -2.09582818E+02     -1.08775637E+03      6.71010139E+01
     -1.63832152E+03      1.72935400E+03     -8.76652781E+02
      1.93489215E+03      2.52127734E+03      1.49864395E+02
     -8.05059083E+02      3.86402715E+02      4.26865984E+02
     -2.03686949E+03     -1.80367614E+03     -3.00179921E+02
     -1.41690679E+03     -6.26834642E+02      3.93297405E+02
     -1.62396799E+02     -4.84491159E+01     -3.45939146E+02
     -2.23075479E+03     -1.45925676E+03     -8.81219989E+02
      1.26860500E+03      5.70729577E+02     -2.01663605E+03
      5.65289387E+01      5.51636753E+02      2.00291186E+01
     -1.94134391E+03     -3.96362956E+02     -1.10773642E+03
      2.19053594E+02      7.68576045E+02     -1.26547375E+03
      1.11878922E+03      1.22051240E+03      5.61279068E+02
      3.50879524E+02     -5.15661003E+02     -6.62185217E+02
     -2.67427606E+02      1.33722168E+03     -1.42278187E+03
     -3.71621725E+03      1.08952046E+03     -5.49153759E+02
     -2.84387407E+03     -4.71700904E+02     -1.89785859E+03
     -5.75179317E+02      5.26968969E+02     -1.03647862E+02
      5.23285539E+02      4.27094803E+01     -1.36697987E+02
     -2.15371632E+03     -6.04257414E+01      1.20967802E+03
      9.23295104E+01     -4.82126336E+02     -1.15149552E+02
      3.09536698E+02     -4.01731584E+02      1.34002509E+03
      1.89498089E+01     -1.32121057E+03      1.14836982E+03
     -8.79995911E+02     -7.35064676E+02      3.57472798E+01
     -1.07315211E+03     -2.16975351E+03      5.69147768E+02
     -1.57586752E+03     -4.34797612E+02     -1.02390353E+03
     -1.96139027E+02      6.68112858E+02      4.95583827E+02
      1.48223655E+02      1.90845329E+02     -8.17264052E+02
      6.70037843E+02      8.17247109E+02      2.22181923E+03
     -4.96275991E+02     -9.60703268E+01     -2.10767785E+01
     -4.55006017E+02      9.19148492E+02      7.12251476E+02
      2.79140712E+03      3.05644457E+03      1.03799900E+03
      7.02541169E+02     -5.95367401E+01      4.36746120E+02
      2.27970777E+03      6.64834364E+02      3.57790751E+02
     -2.07225203E+03     -2.69929787E+02      1.78195964E+03
     -4.07607678E+02      8.17600414E+02     -1.04224315E+02
     -1.93122119E+03      5.76131170E+02      1.11408789E+02
     -7.80551950E+02      8.06802824E+02     -9.24821273E+02
     -3.69059861E+02      7.02174309E+02      8.38338061E+01
      1.28922652E+03      1.02892711E+03      1.91725813E+03
      3.99462444E+02     -1.67002935E+03      5.62814975E+02
      2.56496402E+02      5.69151199E+02      4.09758201E+02
      8.12843286E+02      2.62625501E+03      1.01646015E+03
     -1.61743963E+03      1.09568690E+03     -1.14928953E+03
     -2.67059558E+03      3.02274540E+03     -2.16263665E+03
     -6.05204779E+02     -2.85158039E+02      4.60020771E+02
      1.58716125E+03      5.39660202E+02     -6.85936323E+01
     -8.25304903E+01      7.61518411E+02     -4.64024420E+02
     -1.42768011E+03     -7.26991185E+02     -2.02704772E+03
      1.54358078E+02     -4.59694836E+01      5.31535869E+02
     -4.02030524E+03      2.59787330E+03      1.31193189E+02
     -1.53948643E+03      2.30586129E+03      7.51536098E+02
     -7.98245566E+02      2.07247216E+00      3.48821912E+01
     -1.20296545E+03      9.46135335E+02     -6.08997914E+02
     -3.12309032E+02     -1.51974200E+03      1.04492172E+03
      5.85561200E+02      4.11954010E+02      6.05569607E+02
      1.31763056E+03     -1.96263257E+02     -1.36177695E+03
     -9.69558688E+01     -2.91104705E+03     -4.29392819E+02
      4.50162635E+02      8.62897447E+01      3.71034698E+02
      6.86097167E+02      2.98080889E+02      5.69822973E+02
      3.99394884E+02      2.07931296E+03     -2.39609005E+03
     -7.98175046E+02     -5.07671792E+02      9.21669474E+01
     -3.98630478E+03     -6.48670298E+02      2.26717673E+03
      6.95940987E+02      1.11436288E+03     -5.13789929E+02
     -7.53725612E+02      5.17019091E+02     -6.25151554E+02
     -1.67784581E+03     -7.94747013E+02      7.56980672E+02
     -1.34296484E+03      2.96916539E+03     -8.70400409E+02
     -3.26263454E+02      5.93909725E+02     -4.06486304E+02
     -2.21705078E+03     -4.38334057E+02     -4.41064044E+03
      2.91021945E+02     -3.77543819E+03     -5.28231454E+02
     -1.16051423E+02      3.00056428E+02     -6.31565176E+02
     -2.55318014E+03     -3.21472851E+03      1.64717951E+03
      5.41360890E+02     -2.94453436E+03      2.49897302E+01
     -3.23344939E+02     -4.08817326E+02     -2.32939095E+02
      2.25034543E+03     -1.85664030E+03      1.18234763E+03
     -3.42781763E+03      3.40792103E+01     -5.27235531E+02
     -3.70121251E+02     -5.32605267E+02      1.64315269E+03
      3.46961815E+02      3.85898026E+02     -2.22234527E+02
     -1.01059520E+03      3.55324677E+03      1.74235084E+03
     -8.08457770E+02      8.80398674E+02      5.15697542E+01
      1.76809788E+03      1.12833344E+02      2.29733261E+03
      5.26057577E+02      1.45662189E+02     -2.59273934E+02
     -5.81679571E+02     -4.99266417E+02      3.97970798E+02
     -5.95865297E+01      2.35761258E+03      1.65758770E+01
      2.87768324E+02     -3.83800950E+02     -8.50602938E+01
      1.41278944E+03     -1.18321879E+02      1.32630129E+03
     -4.47430168E+02      1.99970196E+03     -1.02204358E+02
     -5.03930804E+00     -2.04595329E+02     -1.60872327E+02
     -3.55447317E+02     -2.42575324E+03     -3.37980187E+02
      1.13575748E+03     -1.44429334E+03      1.80841891E+03
     -2.87014121E+02      1.57183328E+01      4.14750343E+02
     -4.35788571E+02      1.10509224E+03      1.71246807E+02
      3.27459687E+02      3.11350101E+02     -2.13237292E+03
      1.25291573E+03     -2.35781045E+02     -2.61979599E+01
     -9.10678715E+02      5.44285383E+02      2.73047872E+03
      2.93533471E+03      2.48515754E+03      2.56644004E+03
      6.21000621E+02     -2.36563114E+02     -1.09761705E+02
     -5.61389180E+02      8.22735505E+02      2.59717621E+03
     -5.68615623E+02      6.40237891E+02      1.04551934E+03
      1.84394951E+02     -4.20039016E+01     -3.68759831E+02
      1.91393595E+03      4.19928802E+02      6.72418670E+02
     -2.07772523E+03     -1.64793821E+02      4.34316708E+03
      7.96075678E+00     -2.10746244E+02      6.45165707E+02
     -6.73481310E+02     -2.55536990E+02     -1.26682023E+03
      1.43806879E+03     -7.61828665E+02      1.79745977E+03
      6.12812067E+02      1.42208565E+02      1.64750132E+02
     -1.10897181E+03     -1.62528596E+03      1.11236643E+03
      2.24343732E+03     -1.28117436E+03      1.74453516E+03
     -1.55532343E+02     -2.63767735E+03     -8.21708894E+02
     -8.54813451E+00      2.79840039E+02     -3.35293677E+02
     -2.75651636E+03      1.32173124E+03      9.04738176E+02
      1.04178868E+03      2.76717206E+03     -4.55000650E+02
     -2.35050306E+03      3.75517101E+02     -2.29081759E+03
     -2.49542945E+02      1.58879077E+02      4.04843417E+02
     -1.86490551E+02     -4.56753388E+02     -6.58548935E+02
     -8.24691746E+02      1.94054278E+02      1.82244654E+03
     -9.97389847E+00      1.78521797E+02     -1.00946665E+02
      3.02456650E+03     -3.10870761E+02      1.64163074E+03
      1.98471494E+02      1.47230964E+03     -8.70225054E+02
     -6.66560938E+02     -1.55471214E+00      3.88873147E+02
      2.58412557E+03     -8.59091100E+02      1.87913535E+02
     -2.91677109E+03      3.89199590E+03      1.84435834E+03
      2.42891537E+02      7.21996809E+02     -3.80132278E+02
     -2.14548871E+03      2.49510930E+03      2.19402134E+02
      6.82475973E+01     -3.42099211E+02      3.97764980E+02
      3.69600547E+02      7.91150416E+02      1.21767978E+02
     -1.93833140E+03     -2.13199930E+03      8.37982461E+02
     -2.71966249E+03      4.37542573E+02      6.45639036E+02
      5.08935291E+02     -2.67327477E+02     -8.89485328E+02
      6.31721742E+02     -1.02182975E+03     -6.23844339E+02
     -1.15747111E+03      3.35020083E+03      4.57527431E+02
      3.23650378E+02     -1.35851578E+02      3.22509070E+02
     -5.90595046E+02      1.87677360E+03     -1.53524475E+03
     -1.53453640E+03      1.40473274E+03     -6.72573270E+02
     -6.52869346E+02      4.99769969E+02     -8.80234586E+02
     -8.12474585E+02     -2.28913584E+03     -1.11836384E+02
      5.94062693E+02     -7.28436518E+02     -2.10088755E+03
     -3.08722138E+02     -5.47262427E+02     -1.19129656E+02
     -9.00568126E+02     -2.10304808E+03     -9.66554737E+02
     -1.68625258E+03      5.19011758E+01      1.41192627E+03
      1.47872451E+03      9.76735774E+02     -1.67574966E+03
     -2.40341060E+02      6.66595754E+01      9.97546289E+01
     -9.33201902E+01      1.57210280E+01      1.47811307E+01
      1.82783050E+03     -7.57993815E+02     -6.83952488E+02
      2.43614039E+03     -7.70520154E+01     -1.33654065E+03
     -4.32589642E+02      1.29527544E+01     -2.44869472E+02
     -8.35332911E+02      5.46531137E+02      5.11057557E+02
     -2.17623770E+03     -5.01285679E+02      1.17536578E+03
     -6.68091048E+02      3.35933043E+02     -1.69529351E+02
      1.33525588E+03     -4.43876468E+02     -1.36573964E+03
      1.19829001E+03      6.77823170E+02      6.30511717E+02
     -5.79408898E+02     -4.00403697E+02      2.13238667E+02
      5.79123874E+02     -1.58954842E+01     -1.41414275E+03
     -2.11258537E+03      2.15004803E+03     -6.56960793E+02
     -2.17399702E+02     -6.63579463E+02      4.96417792E+01
      1.08888452E+03     -2.22026797E+03      1.41654881E+02
      6.69237700E+02      4.86343166E+02      2.04354643E+03
     -4.39048737E+02      6.95043574E+02     -1.01314934E+02
     -1.75489755E+03      1.78543433E+03     -8.90403893E+02
      1.16353361E+03     -3.74836241E+02      2.77511185E+03
     -4.07195817E+02     -6.44480766E+02     -6.50002701E+02
     -1.49125267E+02      2.40935446E+03      1.93065236E+01
      1.46351791E+03     -1.05151903E+03      1.73867456E+03
     -3.28772996E+02     -8.22555503E+02      2.26866420E+02
     -1.26889944E+03      2.10248354E+02      3.25982260E+02
     -7.07802329E+02     -4.33945711E+01     -6.41849695E+02
      7.52210005E+01      2.03797192E+02     -1.29576175E+02
     -3.31780481E+03      2.02531786E+03     -7.10990326E+02
     -1.57352970E+03     -9.68890086E+02     -3.57178852E+02
     -1.49638647E+02      1.67262845E+02     -1.06567913E+02
     -7.49350806E+01     -1.28339123E+02     -2.07319774E+03
     -2.55739613E+03      1.23610129E+03     -1.01119855E+03
      2.19968024E+02      1.02901931E+03      2.60536543E+03
      4.59144640E+02      9.17910379E+01      2.95655400E+02
     -1.71922928E+02      2.27613517E+03     -6.21039853E+02
     -3.25897586E+03     -1.77462875E+03     -7.84703074E+02
     -1.35806271E+03     -3.85264115E+03      1.53816809E+02
     -1.06652821E+03     -2.27234213E+02      3.82806588E+02
      6.77555036E+02      2.44290937E+03      2.60799097E+03
     -1.83861325E+03      1.89829008E+02     -5.54144464E+02
      3.97111310E+02     -7.81243171E+01     -2.09165883E+02
      8.59744284E+02     -2.78240498E+02     -2.53060265E+02
      1.23338578E+02      3.56736612E+01      8.67354026E+02
     -6.03153381E+01      5.91330198E+01     -4.20482786E+02
     -1.49150167E+03     -1.00704727E+03     -2.74063296E+03
     -8.36368706E+02     -1.84011836E+03     -3.34300742E+03
      4.54708549E+02      3.78445287E+02     -1.34386145E+02
     -1.12323000E+03     -5.95659252E+02     -1.32401032E+02
     -1.17744953E+03     -2.43042335E+03     -1.90113250E+03
     -5.61788951E+02     -1.00562910E+03      4.08453696E+02
      8.35433919E+01     -1.67557894E+03     -1.74978239E+02
      3.73765238E+02     -4.84921408E+02      2.09571431E+01
      5.59660950E+02      2.61222857E+02      2.58307246E+02
     -2.52884855E+02     -1.59228042E+03     -6.61083314E+02
      1.73310091E+03      2.21588447E+02     -3.55629459E+02
     -3.78188898E+02      8.43437812E+02      9.63841924E+01
      1.01361607E+03      5.76628399E+02      2.00760285E+03
     -2.37019554E+03     -3.22583886E+03      1.67891164E+03
     -2.40336685E+02      3.42557530E+01      1.69364999E+02
     -5.74218733E+02     -8.67027221E+02      7.87960851E+02
     -5.81721167E+02      2.80547567E+03      8.85289882E+02
     -3.26633357E+02      5.40227061E+02      7.77071644E+02
      9.69651065E+02      1.43225085E+03     -7.85902809E+02
      1.22992320E+03      1.97264336E+03     -2.18240637E+03
     -1.17562561E+03     -5.38118586E+02     -1.69880415E+02
      5.74740522E+00      1.67670040E+01      8.36301171E+01
      5.79674200E+02     -1.67756120E+03      1.16036743E+02
     -3.37966867E+02      3.75169090E+02      1.81545022E+03
     -7.38623928E+02      2.65038823E+02     -6.40967791E+02
  }
}

Hamiltonian = DFTB {
  SCC = Yes
  SCCTolerance = 1e-6
  MaxSCCIterations = 200
  ForceEvaluation = Dynamics
  MaxAngularMomentum = {
    C = "p"
    H = "s"
  }
  Charge = 0.0
  SpinPolarisation = {}
  Eigensolver = Standard {}
  Filling = Fermi {
    Temperature [Kelvin] = 300.0
  }
  SlaterKosterFiles = Type2FileNames {
    Prefix = "../../pbc-0-3/"
    Separator = "-"
    Suffix = ".skf"
    LowerCaseTypeName = No
  }
  KPointsAndWeights = {
    0.0000000000000 0.0000000000000 0.0000000000000 1.00000000000000
  }
  Dispersion = LennardJones { 
    Parameters = UFFParameters {}
  }
}

ParserOptions = {
  ParserVersion = 3
}
