Geometry = GenFormat {
<<< "system.gen"
}

Driver = VelocityVerlet{
  Steps = 50000
  TimeStep [fs] = 0.2
  MDRestartFrequency = 25
  Thermostat = None {
    #InitialTemperature [Kelvin] = 300.0
  }
  Xlbomd{ 
    IntegrationSteps = 6 
    MinSccIterations = 2
    MaxSccIterations = 200
    SccTolerance = 1e-6 
  }
  Velocities [m/s] {
      9.03437894E+02     -3.73304953E+02     -1.92426653E+02
     -1.23562369E+03     -4.98604255E+02     -2.21201177E+02
      5.78126814E+02     -5.55227631E+03     -5.79500339E+02
      9.10730189E+02      4.39261024E+02      5.00613336E+02
      7.47365760E+02     -1.02784084E+03     -6.19840218E+02
      5.41163341E+02     -3.58483779E+03      1.51197129E+03
     -3.36592484E+02     -4.43976046E+02     -6.88970508E+02
     -1.40334807E+03      2.28530237E+03     -2.49297087E+03
     -4.31340789E+02      3.89753651E+01     -1.18275013E+03
     -1.88422045E+02     -1.46633112E+02     -1.00990813E+01
     -2.05425421E+03      2.23111288E+03     -3.68081449E+02
      2.24344086E+03      1.44118064E+03      4.67616232E+02
      5.50444243E+02      1.28859748E+02     -1.43684034E+02
     -3.58467878E+02      2.44648976E+02     -6.12595884E+02
      3.18432493E+03     -9.30904104E+02     -1.49906685E+02
      1.17410386E+02     -7.20780300E+02      8.06257375E+02
     -1.85886023E+03      1.19484292E+03     -7.63286910E+02
      1.62944260E+03      2.53838531E+03      1.77324315E+03
     -4.74385813E+02     -1.83818198E+02     -1.86930076E+02
     -1.76582065E+03      1.84359415E+03     -1.37412574E+03
     -1.59332300E+03      1.23828495E+03      9.96766081E+01
     -3.12507306E+00      3.42247397E+02     -4.33331959E+02
     -3.96296013E+02      2.64203319E+03      3.28343057E+03
      4.89231875E+02      8.72098293E+02     -2.80055326E+02
     -7.53259534E+03     -1.94522703E+04      6.18624178E+03
      3.94550393E+02     -4.25536359E+02     -5.53672254E+02
      2.64126529E+03     -5.60980054E+02     -3.01410355E+02
      1.16015179E+03     -8.55938407E+02      4.75395000E+02
      3.00505401E+02      2.66134153E+02      9.68022843E+01
     -1.26325116E+02      3.90167908E+03     -1.08481251E+03
      1.54367101E+03     -2.93414246E+03      1.53449826E+03
     -5.74114367E+02     -1.66084965E+01     -1.34109423E+03
      3.89502040E+02      7.72556536E+02     -4.42588803E+02
      8.42963756E+02     -1.09616227E+02      2.10707304E+02
      1.53190210E+02      2.68600054E+03     -1.41188770E+03
      2.34829451E+02      1.15833218E+02      2.82658336E+02
      3.43353020E+02      4.72951631E+02      6.58011630E+02
     -4.52804224E+02      1.35425240E+03      3.25398757E+03
      3.32244415E+02     -1.44358805E+02      1.37351226E+02
     -1.11724012E+03     -9.40748614E-01      1.80695892E+02
     -7.65049705E+02      2.95130390E+02     -1.55208038E+02
      7.43732978E+01      2.78819685E+02      2.68731326E+02
     -1.50534722E+03     -5.46144609E+02     -1.30129175E+03
     -1.50196878E+03      9.22841330E+02      6.65409230E+02
      7.85143258E+01      3.23875652E+02      3.07689806E+02
     -1.62636311E+03     -5.95684198E+02      7.11779077E+02
      2.17406942E+03     -1.50817667E+03      1.72665725E+01
      2.13641517E+02      4.00930630E+02     -5.72364444E+02
     -8.15367619E+01     -9.37305656E+02      1.63797309E+03
      7.15992101E+02      1.22740114E+03      2.74681667E+02
     -4.93184036E+02      1.08080776E+03      2.87967051E+02
     -7.52782762E+02     -4.79048443E+02     -1.12145535E+03
      5.55985216E+02      2.35216015E+03      1.72969441E+03
      2.39489353E+02      1.28502141E+02      4.75009992E+02
      1.90841198E+03     -2.31880659E+03      3.62749232E+01
      1.38677469E+03     -3.07848330E+02      2.06280786E+03
     -3.91008385E+01      7.18979317E+02     -2.65222203E+02
      7.26086267E+02     -1.39598800E+03      1.49903375E+03
      1.29154250E+03     -2.43446561E+03     -1.30040905E+03
     -4.17362035E+03     -1.49119656E+03     -6.69725505E+02
     -1.38107563E+02      7.71271005E+01     -3.11941031E+02
      1.65395522E+03     -1.06035243E+03      6.75891784E+01
     -1.69047436E+03     -1.11502394E+03      5.18469962E+02
      1.31926957E+03     -2.37919903E+02     -1.04538519E+01
     -8.79101445E+01      6.21884391E+02     -1.31248234E+02
     -1.23928476E+03      1.55646162E+01     -1.52606890E+03
      3.71488339E+02     -6.95683368E+02      6.47877970E+02
     -6.83891435E+02      3.76649412E+02     -4.43566449E+02
      9.72124881E+02      1.79232669E+03      1.11588578E+03
      1.11764298E+03      5.00357957E+03      1.55947802E+03
      5.40590538E+02     -3.63594193E+01     -1.81694308E+02
      1.63811018E+03     -2.97125234E+02     -4.88510147E+02
     -2.82192373E+03     -2.34094509E+03      5.37580734E+02
     -1.12840120E+02      5.00542819E+02     -1.16979003E+02
     -4.43458041E+02      2.53487204E+02      2.54847271E+02
      8.39766085E+02     -1.07947373E+02      1.06351170E+03
      1.34996550E+02      3.78770700E+02      2.49317210E+02
     -1.40861006E+03     -3.22448899E+02      6.15938519E+02
     -1.19278255E+03     -1.47930354E+03     -1.47395224E+03
      5.72716111E+02      2.08946911E+02     -1.10277488E+02
      3.00747709E+02      2.33062726E+03      4.36098848E+02
      1.12528159E+03      7.04787027E+02     -1.56832216E+03
     -8.20835881E+02      1.62819167E+02     -2.85292395E+02
     -2.19029555E+03     -2.12582568E+03     -7.73581194E+01
     -1.15973461E+03      6.57936407E+02     -2.86542501E+03
      3.37417721E+01      9.71647576E+01      8.21069961E+00
      5.70899474E+02      6.78812583E+02      3.38435336E+03
      1.39019552E+03     -6.84604196E+01     -1.94411736E+02
      2.70012245E+02      4.24560832E+02      6.85144685E+02
     -9.60439848E+02     -3.86023364E+02      4.85654228E+02
      1.67919767E+03     -2.84731868E+03      2.50658400E+02
     -8.18104497E+02     -7.30177263E+02     -2.55902771E+03
     -5.42782240E+02     -5.32168188E+02     -8.02162816E+02
      2.14033451E+02     -1.78443177E+03      1.01535079E+03
     -6.53339728E+02     -5.20291034E+02     -1.61117624E+03
     -5.25070332E+02     -2.31437817E+03      3.83218640E+03
      4.84758008E+02      7.11652333E+02     -9.24427232E+01
      3.66069197E+02      1.08593160E+03     -9.39165927E+02
      1.25714048E+03     -8.59192676E+02      3.22962854E+02
      4.10739579E+02      2.88204727E+02     -6.09165604E+02
     -9.91734753E+02      1.31715745E+02      1.52566918E+02
      2.97451567E+01      4.03996702E+03      1.35617495E+03
      1.38567231E+02      3.12628703E+01     -1.46630521E+02
      8.88474082E+02      1.88801729E+02      9.03432493E+02
      1.51262423E+03     -1.30393528E+03     -2.84784488E+03
     -3.62732902E+01      2.31192539E+02     -3.92458986E+02
     -1.42627951E+03      3.06840717E+03     -7.25958664E+02
     -5.48604915E+02      6.92088968E+02     -2.78970889E+03
      7.83559081E+02      5.44887160E+02     -7.64636536E+02
      8.40086196E+02     -2.05897503E+03      3.77178457E+02
     -3.37367665E+03      1.96123336E+03     -3.04808883E+03
     -3.12895494E+02      3.54671556E+02     -2.52415040E+02
      1.69631024E+03      2.41163726E+03     -3.08413621E+03
      3.17609631E+03      6.11508397E+02     -3.68390379E+03
     -2.38264293E+02     -5.59999166E+02     -1.64946084E+03
     -1.64135713E+03      1.06966606E+03     -4.18131063E+03
      1.54768403E+02      1.71227093E+02     -4.25229625E+02
     -1.06929426E+02      5.71212435E+02     -9.45630868E+02
      1.06704530E+03      3.29420871E+02     -7.95363814E+02
     -8.16742974E+02     -3.50317751E+02     -4.84240634E+02
      1.00573479E+02      5.09512894E+02     -5.80713234E+02
     -1.12291830E+02      2.44195942E+03     -3.12176053E+03
     -1.34889025E+03      7.92956176E+02     -2.11846550E+03
      1.73007233E+03     -5.53673779E+02     -1.90895717E+02
      6.57028820E+02     -1.36807941E+02     -2.04239253E+02
      8.16786767E+02     -5.42146236E+02     -1.55836471E+03
     -1.11587041E+03      1.45588905E+03     -1.89102930E+03
     -2.57471800E+03     -1.09026462E+03      6.36432438E+02
     -7.18968087E+02      3.89752519E+02      7.00284813E+01
     -6.11871026E+02      2.17198664E+03     -6.00718853E+02
     -8.41323334E+02      1.90391676E+03      2.82315209E+03
      7.76538175E+02     -6.02871362E+02      1.18381461E+02
     -1.11154658E+03     -9.96847138E+02     -7.78236897E+02
      3.20431743E+02      9.63182742E+02     -1.11087639E+03
      4.10181965E+01     -1.69041672E+02     -1.78047339E+02
      3.01640690E+03      1.18035744E+03      2.23981776E+03
     -1.53350497E+03     -8.43616765E+02      4.55232797E+01
      5.42158768E+02      2.70876339E+02      2.02423926E+02
      2.76212221E+03     -2.73639056E+03      1.84995282E+03
      3.30306537E+02      6.25948543E+02     -3.65770046E+02
     -1.93558750E+02     -8.56491551E+01      5.33916525E+01
     -1.63000967E+02      4.09831784E+02     -1.70517326E+03
      4.07977059E+02     -1.78730480E+02      3.57446866E+02
     -2.78923244E+02      3.13974813E+02     -2.70015831E+02
     -3.99849584E+02     -1.01539347E+03      1.55719919E+03
      3.13930372E+03     -4.52758498E+02      8.75910892E+01
      6.80154092E+01      7.03592834E+02     -2.37115305E+02
     -1.32300526E+03     -1.76804342E+03      2.02425470E+03
      1.96792401E+03      4.66373343E+02     -1.29128768E+02
      9.69235806E+02      1.08317039E+02     -6.17506850E+02
     -1.20820173E+03     -2.59138489E+02     -2.44591887E+03
      5.15218653E+02      4.07977856E+02      1.10866074E+03
     -4.50302031E+02     -3.43886373E+02     -7.93883455E+01
      1.18263824E+03      9.14218652E+02      3.88501373E+00
      7.83743569E+01      5.51141070E+02     -1.13471589E+03
     -1.33015324E+03     -6.91933507E+02      1.31688539E+03
      5.18440975E+02      3.10725806E+02     -1.92743729E+02
     -2.99778769E+03     -3.48156203E+02     -7.24710433E+02
     -5.35074703E+02     -3.23899054E+02     -1.54069012E+03
     -2.44526851E+03     -1.23692513E+02     -1.09719579E+03
     -2.51953649E+02      2.15223281E+02      7.46119461E+02
      9.53316930E+02     -4.54369922E+02      2.06001452E+03
     -1.91968762E+03     -3.46900471E+03      1.62347809E+03
      1.96220277E+02     -4.39745147E+02     -5.36525913E+02
      8.74948270E+02     -8.13027252E+02     -2.56849763E+03
      1.04132687E+03     -2.64520359E+03     -6.47361943E+02
      1.80240491E+02      5.30479227E+02      2.92673671E+02
     -4.06865414E+01     -2.24426785E+03     -1.03645890E+03
     -1.09509522E+03      7.84140222E+02      3.59794523E+02
     -5.77274942E+01     -5.64345327E+01     -3.26317058E+02
      1.94801120E+02      6.34076890E+02      9.90020574E+02
      1.49932953E+03      2.11988076E+03     -2.64426629E+03
     -4.11508973E+01      6.13715499E+01     -3.15640640E+02
     -3.36811749E+03      1.87925321E+03      1.22442868E+03
     -2.47909425E+03      2.33897601E+03      2.07467160E+03
      3.79959830E+02      7.98288125E+02      1.31644941E+02
      9.94899870E+02      1.63155723E+03      7.50009206E+02
     -1.38519091E+03     -2.74221526E+02      4.93422056E+01
     -4.39652749E+02     -6.64811118E+02      1.19684736E+02
      5.26219636E+02     -1.93619326E+03      3.25269684E+03
     -7.07242109E+02      7.89481532E+02      5.91757585E+02
      1.11019105E+02      6.31940926E+02      5.05885018E+01
      2.71047289E+03      5.85758665E+02      1.08623181E+03
      2.05974093E+03      1.67569126E+03      1.55339005E+03
     -2.34549644E+02      1.03474938E+02      2.80799194E+02
      1.48617303E+03      3.38697527E+03     -1.72873474E+02
     -2.16660114E+03     -6.58681338E+02     -1.55715856E+03
     -1.23171007E+03      4.62101781E+02      2.91405655E+02
      5.47266116E+01      1.01193931E+02     -2.87359434E+02
      9.04507119E+02      2.66380666E+03     -1.86964767E+03
      5.34331728E+02      3.04061637E+02     -2.88393179E+03
      9.56683288E+02      1.56409668E+03     -3.91146068E+02
      5.20783078E+02     -5.13007549E+01     -1.42452614E+02
      7.16460400E+02     -1.28931841E+03     -2.08364592E+03
      2.30407129E+03      2.16761610E+03      6.52515718E+02
      4.85327308E+02      4.31284166E+02      1.75064022E+02
      1.11068045E+03      1.57406336E+03      5.67894310E+02
      1.45613380E+03      7.85537858E+02      4.59233223E+02
      2.94248867E+02      2.62434181E+01     -1.21573453E+03
     -3.25010909E+02     -7.02356019E+01      1.81789487E+03
      9.42870183E+02     -1.68557661E+03      2.10279926E+03
     -4.47835345E+02      4.21666314E+02      1.03284436E+02
     -1.71437528E+03     -1.23974908E+03     -1.25213478E+03
      2.49287027E+03      1.29369134E+03     -6.83523166E+02
     -3.83284784E+02      7.92484918E+01      2.46307355E+02
      1.81630537E+03     -1.34842127E+03     -2.36887306E+03
     -2.10315909E+02     -4.05065793E+03      2.30150165E+03
     -1.18317126E+03      7.50653380E+02      9.56715566E+01
      1.43052909E+03      2.01153044E+02     -1.78158878E+03
     -5.25692228E+03      1.30410115E+03     -3.08363257E+03
     -9.53926696E+01      9.94681853E+02      4.84282611E+02
      9.09756250E+02      7.13295596E+02     -3.93319483E+03
     -4.02304204E+02     -2.12925040E+02     -1.30936441E+03
     -5.86764367E+02     -7.60250234E+02     -2.75670164E+02
      2.39536601E+03     -9.92632766E+02     -1.24136514E+02
     -1.28667193E+02     -2.50586801E+03     -9.97647538E+02
     -8.05499193E+01     -1.42048731E+02     -3.86316401E+01
     -1.25977615E+03      2.19010139E+02      2.39717136E+03
     -2.43217148E+03      1.44742527E+02     -1.05898768E+03
     -1.55414899E+03      3.00155230E+03      2.00233674E+02
      3.29283441E+02      1.15355383E+02      6.40367361E+02
      1.36886981E+03     -6.53772035E-01     -7.13676194E+02
      3.92865385E+02     -2.33584612E+03     -1.35449433E+03
     -1.92241717E+03     -1.21187536E+03      9.80534828E+02
     -5.83794814E+02      1.74006579E+02     -5.97261905E+01
     -1.88900822E+03      1.24730113E+03     -1.09108645E+03
     -2.94049360E+03     -1.36008178E+03      3.07994029E+02
      3.32993173E+02      7.98501466E+01      6.97581417E+01
     -1.42787483E+03      5.82601358E+02     -6.90000410E+02
      1.60717789E+03      2.24102822E+03     -8.71638835E+02
     -6.97204707E+02      7.53888983E+02      1.78423228E+02
      8.66681747E+02      9.03503558E+02      5.06916635E+02
     -2.77327738E+03     -7.40982593E+02     -1.46808767E+03
     -6.79537210E+00     -4.31779326E+02      2.95544275E+01
      1.98835047E+03      1.37446164E+03     -1.46830425E+03
      5.64485900E+02     -2.99385770E+02      2.73208574E+03
      4.73208447E+02      6.82383201E+00     -6.72346650E+02
     -1.06931167E+03     -6.13511814E+02     -1.30201171E+03
      1.76763520E+03     -1.35592111E+03     -8.30773087E+02
     -9.77994754E+01      6.92166334E+02      3.18059431E+02
      1.70595282E+03     -2.27336354E+03      2.74852759E+03
      4.07811046E+02     -2.66023552E+02     -1.41106599E+03
     -1.74364996E+02      5.41076119E+02     -2.87206713E+02
      2.96370754E+02      4.07996504E+02     -1.27583785E+03
      1.35149077E+02     -2.25259119E+03     -3.47108606E+02
      7.36542814E+02     -5.07638806E+02      2.14161595E+02
      2.66589004E+02     -2.80795193E+03     -1.10544611E+02
     -1.31996096E+03     -1.03700895E+03     -1.17250593E+02
      4.79813147E+02      1.28314994E+02      2.53650543E+02
     -1.26690192E+03      1.09770748E+03      4.86585085E+02
     -1.39490708E+03     -6.53270945E+02     -3.20883267E+01
     -1.68347925E+03      1.06636726E+03      4.40747088E+02
     -2.34897654E+02      7.27050954E+02      2.48173684E+02
     -1.46264178E+03      2.92257175E+03      5.91368298E+02
     -7.59232320E+02      1.14676326E+03     -1.08219806E+03
     -5.10481534E+02      2.23764619E+03      5.85215915E+02
     -1.48704727E+02     -4.96188775E+02      1.39518964E+02
     -9.35024933E+02      2.12673408E+03      1.45902008E+03
     -2.73126432E+03      1.03372031E+03     -6.72910580E+02
      2.68514198E+02      1.96355764E+02      6.76956668E+02
      1.32850634E+03      7.38242532E+02      3.31387734E+02
      1.19192857E+03     -2.94222078E+02      2.30031780E+03
     -7.05102108E+02      5.68167716E+02     -6.05424436E+02
      1.53329310E+03     -7.08777640E+02      4.86626598E+02
      1.69299847E+03      9.18199301E+02     -2.35174765E+03
     -6.71962076E+02      1.98419884E+02      4.71706224E+02
     -2.56545481E+03     -7.50442020E+02     -1.20745846E+03
      4.29100122E+02      8.38013892E+02     -1.80330762E+02
     -4.67324530E+02     -4.65229282E+02     -2.40395075E+02
      9.42168812E+01     -7.40100140E+02      1.68788682E+03
     -1.65281557E+03      1.27547215E+03      1.02645460E+03
      5.07215948E+02     -4.15470038E+02      1.13192892E+02
      6.13497919E+02      2.59155584E+02      8.42757221E+01
     -2.59812644E+03     -1.62502069E+03      3.53508964E+02
     -6.60824303E+02      9.87173801E+02      2.34243367E+01
     -1.66450353E+02      4.75196103E+00     -1.09208464E+03
      1.99796914E+02     -6.07860776E+02      8.51729452E+02
      2.06266922E+02      7.72603795E+01      2.60805525E+02
     -9.18767949E+02      1.32768808E+03     -9.20213691E+02
     -1.20410605E+02     -2.57734718E+03     -1.47784866E+02
      6.88121411E+02      2.59908110E+02     -8.22528157E+02
     -1.20488792E+03      3.03283234E+03      1.90282066E+03
      2.90876471E+02     -6.14905294E+02      3.26506065E+03
      1.82838986E+02      9.29421803E+02     -9.52930663E+02
      1.68379971E+02     -3.62259823E+02     -2.37231970E+02
     -1.01986425E+03     -1.91485259E+02      2.18680435E+03
      2.16788013E+03     -6.50623763E+02     -4.68536655E+02
      3.01531995E+03     -1.83173751E+03      2.91025633E+03
      3.10951065E+02     -5.29004218E+02      8.30760146E+02
     -1.77157542E+03     -1.13557379E+02      5.22682538E+02
     -2.33143797E+03      1.93750918E+03      1.98108275E+03
     -2.10368682E+02      1.82452602E+02      3.21818273E+02
     -4.48239357E+02      2.22331486E+02      5.75376265E+02
      4.67942569E+02     -2.63472698E+03     -2.37424640E+02
      4.37043579E+02      2.75327814E+02     -2.44751694E+02
     -8.03663821E+02     -8.50440721E+02     -1.22339350E+03
      6.23817649E+00     -4.32488810E+03     -4.81023586E+02
     -1.04649384E+02      1.60609281E+02     -3.76091621E+02
     -1.56810660E+03      2.40904604E+03     -1.84865668E+03
     -2.54374481E+03      1.15410210E+03     -1.40119762E+03
      4.37076933E+02      4.26251895E+02     -2.01872345E+02
     -9.37022944E+02     -8.64141820E+02     -3.50881068E+02
     -1.39156333E+03      1.63916290E+03     -8.18962630E+02
      8.10123881E+02      5.04378948E+01      3.38088206E+02
      1.38575113E+03      7.96677349E+02      2.86965786E+03
      5.26287901E+02      2.44825876E+03     -6.93003150E+02
      2.10986197E+02     -3.42123378E+01     -9.20043550E+02
     -2.75644012E+03     -3.71151400E+02      1.46975866E+03
      4.30037915E+02     -5.25323614E+02     -3.43491989E+02
      1.15274675E+03     -4.21550915E+02      5.81768965E+02
      1.04876709E+03      7.34079065E+02      4.37868915E+02
      1.77049802E+02      2.60510943E+03     -6.18105035E+02
      8.05611721E+01     -8.62495034E+02     -2.14239846E+02
     -2.74914623E+03     -1.07609043E+03     -1.72291137E+03
     -8.30829198E+02     -1.08491347E+03      1.97073309E+03
     -1.19587488E+03      6.72084880E+02      2.60005378E+03
      1.09540248E+03      1.82388209E+02      5.37827266E+01
     -1.40990708E+03      2.41195839E+02      6.69450383E+02
      2.75086087E+03      1.96264195E+03      6.21330069E+02
      4.37137719E+02      2.64735105E+02     -1.44721343E+03
      1.31454265E+02     -1.67037867E+02      3.31872998E+02
      3.57360388E+03     -2.53270446E+03      7.13634508E+01
      1.65773947E+03      1.85847399E+03      1.54914367E+02
      3.72321932E+02      4.54734958E+02      8.14463228E+02
      7.20922937E+02     -4.80477379E+01     -7.82129109E+02
      6.05391853E+02      7.37945342E+02      5.61677747E+02
      7.60366869E+02      5.39317661E+02     -5.14007744E+02
      1.15783410E+03     -6.82220005E+02     -7.11581649E+02
      1.03452643E+03      2.36682999E+03     -2.39970965E+02
     -2.23995789E+01      2.02593927E+02     -3.00720730E+02
     -2.44408466E+02      1.06528209E+03     -1.11043495E+03
      7.82270304E+02      1.53036588E+03      1.02425733E+03
     -5.35070777E+02     -5.93535934E+02      4.35651157E+02
      4.06433085E+02      1.65427809E+03      1.74014570E+03
     -2.00154642E+02      5.64600778E+02      6.05108933E+02
      7.34686151E+02     -1.07693402E+02     -5.27762397E+02
     -2.36244765E+03      9.91915143E+02     -1.48343883E+03
      7.90666227E+02     -8.19636595E+02      1.98322911E+03
      2.42650155E+01      1.19013171E+02      4.33554301E+02
      1.39577400E+03     -5.25985501E+02      2.17898127E+03
      1.33461616E+03      2.98391983E+01     -1.24414164E+02
      2.26357164E+02      1.11948534E+03      6.74467325E+02
     -1.78703998E+03      4.06362759E+02      2.37780377E+03
     -1.02446831E+03      7.58847453E+02     -4.99563118E+02
     -4.00127221E+02      8.59368461E+02      3.76143992E+02
      1.08643313E+02     -8.67792427E+02     -1.17433714E+02
      1.38631241E+03      7.18448577E+02     -4.06405865E+02
     -2.15887576E+03      7.47916531E+01     -1.18375011E+03
      1.69569396E+02      5.61121105E+02      6.45397682E+02
     -1.96280810E+03     -4.50833841E+01     -6.40153465E+02
     -1.11652477E+02      1.79660243E+03     -6.62936813E+00
      4.48274134E+02      1.10058160E+03      3.59444027E+02
  }
}

Hamiltonian = DFTB {
  SCC = Yes
  SCCTolerance = 1e-6
  MaxSCCIterations = 200
  ForceEvaluation = Dynamics
  MaxAngularMomentum = {
    C = "p"
    H = "s"
  }
  Charge = 0.0
  SpinPolarisation = {}
  Eigensolver = Standard {}
  Filling = Fermi {
    Temperature [Kelvin] = 300.0
  }
  SlaterKosterFiles = Type2FileNames {
    Prefix = "../../pbc-0-3/"
    Separator = "-"
    Suffix = ".skf"
    LowerCaseTypeName = No
  }
  KPointsAndWeights = {
    0.0000000000000 0.0000000000000 0.0000000000000 1.00000000000000
  }
  Dispersion = LennardJones { 
    Parameters = UFFParameters {}
  }
}

ParserOptions = {
  ParserVersion = 3
}
