Geometry = GenFormat {
<<< "system.gen"
}

Driver = VelocityVerlet{
  Steps = 100000
  TimeStep [fs] = 0.2
  MDRestartFrequency = 5
  Thermostat = None {
    #InitialTemperature [Kelvin] = 300.0
  }
  Xlbomd{ 
    IntegrationSteps = 6 
    MinSccIterations = 2
    MaxSccIterations = 200
    SccTolerance = 1e-6 
  }
  Velocities [m/s] {
     -3.62530444E+01     -1.45905502E+02      8.68517894E+02
     -4.63125312E+02     -7.58870186E+02     -7.82371936E+02
      2.85219609E+03      7.79598919E+02      1.62214029E+03
      2.68423162E+02     -2.10919161E+02      5.56242352E+02
     -2.18014905E+02      2.07675681E+03      1.00396744E+02
     -2.86859079E+02      1.98649509E+03     -1.74696257E+03
     -1.33848506E+02     -4.41366503E+02      7.19908838E+02
     -1.82378755E+03      2.29557395E+02     -4.77477835E+02
      2.33620632E+03     -4.31844268E+02      2.52719355E+02
      5.11754975E+02      9.32359733E+01      4.41853482E+00
      8.52654884E+02      1.03290100E+03     -1.85646129E+03
      5.53233790E+01     -5.84419319E+02      3.08252360E+01
      3.92796942E+02      5.06176795E+02      6.12264651E+02
      7.45122450E+02     -3.26698334E+03     -2.42715316E+03
      2.81999296E+02     -2.40569840E+03      1.62910169E+03
      2.74360103E+02      4.83450705E+02     -2.27768840E+02
     -7.41693970E+01      2.55017228E+03      1.08488808E+03
     -1.88907508E+03      3.20457230E+03      2.71097200E+03
     -9.19611734E+02     -5.83101992E+02     -2.59756749E+02
      8.99594750E+02     -8.17805863E+02      1.25655175E+03
     -8.26651031E+02      1.96439153E+03     -2.50170480E+03
      4.89819310E+02     -1.17395187E+01      6.95257848E+02
     -2.92303734E+03      5.63715357E+00      2.04783739E+03
     -1.26006461E+03      2.13484685E+02     -1.73060629E+03
      1.85713329E+02     -2.44906819E+02      7.42084631E+02
      3.33018656E+03     -1.19567831E+03      2.04141191E+03
     -2.07110138E+03      7.13970004E+02     -6.69786302E+02
     -2.16185303E+03     -4.59959068E+02      3.49628215E+03
      7.02153678E+02     -7.94493685E+02      3.75454357E+02
     -8.87259049E+02     -2.03046616E+03      2.86002427E+02
     -8.90963756E+02     -7.77439236E+02      2.26978935E+03
      4.54312551E+02      1.30233878E+03      5.86738050E+02
      8.69281331E+02      4.22437540E+02      1.05277638E+03
      9.18181518E+01     -2.22702676E+01      2.40426433E+03
      3.09359449E+02      1.72713078E+03      1.55077006E+03
     -3.03696974E+01      6.44327165E+01     -1.39099709E+02
      1.24354022E+03     -2.29318405E+01     -2.62067095E+03
     -7.11236345E+02      3.43861907E+03      1.71543967E+03
      1.84576419E+02      6.19154358E+02     -4.84815699E+02
     -1.54840261E+03     -1.79134560E+03     -3.62774347E+02
      5.89250249E+02     -3.08586524E+02      1.87696595E+03
     -5.17850631E+01     -5.31030028E+02     -7.82167150E+02
     -3.09441697E+02     -1.39022905E+03     -1.14663221E+03
     -1.93146319E+03     -2.63606131E+02     -8.79211314E+02
     -9.84179000E+02      4.35062862E+02     -3.64874265E+02
      2.14352644E+03      1.48939669E+03      2.08669399E+03
     -7.03689103E+02     -2.92396128E+02     -4.49862312E+03
      3.23821030E+02     -8.02793457E+02     -6.05187908E+02
     -1.05682368E+03     -1.51152804E+03      9.43148754E+02
     -1.03102662E+03     -7.38709370E+02      1.53776233E+03
     -4.83716804E+02      1.11465669E+03     -9.32938882E+02
      6.55013088E+02      9.03093435E+02      7.49955450E+02
      9.49987203E+02      2.19072057E+03      3.25300486E+03
     -5.43883632E+02      1.89002696E+02      1.58524204E+02
     -2.89972691E+03     -3.22066754E+03     -5.50021927E+02
      1.66531321E+03     -5.76732514E+03      1.19437460E+03
     -7.28204241E+00     -6.03372404E+02      4.66336932E+01
     -1.75383079E+01      1.15005905E+03      9.94149721E+02
     -9.43678743E+02     -4.69180946E+02      2.45565653E+03
      5.16938406E+02     -6.79630489E+02     -6.25075886E+02
     -1.05266941E+02      1.01323838E+02     -3.54966388E+01
      2.56025940E+03      8.91438366E+01     -1.23386990E+03
     -1.06677407E+03      3.98577351E+01      5.75077112E+02
      2.90584254E+03     -8.22156955E+02     -8.14454099E+02
      4.45569029E+02      4.04530667E+02      4.22281786E+02
     -3.08031359E+03      1.42242148E+03     -3.21001307E+03
      8.76620323E+02      2.71698252E+03     -1.53993301E+03
     -8.69900080E+01     -6.92456602E+01      3.38776321E+02
     -3.17820542E+02      2.10790984E+03      5.59738707E+02
     -1.22759646E+03     -1.25670860E+03      1.81581863E+03
     -6.56285540E+02     -2.61472975E+01      6.73279608E+02
     -2.98721458E+02     -1.33167104E+03      7.89001128E+02
      8.31166477E+02     -9.67808805E+02     -4.39039224E+02
     -2.71897596E+02     -5.14124571E+02     -2.06729404E+02
      2.42412860E+01      9.78690252E+02     -9.20726641E+01
      1.51684335E+03     -2.28926646E+03     -3.23970555E+03
     -4.85450472E+02     -5.60809416E+02      2.48518757E+01
      2.28919996E+03     -1.67669207E+03     -1.35021511E+02
      1.52487953E+03      1.17158890E+03     -4.72913398E+02
      1.23665482E+03      2.42052848E+02      1.15723832E+03
     -3.65599137E+03      8.72069556E+01      1.21550516E+03
      1.75893138E+03     -8.79093291E+02      4.18276440E+02
     -3.45843614E+02      2.56783290E+02      1.71694760E+02
     -2.01381846E+03     -7.03198394E+02      3.11936856E+02
      2.33405649E+03     -8.58426649E+02      1.24082248E+03
      6.90359589E+02      3.44523463E+02      1.47600328E+02
      8.50614418E+02     -1.73408054E+03      3.63401737E+02
     -2.22877848E+01     -5.77123043E+02      4.60018834E+02
     -2.93500894E+02     -6.74978010E+02     -2.04670159E+02
      1.90280894E+02     -4.06400170E+03      1.60921689E+03
     -3.06841440E+02     -1.58552578E+03     -1.68178049E+03
     -1.51862830E+03      3.17448421E+03      2.25771479E+02
      2.93647776E+02      4.14905011E+02     -4.47941049E+01
     -1.91978764E+03      1.83807814E+03     -1.56947389E+03
     -9.58294296E+02     -4.91583093E+02      7.88451590E+02
      1.00898536E+03     -7.79911146E+02     -1.82474866E+02
      1.16484442E+03      5.95864467E+02      6.54523975E+02
     -1.34596048E+02      1.61350978E+02     -6.59421986E+00
     -7.83155765E+02      5.85512399E+01     -1.96776663E+03
      5.15748610E+02     -1.32404355E+02     -4.76422681E+02
      1.32529716E+03      1.74975660E+03     -4.51308357E+02
     -1.09309432E+02      1.20696397E+03      3.71518303E+03
      1.44014261E+02      6.74333140E+02      3.95988536E+02
     -1.96293033E+03     -5.68925007E+02      1.00248516E+03
     -2.70154122E+03     -1.32700747E+03     -2.65422229E+02
     -1.75692697E+02     -1.32609275E+02     -5.04052734E+02
     -3.08022625E+03      1.52474892E+03      1.52246021E+03
     -1.04386214E+03     -7.08912550E+02     -4.42367304E+02
      2.93944382E+02      5.37960767E+02      4.61098593E+02
      1.60931886E+02     -3.15363284E+03      3.72914239E+03
      3.89888727E+03     -2.02702197E+03     -2.94107738E+03
     -3.01510796E+02     -6.45803944E+02      2.04695340E+02
     -9.81417799E+02      1.05770048E+03     -1.56326484E+02
     -2.24437282E+03      1.55039120E+03     -6.84129814E+02
      4.76872569E+01      2.42561426E+02      7.89257513E+01
      2.81551798E+03      3.14122983E+03     -9.50907936E+02
      9.29703925E+02     -6.21558074E+02     -1.18230370E+03
      1.36766811E+02      5.79909831E+02     -1.97664644E+02
     -7.25483218E+02      2.25516984E+03      3.89248930E+01
      4.59016108E+02      1.40717355E+03     -5.19460189E+02
      1.07930784E+02     -1.23852871E+02      1.14296949E+02
     -7.16227473E+02      7.08389682E+02     -7.68391875E+02
     -3.37393262E+02     -6.28285730E+02      2.41381853E+03
      7.35957646E+02      2.28874967E+03     -4.73563056E+02
     -1.33785297E+03      6.48864824E+01     -1.08421651E+03
      1.09025153E+03     -5.20673224E+02     -8.74930595E+02
      4.03672146E+02      7.02411771E+02     -3.57656002E+03
     -1.37505401E+03     -1.20887905E+03     -4.61176797E+02
      7.13509397E+01      6.07601218E+02     -1.52415125E+02
      1.31511791E+01      6.64879507E+02      2.95850991E+02
      1.03169522E+03     -1.09121372E+03     -3.33634070E+03
      2.77601446E+02      2.07627562E+02      7.03214841E+01
      1.37954561E+02     -2.85129418E+01     -2.07924382E+03
     -1.65071804E+03     -1.19571274E+03      1.14814991E+02
     -6.14858944E+01      2.58401156E+02     -4.24648910E+02
      9.37482720E+02      1.02210936E+03      8.96317618E+02
      1.61668392E+03      2.73854489E+02      9.50347179E+02
     -5.92551468E+02     -4.68951548E+02      2.30701735E+02
      3.50418010E+02      4.03518204E+02      2.81981169E+03
      1.78476523E+03     -7.14687145E+02      2.02515095E+03
     -2.45178316E+02     -5.57549301E+02      8.49218386E+02
     -5.88294588E+02      1.73259652E+03     -6.94884159E+02
     -1.11127290E+02     -3.09361684E+03      1.03774085E+03
     -7.66396404E+02     -3.26404819E+02      8.63447413E+01
      1.85055020E+03      2.39487139E+03      5.47654129E+01
     -8.02546438E+02     -3.27574839E+03     -3.48860863E+02
     -3.04614612E+02      3.99680088E+02      2.83312204E+02
      1.63326355E+03      2.47790002E+01      1.47976217E+01
      2.76567507E+02     -1.25161203E+03      1.56271648E+03
      5.55304334E+00     -4.30334291E+02      6.46249390E+02
      1.19284962E+03      3.72341839E+03     -2.12969971E+03
      2.96498027E+02      2.67609285E+03     -3.53392667E+01
     -3.55787668E+02      2.42116877E+02      8.35709446E+02
      4.91907155E+02     -1.05549766E+03     -8.79557637E+02
      6.57968608E+02     -2.68291392E+03     -1.83508624E+03
     -4.01430236E+03      6.93596387E+01     -2.71355256E+02
     -5.23418981E+03     -4.14927669E+03     -1.05855389E+04
     -8.40805006E+02      5.60727728E+02      1.41320342E+03
     -3.95852994E+01     -3.59783510E+03     -4.12028772E+03
     -5.03449737E+00     -1.29325968E+03      9.41919695E+02
      6.48936853E+02     -1.91110681E+02      4.19428248E+02
      1.92829920E+02     -1.95642486E+03      6.87961083E+02
     -9.46079103E+02     -4.58644507E+03     -1.32584323E+03
     -6.68958741E+02      3.39173414E+02      1.94727289E+02
     -1.98106589E+03      6.25833511E+02     -1.37235629E+03
      2.35258727E+03      6.63052481E+02      9.27185799E+02
     -2.33369689E+02     -1.00829663E+02      3.69665287E+02
     -2.16986922E+03      2.22344610E+03     -2.83843526E+03
      3.53640778E+02      1.97388436E+03      1.29375501E+03
      4.04102454E+01      7.49387286E+01      2.42821572E+02
      4.61332292E+02      5.78447156E+02     -2.50309165E+03
     -1.56988462E+03     -5.30037506E+02      2.03476908E+03
     -3.66946886E+02     -1.75377555E+02     -1.28232344E+02
      4.40481112E+02     -1.77615235E+03     -3.22073387E+03
      1.03707584E+03      4.97345105E+02     -1.89867516E+03
      4.16382088E+02     -3.44605346E+02      4.78853100E+02
     -9.23684203E+02     -2.33335714E+02      5.74115413E+02
     -1.33974834E+03      1.01945309E+03      4.65932897E+02
      1.28417801E+02     -2.43189649E+02      2.84965350E+02
      2.80010200E+02      1.17180771E+03     -1.53102747E+03
     -3.06961632E+00      4.47554410E+02     -4.77456253E+02
      4.67689156E+02     -6.75281347E+02      3.05810903E+01
     -5.33673342E+02     -3.26190657E+02      2.39075161E+03
     -6.26143506E+02      9.40974045E+02     -7.91083978E+02
     -5.23605787E+01     -4.46512255E+02      2.04372453E+02
     -2.04935662E+03     -1.19794919E+03      6.62944980E+02
      2.16534277E+03     -1.92579862E+03     -1.07189108E+03
     -3.28311057E+03      5.67934600E+02     -3.38386203E+03
      4.81062349E+02      4.12294977E+02     -3.71744241E+02
      1.46005016E+02     -3.27277938E+03     -9.26810865E+02
     -1.60174566E+02      6.05090945E+02     -8.60904263E+02
     -6.26997237E+02      1.82048686E+03      1.27410419E+03
     -9.51792022E+01     -1.59127733E+02     -3.02323518E+02
      9.11602351E+02     -2.35031073E+03      1.32617109E+03
      5.88451119E+02     -1.10131187E+03     -1.72403089E+03
      3.28209613E+02     -8.57632614E+02      6.33435317E+02
     -1.06893154E+03      2.66666711E+03      1.73158092E+03
     -5.52416504E+02      1.93340948E+03     -1.48468253E+03
     -5.18337828E+02      6.45209474E+01      2.97816429E+02
      7.38400761E+02     -1.61551968E+03      1.70077523E+03
      1.73953023E+03     -1.31213552E+03      2.77921512E+03
      1.11546881E+03      1.09109201E+03      3.09344702E+01
     -1.25570757E+03     -6.31820544E+02      7.46791882E+02
      1.12410629E+03      1.32957695E+03     -8.58279449E+02
     -2.06059651E+02      3.91141816E+02      9.54055023E+02
     -8.18825097E+02      1.22041531E+03     -2.02526010E+03
      5.28244984E+02     -2.04060348E+03     -2.64852615E+03
      2.38172204E+01      1.44126212E+02      2.77632353E+02
      1.61808274E+02      7.63166235E+02      1.55800623E+03
     -8.14718844E+02     -2.16466415E+03     -5.56446859E+02
     -2.08053030E+02      7.01871444E+02     -7.31760777E+01
      7.94610959E+01     -1.43847317E+03      2.73571765E+03
      1.07157600E+02     -7.59341632E+01     -1.64130019E+03
      4.59862585E+02      1.52848049E+02     -2.40112343E+02
     -1.74880669E+02      8.04354621E+02      3.60362384E+02
     -1.55985487E+02      7.14858630E+01      2.30508496E+02
     -4.81416298E+02      4.14284443E+02     -5.00656630E+02
      2.56628076E+03     -9.42436866E+02      1.56248754E+03
     -7.41662354E+02      4.85250295E+01      3.13397325E+02
     -1.40265055E+03      1.83763033E+03     -4.32484714E+02
      2.44503859E+02      8.29934015E+01     -2.98591890E+02
      5.43522605E+02      4.64862556E+02      2.96713798E+02
     -7.31800751E+02     -1.20516846E+03      3.80041856E+02
      5.08882184E+02      6.12281219E+01      6.49129301E+02
      7.65905739E+00      2.39580710E+02      5.29520367E+02
     -3.71768153E+03     -2.08344786E+03      1.03052834E+03
      2.32759189E+03      2.58748391E+03      2.05356018E+03
      2.31792197E+02     -3.26178398E+02     -2.99951196E+02
     -3.82411968E+02      1.55801685E+03     -7.45410580E+02
      7.46488734E+02     -2.00552343E+03     -1.41121190E+03
      4.94757303E+02     -4.13785157E+01     -6.55093495E+01
     -1.24391472E+03      2.57037738E+03     -7.07952073E+02
     -2.08823458E+03     -1.32342391E+03     -4.41166267E+02
      2.81311981E+02      2.85182889E+02     -5.91545640E+02
      1.26021298E+03      2.40440555E+03     -1.61746309E+02
      1.55460942E+03     -1.51274312E+03     -1.00591968E+02
      5.94235599E+02      8.34969619E+02     -2.23805136E+02
     -6.61960377E+02      1.04357244E+03     -6.67677410E+02
      3.41752472E+03      2.89999447E+03      3.22365573E+02
     -3.78003260E+02     -2.74322928E+02     -1.51506492E+02
     -8.47837101E+02      1.91447790E+03      2.34622997E+03
     -1.50063719E+03      7.33199659E+02      4.66289445E+02
     -1.42998559E+02      1.80730048E+02     -1.22074471E+02
      2.23092012E+03      6.76526162E+02     -1.52224446E+03
      3.06748250E+03     -6.33151806E+02      3.04260748E+02
     -3.57912774E+02     -1.20130521E+02      1.38262346E+02
      9.90675170E+02      1.27221058E+03      6.57971068E+02
      1.21818691E+03      1.03842977E+03     -1.57365620E+02
      4.97544936E+02      2.26541172E+02      5.03558561E+02
     -1.06884186E+03      2.67984411E+03      2.32602748E+03
     -2.60492329E+03     -5.13436460E+02     -1.62652661E+03
      1.53892308E+03     -2.20602207E+02      1.81119460E+03
      1.34465450E+01     -3.55814092E+02     -1.02374120E+02
     -1.78910210E+03     -6.58939891E+02      3.00920846E+03
      1.35991984E+03      8.47949156E+02      2.50196662E+02
      1.69699757E+03      1.96201774E+03      5.70400599E+02
     -7.63827702E+01     -3.78545663E+02     -4.29942551E+02
     -2.64367754E+03      5.20132212E+02      4.92443388E+02
      1.37968799E+03      1.76125071E+03     -3.28165690E+01
     -1.69335697E+02      1.63524984E+02     -5.40703276E+02
     -2.83643232E+03      1.26275042E+03     -5.59933311E+02
     -2.28649987E+02     -7.85500654E+01      3.11053271E+02
     -2.72672344E+02     -9.46317748E+02     -4.76433377E+02
     -1.82896971E+03     -1.09863642E+03      8.90046168E+02
      6.84866899E+02      7.66983422E+02      2.27764192E+03
      4.49883238E+02     -1.57061741E+02      1.23349658E+02
     -4.11350551E+02     -6.86444696E+02      1.58031103E+03
      4.09191279E+02     -5.41991800E+02      7.91270651E+01
     -7.44580965E+02      2.60179891E+02     -1.86767063E+02
     -1.26512250E+03     -1.33341564E+03     -7.03747072E+02
      3.13221450E+01      1.68841070E+03     -1.29311376E+03
      6.06283809E+02     -7.09303702E+02     -5.88087281E+02
     -1.89380247E+02     -1.64326559E+03     -7.25935322E+02
      2.14176489E+03      1.74355722E+03      2.11244197E+03
      1.16800989E+03     -1.27406410E+01      9.73893827E+01
      1.26009239E+03     -2.70967479E+02     -1.72861488E+03
      1.29994835E+03      8.17828979E+01     -2.36589650E+03
     -9.69827243E+01     -1.75770874E+02     -4.48642794E+02
     -1.65673039E+02      2.08013235E+03      6.12199685E+02
      5.84753823E+02      1.55438290E+02      1.01018782E+03
      4.97610942E+02      6.29024079E+02      1.26830446E+02
      1.27420181E+02     -1.21498554E+03     -3.77420225E+03
      1.27220762E+03     -2.36649896E+03     -1.06223742E+03
     -5.53918285E+01     -3.37911128E+02      4.30627169E+02
     -1.83942950E+02     -4.14009649E+01     -3.23734367E+02
      1.93644796E+03     -1.13864071E+03      1.30751368E+03
     -3.85996655E+03     -7.35419813E+02      1.19560349E+03
     -2.25429716E+03     -4.67628558E+03      1.87602378E+02
      1.38594500E+02     -5.94151877E+01      2.19258672E+02
     -1.79827574E+02      2.51179128E+03      1.53859617E+03
      2.75135681E+03      1.07092773E+03     -1.76584997E+03
      2.81586680E+02      1.33609023E+02     -1.36887379E+01
     -2.12841637E+02     -7.68722720E+02      1.82543036E+03
      1.66735904E+03      1.17223152E+03      9.48509023E+02
     -2.21350952E+02     -5.15031020E+02      4.86099549E+02
     -7.31321451E+02      1.00792065E+03      9.99817935E+02
      1.64900901E+03      1.43758885E+03     -8.68713004E+02
      5.08862286E+02     -1.13943026E+03     -1.68399728E+02
      2.42312517E+03      8.98247684E+02      2.54345351E+02
     -1.43182639E+03      1.46352708E+01     -1.13100559E+03
      4.73676372E+02     -4.15770252E+02      1.95960348E+02
     -9.23280702E+02      3.54701283E+03      1.63227040E+03
      1.66579141E+03      4.51690643E+02      1.36685061E+03
      1.61621347E+02      5.18923330E+02     -2.48180858E+02
     -1.08388927E+03      1.23628586E+03      2.22618682E+03
      8.40435939E+02     -7.78624531E+02      2.85454158E+02
     -2.90812874E+02     -2.07514553E+02      7.20111834E+02
     -2.93841832E+02     -2.75135752E+02      1.61024830E+03
     -3.85882766E+02     -5.09754670E+02      1.00781702E+03
     -4.66354328E+02      3.61090878E+01     -9.22432847E-01
      1.56026364E+03      2.07871499E+02      1.11580040E+03
     -3.84578139E+02      1.95888914E+03     -1.77232930E+03
     -6.19339447E+02      1.09508365E+03      3.65272492E+02
      2.23021597E+03     -3.43291668E+02     -3.09219704E+03
      1.50785917E+02     -1.05610679E+03     -2.86271095E+03
      6.63644399E+02      8.55845562E+02      1.12165552E+03
     -2.54916629E+02      4.38873690E+02      3.84357407E+02
      2.57182386E+03      6.39760746E+02     -8.82293993E+02
      2.60482423E+03     -2.01943247E+03     -6.29785902E+02
      1.97292053E+03      1.85675829E+03     -1.02372151E+03
      3.24430122E+02      1.78467724E+02     -1.53186911E+02
     -1.82053730E+03      9.88703971E+02      9.42716108E+01
     -8.01250007E+02     -3.51758821E+03     -2.03007682E+03
     -4.34464220E+01     -6.34298490E+02     -1.21561881E+02
     -1.29595497E+03      6.81916334E+02     -2.48482444E+02
      6.36199389E+01      2.40478882E+03     -1.48104435E+03
     -2.75283897E+02     -1.20843037E+01      2.64086752E+02
      1.77814911E+03     -1.83262827E+03      2.80402713E+03
      2.21391472E+03      3.29251297E+02     -2.33530242E+03
     -1.49811241E+02     -2.38996352E+02      2.85515272E+02
     -2.79434545E+03      6.50258589E+02      7.76375969E+02
      2.81711595E+03      2.52502100E+03     -1.59934238E+03
      7.24139215E+02      4.39760172E+02      6.95622366E+02
     -4.23235232E+02      4.30908243E+01      5.12442656E+02
      1.95379256E+03     -1.26276475E+03      1.77033634E+03
     -7.29481155E+02      6.58417012E+02      5.10420630E+01
      5.97401331E+02     -2.32111754E+03      9.52948166E+02
     -1.24794669E+02     -7.15887273E+01     -1.83074251E+01
     -1.04127470E+02      5.98993695E+01      3.70498889E+02
     -1.52070741E+02      2.11339119E+03     -5.14067612E+02
      1.68984277E+03      1.44118923E+03     -3.94612433E+02
      7.71117093E+02      4.37028551E+02     -6.00781905E+02
      9.80066066E+02      2.37686543E+03     -3.60879632E+03
      2.92911546E+02      1.27379131E+03      8.31302171E+02
      2.19193440E+02      1.11822538E+03      7.55520137E+02
      5.46649242E+02      1.50182022E+03      2.28818875E+03
      1.16594887E+03      8.11708335E+02      5.97504261E+02
      6.98546858E+02      2.46959185E+03      3.51230687E+02
     -2.21343998E+02     -3.29292412E+02      3.20253227E+02
     -2.00806569E+03     -2.53935456E+03      4.83635768E+02
     -1.81736611E+03     -2.16600107E+02      2.34246502E+02
      2.14678697E+03      2.12856832E+03      5.08260129E+02
  }
}

Hamiltonian = DFTB {
  SCC = Yes
  SCCTolerance = 1e-6
  MaxSCCIterations = 200
  ForceEvaluation = Dynamics
  MaxAngularMomentum = {
    C = "p"
    H = "s"
  }
  Charge = 0.0
  SpinPolarisation = {}
  Eigensolver = Standard {}
  Filling = Fermi {
    Temperature [Kelvin] = 300.0
  }
  SlaterKosterFiles = Type2FileNames {
    Prefix = "../../pbc-0-3/"
    Separator = "-"
    Suffix = ".skf"
    LowerCaseTypeName = No
  }
  KPointsAndWeights = {
    0.0000000000000 0.0000000000000 0.0000000000000 1.00000000000000
  }
  Dispersion = LennardJones { 
    Parameters = UFFParameters {}
  }
}

ParserOptions = {
  ParserVersion = 3
}
