Geometry = GenFormat {
<<< "system.gen"
}

Driver = VelocityVerlet{
  Steps = 100000
  TimeStep [fs] = 0.2
  MDRestartFrequency = 5
  Thermostat = None {
    #InitialTemperature [Kelvin] = 300.0
  }
  Xlbomd{ 
    IntegrationSteps = 6 
    MinSccIterations = 2
    MaxSccIterations = 200
    SccTolerance = 1e-6 
  }
  Velocities [m/s] {
      6.21121031E+02      1.91501161E+02     -1.65756803E+02
      1.56995189E+03     -2.96387147E+03      2.66549810E+03
      2.06734102E+02     -1.29179043E+03      1.15603447E+03
     -4.58158514E+02     -2.89891188E+02      5.23518347E+02
      7.27943402E+02     -3.97307237E+03     -6.45798325E+02
     -1.64678030E+02     -1.06139785E+02      1.88187573E+03
      7.60892239E+02      1.77850562E+02      6.46522503E+01
      2.15694389E+03     -8.47910483E+02      1.46549174E+03
     -5.69572125E+02     -1.65889791E+03      7.95500478E+02
     -3.51820638E+02      8.02624683E+02      3.05920970E+02
      1.22224548E+03     -1.05162113E+03     -1.65138227E+03
      9.58858646E+02     -3.53634923E+02     -3.47579308E+02
     -4.79890729E+02      8.53994787E+01      2.89930040E+02
      9.29765781E+02      2.31224820E+03      5.98122829E+02
     -1.94235250E+03     -1.19512465E+03     -1.30630715E+02
     -3.72289976E+02     -5.36961209E+02      3.25524959E+02
     -2.59294493E+03     -2.30982041E+03     -5.27519217E+02
     -8.27270728E+02     -2.07804679E+03     -6.33383029E+02
      4.50120064E+02      7.09188895E+01     -7.53413144E+00
     -1.28315568E+02      2.25637476E+03      2.50972928E+03
     -2.33334744E+03     -3.15701891E+03      3.24212902E+03
      3.48506691E+01      6.51116069E+02      5.37488534E+02
     -3.49293778E+02     -2.59207322E+03      1.21083410E+03
      4.57335918E+02      2.42465743E+02      1.40562692E+03
      2.13755616E+02      1.14017468E+02      2.87870637E+02
      1.03698511E+02      1.31423853E+02      3.54105976E+03
      3.41766306E+03      5.72982470E+02      1.42286225E+03
     -2.12097525E+03      4.78800059E+02     -1.58927347E+02
     -4.89385507E+02     -4.77318913E+02      3.46934368E+02
      8.85439329E+01     -3.46591936E+03      5.44283741E+02
      4.61307023E+02      2.04257968E+03      1.93354375E+03
     -5.38919907E+03     -3.50800788E+03     -2.06302485E+03
     -1.08295353E+03     -6.20926083E+01     -1.84215218E+01
     -1.63994551E+02     -6.10515166E+02     -1.82334199E+03
      9.46238172E+02     -5.74787245E+02      6.89914438E+02
     -6.74412354E+02     -6.00306821E+02     -6.34263227E+02
      1.94729121E+01     -1.27121679E+03      5.52362796E+02
     -1.88988317E+03      4.78388265E+03      1.00546530E+02
     -1.73896212E+02      3.68617983E+02     -3.30021887E+02
      4.86524892E+00      1.50713869E+03      1.91705978E+03
      1.48557397E+03     -7.65983965E+02      5.31468426E+02
     -6.89009776E+02     -1.40305579E+02     -2.33006481E+02
      8.65432739E+02     -5.49810315E+02      1.36690312E+03
      2.94729623E+02      2.20004132E+03     -2.23906737E+03
      2.19528535E+02      1.10366071E+03     -3.48630570E+02
      1.44479153E+03     -1.40880968E+03     -2.41495779E+02
     -6.56268772E+02     -2.42209402E+03     -7.84108123E+02
     -9.18900953E+02      2.22758748E+02      5.14059362E+02
     -2.82725563E+03      3.13727809E+03     -1.50577424E+03
     -2.00556208E+03      2.44696975E+03      6.31012371E+02
      2.53693488E+00      1.00495690E+03     -5.39631549E+02
     -8.96323976E+02      1.13433184E+03      2.84590972E+02
      5.08789279E+02      8.74267387E+02      5.85049672E+02
      1.40481229E+02     -5.07939028E+01      3.16563142E+02
     -3.05011386E+03      1.39448207E+03     -2.84869248E+03
      2.36232347E+02      2.69828782E+03      1.83724360E+03
      2.40858432E+04      1.40929635E+03     -1.44480658E+04
     -1.22731476E+03     -3.40964887E+02      1.71901022E+03
      5.25659394E+02     -7.06901055E+02      2.04758810E+03
      5.87785883E+00     -1.09414038E+03     -3.86464513E+03
     -1.31452020E+01     -5.00632223E+02     -1.91275127E+02
      2.16010189E+03      1.72176828E+03     -1.74082180E+03
     -7.88736386E+02      2.05588482E+03     -1.69260295E+03
      1.02084342E+03     -2.14165936E+03     -5.63077254E+01
     -6.43217187E+02     -1.12006239E+02     -3.92110851E+02
     -2.09338895E+03      4.16023072E+02     -1.49054863E+03
      8.42252358E+02     -1.74933185E+03     -2.19034207E+03
     -4.95762677E+01      9.42896818E+02     -2.55089317E+02
     -9.66670954E+02      7.68169097E+02      1.11455578E+03
     -2.15863276E+02     -7.80751129E+02      2.25578980E+03
     -6.36436732E+02     -2.67338732E+02     -3.31597085E+02
     -1.39539883E+03     -6.27377440E+02     -4.73184129E+02
      6.89217768E+02      1.69626324E+03     -6.91200153E+02
     -5.56181776E+02      2.33008780E+02      3.32295818E+02
      2.79326453E+02      3.97808054E+02      2.52853568E+03
     -6.57484432E+02      6.74536069E+02      1.24406187E+02
     -7.18859990E+02      1.16735952E+03      6.55327745E+01
      1.32908377E+03     -3.92753417E+02     -8.01075088E+02
     -1.25226170E+02     -1.04924561E+02      9.06894007E+01
      6.38367133E+02      7.51809312E+02     -1.58941938E+02
     -1.59016100E+03      1.56577113E+03     -3.71929419E+02
     -1.55602413E+03      1.17358836E+03     -4.58526154E+01
      7.32360048E+02     -2.25344214E+02      3.04293452E+02
     -1.76118436E+03      1.11681128E+03      2.13337390E+03
     -6.57796249E+01      7.08737272E+02      1.13382689E+03
     -1.01704622E+03      8.55717847E+00      7.04529359E+02
     -7.15931376E+02     -1.28929798E+03      2.97430893E+03
     -5.73940885E+02     -1.02951204E+03     -8.47002980E+02
      7.31574241E+01     -4.06049940E+02      6.33989593E+02
      6.25803743E+02      6.16051963E+02     -2.34702418E+03
     -5.96724681E+02     -1.30663773E+03     -6.13544292E+02
     -1.02170506E+03      3.40274657E+02      6.24941745E+02
     -9.86031517E+02     -6.56370915E+02      2.59273755E+01
     -3.38806063E+03      2.16583761E+02      3.31154434E+02
     -5.76874233E+02     -4.77599202E+02      1.62180280E+03
     -1.50201990E+03      1.04317092E+03      1.58354843E+03
     -4.34448934E+02      5.49064658E+02      1.53312598E+02
     -7.93813440E+02      8.01132832E+02     -4.83614543E+02
      4.38801890E+02     -8.91241711E+02      1.06637381E+03
     -8.42142826E+01      3.15053737E+02      4.86854771E+01
     -8.16556075E+02     -1.30801899E+03      5.61340122E+02
      3.82633587E+02     -3.49866717E+02      3.15857490E+03
      5.44866912E+02      2.79120076E+02      1.84189663E+02
     -2.04988389E+03     -2.93887637E+01      2.30937844E+02
      1.61616468E+03      2.12332120E+02      6.20449498E+02
     -2.77401342E+01      2.88949445E+02      4.93290715E+02
     -2.34938671E+03      8.79398290E+02      7.42499186E+02
      2.55677080E+03      2.76390560E+03     -5.03481379E+02
     -8.28669111E+02      8.16746390E+02      4.71863285E+02
      9.42637296E+02      1.68899514E+03      2.95374004E+02
      5.33927178E+02      3.46725977E+02      2.03828443E+03
      6.57688962E+02     -7.35060578E+01      4.93562175E+02
     -1.20535981E+03     -3.49996684E+02      5.21305005E+02
     -3.88629914E+02      1.24707272E+03      1.28263525E+03
     -4.34408414E+02     -5.27113325E+02     -2.34372075E+02
     -1.50177819E+03     -1.34165923E+02     -6.21499551E+02
     -1.54702228E+03      1.34744433E+03     -1.57260093E+03
     -1.60739409E+02      4.13796545E+02      3.88919628E+01
     -1.07601278E+03     -9.47381404E+02      6.63241756E+02
      5.20634581E+02      1.03966587E+02     -2.53367392E+03
     -1.86078772E+02      5.33634105E+02      5.85730432E+02
     -7.92339913E+02     -3.00186810E+02     -2.73479444E+03
      2.21073233E+03     -6.39864715E+02      9.10601459E+02
     -5.15495367E+02      1.89160898E+03     -2.69731870E+03
     -7.82989356E+01     -1.00332308E+02      2.56173027E+02
      4.22471568E+02      1.69776899E+03      1.27755875E+03
     -1.45480309E+03     -1.33398740E+03     -1.10553038E+02
     -8.76912171E+02      6.52180267E+02      4.63190276E+02
     -8.21093976E+02     -4.25147788E+02      6.81228695E+02
      1.08344499E+03     -6.79010190E+02      1.05096671E+02
     -7.03658666E+02      1.61370217E+03      8.67052691E+02
     -6.15648755E+02     -8.52155744E+01      7.13121807E+02
      5.35790143E+02     -8.92579229E+02      2.46867070E+03
     -5.07329668E+02      5.55217150E+02     -4.75696699E+02
     -4.92811948E+02     -8.33919582E+02     -2.82960075E+02
      5.90066727E+02     -9.39353422E+00      1.87690332E+03
      1.78285886E+03     -1.00266515E+03     -9.43138364E+02
     -9.83731096E+02     -1.29025400E+03      1.61988705E+02
     -2.48897961E+03      2.46805507E+03     -3.14272580E+03
     -9.43177454E+02     -5.69025473E+02      2.21708158E+02
      2.13884282E+02      2.12674397E+02      1.34596178E+02
      1.68132488E+03     -5.20080490E+02     -6.12277142E+02
      1.35889965E+03      1.08072011E+03      1.39317507E+03
     -8.26104936E+02      1.57977506E+01      2.93924243E+02
     -1.09737040E+03     -9.92165675E+02     -6.25773244E+02
     -2.14676900E+02     -2.60583287E+02     -8.74900510E+02
      4.62008553E+01     -1.16246896E+02      8.28822350E+01
     -3.99471657E+03     -1.31772800E+03     -1.59509122E+02
     -1.21121300E+03     -5.32377570E+02      1.45561711E+03
      5.69947659E+02      2.63246913E+02      8.29561584E+01
     -1.76339453E+03      1.50586450E+03     -4.05628908E+03
     -3.73314854E+03     -1.76044835E+03     -1.77575145E+03
     -2.72837771E+02     -2.84315748E+02      3.08122426E+02
     -4.50650978E+03      1.87279170E+03     -1.02656069E+03
      5.12059468E+02      9.56524631E+02      1.80266082E+03
     -1.57891507E+03      4.51733715E+02     -2.34590832E+03
     -1.38660848E+02     -3.69827734E+02      2.86502410E+02
     -1.00678975E+03      1.45132188E+03      1.42972720E+03
     -3.48770702E+02      2.01092711E+03     -1.26202590E+03
     -1.39503024E+03      6.97157225E+02     -1.02764686E+03
     -5.96784429E+02     -7.98293735E+02      6.87103052E+02
     -9.61516541E+01      3.70438980E+03      1.07232757E+03
     -1.30445838E+03      2.16048186E+03     -2.47225071E+02
     -1.51506151E+02      1.51407021E+02     -9.75001591E+02
     -2.70897941E+02     -3.90465065E+02      5.54963484E+02
     -1.97727782E+03      1.86387788E+03      5.55374363E+02
      2.66798954E+02      3.93885290E+02      2.91434368E+02
     -8.04692486E+02     -3.44218611E+03     -3.29282180E+02
     -1.84990951E+02      2.39165664E+03      2.08109223E+03
      2.02613801E+01      1.58767162E+01     -2.46819340E+02
     -1.99470714E+03      1.02443757E+03     -9.15486982E+02
      1.02588934E+03      2.07730946E+03      2.03249172E+03
     -3.58288225E+02      2.38801415E+02     -1.45356190E+02
     -1.86751486E+03     -1.90839456E+03      1.86424278E+03
     -1.67228022E+03     -2.17768702E+03     -1.38163002E+03
     -1.05868612E+03     -1.03002053E+02      1.54483966E+02
      1.43202185E+03      3.11445867E+03      1.09817812E+03
     -2.39174566E+03      5.68585276E+02      1.97439084E+03
      3.38378850E+02     -6.20865678E+01      9.95121792E+02
     -2.36668818E+03      8.79768521E+02      3.48001124E+02
     -1.02590032E+03      6.76676396E+02     -4.64821722E+02
      3.76973045E+02     -2.80792429E+02     -3.37989076E+02
      2.21937651E+03     -2.03249279E+03      1.24784641E+03
     -8.81272432E+02     -2.75082286E+03     -1.57286599E+03
     -4.16752220E+02     -9.00308655E+02      2.56874894E+02
     -2.10635972E+03      1.67118950E+03      2.20872039E+03
     -1.50392360E+03     -3.93194174E+02     -3.73890640E+03
      2.12374747E+03      8.19055324E+02     -2.41660114E+03
      1.33987158E+02     -4.05387591E+02      1.23399491E+02
     -5.56693950E+02      2.43439916E+03     -1.15223249E+03
     -4.32987582E+01     -1.91799540E+03      2.17403867E+02
     -1.15427012E+03      5.05863549E+02     -2.71839388E+03
     -5.34706455E+02     -8.45276417E+01     -3.75444295E+02
     -4.93780678E+02     -1.71356433E+03     -1.98300175E+03
     -8.05023775E+02      5.16048602E+02     -1.60974960E+03
     -2.21924194E+02     -1.72677673E+02      1.23987051E+03
      7.83080599E+01      6.23470795E+02      1.37774947E+03
      1.67991291E+03     -1.92121891E+03      4.20939615E+02
      7.46067352E+02     -1.52998716E+02      3.42009329E+02
      1.99240438E+03      2.25938246E+03      1.29309243E+03
      1.46164537E+03     -3.70711198E+02     -1.39104684E+03
     -3.11220636E+01     -1.42886556E+02     -1.99512947E+02
      1.23303811E+03     -4.37082099E+02      1.50625968E+03
      1.27907819E+03      1.23528320E+03     -8.86204137E+02
      3.14563079E+02      2.59341702E+02     -2.20821162E+02
     -1.38893635E+03     -4.04773336E+02     -9.18357342E+02
      2.11145877E+02      8.59507045E+02      9.59440328E+02
     -6.07398440E+02      6.09778376E+01     -7.25398096E+02
      1.67284866E+03      1.26425100E+03      7.02039189E+02
     -1.59538378E+03     -2.37230367E+03      2.48123373E+03
     -2.10075367E+02     -1.30369218E+01     -1.42765531E+02
      1.05751070E+02      2.25628186E+03      1.34354977E+03
     -1.23474002E+03     -2.28855916E+03     -2.24415119E+02
     -7.08812011E+02      4.68666455E+02      2.09148947E+02
     -2.27276698E+02     -1.89249984E+03     -2.23707237E+02
      4.08885898E+02     -1.03124761E+03      6.57478707E+02
     -9.45104385E+02     -1.01864068E+03      6.04748406E+02
      1.69896265E+03     -2.11022712E+02     -4.75144604E+02
     -8.57532879E+02      4.62467838E+01      1.29562500E+03
      1.73700304E+02     -4.16553088E+02     -5.06795207E+02
     -4.78912249E+02      6.05491604E+02     -6.13141454E+02
      2.90005279E+03     -2.12013316E+03      2.07052688E+03
     -1.83849962E+03      2.67598779E+02      1.45490902E+03
      3.25283529E+03      3.17954036E+03      1.79115848E+03
      1.45396565E+02     -7.63344525E+02     -4.57522776E+02
      7.64931029E+02     -7.12564036E+01      2.22273121E+03
     -1.30353618E+03      6.12243656E+02      1.72874627E+01
      4.94290266E+02     -4.83055223E+02      2.52048420E+02
     -2.84952599E+02     -4.07242267E+03     -2.59394073E+03
      1.69661059E+02     -1.74523517E+02      1.58546461E+03
      3.41343000E+01      5.89202894E+02     -1.92201060E+02
     -2.46178350E+03     -6.32038560E+02      3.27606313E+03
     -8.27026887E+02      1.52832763E+03      1.79778747E+03
     -8.49201982E+01     -2.52480120E+02      4.14786270E+02
      1.32706054E+03      1.18931946E+02     -4.57829919E+02
     -7.05623798E+01      2.92221485E+02      8.77402391E+02
     -2.01489159E+02     -4.80395075E+02     -6.70636560E+02
     -1.66937826E+03     -2.29706016E+02      3.35207423E+03
     -1.22564670E+03     -7.76408788E+02      4.17276681E+02
     -3.81315008E+02     -1.38148289E+02      7.99784522E+01
     -8.02863922E+02      5.77640889E+02      2.47300787E+02
      8.84876816E+02      4.15760948E+02      6.67178681E+01
      5.36615851E+02      1.53415111E+02      6.38067978E+02
     -1.49692632E+03      2.15475699E+02      1.66525809E+03
      7.76944702E+02     -2.48728942E+03      3.89754173E+02
     -4.06819703E+01     -4.61003728E+02      6.18260610E+02
     -8.20055592E+02      1.58427193E+03      5.79537198E+02
     -3.12674281E+03     -4.04688894E+03      1.32375977E+03
     -4.83815111E+02     -1.32687272E+01      6.11206961E+02
     -5.32549320E+02     -1.22822243E+03     -1.71043295E+03
     -9.94807965E+02     -3.04234100E+03     -3.09091120E+03
      1.69526679E+03      1.67349655E+03      7.78085717E+02
     -1.22836174E+03     -8.36659066E+02     -6.34250281E+02
     -2.78376494E+02      4.64058925E+02     -1.17907900E+03
     -7.40540258E+02      1.36421963E+03     -4.78732891E+02
      6.42379376E+02     -3.22611109E+02     -1.29434246E+03
     -5.59299647E+01     -3.65758462E+02     -3.80549623E+02
      1.87469268E+03      1.65614808E+02      3.02500611E+03
     -8.69756417E+02     -6.75400395E+02      1.53779128E+03
     -6.79670231E+01      8.08794380E+02     -3.97455599E+02
     -4.01617142E+02      1.74605088E+03      6.49931570E+02
      2.00182671E+03      2.02174450E+01      1.96300070E+03
     -1.06080096E+03      9.89505407E+01      7.79189489E+02
     -2.90741179E+03     -1.79981413E+02      2.10131148E+03
     -4.79299173E+02     -5.94196888E+01     -2.88368193E+03
     -4.20650006E+02     -3.55943257E+02     -2.56736757E+02
      2.58896602E+03     -7.03148633E+02      1.96607408E+03
      1.91582245E+03      2.24636529E+02      4.71141303E+03
     -5.84753175E+02      5.00019652E+02      5.16796275E+02
     -2.02357789E+03     -3.33070316E+03     -5.81440991E+02
     -8.53851271E+02      6.36112468E+02     -8.09152829E+02
      7.45353232E+02     -5.70088395E+02     -4.51808265E+02
     -4.26841909E+01      1.06253054E+02     -2.53963561E+03
      1.03662678E+03      8.26810251E+02     -2.56194864E+03
      3.81466039E+02     -4.33451409E+02      1.10475572E+02
      2.38416115E+03      6.58555489E+01      6.85583169E+02
      1.78773267E+03     -1.21439364E+03     -7.53028562E+02
     -1.21457462E+02     -4.54140318E+01     -3.61243845E+02
     -7.05943581E+02      2.50708835E+03      5.22120961E+02
      1.75558929E+03      9.87268918E+02      1.57661498E+02
     -4.48969823E+02      1.08529975E+01      2.08441744E+02
      6.16121249E+02     -1.52558980E+03      1.94240408E+03
      9.47082923E+02      2.95311500E+02     -8.70693053E+02
     -1.39380957E+03      9.36010119E+02      7.85808972E+02
      3.34220253E+02      7.50407988E+02      3.84113922E+02
      8.83645902E+01     -1.49256384E+01     -1.07580668E+03
      1.72610497E+02     -1.31583521E+03     -9.19723570E+02
      3.65071828E+03      2.33124118E+03      1.25955281E+03
      2.78220085E+02     -1.12301823E+03      7.36851866E+02
     -3.04100891E+02     -1.17349527E+02      3.29986208E+03
      1.44005279E+03      1.10847496E+03     -6.62492329E+02
     -7.37372310E+01      6.32319392E+01     -1.79157595E+02
     -1.38106944E+03      3.60399399E+03      5.45752946E+02
     -9.03309874E+02     -2.26479721E+03      7.35143987E+02
     -8.83366301E+02     -1.68946865E+02      3.57777404E+02
      8.67203812E+02      9.66314703E+02     -1.87359784E+03
     -5.60552799E+01      4.18666562E+01      2.55102529E+03
     -4.87608927E+02     -5.35679117E+02      2.06193737E+00
      1.78741296E+03     -1.44760414E+03     -1.04082383E+02
      6.10827734E+03      2.46977726E+02      4.01598990E+02
      3.30218388E+01     -3.63767491E+02      1.62959250E+01
      1.58628904E+03      1.64718864E+03      4.88807555E+02
      9.63612778E+02     -1.38724343E+02     -5.78272955E+02
      1.18623852E+02     -3.14448172E+02      2.48198148E+02
     -1.36373280E+03      1.15162920E+03      2.63050402E+03
     -1.84950257E+03     -3.13735123E+03     -2.20341853E+03
      3.04545590E+01     -3.34232901E+02     -9.07875961E+01
     -3.86190477E+03      1.12529526E+03      1.06234326E+03
     -7.39130142E+01      1.65793469E+03     -1.11888318E+03
      1.55939303E+02     -6.45714738E+02      1.15415546E+02
     -2.12813460E+03      1.49464550E+03     -9.53866027E+02
     -9.43271902E+02      2.15452813E+03      2.00186367E+03
     -8.07082697E+02      6.77792749E+01     -5.46819907E+02
      1.15249265E+03      2.10815297E+03     -3.88180797E+02
     -2.48341275E+03      1.37736390E+03      8.21245754E+02
      1.87120688E+02      8.06887114E+02     -8.53883853E+02
      3.81497948E+02      9.20078091E+01     -5.28706664E+02
      1.74068061E+03     -2.39734218E+02      2.36471489E+03
     -5.87243687E+02      2.09266165E+03      1.92551953E+03
      3.54467087E+03      8.53714733E+02      3.02662461E+03
      6.92993149E+01      7.76413806E+01      3.55161668E+02
     -1.90636223E+03     -6.70703137E+02     -2.75567654E+03
      2.69217090E+02      1.12722351E+03      1.94057923E+03
      2.30078939E+02     -2.42588988E+01     -4.68958449E+02
      2.46922486E+02     -4.83751608E+02      1.09103809E+03
     -1.53071457E+02      1.81300352E+02     -1.10088894E+02
      3.12616041E+02     -4.80742723E+02     -3.50579746E+02
     -7.59813138E+02     -8.77723585E+02      2.31806858E+03
     -4.24678249E+03      1.73892218E+03      6.97900558E+02
     -5.87466966E+02     -1.20664892E+01      5.13636529E+02
     -3.49320920E+03      1.08361899E+02      3.52944698E+03
      6.84043516E+02      2.11271519E+03      3.33734805E+01
     -1.97339780E+02      2.21922439E+02     -9.93879533E+01
     -9.61727621E+02      5.20933564E+02      8.21359274E+01
      1.57217570E+03     -2.40033785E+02     -1.57086595E+03
      8.26560143E+01      8.61156906E+02      3.54227233E+02
      2.00819747E+03     -6.33790780E+02      1.21405112E+03
     -1.58854550E+02     -6.17722475E+02      2.21258294E+03
     -1.98023524E+02     -8.14814814E+01      2.23019719E+02
      9.98012347E+02      2.57363736E+02      3.50997603E+02
     -6.10836006E+02      6.36908950E+01      1.41980341E+03
     -5.60284542E+02      2.50857363E+00      8.53698976E+01
     -9.30734044E+02      1.01323816E+03     -1.30212542E+02
     -2.66809354E+03      5.97603818E+02      3.05707674E+03
      2.67654419E+01     -3.75276860E+01     -2.48440739E+02
     -1.53512658E+03      1.26695904E+03     -1.28451860E+03
     -6.34760057E+01      5.84748064E+01     -2.48774478E+03
      9.51028862E+02      9.25068554E+01      2.78383895E+03
      2.37385581E+02      4.66194887E+02     -2.91958378E+02
      1.10558665E+03     -2.17802344E+03      1.00489430E+03
      9.18420765E+02     -1.93931023E+03     -1.11707943E+03
     -5.99958561E+02      6.52948689E+02     -5.85975887E+02
  }
}

Hamiltonian = DFTB {
  SCC = Yes
  SCCTolerance = 1e-6
  MaxSCCIterations = 200
  ForceEvaluation = Dynamics
  MaxAngularMomentum = {
    C = "p"
    H = "s"
  }
  Charge = 0.0
  SpinPolarisation = {}
  Eigensolver = Standard {}
  Filling = Fermi {
    Temperature [Kelvin] = 300.0
  }
  SlaterKosterFiles = Type2FileNames {
    Prefix = "../../pbc-0-3/"
    Separator = "-"
    Suffix = ".skf"
    LowerCaseTypeName = No
  }
  KPointsAndWeights = {
    0.0000000000000 0.0000000000000 0.0000000000000 1.00000000000000
  }
  Dispersion = LennardJones { 
    Parameters = UFFParameters {}
  }
}

ParserOptions = {
  ParserVersion = 3
}
