Geometry = GenFormat {
<<< "system.gen"
}

Driver = VelocityVerlet{
  Steps = 100000
  TimeStep [fs] = 0.2
  MDRestartFrequency = 5
  Thermostat = None {
    #InitialTemperature [Kelvin] = 300.0
  }
  Xlbomd{ 
    IntegrationSteps = 6 
    MinSccIterations = 2
    MaxSccIterations = 200
    SccTolerance = 1e-6 
  }
  Velocities [m/s] {
      7.20492876E+02      5.76364044E+02      3.72046220E+02
     -6.58343744E+02     -1.14794967E+02     -5.06418782E+02
      1.89310099E+03      3.07112351E+02     -2.53428723E+02
     -5.39720535E+02      7.63418465E+02      7.55344291E+02
      4.62062530E+02      7.11464195E+02     -8.24314070E+02
     -4.22425752E+02      7.69520896E+02     -3.08570026E+03
     -1.06524121E+02     -9.37407190E+01     -7.46829656E+01
     -9.31435675E+02     -2.16032398E+02     -2.22300349E+01
      1.13942277E+03      3.31385191E+02      7.07928197E+02
     -2.66561372E+02      9.11388064E+02      2.37395689E+02
      1.96425530E+03      8.35492884E+01     -2.76375045E+02
     -1.38171703E+03     -2.29791768E+03     -3.95327349E+03
     -1.97758162E+02      5.81498760E+02     -6.26836458E+02
      4.24104399E+02      3.41847955E+02      9.72668145E+02
      7.76823879E+02     -8.28940689E+02      1.02108861E+03
      7.59881327E+01     -1.53443751E+02      8.44518323E+02
      3.25983315E+02     -1.50620968E+03      5.69767056E+02
      1.83433890E+03      7.86829204E+02      1.80533330E+03
     -4.02398902E+02      9.70522324E+02      1.60055257E+01
     -1.80087244E+03      9.34433530E+02      1.80042907E+02
     -1.89331604E+03     -1.29614177E+03      1.06046579E+03
      2.52718102E+02      6.42953094E+02      1.27843818E+02
     -8.26635754E+02     -1.19966151E+03      1.01115229E+03
     -1.04940547E+03     -8.70465155E+02     -4.09186679E+02
     -1.09650460E+02      4.91683108E+02     -1.29156648E+02
     -6.89717730E+02     -7.81526190E+02      5.41497860E+02
      1.43792831E+03     -4.45084408E+02      1.04333894E+03
      1.03883492E+02     -8.22823963E+02     -1.20631820E+03
     -5.16128162E+01     -7.69422157E+01     -5.42690712E+02
     -7.39896259E+02     -1.96142134E+03     -8.52502496E+02
     -2.52347136E+03     -1.92895190E+03     -1.90146822E+03
     -4.27752229E+02      1.04792120E+03     -1.85296443E+03
      1.71355050E+02      3.47207549E+02      3.88023751E+02
      4.46149283E+02     -3.60799065E+02     -2.90038513E+03
     -1.80787766E+03      3.62561553E+02     -1.42903442E+03
     -2.54426397E+02      9.67640356E+02     -9.36054093E+02
      1.40982768E+01     -3.87071364E+02     -5.80380906E+02
     -1.87994637E+03      2.81733008E+02      1.42985619E+03
     -5.72005958E+02      7.19785860E+02     -7.05984654E+02
      3.37081135E+01      4.55566755E+03     -6.88436215E+02
      9.56185101E+02      9.10981812E+01      2.25739319E+02
      2.40222838E+01      4.03403861E+01      4.32400542E+02
      4.78872923E+02     -3.48916029E+03      7.89468423E+02
     -6.17098187E+02     -4.78304975E+02      1.31063614E+03
      2.67424654E+02      2.28122967E+02      5.99244565E+02
     -2.04936892E+03      6.47851211E+02      1.58147815E+03
      3.88254308E+02      1.52839220E+03     -6.52712751E+02
     -1.68061682E+02      7.03566636E+02     -2.09052569E+02
      1.08854700E+03     -2.10902156E+03      5.81090780E+02
     -1.67018165E+03      3.74573451E+02      7.50186242E+02
      3.30039068E+02      4.97362405E+02     -1.52573507E+02
     -1.14381813E+03     -2.56714226E+03      2.74711938E+03
     -3.86545465E+01      5.50837263E+02      1.80133813E+03
     -1.37008644E+01      5.12560310E+02      5.79812546E+02
     -1.75480126E+03     -1.67155358E+02     -1.48344409E+03
      1.87190573E+01      3.24508072E+03      6.16517283E+02
      1.32112342E+02      1.16867114E+03      2.09845463E+02
      4.99031391E+02      2.07141253E+02      1.61442079E+03
     -8.83278306E+02      6.49909198E+02      9.67761813E+02
      2.14151154E+03      1.47631820E+02      7.88628053E+02
      1.04032506E+02      1.58776766E+02      1.42462791E+02
      1.09895895E+03     -8.55112540E+02      7.23273294E+02
     -9.47782050E+02     -1.27974905E+03      1.22233903E+03
     -2.16398081E+03     -2.58387279E+02      1.53165442E+03
     -3.93309368E+02      2.71714686E+02      4.83340864E+02
     -3.95450803E+02      8.98136402E+02     -3.50672425E+02
      7.44282736E+02      5.17542781E+01      2.81138088E+03
     -1.26879588E+02      6.27974296E+02      3.96342437E+02
      2.39086055E+03      6.82818252E+02      1.07505712E+03
     -3.36676632E+03      4.43091551E+02     -2.65816665E+03
      6.98724905E+02      1.36146065E+02      6.18673144E+02
     -2.10606047E+03     -1.94178635E+03     -6.39435024E+02
     -4.13816737E+02     -1.71964973E+03     -1.38313713E+02
     -2.14650241E+02     -1.97200096E+02      1.20946258E+02
     -4.89959363E+02      3.07554742E+02      1.28116509E+03
      1.73298360E+03     -2.94032862E+02     -2.64782500E+03
     -7.56361990E+02      6.00300654E+01      7.74598964E+01
      2.11094432E+03      2.82309175E+02     -2.97208319E+03
     -1.10609779E+03     -6.28417678E+02     -2.01804696E+03
      3.98218778E+02     -1.44651953E+02      4.83375147E+02
     -6.82823740E+02     -7.35983201E+02      1.05995545E+03
     -1.11759925E+03     -4.44224296E+02      1.48757255E+03
      6.92412551E+02      1.05461802E+03      2.14914659E+02
      2.01202539E+02      3.23263613E+01      4.75639059E+02
      1.96867590E+03     -2.30012258E+03     -2.17271807E+03
     -4.84774665E+02      4.15792826E+01      8.50675219E+01
     -5.63629486E+02      7.38535898E+02      2.70863470E+02
     -6.10385864E+02      2.55879191E+03      2.56102443E+03
     -5.13524806E+02      3.03288673E+02     -2.52535739E+02
      2.78517257E+02     -2.85050696E+03      1.33908687E+03
     -1.27233325E+03      1.07198305E+03      3.82873058E+03
     -1.64918401E+03      7.97309731E+02      3.82668311E+03
      6.36999848E+02     -4.84696670E+01      1.51099116E+02
     -1.53054175E+02     -2.33887594E+03     -6.42962743E+02
     -1.08230658E+03     -5.13621220E+02      8.33178801E+01
     -1.88083100E+03      1.48759911E+03      1.01142768E+03
      1.10598341E+02     -1.39201441E+02      1.78227639E+02
     -1.97827934E+02     -6.14905354E+02      1.72120049E+03
     -3.30259931E+02      5.47868383E+02     -2.69453662E+03
      5.54315908E+02      4.55117470E+02     -2.99051519E+02
     -2.73997633E+03      1.60873244E+03     -7.81707162E+02
     -1.76013783E+03      1.76300063E+03      8.53048571E+02
      2.03397901E+02      5.02073444E+02     -2.41472378E+02
      1.38912737E+02     -1.85480381E+03     -8.42358224E+02
      1.62673886E+03     -3.99282479E+02     -6.74550075E+02
     -1.23481197E+02      5.48441869E+02      1.55345153E+02
      7.03817576E+02     -1.21430231E+03     -9.65585245E+02
      2.85050580E+02      5.74579686E+01     -5.45068488E+02
     -2.03541566E+02     -6.22136758E+02     -5.17883477E+02
      7.79646443E+02      1.59607842E+03     -1.30083969E+03
      1.40163673E+03      9.97720616E+02      1.76791781E+03
     -6.72410631E+02     -1.89034794E+02     -2.48925098E+02
     -7.31458957E+02      4.25214317E+02      4.77836951E+01
     -5.04189220E+02      3.59811921E+02      6.29296359E+02
      1.08466450E+02      5.95651837E+02      1.68023115E+02
      8.17542214E+02      2.72811149E+03      1.61696962E+03
      1.21876283E+03     -1.63053346E+03      2.11341263E+03
     -1.95550179E+02     -3.48622110E+01      3.11110314E+02
     -2.05855530E+03     -5.30782229E+02     -2.22422914E+02
     -2.89623094E+02     -3.09056858E+02      5.81226099E+02
      6.52562855E+02     -8.95555220E+02      4.55604258E+01
      1.33625747E+03     -5.35705589E+02     -1.38495244E+03
      2.30288534E+03     -8.62777753E+02     -9.36295356E+01
      9.73543233E+02      5.67390710E+02      1.81094805E+03
      1.85228980E+00      9.19116466E+02      4.62379066E+02
      8.11806460E+02      1.66444654E+03     -2.28419125E+03
      2.15984554E+03      9.26798519E+01     -7.59290459E+02
      1.50056496E+03     -1.39230771E+03     -1.65157061E+03
     -4.70629555E+02      1.43283792E+02      1.56727218E+02
      1.83197229E+02     -1.14209100E+03     -2.41699797E+02
      3.66108743E+02      1.20678391E+03      8.36724814E+02
     -5.29465343E+02      2.49945497E+02      3.37164804E+02
      8.45243648E+02     -1.96222047E+03     -8.07961450E+02
      8.05663586E+02     -8.06347881E+02      1.02195817E+03
     -2.46161413E+02      3.94318273E+01     -4.33787078E+02
     -1.03451221E+03      2.35475461E+03      1.30296513E+03
     -3.76273725E+02     -1.79415180E+03      1.35146661E+02
     -4.57256113E+02      3.85574796E+02     -1.13479976E+02
      2.03517044E+03      4.14058784E+03     -1.46477767E+03
      9.44867622E+02      4.72246873E+03      1.69121974E+03
      5.83185632E+02     -5.03118009E+02     -1.67252422E+02
      2.36966464E+03      5.71563346E+02     -9.15720997E+02
      1.26214791E+03     -7.43133322E+02      1.15984827E+03
     -5.75514977E+02      4.34686290E+02      3.45059503E+02
      2.12400550E+03     -1.15374192E+02     -1.33921180E+03
     -1.19602844E+03      5.03306996E+02     -7.38064824E+02
     -6.76095595E+02      1.92210249E+02     -4.67482106E+02
      2.25277607E+03     -1.62699025E+03      2.65674860E+02
     -6.26772147E+02      6.42783894E+02     -9.38607147E+02
     -4.86304358E+02      5.32295857E+01      4.55665388E+01
     -9.11236412E+02      2.01188166E+03      2.00683154E+03
     -6.45917911E+02      2.64502503E+03     -1.08220008E+03
     -2.92225108E+02     -2.33378691E+02     -2.35863681E+01
      3.79240171E+02      2.92186568E+03     -1.15237824E+03
      1.28089496E+03      1.96508883E+03      4.02518692E+02
     -9.06738589E+02     -7.18677645E+02      4.55846939E+02
      3.40462071E+02      1.97652371E+02      3.14107720E+02
      3.44061488E+03      8.27367283E+02      2.57047125E+03
     -3.16561180E+02     -1.07013201E+03     -1.66516013E+03
      9.96183370E+02     -1.49536060E+02     -1.42793022E+03
     -6.15771140E+02     -1.21530416E+02     -4.72461114E+02
     -1.08268325E+03     -2.45022325E+03      2.15900591E+03
      1.16539622E+02      1.37472102E+02     -2.11660488E+03
     -6.65726384E+02     -3.63396892E+02     -1.11313277E+02
     -1.46834810E+03      2.27596296E+03      2.53666675E+02
      3.22267947E+02     -1.81834316E+03     -1.66968540E+02
      5.76183957E+03     -2.74804824E+04     -2.01342389E+03
      1.17657106E+03      1.00803669E+03     -7.98866195E+02
      3.75045299E+03     -1.41423895E+03      1.28129182E+03
     -3.02009772E+02     -8.49366218E+01     -4.88492202E+02
     -9.51733951E+02     -2.24614502E+03     -6.45902544E+02
     -5.00948817E-01      9.70231470E+02      3.89522032E+02
     -1.76188977E+02      8.02114676E+02      1.40557855E+02
     -2.10212021E+03      1.39937199E+03      1.09635637E+02
     -1.30969199E+03      2.09414929E+03     -2.68217142E+03
     -6.67711077E+02      2.41673084E+02     -3.19362256E+01
      9.61490570E+01      2.85746696E+03     -1.61893828E+03
      1.98428615E+03      1.77005692E+03     -1.01510142E+03
     -3.40072644E+02     -2.58058920E+02      7.54274833E+02
      5.14803257E+02      1.16188778E+03      7.04397737E+02
     -3.46228710E+02      3.39626601E+02     -2.84380185E+01
     -3.76274749E+02      2.65134745E+02     -7.91546915E+02
     -1.02249428E+01      1.02368883E+03      2.02738292E+03
      7.02514040E+02      1.95516550E+03     -9.30338614E+02
      2.14698728E+02      3.36990585E+02      1.02971984E+01
     -5.71393229E+02      2.65509861E+02      1.43506646E+03
      6.89820987E+02      1.02051496E+03      1.18139124E+03
     -1.11198424E+03      1.77536501E+01      7.30926172E+02
      6.55485131E+02      1.19657173E+02      8.57751511E+02
      1.49418675E+03     -1.36089406E+02      6.79500835E+01
     -1.75962222E+03      2.69107986E+03     -2.26061403E+03
      3.67498247E+03     -1.77032386E+03      7.32084066E+02
     -3.98208319E+02      7.12823821E+02     -4.66433373E+01
     -1.45946213E+03     -4.56011333E+02      2.05037226E+02
      8.40482221E+02     -9.63302532E+02     -8.36515986E+02
     -1.70200509E+02      8.51479327E+02      5.15847573E+02
     -2.48972267E+02      8.08363723E+02      9.64271451E+02
     -2.11507675E+03     -7.78580599E+02      1.30806919E+03
     -1.75282100E+02      2.35523353E+02     -1.15766876E+02
      4.40843734E+01     -2.95478483E+03      3.66510126E+02
     -7.03253370E+02     -6.26677454E+02      1.50457312E+03
      2.89547651E+02     -2.14187546E+02     -1.40047601E+02
      1.69824595E+03     -3.68189191E+02     -1.50714200E+03
     -7.02862268E+02     -1.24742277E+03      2.58605359E+03
     -2.11347630E+02      2.19099519E+02     -8.05281592E+02
      1.51697662E+03      8.15395996E+02      9.64706586E+01
     -1.45426424E+03      2.05155512E+03     -1.15457185E+03
     -2.01578434E+02      3.27068159E+02      9.56105977E+01
     -6.89307761E+02      1.88381080E+02      5.98190785E+02
      7.09715794E+01     -2.09496266E+02      1.85066114E+02
     -1.03253524E+02     -2.94188142E+02     -1.13885361E+02
     -1.92651444E+02      5.20351439E+02     -2.65509553E+03
     -7.51017179E+02      3.04560818E+03      1.24271727E+02
      2.55235020E+02      3.82171846E+02     -1.97234055E+02
      1.33683055E+03      7.66283611E+02     -3.88625909E+02
      4.82660363E+02      7.91819411E+02      2.05719462E+02
     -5.09222898E+01     -1.53544476E+02     -1.28622439E+02
      1.62813182E+03      1.03346976E+03      9.22017556E+01
      6.11738405E+02      2.10019231E+02      3.47435000E+03
      6.00704447E+02     -3.62256648E+02     -1.10217304E+03
      6.89267665E+02      4.75704375E+02     -5.07206213E+02
     -5.63443201E+02      5.93308878E+02     -2.44151557E+03
     -3.48083064E+03      6.23162053E+02      1.94154105E+03
     -2.76442591E+03      1.01968591E+03     -9.72933243E+02
      6.39020343E+02      9.82170909E+02     -3.86899575E+02
      6.10764612E+02     -1.46810783E+03     -1.04587414E+01
     -6.50108066E+02      5.16752509E+01     -2.34112568E+03
      4.51801430E+02     -2.07440325E+02      1.07898388E+02
     -1.80752412E+03     -6.28653879E+02      2.11222377E+03
      3.72786992E+03      1.90758828E+02      1.45591907E+02
     -1.04900042E+03      5.04553186E+01     -1.30412847E+03
      7.50528018E+02      7.74478611E+02     -1.53143812E+03
     -4.50006487E+02     -4.39288698E+01     -1.74590805E+03
      8.06022346E+02      2.83646935E+02      8.24228859E+02
     -2.55618239E+01      2.39503446E+03     -7.60063730E+01
      8.05614584E+02     -2.56117135E+03      3.95257343E+03
      6.15679003E+02      4.21895466E+02     -9.74580613E+02
      2.73666181E+02     -3.01969504E+03      6.86113384E+02
      2.53757072E+03     -5.97055187E+02      1.38440621E+03
      3.94053283E+02     -2.52920140E+02     -6.08342370E+00
     -1.44408440E+03     -3.68941859E+03      8.76947845E+02
      6.69329847E+02      2.01132967E+03     -2.59275176E+03
      5.02758483E+02      3.19541252E+02      6.74780519E+02
      8.37434508E+02     -3.00134279E+02      2.43121167E+03
      5.05732108E+02      2.59359509E+03     -3.30929886E+02
     -3.37149229E+02     -6.30275949E+02     -1.62497208E+02
     -2.52754614E+02     -1.40293739E+03     -2.47359733E+02
     -1.04734786E+03     -2.58073277E+03     -3.15165570E+02
     -4.54494362E+02     -1.05591488E+03     -7.53954552E+01
     -7.04567243E+02     -4.01994885E+02      3.39226126E+02
      5.47006791E+02      1.62261538E+03      4.27028934E+02
     -5.22161729E+01     -1.50316771E+03     -1.79993015E+03
      3.93971772E+02     -2.19832070E+02      5.95967531E+02
     -8.59818173E+02     -3.02277131E+02     -8.18590382E+02
     -1.62742957E+03     -6.08704838E+02      9.05970872E+02
     -1.24139161E+03      6.49072463E+02      2.99672096E+02
     -6.83660404E+02     -1.68949977E+02      1.67273721E+02
      1.73507181E+03      8.54559392E+02      4.92748041E+02
      5.71679052E+02     -1.43156172E+03      1.99356408E+02
      1.35749965E+02      2.79313130E+02     -5.94300896E+02
      5.17014679E+02      4.28215678E+03     -8.98823005E+02
     -4.76036431E+02      2.56938493E+03     -5.83893077E+02
     -8.81961237E+02     -7.17545948E+00     -8.60802268E+02
      1.25380374E+03      8.21043555E+02      1.27260688E+03
     -1.88365987E+03      3.23358388E+02      2.18960582E+03
     -8.37658981E+02      1.09262386E+02      8.53421427E+01
      4.49716215E+03     -9.42737479E+02      1.26536299E+03
      3.90294763E+02      6.68431661E+02      1.02074137E+03
      3.35759548E+02      6.30059090E+02     -3.23097678E+02
      6.08027094E+02     -3.83570224E+03     -2.33908819E+02
      1.77169644E+02      8.91056594E+00     -1.03938456E+03
      1.43943857E+02      2.01642598E+02      5.06728923E+02
      9.14034157E+02      1.63371269E+03      4.05224056E+02
      1.77588351E+03      1.99409987E+03      1.55559577E+03
      6.93507242E+01     -3.42900346E+02     -7.02338849E+02
      3.09538853E+03     -1.57902868E+03     -6.85551362E+02
     -2.46636179E+03      6.42571117E+02      2.07753131E+03
     -2.64077992E+02      6.15990007E+02     -1.10452907E+02
     -2.57021459E+02      3.23909254E+02     -1.45213248E+02
      1.05724592E+03      6.55304433E+02     -6.19784107E+02
     -7.51102975E+01      5.07163558E+01     -2.99639503E+02
      1.02158911E+02      2.90788577E+03     -2.90512508E+02
      5.15603376E+02     -5.20476650E+02      2.02738941E+03
     -2.60853784E+03     -2.81891010E+03      1.35552552E+03
     -4.32035916E+02     -1.71405149E+02     -2.60927262E+01
      2.55074829E+02      1.74328797E+03      4.79183125E+02
     -4.64762182E+02      2.36840154E+03     -1.22141982E+03
      3.39991258E+03     -3.71668674E+02     -1.48421845E+03
     -5.47520183E+02      2.14670113E+02     -7.12002837E+01
      1.78992081E+03      4.87095710E+03     -7.40246651E+02
      2.51864923E+03      2.61966651E+02      5.29463662E+02
      4.00481448E+01      3.37266035E+02      4.59525199E+02
     -3.68265706E+03      1.48167302E+03      1.19490640E+02
     -8.30621565E+01      8.81179891E+02     -1.37813187E+02
     -6.76533989E+02      2.52826011E+02     -2.73050260E+02
      2.09573375E+03     -6.56050525E+02     -7.12397228E+02
     -1.37079824E+03     -1.56456472E+02      1.30454374E+03
      2.15094534E+02      8.26254425E+01     -5.70909586E+01
      2.81770646E+03     -3.49541556E+03      1.33543713E+02
      2.13803262E+03      1.05369152E+03     -2.34875370E+03
      6.86428350E+01      1.75613544E+02      5.88263408E+00
      6.22872816E+02     -2.90109993E+03      5.07203826E+02
      3.41070511E+02     -1.95145404E+03      6.07594548E+02
      1.95098628E+02      8.06976342E+02      8.35077711E+02
      4.74931893E+02      4.84834218E+02      3.88299812E+03
      7.73627147E+02     -9.93353480E+02      5.91044366E+02
      4.02922843E+02      9.07851267E+01     -3.39311864E+02
      1.12290138E+03     -1.58850339E+03     -2.12179221E+03
     -2.60391539E+01      2.23017625E+03      2.63062189E+03
      1.66850845E+02     -6.03277064E+02      8.32633080E+00
     -9.40938962E+02     -5.28423622E+03     -2.49200979E+03
     -2.05991442E+03      2.49210008E+03     -2.39593196E+02
      2.70526805E+02      5.00433270E+02     -2.22859421E+01
     -4.52451409E+02     -1.93703533E+03     -4.35185451E+02
      8.15208664E+02     -1.63860471E+03      2.95375088E+03
     -9.92935206E+02     -2.18776555E+03      1.87721913E+02
      3.62740970E+02      1.77261354E+02      6.07673517E+02
     -8.32235093E+02     -1.34502981E+03     -4.30558019E+01
      2.59790413E+03      6.77204480E+02      6.46036243E+01
      1.26589918E+03      2.01795606E+03     -3.66497720E+02
     -1.49427590E+02      6.60883956E+02      1.34553096E+02
      6.39099260E+02     -2.59347823E+03     -4.90649621E+02
     -1.68823129E+03      1.35620688E+03     -3.74343797E+03
     -4.28736964E+02     -1.67780767E+01      1.37709841E+02
      2.44809163E+03      1.55469048E+03      2.96414558E+02
     -1.94997980E+01      4.98414586E+02      6.46104040E+02
      6.21030170E+01      9.96694264E+02     -8.23912619E+01
     -5.19654007E+01      5.67295584E+02     -5.86567517E+02
      1.50146111E+03      3.05569877E+03     -2.80422646E+03
     -6.40765061E+02      6.17611382E+02      8.75825390E+02
     -3.52023871E+03      1.24308421E+02      3.91673734E+02
     -2.27485016E+03      5.62340926E+02     -2.53587102E+03
     -2.82947629E+02      1.01065212E+02     -3.28786159E+02
     -5.57998673E+02      3.56960263E+01     -1.65417965E+03
     -3.21756008E+02      5.74105494E+02     -7.19322496E+02
      3.23282245E+02      1.20191990E+03      3.51968977E+02
      5.43207971E+02      2.08904572E+03     -3.58611391E+03
      5.66070706E+02      2.47656670E+02      9.93737576E+02
      6.71346954E+01      4.67665210E+02     -3.63275296E+02
     -9.20524436E+02      2.42847587E+03     -7.91176237E+02
     -2.16986252E+03      1.91145881E+03     -2.14232140E+03
      2.16538870E+02     -3.26109306E+02      1.80240905E+02
      2.31113443E+03     -1.46983984E+03      3.81547999E+02
      1.13005766E+03     -2.21919632E+03     -4.39647900E+02
     -5.70948366E+02      4.96603273E+02     -1.70969337E+02
      3.31822042E+00      8.29129303E+02      5.85744131E+02
     -1.47721084E+02     -5.13108697E+02     -1.97507576E+03
      1.22644737E+03     -1.94399105E+03     -5.15532599E+02
     -6.91479489E+02      6.82031133E+02      5.05196877E+02
     -9.00996034E+02      2.20395413E+01      1.94726135E+03
     -1.23464849E+02      2.79063721E+03      6.45151327E+01
      4.94495855E+02      1.19338526E+02     -1.95850398E+03
  }
}

Hamiltonian = DFTB {
  SCC = Yes
  SCCTolerance = 1e-6
  MaxSCCIterations = 200
  ForceEvaluation = Dynamics
  MaxAngularMomentum = {
    C = "p"
    H = "s"
  }
  Charge = 0.0
  SpinPolarisation = {}
  Eigensolver = Standard {}
  Filling = Fermi {
    Temperature [Kelvin] = 300.0
  }
  SlaterKosterFiles = Type2FileNames {
    Prefix = "../../pbc-0-3/"
    Separator = "-"
    Suffix = ".skf"
    LowerCaseTypeName = No
  }
  KPointsAndWeights = {
    0.0000000000000 0.0000000000000 0.0000000000000 1.00000000000000
  }
  Dispersion = LennardJones { 
    Parameters = UFFParameters {}
  }
}

ParserOptions = {
  ParserVersion = 3
}
