Geometry = GenFormat {
<<< "system.gen"
}

Driver = VelocityVerlet{
  Steps = 100000
  TimeStep [fs] = 0.2
  MDRestartFrequency = 5
  Thermostat = None {
    #InitialTemperature [Kelvin] = 300.0
  }
  Xlbomd{ 
    IntegrationSteps = 6 
    MinSccIterations = 2
    MaxSccIterations = 200
    SccTolerance = 1e-6 
  }
  Velocities [m/s] {
      4.24650401E+02      8.44923501E+02      8.98223673E+02
      7.96687619E+01     -7.52424005E+01      2.97238258E+03
     -3.14865456E+03     -1.08386828E+03     -3.58494585E+03
     -6.57130994E+02     -4.15262125E+01      3.92675421E+02
      1.47634814E+03      9.73282470E+02     -1.27166750E+03
     -1.61818822E+03     -9.88848881E+02      2.43411293E+02
      5.15688766E+01      1.18264925E+02      1.69149096E+02
     -4.33687394E+03      1.81070214E+03      1.53708683E+03
      1.43291408E+02     -1.13962188E+03     -2.08119209E+03
     -2.55654869E+02     -1.11509650E+02      3.82964653E+02
     -2.15176786E+03      1.80235375E+02     -8.48248073E+02
     -2.03270673E+02      8.91585320E+02      2.56188840E+03
     -4.80375180E+02      8.97277624E+02      1.41907240E+02
      1.52188282E+03      3.23783811E+02      1.85614252E+03
      6.03559486E+02     -2.19230853E+03      4.71161396E+02
     -6.29404921E+02      1.11655650E+03      3.11495905E+02
      6.88351664E+01      2.69815002E+02      1.35946283E+03
     -2.10101350E+02      1.04154770E+03     -8.72310623E+02
     -2.52934906E+02      6.10290175E+01      1.25942280E+03
      1.26989385E+03     -7.80869479E+02      2.15914762E+03
     -2.64492404E+03     -5.37195163E+02     -2.36512732E+02
      4.02864676E+02      4.82235400E+02     -6.82711579E+02
      1.40645300E+02     -1.09807988E+03      3.13928967E+03
      2.54356736E+03     -9.75122587E+02     -5.92503255E+02
      1.68833825E+02      5.26856632E+02      7.37027043E+01
      6.45435995E+02     -2.23569630E+02     -9.37754809E+02
      2.37137794E+03      4.74719470E+02     -4.90891446E+02
      2.57601354E+03     -2.45302978E+02      2.13948325E+02
     -4.79104155E+02      9.44701257E+01      4.39624319E+01
     -3.10632638E+02     -1.93969961E+03      1.66940030E+03
      2.44314313E+03     -1.19280340E+03     -9.50888133E+02
      1.55143198E+03      6.36379778E+02      2.14371707E+03
     -1.15480175E+03     -1.97525906E+02      4.17136681E+02
      1.42050216E+03      6.09861743E+02      1.78604794E+03
     -3.57115371E+02     -3.99762202E+01      1.14934956E+03
      1.01308078E+01      3.73294960E+02      2.80508222E+02
      5.73901393E+02     -2.45826902E+03      2.00463593E+03
      7.59154738E+01     -1.14220590E+03     -6.03315704E+02
     -4.26125677E+00      1.51654546E+02     -3.54832487E+02
      8.84816731E+02     -2.21247117E+03      3.04559992E+02
      3.24456941E+03      1.80904883E+03      1.60067365E+03
     -2.92341161E+02      2.31556478E+01      4.79186131E+02
     -2.20103626E+03     -3.30994529E+03     -1.49655943E+03
      7.66570695E+02      1.67082655E+03      2.69826679E+03
     -4.99976483E+02      2.69058283E+02      8.60980188E+01
      4.83962563E+02     -2.15261892E+03      3.41980848E+02
      1.79062043E+03      4.25610463E+02      4.12529225E+02
      1.75815570E+02     -1.73160149E+02      1.30594616E+02
      3.19298980E+02      1.67264162E+02     -5.81342798E+02
      1.79219959E+03      3.99730923E+02     -2.46918984E+03
     -6.20698353E+02      1.85684508E+02      3.52387638E+02
     -2.90644850E+02      1.32342436E+03     -2.46789643E+03
     -3.30375742E+02      1.57080269E+03     -2.61309998E+03
      3.54274460E+00      6.97528145E+02      7.88379062E+01
      1.86346756E+03      1.68907217E+03     -1.13160949E+03
     -1.10954093E+02     -9.62198220E+02     -1.86264133E+03
      3.11043790E+01      3.37945600E+02      1.57601037E+02
     -1.70983505E+03      1.23013154E+02     -3.54991964E+03
     -2.62439235E+03      7.52989398E+02      1.06238230E+03
     -1.95599103E+03      1.62864254E+03     -1.65550997E+03
      9.07184551E+02      4.25022907E+02      7.17917233E+02
      1.29392037E+03      1.75368416E+03      1.47377445E+03
     -1.76107219E+03      1.14074422E+03     -8.77682005E+02
      2.56840429E+02      2.06999079E+03      1.65318462E+03
     -3.69185831E+02      5.63639517E+02      4.04386734E+02
     -2.77215577E+03      2.53659250E+03     -3.40899263E+01
      9.26694947E+02      3.41746611E+03      1.27127552E+03
      4.17620164E+02     -9.28726289E+02     -2.57905916E+02
     -3.35968229E+02      3.61029012E+02      2.03146174E+03
      2.89498712E+03     -5.12667840E+02      2.75403463E+03
      3.18082739E+02     -4.13501382E+02      2.39962917E+02
     -3.57310933E+02      1.21755818E+02     -2.28797651E+03
      1.85106149E+03     -8.92790338E+02      1.46452978E+03
     -1.14122422E+02     -3.65651213E+01      2.11872549E+02
      1.36394132E+02      6.54192274E+02      2.57362627E+02
      2.70064246E+03     -3.46113844E+03     -3.66486785E+03
     -5.10165303E+02      3.18996755E+02      9.97378216E+01
      2.01375258E+03      3.84604600E+02     -1.86067017E+03
     -1.10602793E+02     -1.31633369E+03     -1.07906039E+03
     -3.10158154E+02      1.22528989E+02      1.30129183E+03
      7.20554625E+02      6.83562140E+02      5.53729434E+02
      5.16138706E+02      2.17050109E+03     -6.42072224E+02
      3.65524900E+02      5.41108748E+02      2.84371462E+01
     -2.54474543E+02      1.53597661E+02      1.92641317E+03
      2.11539215E+03     -1.55098856E+03      3.92760633E+02
     -2.04684668E+01      7.02867167E+02      5.91992462E+02
     -9.54709108E+02     -2.21394153E+02      6.70690216E+02
     -1.09884694E+02      7.60221436E+02      1.63505969E+03
     -1.86706399E+02     -1.03379732E+02     -8.32078395E+02
      1.71062356E+03     -1.67126125E+03     -1.33437678E+03
      2.19770977E+03      1.48726810E+02      1.14267474E+03
     -2.44018802E+03      1.51507674E+03     -8.75313536E+02
      1.19061698E+01      7.43056188E+02      1.92967645E+02
      1.35771289E+03      1.11341100E+02     -1.14596449E+03
      1.43165614E+03     -3.09234232E+00      2.48254878E+03
      7.08263890E+02      8.60103489E+02     -1.03756971E+03
      5.10446827E+02      2.23924764E+02      6.44114158E+02
     -2.63440585E+02     -1.82859401E+03      7.81031094E+01
      3.74310090E+02     -8.85885425E+02     -2.99727716E+02
     -6.49429657E+02     -4.87064420E+02      2.93405841E+02
      6.69584659E+02      1.49116038E+03      4.23371889E+03
     -2.75333356E+03     -2.39034424E+03     -1.28280698E+03
      9.19961006E+03     -1.84159189E+04     -2.60565582E+04
      1.64979766E+03     -1.33577337E+03     -1.21707405E+03
      3.56128137E+02      7.09090896E+02      3.34689291E+02
      3.63510582E+02      7.65087401E+02      1.87914639E-01
      3.40861636E+03      1.35120582E+03      1.50845388E+03
      9.96651846E+02     -1.62036876E+03     -9.83365660E+02
      2.89188852E+02      3.71980688E+02      2.34386555E+02
     -9.92160465E+02     -1.80694699E+03      2.48816293E+03
     -1.11638481E+03      4.36498623E+02      4.14370338E+01
     -1.14107382E+02     -3.68951665E+02      4.70840373E+02
     -9.54999169E+02      1.04972947E+03      1.31110510E+03
      1.33125120E+03      1.81110406E+02     -2.82012330E+02
      7.18064190E+02      1.39303534E+02      1.91951025E+02
      3.14502475E+03      9.26754004E+02      2.23014042E+02
      5.03997478E+02     -1.14410295E+03     -1.97463681E+03
      4.39654532E+02      3.49832243E+02     -2.51980427E+02
     -4.25341181E+02      6.77724303E+01      1.68732020E+03
     -8.56523795E+02     -2.43485896E+03     -5.00092943E+02
      7.96729446E+01      9.63813289E+00     -8.80853645E+01
      2.26356770E+02     -1.61998840E+03     -1.51578256E+03
     -3.67904968E+02      1.69807293E+03      1.22024919E+03
      3.11228092E+03     -2.59370267E+03      2.24554797E+03
     -1.86065590E+02     -3.59971442E+02      1.48671918E+02
     -2.05747599E+02     -7.30719875E+02     -4.14426606E+02
     -3.15992211E+02      4.74233111E+00      6.29950005E+02
     -9.20239154E+02      6.96205326E+02      1.80597472E+03
     -1.31905297E+02      1.21134905E+03      5.38148660E+02
     -1.87711483E+03     -3.46352531E+03      1.78786525E+03
      2.04724165E+03      1.08761121E+03      1.08738113E+02
      4.01961024E+02     -2.06231362E+02      1.59590986E+02
     -1.05336118E+03     -1.81232944E+03      3.84949782E+02
      3.02082227E+03      1.65792823E+03     -1.13745895E+03
     -1.95180956E+00      2.86703802E+02      7.77928089E+02
      2.87847652E+02     -1.86381770E+03     -4.39739990E+02
      1.87030883E+02     -1.61424329E+03     -1.40464081E+03
     -3.10707494E+02      3.56591281E+02      6.29530713E+02
     -1.32700226E+03     -2.39964436E+02      4.29618907E+02
     -8.90331891E+02      4.75173194E+02      3.17108652E+02
     -8.04469853E+02     -2.16151951E+02     -2.32311047E+02
     -4.19906803E+02     -4.95591199E+02      8.90445835E+02
      9.03215956E+02     -2.81506754E+03     -8.80576901E+02
     -3.23948633E+02     -4.82394533E+02     -2.85393946E+01
      3.11298851E+03     -2.15704661E+03     -5.29338982E+01
      1.72873426E+03     -3.55289662E+03      3.54998135E+02
      3.40829377E+02      7.98752934E+02     -3.34390522E+02
     -1.34249279E+03      5.80606025E+02      2.33801335E+03
      3.40855430E+02      1.08423999E+03     -1.98742048E+03
     -5.27811823E+01      2.40251727E+02      1.20263029E+03
     -1.61364589E+02     -9.14997442E+02      8.53183172E+02
     -9.91174263E+02     -6.87402043E+02      3.58592079E+02
     -3.29858344E+01      6.48352441E+02      1.43318645E+03
     -6.78247662E+02     -4.26938534E+02     -4.11519318E+03
      9.13357147E+02     -2.03468572E+03      4.16987318E+02
     -1.70227920E+03     -2.40467292E+03     -2.10832849E+03
      5.82495192E+02      1.42210939E+02      6.79525202E+02
     -1.00201372E+03      6.42858124E+02     -1.33021142E+02
      2.39113495E+03      1.50948742E+03     -2.51311687E+03
     -1.98023849E+03     -1.20272387E+03      1.81814539E+03
     -7.06133786E+02     -1.28995034E+02      1.97232451E+02
      4.42961304E+02     -2.61285772E+02      1.07172475E+03
     -1.31917046E+03      1.58851635E+03     -4.95929760E+01
     -6.63900108E+02      4.94703665E+02      5.76713246E+01
     -1.39920433E+03     -1.28010154E+02      1.01924559E+03
     -1.98191235E+03      1.46076168E+03      5.12265465E+02
      3.75564091E+02      3.60112577E+02      8.40437726E+02
     -2.79489639E+02      1.28136648E+02      2.35341916E+03
     -1.20403496E+03     -2.46602616E+02      3.51213757E+03
      3.25607835E+02      1.30785227E+02      4.07684594E+02
      7.46243836E+02     -1.14512764E+03     -1.48330136E+03
     -2.57083947E+03      1.22433376E+03     -2.10312573E+02
     -4.93104170E+02      6.61929279E+02      4.49811582E+02
     -5.02370176E+02     -1.95448886E+03      1.54130958E+03
     -1.78378639E+03      1.66734134E+02      1.24575149E+03
     -3.26896581E+02      7.28128748E+01      3.45520657E+02
     -1.57367645E+03      3.19943540E+03      1.18233688E+03
     -2.90272610E+02     -3.04272272E+03      2.07799670E+03
      2.45948388E+02      9.42593757E+02     -1.21168449E+02
      1.10440076E+03     -1.50386414E+03      3.50222724E+03
     -9.17495124E+02     -2.76906544E+03      3.12339803E+03
     -5.55352756E+02     -1.48694803E+02     -5.98696386E+02
      2.34774471E+03     -1.58751890E+02      1.28448434E+03
      6.04223281E+02      1.24386920E+02     -9.68606348E+02
     -1.05788382E+03     -4.68402634E+02      6.51165483E+02
     -1.43186531E+03      3.82991156E+03      5.74919012E+02
      2.77910500E+01      1.24582119E+03      1.77851968E+03
      2.93905743E+02     -1.22922486E+03     -1.42899037E+03
     -1.15132758E+03     -3.50453367E+01      6.96258120E+01
      1.34020267E+03     -3.45369827E+02      2.47872975E+03
     -2.07811281E+03      2.09941715E+03     -2.69877361E+02
     -6.27811720E+02     -8.65114546E+02     -2.48198486E+03
     -4.24727190E+01      3.00658350E+01      7.21482107E+02
      4.54531311E+03      3.88401900E+02      6.52675123E+02
     -1.10569441E+03      1.30868377E+03      2.86057653E+03
      1.96366189E+02      3.08985508E+02      7.48693181E+01
     -5.47468886E+02      7.98703642E+02     -1.13515002E+03
      3.53697628E+03      2.72739621E+02     -8.22974031E+02
     -8.37239114E+01      5.76078936E+02     -4.79568986E+02
     -1.44625886E+03      3.98855667E+03     -1.54963051E+03
      6.74107425E+02     -3.01554506E+03      2.28131832E+03
     -3.41955789E+02     -3.71227668E+02      4.58460362E+02
     -1.17506947E+03     -1.36141703E+03      6.83636385E+02
     -4.22157372E+02      2.28139019E+03      5.04197060E+02
      5.24832081E+02      4.43646739E+02     -6.11496374E+02
     -2.66294779E+03     -1.22669222E+03      1.18636479E+03
      2.07542452E+02      1.39481918E+03     -4.28220012E+01
     -3.95910234E+02     -3.59458948E+02     -1.72817384E+02
     -4.94408744E+03      2.26036761E+02     -1.11291474E+03
      1.32745433E+03      4.78899853E+02     -9.17896246E+02
     -5.16959867E+02      3.18978210E+02      4.95117469E+02
      1.40911600E+03     -2.61355730E+03      2.44619704E+03
     -2.39356499E+02      1.99932717E+03      1.23025019E+02
      2.74808730E+02     -7.23783280E+01     -4.08195628E+02
      8.22693210E+02      1.01569244E+03     -1.47844270E+03
     -1.28115955E+03     -2.67522379E+03     -5.88451752E+02
      2.23186788E+02      2.69914129E+02      1.92924155E+02
      1.17529779E+03      4.89276899E+03     -5.25040059E+02
      4.73508207E+02      1.61028596E+02     -1.46001824E+03
     -2.09020355E+03     -2.11456686E+02      1.20570351E+03
     -4.20062379E+02      4.45439920E+02      3.54190586E+02
      5.67828274E+02     -1.41500486E+03     -1.88635371E+03
     -1.15746925E+03     -1.35098938E+03      2.35806782E+03
      2.01413250E+03     -4.11654871E+02      1.90937305E+03
     -7.54111312E+01      2.54103802E+02      6.97602657E+02
      3.34094244E+03      5.06609166E+02     -1.47113421E+03
     -1.42818259E+02      1.39688708E+03      2.10280450E+02
     -6.98544116E+02     -2.61373855E+02     -4.15495363E+02
      1.23597671E+02      1.30002138E+03      2.22813850E+03
      2.28562847E+03      1.34137330E+03      7.84972714E+02
     -2.04513641E+02     -1.76198500E+02      5.82676866E+02
      1.18664325E+03      2.00795922E+02      1.24936695E+01
      1.22123274E+02     -4.00777026E+02     -1.04382735E+03
     -1.08470441E+01     -3.46805171E+02     -2.50542299E+02
     -7.33402176E+00      2.68713009E+03      3.05927786E+02
      4.96862181E+02     -3.15125511E+03      2.66673612E+01
      1.08532471E+02     -3.72407118E+02     -1.28456001E+02
     -3.00896055E+02      1.34508067E+03     -8.61681405E+02
      5.36721719E+02      1.41527024E+03     -1.93726582E+03
      4.62544432E+02      2.54522073E+02     -8.48095096E+02
     -1.99165210E+03      1.44658759E+03      9.73361826E+02
     -5.17133849E+02      9.37348565E+02     -5.37348492E+02
      2.16912232E+02     -5.10443275E+02      2.04235437E+02
     -2.53481703E+02     -8.23318889E+02     -3.06715527E+03
     -3.40207159E+03     -1.26920162E+03     -1.87684766E+03
      1.22706642E+03      6.30555671E+02      8.19631959E+02
      2.42435664E+03      1.59830248E+03      9.76858237E+02
      3.99208991E+02      3.26494130E+03      1.59689984E+03
      2.62617753E+01      7.59597916E+02     -7.43195982E+02
      4.98288143E+02     -3.79611355E+03     -1.57445806E+03
      1.62463410E+03      1.57741387E+03     -5.82089892E+02
      6.24485406E+02     -4.45650498E+02     -9.90502618E+02
      9.22312524E+01      3.96422467E+02     -4.89969058E+02
     -1.76343302E+03      3.57657870E+03     -6.19825610E+02
      5.89479650E+02      1.23331946E+03      1.94071400E+03
     -2.06047509E+03      1.01522304E+03      3.42104095E+02
     -1.21426364E+02     -3.06212806E+02      3.20800067E+02
     -1.84355780E+03     -1.25590988E+03      1.74335476E+03
     -1.49684735E+03     -2.51774595E+03      3.66865957E+03
      1.58453793E+02      3.41375031E+02     -3.00199849E+02
      7.47558321E+02     -6.78131503E+02      3.46082363E+02
     -2.63950660E+03     -1.72085862E+02     -8.62398686E+02
     -9.01922502E+01      2.63455684E+02      3.93251443E+02
      1.80845944E+03     -1.08829635E+03      1.35129251E+03
     -1.85763267E+03      1.50929289E+02     -1.62649272E+03
     -1.78102382E+02     -8.04384388E+00     -3.75847596E+02
      8.15823882E+00      1.33813199E+03      5.84135510E+02
      2.90774072E+02     -3.82223633E+02      2.79745774E+02
      4.58822051E+02      7.25757117E+02      4.67776905E+02
     -1.64965694E+03     -1.83185098E+03      7.29614194E+02
      6.67985220E+02     -7.11264564E+02      9.65725493E+02
     -4.02046181E+02     -8.88825362E+02      7.87556395E+01
      1.19253239E+03      2.31956829E+01      2.18666391E+03
     -2.44916945E+03     -1.90774176E+03      5.35797147E+02
     -2.36916366E+02      5.89431935E+02      3.28917805E+02
      1.28530312E+03      3.77075890E+03      2.66385055E+01
      1.43761904E+03     -3.55776529E+02     -2.87752408E+03
     -1.71655561E+02     -3.34099196E+02     -2.19071585E+02
      1.47324402E+03     -1.14448084E+03     -1.91882868E+03
      8.71191375E+01     -2.04358643E+03      3.74136279E+03
      4.10490408E+01      9.72497020E+02      1.70663915E+02
      1.68888682E+03     -1.63835029E+03      1.18512691E+03
      2.26762033E+03      2.55325408E+03      2.44243000E+03
      4.35321174E+02      2.06072508E+03     -2.16456278E+03
     -6.43523264E+02      2.72643427E+02      8.40307810E+02
     -1.54889863E+03     -7.71097923E+01     -1.38583374E+03
      8.87994031E+02      4.39434715E+02      1.48294959E+03
     -5.31372573E+02     -2.15305542E+03     -1.61409255E+02
     -7.00556754E+02      6.12669627E+02      4.01177964E+02
      5.61208014E+02     -2.03572169E+03      2.13340173E+03
      5.39937497E+02     -2.48607940E+02      1.49266647E+03
     -2.36428672E+02     -1.19619069E+02     -2.31033723E+02
      5.02978622E+02      1.36642384E+03      8.62283532E+02
      4.92118773E+02      3.80053171E+02     -2.14024875E+03
     -1.07691119E+02     -5.06395412E+02      3.86871921E+02
      9.27882811E+02      3.13861700E+02     -2.21367453E+03
      2.18421660E+03     -1.36761501E+03      1.55967387E+03
     -8.70133670E+01      2.39621965E+01     -3.32459043E+02
      1.39459580E+02     -1.02333067E+03      3.45577624E+03
      1.91246237E+02     -2.01955359E+02      1.36677938E+03
     -3.49569395E+01     -5.20033520E+02      1.13534063E+03
      2.00040698E+02      2.41080300E+03      1.20233749E+03
     -9.58505369E+02      8.73575638E+02     -4.52318853E+02
      9.91803241E+01      9.36983680E+02      1.18919603E+02
      3.31240055E+03      7.05982187E+02      1.68469366E+03
      1.18412708E+03      9.51422992E+02      1.81989962E+03
      3.98993958E+02     -2.86223431E+02     -3.01255269E+02
      6.01027493E+02     -1.87575260E+03     -1.69996113E+03
      5.64411276E+02     -6.73914352E+02     -5.58365687E+02
      5.53273412E+01      2.21280981E+02     -6.30754413E+02
     -7.44568545E+02      1.90697284E+03      4.28169441E+02
      2.59942717E+03      1.41309315E+03      4.14688144E+02
     -1.71635452E+02     -2.77907054E+02      9.73049580E+01
      2.08077456E+02     -1.79322559E+03      1.24034591E+03
     -1.12278061E+03      2.17201969E+03      1.00135414E+03
     -3.03206193E+03      7.65180176E+02     -9.02907628E+02
      7.18667758E+00     -9.10649029E+00      1.17543723E+03
     -2.40410940E+03     -4.28719198E+02     -1.56483034E+03
     -1.78645216E+03     -1.04568881E+03     -1.65690187E+03
     -1.61573782E+03      8.06002056E+02      2.25090436E+02
     -1.22982118E+03     -2.85951098E+02     -1.25328856E+02
      1.86455903E+03      9.36414016E+02      1.71145969E+03
     -6.16622780E+01      8.10659283E+02     -9.72648006E+02
     -6.44855497E+02      6.57333439E+02      4.39670033E+02
     -1.49428786E+03     -2.72575989E+02     -2.20678356E+03
     -1.03374458E+03     -1.96337443E+02     -1.04322068E+03
     -6.01928699E+01      4.42540178E+02     -1.73511554E+02
     -6.82659787E+02      5.95929879E+02     -9.36865922E+02
     -4.01826968E+03     -1.80236086E+03      2.82588799E+02
     -1.39550413E+03      1.32588662E+02      2.12450160E+02
     -3.61099569E+02     -1.03064441E+03     -1.60357832E+03
      9.19365244E+02      8.15930096E+01      1.70473325E+03
      2.32869017E+02      6.48311945E+01      5.33735292E+01
      1.05920937E+03     -5.45094003E+02      2.94083905E+02
     -1.02714348E+03     -5.88321129E+02      1.65135522E+03
      6.08855736E+01      3.35449807E+02      3.02566874E+02
      3.78366975E+01     -2.14039611E+03      1.42430282E+03
     -4.99514541E+02      8.41155830E+02      3.69028439E+03
      3.68172780E+02      3.54870747E+02      9.13707418E+02
     -8.44723114E+02     -6.66758578E+02      2.56362464E+03
     -8.40374523E+02     -1.02803410E+03     -9.42270645E+02
     -5.75811635E+02      7.06971878E+00      3.66436285E+02
     -1.79432937E+03      3.18386500E+03      6.06116003E+02
      3.52402406E+02     -1.12715114E+03      9.82767213E+02
     -4.45154793E+01      1.32670958E+02     -5.10901720E+02
      1.87025799E+03     -6.23261493E+02      7.67830731E+01
     -7.02687423E+02      2.31688523E+03     -2.34169791E+03
     -3.50020702E+02      6.67957788E+02     -1.33505515E+03
      5.89808624E+02      1.02786691E+02      3.30269073E+02
     -7.41626405E+02      8.00188665E+02      1.86289038E+02
      4.38561415E+02      2.68412547E+03      2.14634879E+02
      3.23140450E+02      1.11880436E+03      1.87972354E+03
  }
}

Hamiltonian = DFTB {
  SCC = Yes
  SCCTolerance = 1e-6
  MaxSCCIterations = 200
  ForceEvaluation = Dynamics
  MaxAngularMomentum = {
    C = "p"
    H = "s"
  }
  Charge = 0.0
  SpinPolarisation = {}
  Eigensolver = Standard {}
  Filling = Fermi {
    Temperature [Kelvin] = 300.0
  }
  SlaterKosterFiles = Type2FileNames {
    Prefix = "../../pbc-0-3/"
    Separator = "-"
    Suffix = ".skf"
    LowerCaseTypeName = No
  }
  KPointsAndWeights = {
    0.0000000000000 0.0000000000000 0.0000000000000 1.00000000000000
  }
  Dispersion = LennardJones { 
    Parameters = UFFParameters {}
  }
}

ParserOptions = {
  ParserVersion = 3
}
