Geometry = GenFormat {
<<< "system.gen"
}

Driver = VelocityVerlet{
  Steps = 100000
  TimeStep [fs] = 0.2
  MDRestartFrequency = 5
  Thermostat = None {
    #InitialTemperature [Kelvin] = 300.0
  }
  Xlbomd{ 
    IntegrationSteps = 6 
    MinSccIterations = 2
    MaxSccIterations = 200
    SccTolerance = 1e-6 
  }
  Velocities [m/s] {
      2.94921233E+02      7.29433241E+02     -3.89844533E+02
      2.79765814E+03     -1.63554687E+03      1.09649509E+02
      5.03079207E+01     -7.92925103E+02     -1.98841963E+02
      6.69238892E+02      1.87165001E+01     -1.20574387E+02
     -4.77044461E+01      1.82898914E+02     -2.11742279E+03
     -1.82261430E+03     -7.43073505E+02     -2.81724607E+03
     -6.34393692E+01      4.95347693E+02     -4.07932746E+02
     -2.16747365E+01      6.27069604E+02      6.83607030E+02
     -6.16008468E+02     -6.81318460E+02     -6.01305045E+02
     -2.56884874E+02      1.66867158E+02     -3.16011191E+02
     -2.32407399E+03      1.35388992E+03     -2.89725252E+03
      1.48573989E+02     -3.73969175E+03     -6.92420766E+01
      5.53750645E+02      3.75047001E+02      2.41900004E+01
      1.05677209E+03      6.35782152E+02     -1.57184327E+02
      3.13482950E+03     -6.48524873E+02     -2.59778906E+03
     -1.55605651E+02     -1.29697733E+01      2.58556017E+02
      1.83625088E+03      3.09574723E+03     -7.19298139E+02
      1.12472954E+02      1.91742538E+03     -7.39754814E+02
      9.41895829E+01      4.10884197E+02      1.64277613E+01
     -1.89905170E+03      1.50548897E+01      4.93635708E+02
     -7.57436490E+02      1.12327085E+03     -3.42725654E+03
     -3.44854473E+02      8.26328017E+02     -2.92311364E+02
     -2.64405854E+03     -1.14713669E+03      1.29564557E+01
      7.24098503E+02     -1.08793455E+03     -1.64566898E+03
     -3.70330548E+01      6.79202396E+02     -1.44118594E+02
      3.80343815E+01     -1.73580787E+03      1.28539775E+03
      9.44477334E+02     -1.31736542E+03      1.53909437E+03
      2.02775624E+03      2.74044879E+02      1.92257873E+03
     -1.57923107E+02     -3.31753949E+02     -6.37012123E+01
      9.02083683E+02     -9.39951645E+02      2.77870533E+02
      2.59645789E+03     -1.60965304E+03      1.86377166E+03
     -2.32775045E+02      8.94993494E+02      1.37850320E+03
      7.38943000E+02      8.19484109E+02      1.10487779E+03
     -1.41545331E+03     -3.78583473E+02      9.85985558E+02
     -3.99354890E+02      9.22275326E+02      2.35866794E+03
     -1.12514613E+03     -2.49542309E+02      1.73984045E+02
     -3.08604877E+02     -1.21973512E+03      6.19519087E+01
      1.57247238E+03      1.30899672E+03      2.96740767E+02
     -4.52938769E+02     -1.25276511E+02      1.54764713E+02
      1.46021467E+03     -1.82365995E+03      6.05655190E+02
     -8.45800226E+02      1.11316031E+03     -2.99387667E+02
      1.83210190E+02      2.66283848E+02     -2.66349844E+02
     -3.31087695E+03      3.44341974E+03     -2.55081082E+01
     -3.22243241E+03     -7.28974546E+02     -1.78039751E+03
     -7.64966827E+02      1.14959087E+02     -3.89807276E+02
      4.81110048E+01      2.63361424E+03     -1.81631967E+01
     -3.20376841E+03     -4.73672636E+02      1.46118536E+03
     -5.36570911E+02     -3.47972409E+02     -2.93598740E+01
      1.60290670E+03     -2.99076979E+02      1.02852871E+03
      5.51563096E+02     -1.59997483E+03     -1.16709766E+03
     -1.31021930E+02      6.44616291E+02     -4.91767768E+02
     -3.74987697E+02      1.31678078E+03      7.48954135E+02
      1.91370426E+03      3.91146593E+02      1.91288133E+03
     -1.46510626E+02      1.57994713E+02     -1.11950610E+03
     -7.75947996E+01      3.65257076E+03     -1.31656164E+02
      1.56809784E+03      1.22732586E+03      1.91723437E+03
     -3.55100789E+02      7.12621496E+01     -3.96816595E+02
     -3.38950212E+02      1.95756677E+03     -4.07284383E+03
     -1.90313690E+02      1.63877697E+02      9.69996127E+02
     -3.12226187E+03      6.83325729E+02     -1.21126691E+03
     -3.89805325E+02     -4.07976785E+02     -2.56244910E+02
     -4.36921506E+02      2.73124171E+03     -1.92131162E+03
      3.63272339E+03     -1.11474400E+03     -5.44412635E+02
     -4.42944281E+02     -1.57700681E+03      1.19528291E+03
     -3.06803731E+01     -1.72518840E+02     -6.10087869E+02
     -2.14333830E+03      4.76132685E+03     -6.38265346E+02
     -2.38124749E+03     -5.02208326E+02      4.86008684E+02
     -3.57607295E+02      7.22193090E+01      3.14700441E+02
     -1.27759535E+03      6.95645438E+02     -7.66918503E+02
     -1.66501884E+03      2.71645033E+03     -2.77495642E+03
      7.89126945E+02     -1.75162802E+02     -3.44182465E+02
     -1.73512799E+03     -1.12079193E+01      1.83663634E+03
     -1.13169910E+03     -4.31389053E+02     -8.70190137E+02
     -3.17108818E+02      2.59160790E+02     -8.03959449E+02
      4.36928779E+02      3.02802282E+02      1.54988168E+03
     -1.24529335E+03     -1.52553585E+03     -1.33124814E+03
     -2.98463855E+02      9.53417166E+02     -7.49969800E+02
      3.34492550E+03      1.36683880E+03      1.03984549E+03
     -2.65564918E+03      1.09005059E+03      9.67018915E+02
      5.69258118E+02     -3.43938139E+02      8.02823104E+01
      6.96725467E+02      8.55902853E+01     -8.23568260E+02
      2.53801507E+03      7.41480261E+02      8.74923384E+02
     -6.07878047E+02      4.49009106E+02     -1.76440545E+02
      5.08579082E+02      1.21962012E+03     -5.86033253E+02
      2.10796701E+03     -3.95986305E+02      1.09914487E+02
     -4.49450126E+02      7.32198659E+01     -3.87326726E+02
     -2.57839114E+02      1.65290551E+03      6.95192127E+02
     -2.62737050E+03      8.72913214E+02     -1.94983085E+03
      2.08096398E+02     -4.72277758E+01      2.58966140E+02
     -1.49964929E+03     -6.95387688E+02      5.40089223E+02
     -1.54699541E+03     -1.65040650E+03     -2.74516642E+03
     -1.67919527E+03      1.13774641E+03     -5.35732648E+02
     -3.58711411E+02     -6.31668798E+02     -2.16045941E+02
      2.11778018E+02     -2.45476760E+03     -2.78503474E+03
      8.90163827E+02      2.02580060E+03      1.77077427E+02
      1.39672765E+02      2.66789117E+03     -1.78630205E+03
     -4.89181196E+02      2.28010005E+02     -5.64887158E+02
      1.06697555E+03      2.24915086E+03     -1.47884787E+03
      1.52008024E+03     -6.97623230E+02      3.52950282E+02
      2.63489187E+02      3.19311012E+02     -3.09246230E+02
      6.88944142E+02     -3.59186867E+02     -2.84353357E+03
     -4.13943894E+03     -5.07669400E+02      1.43948047E+03
      1.73318589E+02      3.60236520E+01     -3.20271776E+02
      9.03551439E+02      2.08402389E+03     -2.00417684E+03
     -1.79500509E+03      1.17515317E+03      3.50116489E+02
      1.17538370E+01      4.84878771E+02     -4.47655160E+02
      9.81594710E+02     -3.07228823E+03     -6.86320593E+02
     -8.87683789E+02      3.36357925E+03     -5.60499907E+02
      1.49880283E+02     -1.10327166E+02     -5.09626172E+02
      1.70708060E+03      3.51501224E+02      1.87714701E+03
      2.68589466E+03     -2.79218268E+03      8.69354707E+02
      2.14750340E+02      3.19180380E+02     -2.49546224E+02
      8.21218086E+02     -1.07028937E+03      2.74546849E+02
      1.22006983E+03      3.51879163E+03      3.54214609E+03
     -2.88854779E+02      8.06716320E+01     -3.21219848E+02
      1.49864635E+03     -1.38819110E+03     -1.46581402E+03
      1.17864298E+03      1.87042967E+02      6.30000967E+02
     -5.03198565E+02      3.48511689E+02     -4.75947126E+02
      7.56950397E+02      1.86000124E+03     -3.10953668E+03
     -7.10417243E+02     -2.18720234E+03      1.96999927E+03
      1.33191409E+02     -1.71728432E+02     -9.89629961E+02
     -1.13041228E+02     -1.19553299E+03      1.38307282E+03
     -9.80548480E+02      1.13672629E+03      2.77642660E+02
      1.82282914E+03      1.69396927E+03     -1.33731211E+03
     -2.16698917E+02     -3.01663116E+02     -3.22182017E+02
      2.34430520E+02     -3.08172099E+02     -6.20070479E+02
      1.52978770E+02     -1.05892945E+03     -2.10317278E+03
      9.63449806E+02      6.55846855E+02     -8.20167522E+02
      1.57747621E+02     -4.62142860E+01     -1.22178157E+02
     -4.40344112E+02     -1.03018862E+03      2.84386899E+02
      1.01569958E+03     -2.33833424E+03     -2.40368089E+03
     -2.43989059E+02      2.20966845E+01     -2.08036146E+02
     -2.35926895E+02      8.38706617E+02     -7.45738428E+02
     -1.29139816E+03     -6.76235397E+02      4.93255318E+02
     -6.09126173E+02      8.68646744E+02      6.86164758E+02
      9.22005861E+02      1.69882079E+03     -5.56455451E+02
      1.55862529E+03      6.55792698E+02      9.51032290E+01
      1.63680824E+04     -2.05957533E+04      2.04029284E+04
      2.76461380E+02     -2.58677999E+03      2.93536027E+03
      4.71580539E+02      2.03793617E+03      1.33147510E+03
      2.91655477E+02     -7.97061152E+02      1.62374716E+02
     -8.67378723E+02      3.67222255E+02     -1.68221286E+03
      5.07723207E+02     -2.57661125E+02      1.74845625E+03
      3.32513969E+02      5.72160334E+02     -7.71484895E+02
     -1.72767476E+03      8.94039551E+02     -1.42721796E+03
     -2.31116063E+02      2.34968524E+03     -1.30957691E+03
     -7.15386373E+02     -3.32763239E+02     -6.80367738E+02
     -2.94386039E+02      1.73884411E+03     -5.08655809E+02
      4.06670118E+02      1.63002746E+03     -3.19606600E+02
     -6.05014327E+02      6.85336928E+02      6.02142500E+01
     -1.03173907E+03      1.31661753E+03      9.23011820E+01
      6.36486761E+02     -3.73034916E+02     -1.13056191E+03
      5.50198765E+02     -7.24621180E+02     -2.06715957E+02
      2.16490687E+02      1.96070425E+03     -1.91836355E+03
     -1.63984636E+03      1.40185642E+03      1.21949044E+03
     -1.49589665E+03      1.43373584E+03      8.52823008E+02
     -3.68593290E+02      1.47727230E+02      1.55248598E+02
      2.56471982E+03      8.85550188E+02     -1.33767272E+03
     -1.23993556E+03      2.02632900E+02     -2.11262698E+03
     -2.12664468E+03      1.15739908E+03      2.91292775E+02
     -1.18678793E+02      2.61060794E+02     -3.41138144E+02
     -2.24683227E+03      7.61729531E+02      1.31850718E+02
      1.77652126E+02      2.75812096E+03      1.26126190E+03
     -4.74289989E+02      8.30308027E+02     -1.00692394E+02
     -5.79562806E+02      7.91103307E+01     -3.16423216E+02
     -2.02105410E+03     -7.89318341E+02     -1.68134164E+03
     -1.53853744E+02      1.16019017E+02     -8.96263702E+02
     -1.61575341E+03      3.27921651E+03      8.24371915E+00
      1.90608570E+03      2.59890280E+02     -1.03206473E+03
      3.73872491E+02      7.63787323E+01     -6.38833026E+01
     -1.40882271E+03     -2.60345715E+03      3.03794151E+02
     -1.49224530E+02      1.51151027E+03      6.49672073E+02
     -3.06253196E+02     -7.15707820E+00     -7.47874134E+02
     -1.91244897E+03      1.65600846E+03      2.27085419E+03
     -5.25959955E+02      4.37077200E+02     -7.17022369E+02
     -1.70157411E+02      1.56042512E+02      2.77031959E+02
     -1.64068422E+03     -1.41115316E+03     -6.46001371E+02
      3.30958322E+01     -1.43586918E+03      1.18914151E+03
     -2.87642572E+02      2.20269746E+02      1.81133286E+02
      2.81280050E+02      8.05806164E+02     -1.97647117E+03
      8.42319256E+02      2.49559590E+03      2.03890239E+01
     -2.05959978E+02     -1.55221302E+02     -3.06546133E+02
     -1.77214552E+03     -3.24840167E+03      3.71461349E+03
     -7.15558613E+02     -1.25091954E+03      1.11721569E+03
     -7.42773059E+02      5.92394536E+02      5.74166138E+02
      2.07354380E+02      4.70586773E+02     -5.85239239E+02
      1.20514863E+03      4.11203955E+01      3.90125239E+03
      5.03657466E+02      2.46937213E+03     -8.49746844E+02
     -5.84415229E+02     -7.63399149E+02      4.07660186E+01
      3.25361744E+03      4.25383705E+03     -9.91183706E+02
      3.81608341E+02      1.45493274E+03     -1.39475143E+03
      8.45973940E+02      1.40139155E+03      4.45887936E+01
      4.09432931E+02      2.72469285E+02     -5.37253224E+01
     -2.55185198E+02      1.26767629E+03      2.84209726E+01
      3.33699709E+03      1.20918653E+03      1.42245416E+03
     -4.98127886E+02     -1.03328428E+02     -3.03111938E+02
      2.79743117E+03      1.77276172E+03     -1.49886692E+03
     -1.21179481E+03      2.23250355E+02      2.60038121E+03
      3.46125703E+02     -3.50234697E+02      3.17596744E+02
      2.44601562E+03      3.30569584E+02      7.56325331E+02
     -1.46099532E+03     -2.72277859E+02     -3.44668546E+02
     -4.48589633E+02      1.02624929E+03      3.59034661E+02
     -1.38987810E+03     -1.52299471E+03     -1.90341407E+03
      5.17798324E+02     -2.11870635E+02     -1.38552870E+03
     -4.86240345E+02     -3.17159203E+02     -5.34878848E+02
      6.28412882E+02     -7.63933822E+02     -2.07013730E+03
      1.10728941E+03     -5.36952822E+01     -1.11018806E+01
     -1.39711593E+03      8.78892141E+01     -1.81539907E+02
     -2.82593436E+03     -6.76568520E+02     -1.40554382E+03
      1.40306790E+03      2.49609622E+03     -2.44394665E+03
     -6.33179935E+02      6.91611976E+02     -3.33334624E+02
     -1.21084264E+03      1.80683030E+02      1.28937276E+03
      2.69369279E+03      3.29718008E+02      1.19740196E+03
      2.66269233E+02      6.10084607E+02     -2.99072289E+02
      1.30633839E+03     -4.60562781E+02      4.05749436E+03
     -1.32557966E+03      2.19607602E+03     -1.50235634E+03
     -2.38415396E+02      1.09777142E+02      2.73414167E+01
     -1.13916646E+02     -3.30466573E+03     -9.94401010E+02
     -1.58062662E+03      2.42815277E+02      1.25905175E+03
      1.70555231E+03      1.07071554E+03     -9.79412902E+01
      7.53325085E+02      2.79332065E+02     -1.14365638E+02
      2.21536213E+03      1.02125963E+03     -1.57904826E+03
     -4.09453325E+02     -6.74632306E+02     -4.80417660E+02
     -2.95048518E+03      1.21940207E+01      2.55657310E+03
     -1.03912157E+02     -2.21403511E+02     -4.40485525E+02
      1.80977707E+03      3.78588735E+02     -3.44883723E+02
      1.49915065E+03     -2.93856685E+03     -7.33664386E+02
      1.99833694E+01     -1.15279943E+02      7.46036419E+02
      8.93887651E+02     -4.75128373E+02      3.47461861E+03
      6.22197912E+02      7.78184591E+02      1.21247335E+03
      3.68689017E+02      6.37670195E+01      3.71257899E+02
     -2.35342264E+03      8.34994156E+02     -9.66815568E+02
     -4.43217188E+02     -5.42741449E+02     -1.85727361E+03
     -4.85709323E+02      2.24307365E+02     -1.12654161E+02
      7.36828098E+01      3.35150479E+02      4.89119549E+02
     -6.65295145E+01     -7.45977909E+02      2.37074235E+03
      7.41726555E+02     -2.61651389E+01      3.37354747E+02
      2.43640517E+03     -6.62881697E+02     -1.39497217E+03
     -2.80791870E+03     -2.35420781E+03      8.98985288E+02
     -1.98683885E+01     -3.86031284E+01     -2.93739844E+02
      1.23160122E+03     -1.55836341E+02      2.00524836E+03
     -4.82039249E+03      3.18620236E+02     -6.68676168E+02
     -3.93811596E+02     -5.71848564E+02     -9.98492092E+02
     -1.83207199E+03      5.33929149E+02     -1.47140432E+03
     -1.81584015E+03      8.68793093E+02      6.56122362E+02
     -6.76070085E+02      2.25449228E+02     -1.43603147E+01
      2.14374090E+03     -3.40255320E+02     -2.16765816E+03
      5.80514701E+02     -2.21596321E+03     -1.05799384E+03
     -5.45935067E+02     -5.06316710E+01     -1.60317239E+02
      2.74558804E+02     -4.06859130E+01     -9.92308922E+02
     -2.38743517E+03     -1.47780661E+03      2.30743310E+01
     -1.54285988E+03      3.95551604E+03     -2.40407628E+03
      3.14765722E+02      4.75493955E+01      1.55409319E+02
     -2.31710771E+03      1.92936164E+03      1.60361498E+03
     -1.54494784E+03      2.70748977E+01      1.13055060E+03
     -2.17539427E+02      2.31244374E+02     -1.14296871E+03
     -9.22265240E+02     -8.92721139E+01     -1.50557990E+02
      2.49144215E+02      1.11392054E+03     -6.41064722E+02
     -3.91877228E+03      1.01532200E+03      1.72937398E+03
     -3.03301313E+02      1.28595259E+03      2.87818762E+02
      3.20700532E+03      3.64695799E+03      5.79866782E+02
     -4.52241875E+03     -7.84131431E+02     -1.56797388E+03
      4.81362686E+01      3.07602736E+02     -8.95616055E+02
     -3.89135107E+03      2.07388382E+03     -8.58581260E+02
     -1.43105134E+03      1.51662353E+03      2.64703253E+03
     -7.65454814E+02      8.29419923E+02     -2.67096552E+02
      2.01034424E+03     -5.56868406E+02      2.39457989E+03
     -3.35938994E+03      2.05147455E+02     -1.74821788E+03
      1.17397042E+02      2.34630091E+02      1.06880418E+02
     -1.31399145E+02      1.67096408E+02      1.84825980E+03
     -1.56384478E+03      4.37396893E+02      3.42123648E+03
     -7.49788718E+02      9.00657556E+01     -3.60644733E+02
     -4.15117383E+02      3.87012963E+02      2.62978183E+03
     -4.11279065E+02     -7.59570346E+02      1.79875707E+03
     -2.37943065E+02     -4.33685986E+01     -5.65651392E+02
      2.49410453E+03     -9.17571511E+02      1.07954398E+03
      9.78891728E+02      2.02937483E+03     -8.64210660E+01
      1.46053470E+02     -5.07399784E+02      4.35021683E+00
     -3.24154131E+03     -2.37874512E+03     -1.71698350E+01
      1.80645950E+03      1.23260742E+03     -6.45914896E+02
     -2.35439660E+02      8.31313871E+02     -4.91968237E+01
      2.61092428E+03      1.57501911E+01      2.70776609E+02
     -1.03939062E+03      4.04986536E+02      2.06800010E+02
     -4.71150282E+03     -6.27523945E+02     -8.92153070E+02
     -1.58115619E+02     -2.10428848E+02     -3.94110061E+02
      2.15411178E+03     -5.75546616E+02     -1.19067050E+03
     -2.04980591E+03      2.14662415E+02      2.49142925E+03
      7.92085935E+02      1.72361937E+03     -7.63572476E+02
     -2.89792752E+02     -2.11740359E+02     -2.85554005E+02
      1.07689746E+03      1.11298699E+02     -1.92036131E+03
     -2.09566982E+03      1.81763665E+03      2.08350400E+03
     -3.73830760E+01      3.90609177E+02     -3.45621350E+02
      8.11514635E+01     -1.86077703E+02      1.65484646E+03
     -2.70550684E+03      1.08914951E+02     -1.43442445E+03
      3.97773399E+02      6.36577020E+02      3.44946607E+02
      4.08713219E+02      1.34354285E+03     -6.19494483E+02
      1.98161074E+03      2.78740783E+03      7.98120474E+02
     -5.08009976E+02     -4.57097950E+02     -8.54952755E+02
      1.85504860E+03      8.22217005E+02      1.31453000E+03
     -4.70539146E+02     -1.31730232E+03     -2.69580981E+03
     -5.47713012E+02     -7.38483942E+01      3.60001317E+01
      1.64376298E+03      3.96510768E+02      3.21484119E+02
     -1.22747713E+03      3.20012227E+03     -3.70597969E+02
      3.86319831E+02     -2.08368172E+02      1.70922346E+02
     -7.70793529E+02     -2.45011341E+03     -1.97402499E+03
      8.52053836E+02      2.39314181E+01     -8.90264060E+02
      2.78988718E+02      5.81105117E+02     -4.17399489E+02
     -8.27541068E+01     -1.04486383E+03     -3.10361572E+03
     -5.81988224E+02     -4.47388616E+02     -1.32400953E+03
     -5.19163997E+02      1.19910957E+02     -4.45311379E+02
      2.42118845E+03      2.11973468E+03     -5.75137373E+02
     -1.27732763E+02      2.27443124E+03      3.06339625E+03
      2.82173719E+02      6.08494959E+02      2.71489640E+01
     -8.93034921E+02     -1.68931228E+03     -1.99561212E+03
      1.66400491E+03     -2.10523324E+03      1.85232110E+03
     -1.32361146E+03     -1.32529916E+03      7.60825389E+02
      8.06517353E+00      9.00499474E+02     -3.76065835E+02
     -9.03582276E+02      2.40219799E+02      4.90861855E+02
      2.79464120E+03     -2.75436040E+03     -2.19429382E+03
     -2.06735803E+03      1.83332672E+03     -2.50820327E+03
      7.84778061E+01     -1.61358257E+02      6.79062818E+01
     -1.46579307E+03      6.07776816E+02     -2.05443776E+03
     -2.86170889E+02      1.80507379E+03     -2.29278714E+03
      4.61669445E+02     -3.07144222E+01      7.38210749E+02
      1.56249635E+03     -1.24117549E+03     -8.61503885E+02
      1.53191095E+02     -7.08185751E+02     -2.49540792E+01
      2.09251658E+02     -7.74813252E+01     -2.69850647E+02
      2.52464113E+03      1.56901492E+03      1.98950270E+03
     -7.67856269E+01     -1.50554686E+03      5.18477560E+02
     -6.18354919E+01     -4.12722999E+02      6.69477354E+02
      3.70532134E+02      1.84314924E+03      1.05166344E+01
      1.13697945E+03     -1.66950054E+03     -8.51730124E+02
     -1.92307507E+02     -2.78749833E+02     -9.11655429E+02
     -1.32163059E+03     -1.45277585E+02     -1.47667194E+03
     -1.85853498E+03      3.59880987E+02     -8.62580613E+02
      8.76959230E+01     -1.17985835E+02      1.28937994E+02
     -1.34166914E+03     -2.17406581E+03      2.18650975E+02
     -1.78064616E+03      1.38557918E+03     -5.22872980E+02
      6.09977928E+02      2.39926301E+02     -4.72159744E+02
     -1.48268896E+03      9.89921970E+02      5.26048614E+02
     -8.07737848E+02      7.04180003E+02      2.98039857E+03
     -1.01012454E+03      1.03910508E+03      1.97337372E+02
      1.32032161E+03     -1.99736723E+03      2.05398533E+03
      3.44466717E+03      8.71157823E+02      1.25576907E+02
      4.47793052E+02     -4.94085896E+02      3.41652664E+02
     -6.01579020E+02      8.11914186E+02     -6.42710563E+02
     -1.94114520E+03      1.33299126E+03     -2.00881190E+03
      5.28727937E+01     -1.53675201E+03     -2.64848203E+03
     -3.98272869E+02      5.95155329E+02     -4.69496004E+02
     -1.02793056E+03      1.19138733E+03     -6.37469132E+02
     -3.68298924E+02     -1.37324395E+03      1.27452560E+02
      3.66388444E+02      9.47535425E+02      1.32636195E+03
  }
}

Hamiltonian = DFTB {
  SCC = Yes
  SCCTolerance = 1e-6
  MaxSCCIterations = 200
  ForceEvaluation = Dynamics
  MaxAngularMomentum = {
    C = "p"
    H = "s"
  }
  Charge = 0.0
  SpinPolarisation = {}
  Eigensolver = Standard {}
  Filling = Fermi {
    Temperature [Kelvin] = 300.0
  }
  SlaterKosterFiles = Type2FileNames {
    Prefix = "../../pbc-0-3/"
    Separator = "-"
    Suffix = ".skf"
    LowerCaseTypeName = No
  }
  KPointsAndWeights = {
    0.0000000000000 0.0000000000000 0.0000000000000 1.00000000000000
  }
  Dispersion = LennardJones { 
    Parameters = UFFParameters {}
  }
}

ParserOptions = {
  ParserVersion = 3
}
