Geometry = GenFormat {
<<< "system.gen"
}

Driver = VelocityVerlet{
  Steps = 50000
  TimeStep [fs] = 0.2
  MDRestartFrequency = 25
  Thermostat = None {
    #InitialTemperature [Kelvin] = 300.0
  }
  Xlbomd{ 
    IntegrationSteps = 6 
    MinSccIterations = 2
    MaxSccIterations = 200
    SccTolerance = 1e-6 
  }
  Velocities [m/s] {
      7.27636864E+02     -1.57043091E+02      4.00862954E+02
     -1.63877192E+03     -3.59350631E+02      3.01972354E+02
      1.22456543E+03     -1.64233891E+03     -1.43256076E+03
     -3.39870097E+02     -5.69162017E+02     -2.84627869E+00
      1.00747338E+03     -1.52322294E+03      2.15524789E+03
      3.37177986E+02     -9.83206053E+02      8.07888231E+02
      7.74249932E+01     -3.78009446E+02     -1.60877805E+01
     -1.71365720E+02     -8.49991106E+02     -9.60724137E+02
     -2.87302604E+02      1.60771788E+03     -1.56637050E+03
      5.03482432E+02      1.48650618E+01      9.96702330E+01
     -1.42246035E+03     -1.34099431E+03     -1.26500760E+03
      2.18936669E+03     -3.46546766E+02     -1.79458299E+03
      1.39357848E+02     -3.26757563E+02      6.36070422E+02
     -2.37918989E+02     -9.10193244E+02     -1.64374958E+03
     -7.25797115E+02      5.53195808E+02     -1.02784317E+03
     -4.01524353E+01     -4.49077350E+02     -6.39701812E+01
     -1.54234162E+02     -3.15726503E+03     -2.68873603E+02
     -1.60075076E+03     -1.89123024E+03      1.75303351E+03
      2.48727294E+02      2.20047546E+02      1.98799132E+02
     -8.22461697E+02     -1.05211671E+03      3.15638191E+02
      1.65430305E+03     -3.83080570E+02      8.02066253E+02
     -2.90394809E+02     -1.23664888E+01      9.76392260E+02
     -6.08330378E+02     -1.01063092E+03     -2.69612230E+03
      3.71673651E+03      1.31725622E+03     -3.33988156E+02
      1.30873633E+03      1.50779445E+01     -6.49564275E+02
     -3.27300702E+02     -1.12420817E+03     -3.98073452E+03
      1.62327156E+03     -9.34763322E+02      3.33726072E+03
      6.55324434E+02     -1.05369443E+03     -1.75961401E+02
     -3.38606077E+02      4.00593275E+02     -3.82637339E+02
     -3.15525212E+03     -1.02660489E+03      5.94389197E+02
     -1.82926373E+03     -1.40625756E+03      2.44575639E+03
      1.22615049E+03      7.14054517E+02      7.48994639E+02
      4.03673885E+02      2.27708856E+02     -3.34624919E+02
     -2.66731774E+03     -1.98347385E+03      1.05538447E+03
     -2.75286710E+03      6.80410938E+02      4.83572700E+02
      1.82350108E+02     -3.66795511E+02      1.54581527E+02
      2.58674452E+03     -1.74040400E+02      3.15066653E+02
     -3.42830738E+03     -2.61445692E+03      9.03864625E+02
      1.05543157E+03     -2.13432345E+02     -1.85249690E+02
     -1.74741126E+03      5.26207568E+02     -1.14125647E+02
     -1.17466855E+03     -4.16351335E+01     -4.39404386E+02
     -4.49146658E+01     -3.27396378E+02      4.68702464E+02
      4.25058701E+01     -2.99284411E+03      1.54227618E+03
     -1.54108178E+03     -1.94094477E+03     -1.04221958E+03
     -7.44292891E+02     -4.04152291E+02      3.58336892E+02
      1.10347491E+03     -3.72358798E+03     -4.87916766E+02
      1.21214439E+03      1.21448004E+03      2.44956180E+02
      2.41136594E+02     -1.85003047E+02      4.69892727E+02
     -2.94369112E+02     -2.12454636E+03      1.72094489E+03
      5.70784730E+01      7.81756346E+02     -8.44110379E+02
     -3.80722913E+02     -8.87386873E+02     -1.37085188E+02
     -2.99705520E+02      5.83280961E+02     -3.31728459E+00
      3.71375585E+03      1.35577683E+03      3.63649838E+03
     -2.69040731E+01     -3.91008139E+02      2.30801478E+02
      6.70848933E+02     -2.22438419E+03      2.36011003E+03
      9.10908662E+00     -6.15255716E+01      2.74391212E+03
     -6.02064807E+02      2.80707589E+02      3.21053558E+02
     -7.66160816E+02      2.17897296E+03      1.17169146E+03
     -1.32352175E+03     -4.37166305E+02      1.63981095E+03
     -9.01201960E+02      2.70137128E+03      1.23543941E+03
     -4.67816590E+01     -3.64234629E+02     -2.19067359E+01
      2.38454497E+03      9.28533197E+01      1.19631700E+03
      1.18528628E+03     -4.75046520E+02     -1.32273472E+03
      1.69312497E+01     -5.41986433E+02     -4.49575281E+02
     -1.48972931E+02      2.18250411E+01      5.38530917E+02
     -3.43185185E+03      5.09468478E+03     -1.55971019E+03
      1.68080198E+02      9.95895328E+02     -3.13523488E+03
      8.86373795E+01      1.17600288E+01     -5.40880597E+02
     -2.60122250E+03      4.05493510E+02      1.20772064E+03
      2.02813557E+03      1.10661135E+03     -5.58043249E+01
      7.02520404E+02      1.97037403E+02     -2.59413315E+01
      9.15066163E+02     -3.47988586E+02      4.78398662E+02
     -8.47730888E+02     -1.12152562E+03     -1.68351472E+02
      1.10396710E+03     -2.95476323E+02     -4.48818120E+00
     -1.75362938E+03      1.46597924E+03      1.49445203E+03
      9.46862684E+02     -3.05411430E+01     -3.00564341E+03
     -7.72783734E+02     -4.52173598E+02      3.59534169E+02
     -6.67321336E+02      1.24956624E+02      9.15405886E+01
      2.91647112E+03     -2.22289667E+03      3.06325823E+03
      2.19608339E+02     -3.42173760E+02      4.33441432E+02
     -2.11564662E+03      7.86070331E+02     -6.65697346E+01
     -2.03226142E+03      4.01136010E+02      8.03819009E+02
      7.11632965E+02      3.37973476E+02      5.02512819E+01
     -8.66456978E+01     -5.56942537E+01     -3.39864592E+02
      7.88674594E+02     -2.84500018E+03      7.33817258E+02
      2.19373656E+02      5.06069374E+01     -1.77991946E+02
     -5.04773349E+01     -1.34977827E+03      1.81988083E+03
     -3.85869015E+02     -3.03561208E+02     -3.26818866E+02
     -1.44307591E+02     -1.38683838E+02     -4.81849388E+02
     -2.70508251E+01     -3.08378533E+02      2.20576315E+03
      1.67990087E+03     -1.07379391E+01      4.06719657E+02
     -2.01164963E+03     -5.54440494E+02     -1.63919875E+03
      9.14577894E+02      5.59813845E+02      2.98155756E+01
     -1.15327874E+01     -1.05499425E+03     -2.08051329E+03
     -5.35065393E+02      1.52266604E+03      1.30230243E+03
     -4.65414371E+02      3.27308820E+03      1.28340340E+03
     -8.33953565E+02     -5.54975529E+02     -5.73777571E+02
      6.42663640E+02     -2.52790435E+03      1.52587937E+02
     -8.18525019E+02      5.18101408E+01      1.02639208E+03
      7.44527189E+02     -9.00468797E+01      3.62838506E+01
      9.44481657E+02      4.95642734E+02      4.56813270E+01
      4.19211788E+02     -6.86696935E+02      1.11538752E+03
      3.14507687E+02     -2.06158826E+02     -6.56611272E+01
     -1.06925309E+03      1.61895398E+02     -1.74962251E+02
      2.29870913E+03      2.62541886E+02     -1.83251074E+03
      6.82382924E+02     -6.61704020E+02      5.94554526E+02
     -2.74764709E+02      5.22675233E+02      2.27797268E+03
      2.16425751E+03     -2.36022557E+03     -2.07655225E+03
      8.52303674E+02      2.02262544E+02     -9.49627590E+01
      5.60749850E+02     -1.95053185E+03      1.78282996E+03
      1.88127372E+03     -9.55013351E+02      1.16109291E+03
      4.70413045E+02      1.03060374E+03     -4.56026451E+02
     -2.15250910E+03     -2.22045640E+03     -1.48304176E+03
      2.12285259E+03      1.09586819E+03     -6.95317107E+02
     -3.56039166E+01     -3.70989757E+01      2.77448500E+02
      1.64493494E+03     -2.61287888E+02     -3.17264753E+03
     -1.97746178E+03     -1.96717229E+03     -9.42541669E+02
     -3.12778232E+02      4.98889845E+02     -1.50894611E+02
     -9.59471678E+02     -4.47139035E+03     -1.13595813E+03
     -1.07498169E+03     -8.14487664E+02      6.37868814E+02
      7.04396232E+02     -6.45320927E+02      2.79860764E+02
      3.99617526E+02     -3.50844384E+02      3.14389798E+03
     -1.90259818E+03      2.41377860E+02     -7.91466656E+02
     -4.10436589E+02     -9.10742809E+02     -2.29391727E+03
      6.36080851E+02      3.36488187E+02     -3.01943480E+01
      1.68236953E+03     -1.78560580E+03      1.23866830E+03
      1.74299455E+03     -9.14335005E+02      1.21301081E+03
      8.12526885E+02      1.35930422E+03      2.21885986E+03
      6.57446015E+01     -5.36574791E+02      8.66465550E+00
     -2.08948291E+03     -2.25350148E+03      4.60696436E+02
      1.14830174E+03     -8.79495203E+02      3.35049205E+03
      3.87808547E+01      8.92157168E+02      4.12390776E+02
     -6.62037360E+01     -1.04321893E+03     -2.50668839E+03
      3.49133865E+03     -1.12368581E+03     -2.60512073E+03
     -7.23951687E+02     -7.47629821E+02      6.12938701E+01
     -1.37206769E+03     -1.96535119E+03      1.27475903E+02
      1.81294012E+03     -3.96350647E+02     -1.82176204E+03
      4.17957587E+02      9.38586395E+01     -1.66975357E+02
     -2.32399473E+02      1.75334709E+02     -6.33321111E+02
      1.39645345E+03     -2.96277742E+02     -7.14663130E+02
      1.06051310E+02      8.80809889E+01      4.02484991E+02
     -6.80669458E+02     -6.92616808E+02     -3.56133785E+03
     -3.39683803E+03      2.13214143E+03      2.29492168E+03
      6.73858140E+02      6.34735777E+01     -6.31365607E+02
     -7.19439442E+02     -1.00214626E+03      8.64054187E+01
     -2.02206359E+03      2.29543138E+03      1.54935535E+03
     -2.79699739E+02     -4.28585183E+02      2.22262341E+02
     -2.67138641E+03     -8.88926705E+02     -1.12727081E+03
     -1.45212807E+03     -1.67629105E+02     -3.06751387E+02
     -1.74044947E+04      1.31574404E+04     -1.11762900E+03
      8.42826203E+02     -1.64299941E+02     -6.51278551E+02
      2.91913862E+03     -1.26887420E+02      6.60675282E+02
     -7.25879351E+01     -2.41447777E+02      3.54968035E+02
     -8.54926265E+02      1.27521976E+03      4.25026869E+02
      6.44898636E+02      3.15408595E+02      1.01493882E+02
     -1.72741761E+02      4.24805806E+02     -1.00607809E+03
     -1.73878017E+02      3.20233673E+02     -2.83130565E+01
      2.02113058E+03      1.73132750E+03      1.09471995E+03
     -1.88948815E+03      2.13418757E+03      8.02762563E+02
     -1.15905856E+03      5.97232970E+02      1.11817537E+03
      1.32338443E+02      2.08708363E+02      4.75577629E+02
      1.17268534E+03     -1.44209078E+03      2.30823100E+03
      2.53740004E+03      3.20158793E+02      2.19337370E+03
     -1.29522809E+02      3.30139956E+02     -5.71341711E+02
     -2.40879870E+03     -7.58449918E+02     -2.49907569E+03
     -2.53671958E+02      1.99375158E+03      1.80743634E+03
      1.01718949E+03      9.79691729E+00     -9.64263532E+01
     -8.17960334E+01      2.76288192E+02     -1.95490070E+03
      2.04443230E+02     -2.57373275E+02      1.64657723E+03
      8.30108127E+02     -4.95424815E+02     -4.26808468E+01
     -2.66161813E+02      2.10231532E+03      1.46157751E+03
     -1.28052824E+03     -1.19110859E+03     -1.98736427E+03
     -1.34380564E+02     -4.16560436E+02     -2.66797221E+02
      2.21874815E+03     -5.65513998E+02     -2.51376138E+03
      1.68486330E+03     -2.04709771E+02     -1.51811466E+02
     -2.57157754E+02     -7.70265801E+02     -6.04764494E+02
      1.70816761E+00      1.09844964E+03     -2.27326965E+03
     -9.26530887E+02     -2.35119853E+03      1.87576590E+03
      5.55343853E+02     -1.68696883E+02      9.12289478E+01
      2.51143072E+03     -1.82603888E+02      6.05945828E+00
      2.32331998E+03      2.97814034E+03     -1.07203557E+03
      1.86812259E+01     -2.40586580E+02     -1.29202231E+02
      4.01743594E+03     -2.30061763E+03     -2.67750094E+03
     -1.24745657E+03     -9.97148190E+02      7.30997524E+02
     -5.31026207E+02     -3.59424232E+02      1.87859228E+02
      8.16574769E+02      4.23995791E+02     -4.12089005E+02
      1.24451840E+03      4.66631132E+02      3.77299102E+02
      2.13264667E+03     -2.54921810E+03     -4.30675006E+02
      5.78643545E+02     -1.89001593E+02      8.07547618E+02
     -3.95992687E+02     -3.00641146E+02     -8.41220195E+02
      1.46316794E+02     -3.48435713E+02      1.89295125E+02
     -6.91403607E+02      3.50215379E+02      1.60663894E+03
     -2.79266464E+02      6.10413380E+00     -4.02454007E+00
     -1.33881601E+03      1.69318072E+03     -1.72689221E+03
     -4.36296525E+02      1.02189304E+03      3.06482438E+03
      4.85573119E+01      6.00013066E+02      3.91997156E+02
     -1.95181151E+03      1.60521439E+03      1.16471453E+03
      1.55379708E+02      1.90367391E+02     -3.01611172E+03
      3.52717493E+01     -1.68578038E+02      8.53171583E+01
     -2.76747861E+03     -1.41728926E+03     -7.12602806E+02
      5.93897654E+02     -1.94111074E+02     -1.38312737E+03
      1.90731206E+02     -1.20342824E+02     -6.41798184E+02
     -9.67315283E+02      2.29232139E+02      9.15083246E+02
      3.19099907E+03     -1.06554924E+03      2.47980832E+03
     -6.30836248E+02     -3.52221325E+01      2.27984997E+02
      3.61323997E+02     -3.30206980E+02     -1.10083001E+02
     -2.59033781E+03     -6.16701041E+02      2.52018688E+03
      4.17301866E+02     -1.19368987E+02      3.46116111E+02
      8.85832947E+02     -1.38132705E+03     -1.56809279E+03
      1.04803227E+03     -2.34193320E+03     -1.08248764E+03
      2.70476112E+02      4.04038693E+02      3.23343499E+02
     -6.38215958E+02     -8.11073960E+01     -2.03447614E+03
     -2.01186761E+03     -6.47844598E+02     -2.03500260E+03
      2.63962345E+01      1.49038020E+02     -4.80431963E+02
     -1.59483758E+03     -1.01990360E+03     -5.24251742E+02
     -3.40781854E+02      5.81661568E+02     -7.32636668E+02
      7.96161234E+02     -1.39159180E+02      6.25521990E+02
      2.99846323E+03     -1.52842989E+02      2.22852914E+03
     -2.58941259E+02      5.55577802E+01      8.76754519E+02
     -4.92852716E+02      1.22427795E+03      7.31304403E+02
      6.07952581E+02     -2.09845418E+02     -2.52065809E+02
      1.35917202E+03     -6.90506288E+02      1.14754615E+02
     -1.16736450E+03     -1.06716002E+03     -1.22432873E+03
     -9.23184018E+02     -2.19925481E+03     -1.61648256E+03
      1.67856457E+03      4.91450642E+02      2.74782937E+02
     -1.48278917E+03      1.69244185E+03     -5.22217633E+02
      5.62589647E+02     -1.38617731E+03      5.80505054E+02
      6.88339115E+02     -6.11385655E+02     -1.56595267E+02
      2.10214133E+03      1.07814125E+02     -1.16861723E+03
      2.65046085E+03     -2.06954535E+02     -1.56076940E+03
      7.00204561E+02     -1.12538011E+02     -9.10774325E+02
     -6.70773023E+02     -8.41552317E+02     -1.59015493E+03
      7.40070417E+01      4.01908019E+03      1.91540316E+03
      5.55831119E+02     -6.46411587E+02      3.48190681E+02
     -1.11085227E+03      2.33162168E+03      2.19027247E+02
     -1.29059180E+01     -8.35676100E+02      1.65401040E+03
     -9.58162421E+01      3.95591921E+02      3.97051899E+02
     -5.90303626E+02     -2.84997181E+03     -8.74456808E+02
      2.72335264E+03     -7.31676151E+02     -4.76981656E+02
     -2.21162246E+02      1.93417634E+02     -4.75510640E+01
      1.25605523E+03      7.81308971E+02     -1.62272538E+03
     -8.17180346E+01     -9.38054725E+02     -5.63004677E+02
      1.59241723E+03      1.84036754E+02      8.39924787E+02
      9.23379851E+02      5.47867644E+02     -5.08047286E+02
      1.97554467E+02     -3.36621381E+03     -2.22265415E+02
      3.59125810E+02     -5.55453956E+02     -7.46231876E+01
     -1.47664820E+03      1.40932518E+03     -3.18391152E+03
      1.48496092E+03      2.16707921E+03     -3.84086011E+02
      8.86146979E+02     -4.72583933E+02     -4.41621263E+02
     -1.40956948E+03     -2.35681592E+03     -3.18612600E+02
      2.13426663E+03      5.93671625E+02      6.65763986E+02
     -1.77855996E+03     -2.40042176E+02      9.44078481E+01
     -2.51504491E+02     -1.51534858E+02     -3.12168685E+02
     -1.06109230E+03      1.21178294E+03     -1.50135091E+03
     -4.82827524E+02      1.34410594E+02      2.27285654E+03
     -3.37205681E+02      1.38520052E+03     -1.94979650E+03
     -2.86476287E+02      6.26444189E+02      2.06860122E+02
      1.25355063E+03     -8.85654090E+02      6.34020312E+01
     -1.47902841E+02     -8.10376397E+02     -2.50289250E+03
      7.23911481E+02      5.65721651E+02     -4.15942775E+02
     -2.57905489E+02      2.87848833E+03      2.34290432E+03
      6.87466006E+02      8.78532248E+02     -1.99864639E+03
     -6.10598214E+02     -1.32127458E+02     -1.00534186E+03
     -1.35600780E+03      3.21962504E+03      1.65477434E+02
     -1.16515241E+03     -1.92057569E+03     -3.25498945E+02
      4.41281028E+02     -2.01824079E+02     -6.71679422E+02
     -1.93833911E+02     -2.17639090E+02     -7.74730665E+02
     -3.08095368E+03      1.04758744E+03      2.29352504E+03
      2.22939802E+02     -5.16879499E+01      4.04498534E+02
      3.88258482E+02      6.90274914E+02      8.98134488E+02
      1.03793571E+03      1.09559644E+02      7.43820316E+02
      1.33653901E+02     -5.84228460E+02     -3.09466184E+02
     -1.24039746E+03     -1.60120898E+03     -1.96133881E+03
      2.76127230E+03      1.15973959E+02      3.43670190E+01
     -1.53387363E+02      9.83526203E+02      4.90971723E+01
     -5.41425258E+02     -1.89118628E+03     -1.00099345E+02
      1.38884264E+03     -8.52017545E+02     -1.70084165E+03
     -6.40950652E+02     -3.71653214E+02      5.22828812E+02
      1.45936260E+02     -4.02404294E+02      6.73947128E+02
      4.45263459E+02      1.68095635E+03      2.92563695E+02
     -3.46873338E+02      7.63422141E+02     -4.99145493E+01
      8.09692639E+02     -1.00605129E+03     -1.30947097E+02
      3.18873963E+03      1.54051306E+01     -9.63341040E+02
      1.43284467E+03      7.95581951E+02     -7.22764805E+02
     -3.75547479E+02      3.97226073E+02     -3.42942636E+01
      9.63163125E+02      8.34438221E+02      4.71327126E+02
      1.17738929E+03      4.41294449E+02      1.16207242E+03
     -1.43672343E+03     -3.23204706E+02     -2.03113019E+03
      3.10867736E+02      2.33760319E+02     -5.73899239E+02
     -2.34316420E+03     -5.28469289E+02      9.15115313E+02
     -4.91819464E+02     -6.75919574E+02     -1.17765672E+03
      1.31986391E+01     -6.00784433E+02      4.63897107E+02
     -2.02688013E+03      8.31831950E+02      8.10014763E+02
     -2.16481921E+03      1.84465530E+02      3.74723434E+02
      2.98140694E+02     -4.42955595E+02      6.76226254E+02
     -1.62378784E+03      4.45618464E+02      4.98450381E+02
     -1.40145211E+03      2.38501091E+03      1.34063568E+01
      4.66064763E+02      2.50443880E+02      7.23265717E+01
     -2.45680809E+03      1.79672255E+03      2.87510086E+02
     -1.63337651E+03     -1.19882517E+03     -9.34143927E+02
     -4.09159599E+02     -6.47810887E+02     -7.53681603E+02
     -1.19191441E+03     -1.33275361E+03     -2.51639294E+02
      5.63382873E+02     -9.86677683E+02     -1.15821219E+03
     -5.47054989E+02      4.43517899E+01      7.34171302E+02
      3.03103402E+03      1.55753384E+03     -3.63698736E+02
      4.61894706E+02     -1.57256028E+03      2.08793313E+03
      6.90302182E+02      6.98751312E+02      5.15200113E+02
     -8.17466041E+02      1.07912228E+03     -1.92973809E+03
     -2.11416357E+03     -2.42144577E+03     -3.94094471E+02
     -3.40136522E+02     -9.22538242E+01      6.04717044E+02
      2.41263994E+03     -1.78423527E+03      3.47260323E+02
     -1.66033180E+03     -1.19994674E+03     -1.93011057E+03
     -2.20371246E+02     -2.11786856E+02      8.92112707E+01
     -3.24091230E+02      5.46947651E+02      1.09520677E+03
     -8.37680939E+02      1.54701413E+03      3.17881475E+03
      4.85126290E+01     -1.77892713E+03      8.71192396E+02
      2.87765284E+02      1.35246722E+02     -4.88470349E+02
     -1.05146400E+03     -6.25072492E+02      5.85567694E+02
     -1.28935536E+02      1.43918991E+02      4.53342703E+02
      1.08354088E+03     -7.22340835E+01     -1.32552965E+03
     -6.76709104E+00     -4.14553658E+02     -2.92592201E+02
     -2.14031514E+02     -1.60831829E+03     -2.88991487E+03
      1.42976908E+03     -1.00033662E+03      5.63023102E+02
     -3.79441416E+02      1.06924170E+02     -1.17568251E+02
     -1.31269578E+03     -1.21623762E+03     -1.15133131E+03
      1.70266714E+03      1.65307564E+03      2.89986171E+02
      7.82609398E+02     -1.33534069E+03      1.14624358E+02
     -6.30921671E+02      2.69263278E+02      3.07075493E+03
      2.36649750E+03      1.52694528E+03     -7.69481977E+02
      3.16658466E+01      8.09384458E+01     -3.42253644E+02
      1.57199674E+03      1.76341289E+03     -2.58148438E+03
      9.02020175E+02     -5.74251421E+02     -1.54256924E+03
     -3.96707743E+02      2.37800693E+02      1.97921872E+02
     -8.25984402E+02     -7.50054433E+01     -4.88122040E+02
     -8.92660464E+02      4.28645565E+02      1.08076345E+03
      5.41702244E+02     -7.84147462E+02     -1.14746056E+03
     -9.22679106E+01      1.41615904E+03      3.60044320E+02
      2.74003108E+03      1.59821585E+02      1.93700693E+03
     -4.98155134E+02     -8.12146295E+01     -1.87101058E+00
     -1.67804094E+03     -1.22393903E+03      2.40712545E+03
     -3.95765134E+02     -2.30035558E+02      1.42633701E+03
      8.89326661E+02     -1.07292863E+03      3.96312769E+02
     -1.46837502E+03      1.54687433E+03     -1.40764335E+03
      9.54483336E+02      2.63843303E+02     -2.48841061E+03
     -2.44619063E+02     -3.57711714E+02      1.59656729E+02
     -9.03286813E+02     -1.43907636E+03     -1.23924276E+03
     -2.03179756E+03     -8.18204076E+02     -8.28419925E+02
     -5.06664646E+02      1.60840399E+03     -1.59514966E+03
     -4.24017222E+02     -5.34387527E+01     -6.00743493E+02
      2.43440317E+03      2.76583617E+03     -1.17182259E+03
      1.34003301E+03     -1.33000059E+02     -1.88031448E+01
     -5.51074850E+01      2.94770908E+03      1.78477830E+03
  }
}

Hamiltonian = DFTB {
  SCC = Yes
  SCCTolerance = 1e-6
  MaxSCCIterations = 200
  ForceEvaluation = Dynamics
  MaxAngularMomentum = {
    C = "p"
    H = "s"
  }
  Charge = 0.0
  SpinPolarisation = {}
  Eigensolver = Standard {}
  Filling = Fermi {
    Temperature [Kelvin] = 300.0
  }
  SlaterKosterFiles = Type2FileNames {
    Prefix = "../../pbc-0-3/"
    Separator = "-"
    Suffix = ".skf"
    LowerCaseTypeName = No
  }
  KPointsAndWeights = {
    0.0000000000000 0.0000000000000 0.0000000000000 1.00000000000000
  }
  Dispersion = LennardJones { 
    Parameters = UFFParameters {}
  }
}

ParserOptions = {
  ParserVersion = 3
}
