Geometry = GenFormat {
<<< "system.gen"
}

Driver = VelocityVerlet{
  Steps = 50000
  TimeStep [fs] = 0.2
  MDRestartFrequency = 5
  Thermostat = None {
    #InitialTemperature [Kelvin] = 300.0
  }
  Xlbomd{ 
    IntegrationSteps = 6 
    MinSccIterations = 2
    MaxSccIterations = 200
    SccTolerance = 1e-6 
  }
  Velocities [m/s] {
     -3.90213086E+02     -4.27537695E+02     -2.17293154E+02
     -3.48546370E+02     -1.65304231E+03     -1.58187679E+03
     -6.25921927E+02      1.16347629E+03     -1.21299549E+02
     -8.39945602E+02     -6.01956045E+01      2.74031200E+01
     -3.91385276E+02     -1.15723402E+03      1.42819018E+03
      1.20921056E+03     -8.99561922E+02     -1.36090917E+03
      3.63681800E+02     -1.56764773E+02     -3.89268317E+02
      8.39581806E+02      7.65978854E+02     -1.13516427E+03
     -1.28450205E+03     -7.95384866E+02      3.13431919E+02
      1.99288957E+02     -3.23122685E+02      1.14165278E+02
      1.94868178E+03     -9.86484747E+02     -2.08110083E+03
      1.30806212E+01      7.33716402E+02     -2.11216920E+03
      3.54158742E+02     -1.08786714E+02     -7.50259743E+02
     -3.05309272E+03     -3.06384018E+03      3.98861659E+02
      2.25294261E+03      8.18723266E+02      9.97177079E+02
      1.17326595E+02      3.19766665E+02      5.82232043E+02
      5.75882353E+02      1.35088586E+03     -1.20278903E+02
     -6.36408976E+01      2.60916246E+03     -1.89976304E+03
      2.50374499E+02     -3.96863025E+01      4.78095646E+02
      1.34438396E+02      6.31795259E+02      2.50528868E+02
      8.43877020E+02     -3.01602262E+03      4.82078361E+01
     -7.75814814E+01      4.77577601E+02      8.21302395E+01
     -2.58281297E+03      5.06048816E+02      9.34596819E+00
     -5.77849575E+02     -1.91138645E+03      9.26668779E+02
      7.07853229E+02      4.93918746E+02     -2.00219796E+01
     -1.72380970E+02     -4.79187389E+02     -4.08585521E+02
     -1.53019260E+03      5.18838536E+02     -6.90942529E+02
      3.47585596E+02     -1.98412005E+03     -3.59813983E+02
      2.58283426E+02     -3.18804440E+01     -1.49708631E+02
     -4.36459237E+02     -8.76859720E+02      1.50386020E+03
      1.92701347E+02      1.34424740E+02     -1.11827268E+03
     -2.11769673E+03     -1.80631083E+03     -2.58271994E+03
     -1.31560198E+02      1.56704709E+02      4.13482660E+02
      5.81731648E+02      9.01895800E+02      1.97962435E+03
      9.23465842E+02     -3.27058550E+03     -2.01124826E+03
      1.41689523E+02      2.75345649E+02     -8.30357016E+02
     -8.20714459E+02     -1.67442601E+03      2.22937955E+03
     -1.03019927E+03     -1.09979754E+03     -2.14018397E+03
     -4.28641645E+02      4.08076322E+02     -7.01854667E+02
      1.85905845E+03     -3.99272691E+02      1.40361746E+03
     -2.56323621E+03      1.03533491E+03      4.73441357E+02
     -9.26207385E+02      2.64961523E+02      3.87815395E+00
      9.48376989E+02     -1.29889091E+03     -5.98726573E+02
      9.74464898E+02      2.43864970E+03      2.09555479E+03
     -9.14126774E+02     -1.63334922E+02      2.99093641E+02
      4.97903576E+02      2.18530249E+03     -1.72608681E+03
     -2.56369164E+02      1.07309712E+03     -1.81259965E+03
      5.18822036E+01      1.50516385E+02     -2.73382535E+02
     -2.01405195E+03      8.11141903E+02      8.94073207E+02
     -6.56581516E+02      6.33127044E+02     -5.85962646E+01
     -6.22944861E+02      9.91668617E+02     -6.33215489E+02
     -6.31472134E+02      1.20377581E+03      1.35814212E+01
      4.07337331E+02      2.60309946E+03     -4.87959992E+01
     -3.87302431E+02     -1.99258502E+02      5.67639777E+00
      2.60685222E+02      2.43170672E+02     -4.11282367E+02
     -1.99377605E+03     -7.69412034E+02     -8.40521535E+02
     -1.32649931E+02      3.44896233E+02     -5.91408896E+02
      1.40795023E+03     -3.10825198E+02     -1.64864249E+03
     -2.32582917E+02      5.63064362E+02      2.65644249E+03
      2.11570134E+03      2.17551029E+03      3.38530045E+01
     -6.74873197E+02      1.01511768E+02     -4.00435072E+02
      5.36307728E+02     -2.10108694E+03      1.57112185E+03
     -3.26015591E+03      3.99990134E+02      1.74237020E+02
     -4.85533212E+02     -2.52906620E+03      1.58366813E+03
     -2.28955816E+02     -5.17875118E+02      2.57109344E+02
     -4.00518406E+03     -1.09339101E+03      6.93344719E+01
     -1.61788144E+03     -2.19109187E+03      2.60327915E+03
     -2.44969515E+02     -4.22518464E+02     -9.61747564E+01
     -1.14656112E+03      8.04640029E+02     -1.22879491E+03
      1.03635229E+03      3.28770492E+02      2.35757981E+02
      8.94547932E+01     -1.09259420E+03     -5.65259898E+01
      1.50494018E+03      1.16356398E+03      2.90256888E+02
     -5.53232618E+01      3.46562028E+02     -2.77642178E+03
     -4.26959189E+02     -6.87814721E+01      9.31743611E+02
     -1.77333596E+03     -1.01050713E+03      3.52911681E+02
     -2.24932883E+02      2.22291177E+03     -1.38163251E+03
      6.52105686E+02      4.03094267E+02     -3.85104141E+02
      1.49206361E+03     -1.09548363E+02      2.47297535E+03
      5.12322831E+02      1.89392146E+03     -1.26488356E+03
      3.34059754E+02      1.94299421E+02     -2.38729947E+02
      1.75523203E+03     -7.33384473E+02     -1.15937615E+03
      2.49439027E+03     -6.91323701E+02      1.05893846E+01
     -5.20043157E+02     -3.54507558E+02      1.53262650E+02
      2.51510351E+02      1.17799177E+03     -1.22688054E+03
     -3.00969286E+02      4.30906962E+03      2.38318598E+03
     -3.14436225E+02     -2.29181629E+01     -7.70016162E+02
     -4.93833005E+02      1.89769899E+01      1.79392801E+02
      4.67045677E+02      1.51533234E+03     -3.44899833E+02
      1.62040356E+02      1.87279973E+01     -8.06557712E+02
     -2.09803427E+02     -8.77095489E+02      2.73568139E+03
      9.72111299E+02     -2.13361284E+01      2.23997484E+03
     -5.59289450E+02      1.23682766E+03      5.68732098E+02
      2.76388143E+00     -3.19026143E+02     -1.95473895E+02
     -6.03014345E+02      1.87430306E+03     -3.54590588E+02
      9.08753624E+01     -1.62018181E+03      2.48308962E+03
     -1.66221055E+03      9.48374966E+02      6.13821158E+02
      1.87976540E+02     -4.66598349E+02     -3.96599052E+02
     -1.78169683E+03     -3.43145265E+03     -7.58801969E+02
     -1.96420600E+02      4.85028324E+01     -1.60800305E+03
     -1.04726565E+03     -5.25279969E+01      1.30052136E+02
     -5.92231645E+02      3.20539872E+02      4.39670766E+02
      1.38351256E+03      1.06621821E+03     -2.30835466E+03
     -1.07892088E+02      3.81306411E+02     -4.40853724E+02
     -1.57982250E+03      1.59789682E+03      6.59416687E+02
     -2.68082429E+02     -1.41347355E+03     -2.95142136E+01
      5.40594882E+02     -3.36724412E+02      6.43309493E+02
      8.81439799E+02     -5.16676563E+02     -2.31574897E+03
      2.63374927E+03     -1.90691606E+03      1.59698651E+03
      9.66298593E+01      2.77492163E+02      4.63734889E+02
     -4.43752494E+02     -1.77930349E+03      1.81008623E+03
     -2.35491796E+03      2.26947709E+03     -1.60438180E+03
     -5.74183274E+02      1.33251285E+02      1.92085382E+02
     -1.53845771E+01      1.01479632E+03      3.20997033E+03
      3.50751879E+03     -1.09160712E+03      2.47475156E+03
      2.83969934E+02     -1.92764109E+02     -5.42137773E+02
      3.76471185E+02     -1.94601246E+03      2.54101124E+03
     -9.25056118E+02     -2.30687306E+03     -1.29061486E+03
      1.93389270E+02     -6.36015770E+02     -1.85151445E+02
     -2.80010341E+03      1.24535371E+03      1.34701875E+03
      1.58002320E+02      2.66313253E+03      1.95407229E+03
      5.06124003E+02      6.88315408E+02      2.67144376E+01
     -3.58375842E+02      6.18603559E+02     -2.16183816E+03
     -6.05673712E+02     -2.03874446E+02     -2.10794280E+03
      3.52100259E+03      2.60982433E+03      6.73226784E+02
      1.73957553E+03      2.34650685E+02     -3.20183368E+02
      1.38077759E+03     -2.27996471E+03      1.08873951E+03
     -3.73859067E+02      9.49865159E+02      8.90287941E+02
     -2.83470024E+03      1.36774163E+03      9.93218733E+02
     -1.31762669E+02      7.51395413E+02      3.98439004E+02
     -1.15557104E+03      2.57747687E+03      1.36861264E+02
      1.05374661E+03      1.12805513E+03      1.06727524E+02
      2.09291172E+02      1.60546609E+02     -6.26112374E+02
     -4.37368348E+02     -3.03698776E+03      2.37869923E+02
     -2.00599503E+03     -3.59738444E+03      1.30022650E+03
     -3.17089017E+02     -3.63729955E+02      2.95773924E+01
     -3.06451212E+02      3.45106321E+03     -3.18919119E+02
      1.27963063E+03      1.76829268E+03      6.87711684E+02
     -8.15260468E+02      1.60631005E+02     -1.01716801E+02
     -3.15687003E+03      1.00368526E+03      5.20604828E+02
      1.08786501E+02      2.84499233E+02     -8.04685665E+02
      3.57338507E+02     -1.77581966E+01     -3.33187232E+02
     -7.55411343E+02     -1.83808605E+02     -1.14452208E+03
      1.39843396E+03      2.04101470E+03      1.61553080E+03
     -6.48236789E+02     -4.15816734E+02     -9.60304865E+01
      9.93233092E+02     -1.19673661E+03      7.39070849E+02
      6.19645324E+02     -6.69268087E+02      1.48340755E+03
      7.89397103E+02     -6.42181740E+02     -6.83543446E+02
      8.54573193E+02      8.21608948E+02     -7.52645529E+02
      7.94086799E+02     -1.64621010E+02      3.03107470E+02
      5.69336570E+02     -1.08474277E+02     -7.83583783E+02
      1.11920059E+03      9.93369939E+02     -4.57447339E+02
     -1.20597428E+03      3.33593375E+03      8.18672127E+02
     -3.47152875E+02      3.21025943E+02     -5.06424917E+02
     -1.90756056E+03      7.20749276E+02      1.04079349E+03
     -2.27804543E+03     -8.11424076E+02      7.71336342E+02
      1.38693242E+03     -3.93298560E+02     -2.58944942E+03
     -1.06511239E+03     -6.56552380E+01      1.26358356E+02
      1.26846900E+03     -1.27105595E+03      1.44259332E+03
     -1.44858540E+03     -1.08496953E+03     -1.55472169E+03
      1.74031910E+03     -1.23363839E+02     -4.04114699E+03
     -8.05213105E+02     -8.04257770E+02     -5.25284214E+02
     -7.18514182E+02     -2.73199846E+02      9.73680558E+02
     -9.69124157E+02     -5.50387459E+02      2.27646324E+02
     -3.85797794E+02      3.63320277E+02     -2.55390317E+02
      3.39073142E+03      9.66545993E+02      2.65552593E+03
     -1.50228313E+03     -8.87710514E+02      1.20606716E+03
     -1.02664678E+02     -1.59992384E+02      7.99110672E+01
      3.30943116E+02      6.86054734E+01     -3.01828290E+03
      8.59526781E+02     -1.77149924E+03      3.89133266E+02
     -1.15595198E+03      4.83484032E+01      2.81808404E+02
      1.16956966E+03      2.59662247E+02      2.03529122E+02
     -8.67356616E+02      8.71343892E+02     -2.25297814E+02
     -6.29394095E+01      1.01023936E+03      2.16887692E+02
     -1.16099467E+03     -1.77935833E+03     -2.91871077E+02
     -2.58400028E+03      1.51773555E+03     -9.64831191E+02
      1.13057136E+04     -4.15425675E+03      1.81373128E+04
     -1.78759900E+03     -9.67329052E+02      8.32973880E+02
      2.91931022E+03     -1.57639626E+03      2.87526018E+01
     -7.05263735E+02      6.47512141E+02     -2.58065881E+02
     -8.25260758E+02     -6.82083094E+02     -1.80362089E+03
      5.03209498E+02      1.00945615E+03     -1.33117554E+03
      3.13546072E+02      4.12215852E+02     -3.62238619E+02
      2.02315239E+02      1.00090846E+03     -3.33743239E+01
     -1.75329364E+03      1.66882710E+03      1.36720025E+03
      4.56235165E+02      1.01842925E+02      2.07878489E+02
      2.46178013E+03     -2.56804664E+03     -3.63223249E+03
     -5.57154184E+02      2.14755942E+03     -2.13327909E+03
     -1.85718567E+03     -1.18986049E+03      9.90929581E+02
     -9.10935906E+02     -2.50170570E+02     -2.14971478E+02
      2.93871132E+02     -5.01934498E+02     -1.63690737E+03
     -2.21862405E+03     -1.44005220E+03     -1.80000578E+03
     -3.13962349E+01     -3.51988856E+02     -6.12735714E+02
      7.98740842E+02     -1.85121315E+01     -7.47715004E+02
     -1.27090494E+03      1.15908448E+03     -1.01766909E+03
     -2.64864412E+02      1.53290092E+03     -8.18112963E+02
     -3.70815412E+02      6.70879430E+02     -2.21061594E+02
      2.12471102E+03      8.38463269E+02      1.23065026E+03
      1.36169569E+03     -2.12736036E+02     -7.76611286E+02
      3.19385837E+02     -5.11319959E+02     -5.28364863E+02
      2.76165856E+03     -4.96012186E+02     -8.16906659E+02
     -4.29332845E+03     -2.41052789E+03      3.26397934E+03
     -6.58133270E+01      4.36397037E+02     -6.84382161E+02
     -9.80947768E+02     -1.40218407E+03     -4.63071415E+02
      2.92621990E+02     -4.73625019E+02     -1.31513927E+03
      2.44703457E+02     -2.60135244E+00     -2.17307378E+02
      9.29467616E+02      8.87440913E+02      1.01000119E+03
      8.32214160E+02      6.37066831E+01     -1.89556022E+02
      1.76513900E+02      1.27840773E+02     -1.22335725E+02
      2.37233501E+02     -4.71632647E+02     -2.36141831E+03
     -1.36470017E+03      6.83227506E+02     -3.09463462E+03
     -9.09017199E+02      2.02966290E+02     -9.41123316E+02
      4.52654746E+02     -1.79479407E+03      2.34946408E+03
      1.26873142E+03      4.24210202E+03     -8.12783762E+01
      3.11974529E+02     -2.97057831E+01      1.83914747E+02
     -1.23750513E+03     -2.09474792E+02      9.39085849E+02
     -2.74858118E+02     -4.51474727E+02      1.00894810E+03
     -4.41163664E+01      6.19448090E+01     -3.49095542E+02
      2.88378476E+02     -2.74692733E+03      9.15352320E+02
     -1.47274864E+03      2.57747537E+01     -1.95705150E+02
     -2.77492697E+03     -7.15740465E+01     -3.66288563E+03
      2.52898942E+02     -4.52121434E+02     -7.57358642E+02
     -1.09502968E+03      1.47471067E+03     -2.02960531E+03
     -1.52890878E+01      3.43813424E+03      2.91999348E+03
     -1.21600592E+03      1.91843603E+03      4.43460164E+02
      2.50416129E+02      2.43415574E+02      8.17219686E+01
      1.67309549E+03     -3.47825517E+03     -1.11875277E+03
     -1.36994006E+03     -3.08056009E+03     -2.66512599E+03
     -2.91909086E+02      8.96212917E+02     -4.83838044E+02
      8.13432880E+01      1.50992730E+03     -2.71846875E+03
     -9.36552577E+02      4.58199992E+02      1.21890200E+03
     -1.99800528E+02     -6.55558563E+02     -3.87445676E+02
     -1.82404731E+03      1.95718168E+03     -2.62220360E+03
     -3.03922592E+03     -1.59318952E+03     -8.29787325E+02
     -4.14194697E+02      2.49624844E+02      6.27637280E+02
      1.50677809E+03     -4.66576080E+02     -9.16474870E+01
     -6.26421161E+02     -5.96841521E+01      1.04876293E+03
      3.59985315E+01      6.89602075E+02     -6.61425922E+02
     -1.50337929E+03      3.19682920E+02      1.97662139E+02
      1.48569054E+03      7.02877416E+02     -2.26989239E+01
     -2.69032564E+02     -5.86114896E+02      5.07423922E+02
      1.12247815E+03      1.32265445E+03      3.43421872E+02
      5.14092533E+02     -7.04149954E+02     -1.11038288E+03
      5.16053779E+02     -4.33659562E+01     -5.52100256E+01
      2.62100415E+02      5.86407399E+02     -1.72072844E+03
      1.45033350E+03     -4.10485040E+02     -1.59881185E+03
      2.72001521E+02     -1.53903987E+02     -8.97179019E+00
     -1.77105380E+03      1.77129121E+02     -2.78211778E+03
      1.60690829E+03     -1.94941801E+03      4.95613838E+02
     -2.83740614E+02      1.25061148E+01      1.57588098E+02
     -1.61154570E+03      2.73762268E+03     -1.84500915E+03
     -2.49647281E+03      9.48939566E+02     -1.49172312E+02
     -2.40950051E+03      7.78465143E+02      1.21041169E+03
     -1.19126471E+02      3.35440872E+02      6.81468550E+02
      3.20140756E+03      7.64778178E+01      6.37925372E+02
     -1.46891834E+03     -2.15268077E+03     -4.77494800E+03
      5.25284247E+02      1.64479322E+03      5.64332958E+02
      1.73349841E+01      3.29087045E+02     -2.11548213E+02
     -5.69571405E+02     -2.42953040E+03      3.76783642E+02
      1.29856262E+03     -3.65754498E+02     -6.55510124E+02
      3.79478495E+02     -3.12825611E+02     -2.01276392E+02
     -3.13324300E+02      2.04446309E+02      7.91884253E+02
      2.57142167E+02     -9.87307366E+02      1.61409191E+03
     -1.13936037E+02      6.61488459E+02     -3.58587980E+02
     -5.30956225E+02      1.24593226E+03      9.65544107E+00
      2.11126178E+03     -1.15312061E+03     -1.96337895E+02
     -2.62939439E+02      7.26812766E+02     -1.56158374E+02
      2.36266508E+03     -2.21425572E+03     -9.74434740E+02
     -3.14216608E+03     -3.44924756E+03     -2.20604289E+03
      1.50752868E+02     -2.24437094E+01     -2.95008428E+02
      2.66525419E+03      7.40059894E+02      1.82154820E+03
     -1.33349456E+03      3.51469579E+02      1.65021639E+03
     -2.08224460E+02      1.95550883E+02     -1.39666091E+02
     -4.51435961E+02      6.76382053E+00      2.42263480E+03
     -1.73442564E+03      1.23168277E+03     -2.61017937E+03
     -4.19342488E+02      4.20780890E+02     -5.20607239E+02
     -1.48833922E+03     -4.03790424E+02      4.52747957E+02
      7.67833589E+02      1.20194068E+03      9.17080618E+02
     -6.98656390E+02     -4.20942294E+02      6.12921916E+01
      3.39889846E+02      9.05669047E+02     -2.45910091E+03
      3.55313351E+03      7.53592129E+02     -5.72333347E+02
      4.68205959E+01      6.89861198E+02      6.21197432E+02
     -9.67916102E+01     -2.99581929E+03     -7.27062082E+02
      3.38163946E+02      1.84605955E+03     -1.38066293E+03
     -2.23869312E+03     -8.68328498E+02     -8.30986391E+02
     -8.26775725E+01      1.40558673E+02      4.44168748E+02
      6.03136826E+02     -2.43284034E+03      7.00044905E+02
     -4.78925848E+03      3.42121106E+03     -4.03813042E+03
     -5.47672081E+02     -8.80410324E+02     -4.14057513E+03
      3.58747440E+02     -1.76717859E+01     -1.39785391E+01
     -5.05603082E+02      1.02025327E+03     -5.29870957E+01
     -1.50945249E+03     -1.78148188E+01     -2.15499826E+03
     -8.75090993E+02     -2.90803731E+02     -6.81766247E+02
     -1.95543193E+03     -8.36783429E+02     -2.11400330E+03
      3.60376154E+02      4.41895464E+01     -7.11040347E+02
      2.12133570E+02      3.34954248E+02     -2.05379108E+02
     -1.01014694E+03      2.31152371E+02      3.72006232E+03
      1.94276953E+03      5.77707387E+02     -2.10760274E+03
      1.73780603E+02      2.44111183E+02      8.05930545E+02
      1.34776531E+03     -1.24276029E+03     -9.43510969E+02
     -1.13608683E+03     -2.49781234E+03     -1.32465510E+02
     -1.84036279E+02     -2.99356563E+02      2.63134519E+02
      1.97423507E+03      7.99026514E+02     -1.12934562E+03
      4.94095908E+02      2.19626849E+02      7.56046617E+02
      2.48722739E+02      7.45200258E+01      1.88664384E+02
      2.22163177E+03     -1.47516804E+03     -6.36996852E+02
      2.13574946E+02      7.85503250E+02     -1.34206964E+03
      5.44125561E+02     -1.05256493E+02      2.11441956E+02
      2.41090808E+03      1.23832276E+03     -2.41551998E+02
     -4.49778325E+02     -1.24319036E+03     -2.73213189E+03
      6.91680154E+02      2.53433222E+02     -5.56843026E+02
     -1.59968313E+03     -3.83317149E+02      5.00379503E+02
      3.37611397E+01     -2.65673367E+03      1.48695256E+02
      9.93094971E+00     -8.50212469E+01     -5.17595711E+01
     -1.91902471E+03      3.62226220E+02     -3.55372409E+02
     -1.01311366E+03      6.62435465E+02      1.49233665E+03
      1.47919941E+02     -2.98886452E+03      2.67708418E+03
      1.92328104E+02      4.80861328E+01     -6.13082845E+02
     -7.29467880E+01     -1.09305305E+03     -1.25775517E+03
     -2.45995827E+03      9.68487586E+02     -2.39261872E+03
      5.54934988E+02     -1.25824515E+03      3.39268674E+02
      8.27050280E+02     -1.20326529E+03      8.44611293E+02
      3.93865618E+02      1.34177874E+01      8.68323601E+02
     -1.66330698E+03     -3.52009386E+03      7.28049370E+02
      8.13652713E+00     -7.98031716E+01      8.64888017E+02
     -1.51402018E+03      2.08943696E+03     -4.07344404E+02
     -2.20876359E+03     -1.12570361E+03     -5.76863897E+02
     -6.61258710E+02      2.56459193E+01      4.73618218E+02
     -8.90293090E+02     -5.19369106E+02     -2.18307139E+03
     -8.25720055E+02     -9.37609378E+02     -1.61168867E+02
     -7.57849061E+02      1.03039679E+02      1.56470756E+02
     -3.82005302E+02     -2.13426267E+03     -9.75347554E+02
      3.40724143E+02      1.70067907E+03      1.35688699E+03
     -8.85575255E+01      1.90108038E+02      3.26640192E+02
     -1.62090063E+03      1.02251195E+03     -3.39477026E+03
      4.23022240E+02     -6.98008719E+02      2.63950648E+03
     -4.47706603E+02      3.95661306E+02     -1.57598125E+03
     -2.71012444E+03      4.60705674E+02     -1.96884679E+03
      7.93051417E+02      1.35981237E+03     -4.54281105E+02
     -6.89791924E+02      1.04015258E+02     -5.10281504E+02
      6.83941609E+02      2.06404042E+03     -1.79408402E+03
      3.08250807E+03     -1.01753992E+02     -2.45030471E+01
     -2.95921742E+02      1.38717666E+02     -1.77991542E+02
      4.71499533E+02      2.00241930E+03     -4.66123394E+00
     -3.47211339E+02     -7.06133862E+02      5.68241735E+02
     -2.25651724E+02     -4.39894542E+02     -3.34800742E+02
      4.23122832E+02     -6.59978285E+02     -5.99425776E+02
      3.43795094E+02      1.10102461E+03     -1.76841289E+03
      1.50841490E+03      3.98231712E+02     -1.97146570E+03
      1.60384615E+02      1.70897742E+02     -1.72603532E+02
      7.99872713E+02      5.13791664E+02     -1.17397595E+03
     -1.99080950E+02     -1.34425989E+03     -3.97398487E+03
      1.78911223E+03     -2.21126192E+03      9.51949689E+02
  }
}

Hamiltonian = DFTB {
  SCC = Yes
  SCCTolerance = 1e-6
  MaxSCCIterations = 200
  ForceEvaluation = Dynamics
  MaxAngularMomentum = {
    C = "p"
    H = "s"
  }
  Charge = 0.0
  SpinPolarisation = {}
  Eigensolver = Standard {}
  Filling = Fermi {
    Temperature [Kelvin] = 300.0
  }
  SlaterKosterFiles = Type2FileNames {
    Prefix = "../../pbc-0-3/"
    Separator = "-"
    Suffix = ".skf"
    LowerCaseTypeName = No
  }
  KPointsAndWeights = {
    0.0000000000000 0.0000000000000 0.0000000000000 1.00000000000000
  }
  Dispersion = LennardJones { 
    Parameters = UFFParameters {}
  }
}

ParserOptions = {
  ParserVersion = 3
}
