Geometry = GenFormat {
<<< "system.gen"
}

Driver = VelocityVerlet{
  Steps = 100000
  TimeStep [fs] = 0.2
  MDRestartFrequency = 5
  Thermostat = None {
    #InitialTemperature [Kelvin] = 300.0
  }
  Xlbomd{ 
    IntegrationSteps = 6 
    MinSccIterations = 2
    MaxSccIterations = 200
    SccTolerance = 1e-6 
  }
  Velocities [m/s] {
     -9.52097954E+02     -1.03147965E+03     -3.24880372E+02
     -6.59301803E+02      2.34739643E+03     -1.36666415E+03
      1.31813732E+03     -5.16593959E+02     -1.25181438E+03
     -3.61292445E+02     -4.30966330E+02      4.16606973E+02
      1.41789294E+03     -3.14304067E+03     -1.61679748E+03
     -6.27455858E+02     -3.19363332E+02     -1.93975851E+03
     -5.05959175E+01     -1.35514461E+02     -4.53140545E+02
      2.71646653E+02      9.54454393E+02     -2.19675569E+02
     -7.08361306E+01     -9.49023448E+02     -1.38912371E+03
     -3.94472196E+01      6.41513057E+02     -3.69830587E+02
      8.44979186E+02      2.00636261E+03      3.39292922E+02
     -4.13011518E+02      2.86109440E+03      2.71394133E+02
      1.47068680E+02     -3.55073469E+01     -1.15216721E+02
     -1.49605946E+03      3.91226306E+02     -1.31587891E+02
      4.16508728E+01     -8.07974863E+01     -1.70191947E+01
      1.56880392E+02     -1.14902612E+03     -4.28243807E+02
      2.00115712E+03     -9.66438376E+02      4.34068278E+02
     -1.37429159E+02     -2.55368926E+03      6.52197868E+02
      1.56660866E+02     -2.20194673E+01      2.88973030E+02
      2.32696139E+03     -3.96451563E+02      8.46960204E+02
      1.54669998E+02     -3.75084540E+02     -3.36310911E+02
     -2.01704838E+02      1.21646314E+01     -2.09406126E+02
      2.13554963E+02     -1.66964886E+01     -2.47016124E+03
      5.76320708E+02      2.11769251E+03     -3.59622769E+02
      7.97392411E+02     -8.07971462E+02     -1.34824573E+02
      2.62614628E+03     -1.67230032E+03      1.71010050E+03
     -2.63272084E+03     -2.65175620E+03     -3.78043966E+02
      6.19729310E+02      5.39944282E+01     -1.33148674E+03
     -2.97241182E+02      1.38605304E+02     -2.45445398E+02
     -1.30690565E+02      4.09951776E+02      2.63254159E+03
      2.12365916E+03      1.58541592E+03      2.09013995E+02
      7.46519486E+02      9.78002709E+02      1.61872913E+03
     -1.27946770E+03      1.96780740E+02      2.62190988E+02
      8.11217215E+02      2.75815314E+03      1.79190139E+03
     -8.28539941E+02     -2.66243486E+03     -9.81540471E+02
     -4.71831643E+02      8.81248414E+02     -1.77612155E+02
     -4.40773205E+01      8.50465805E+02     -2.57364071E+02
      1.21712419E+03     -2.53156404E+03      1.21110552E+03
     -6.67571677E+02      4.83250922E+02     -3.12347197E+01
     -3.97811255E+02     -4.03177098E+03      6.77108810E+02
     -2.73849936E+03     -1.14007151E+03      1.60910111E+03
      9.72034181E+02     -3.30527852E+02      2.00769762E+02
      5.61458059E+02      1.02097373E+03     -2.62269447E+03
     -2.02618689E+02      1.31794843E+03      2.47199254E+03
     -5.20164235E+02     -5.07793520E+02     -6.00807687E+02
     -1.76882235E+03     -6.78780161E+02      2.99407847E+03
      7.20941048E+02      2.51062251E+03     -1.83934430E+03
     -3.78214986E+02      4.16031239E+02     -2.67833241E+02
      2.78852816E+02     -5.16449665E+02     -1.10644522E+03
      2.01075044E+03     -1.11543172E+03      2.23221212E+03
      6.11740758E+01      5.82590317E+02     -8.04416648E+02
      1.35538485E+03      1.46781831E+03      1.69011014E+03
     -8.99788687E+02      6.10999149E+02      3.03373079E+03
     -1.89692804E+02     -1.61188528E+02      7.82930270E+02
     -1.40179890E+03      8.21156205E+02     -1.33882254E+03
     -2.89165766E+02      7.91184661E+02     -1.32787285E+03
      2.31319118E+02      4.87913233E+01     -1.81304237E+02
      7.71758084E+01      1.58393991E+02     -1.65170276E+03
     -1.24984761E+03     -7.29449257E+01      3.52095794E+03
      1.69843157E+03      1.39203249E+03     -4.13394134E+02
     -1.43020919E+02     -4.88800735E+02     -2.92357345E+02
     -1.15224900E+02      4.95660227E+02      4.52401272E+02
     -2.30539644E+03     -2.06935882E+03      6.93736328E+02
     -9.24445556E+01     -1.35433751E+03     -2.97203539E+03
      1.29209387E+02     -6.39878061E+02     -5.05125952E+02
     -1.74071299E+03     -1.67856801E+03      2.12899309E+03
     -2.04467260E+03     -6.39400438E+02      2.50575606E+03
      4.55876072E+02      6.55943898E+02      9.42252570E+01
     -1.86415195E+02     -1.63207848E+03     -3.25796543E+02
      7.20743611E+02      3.40914505E+03     -3.67224811E+02
      1.38279799E+02      1.68378954E+02      2.25811687E+02
      1.39550727E+03     -3.34934456E+03     -9.01473730E+02
     -4.35885096E+02     -1.75462058E+03     -2.26788099E+03
     -4.78107383E+02     -2.40473857E+02     -7.98034858E+00
      1.42720531E+03      2.57482553E+02     -1.74854931E+03
     -2.63071722E+03     -4.46066518E+03     -9.15452220E+02
     -9.18222246E+02     -4.95672967E+02      2.58457295E+02
     -3.80120481E+03      2.23805594E+03      1.90539993E+03
      1.50607401E+03     -1.36916893E+02      1.05274298E+02
     -6.85032085E+02     -5.02233775E+02     -3.97836694E+02
      1.31990892E+03     -1.71077171E+03      5.32166762E+02
     -1.30076216E+02      1.32144989E+03     -1.75391067E+03
     -2.82328409E+01     -6.15988286E+02      4.86036607E+02
      1.14545444E+03      2.06935162E+02     -2.14064048E+03
     -1.13837484E+03      3.92700680E+01     -2.30708362E+03
     -2.48390616E+02     -2.89523139E+02      6.35215002E+02
     -4.84438927E+02     -1.45188571E+03      2.12282233E+03
     -3.21780208E+03      2.34005250E+03      3.48701273E+02
     -2.64208943E+02      5.34834843E+02     -1.07307472E+03
      6.06093990E+02      1.17761966E+03      1.45668592E+03
      2.22449636E+03     -1.20489910E+03     -4.55055707E+02
      4.14328058E+02      1.14514571E+02      5.97606752E+02
      5.53114032E+02     -4.36397982E+02     -2.17771475E+02
     -1.70161941E+03     -7.99494561E+02     -2.63929724E+03
     -1.20569926E+03      9.71198505E+02      1.27698636E+03
     -1.09109878E+03      9.25206829E+02      7.89699341E+02
     -9.86157222E+02     -3.95237406E+02     -1.49272394E+02
      3.00308139E+02     -1.50139434E+02     -1.44442285E+03
      9.45087176E+02     -2.08694229E+03     -1.11799665E+03
     -2.76518436E+02      7.90058024E+01      4.16495375E+02
      2.03692661E+02      9.91029453E+02     -2.55516410E+02
      1.20646941E+03     -6.32138611E+02      1.03965493E+03
     -5.29555720E+02      3.22629255E+02     -3.60159323E+01
     -7.05491177E+02      3.69954574E+02     -1.80658383E+03
      1.05987668E+03      9.72287005E+02     -2.28938263E+02
      2.84189947E+02     -4.18877815E+02     -7.67900208E+02
     -2.04735715E+02     -5.38042432E+02     -4.88104274E+02
     -1.08851286E+03      3.32285004E+02     -1.91451145E+03
     -1.75553983E+02     -2.13529655E+02     -2.61386106E+02
     -1.55348675E+03      7.45086109E+02      3.61975119E+03
     -2.36946361E+03      8.89689836E+02      1.37637422E+03
      1.70694055E+02      3.28738486E+02      8.54487428E+02
      4.76296899E+02     -2.63735367E+03      2.12162262E+03
     -1.57322541E+03     -8.47521250E+02      1.01746434E+03
     -7.12935809E+02      5.66112353E+01     -4.08541450E+02
      1.27841700E+03      2.90486275E+03     -1.38568891E+02
     -2.35867884E+02     -1.30304341E+03     -1.53458480E+03
     -1.94966479E+02     -5.79752866E+02     -8.82981922E+02
     -1.34095914E+03     -1.83942344E+02     -2.20466527E+03
     -2.20426837E+03     -1.17086171E+03     -7.70453870E+02
      7.15626728E+02     -1.09613542E+02     -3.05572786E+02
      2.51246484E+03      8.07503923E+02      4.09187151E+02
      2.22907842E+02      1.04228992E+03     -1.91369326E+02
      7.72699271E+02     -1.35369939E+03      2.96946577E+02
      3.22203723E+02      5.74123229E+02     -1.45516614E+03
      2.11237072E+03     -3.89682276E+02     -1.52383969E+03
      9.14577667E+02      7.76461905E+02     -9.08796824E+02
      3.05001043E+03     -8.70514880E+02      1.43971292E+02
      6.38231972E+02     -1.27173876E+02      3.09999083E+02
     -2.09231615E+02      1.99177432E+03      1.67748951E+03
      4.03889419E+01      1.10973830E+03      2.49878772E+02
     -1.32322932E+01      6.10204321E+02      3.93747800E+02
      3.46044661E+03      6.86661941E+02     -1.57296685E+03
     -2.19799110E+03      1.43805134E+03      1.20175711E+03
     -3.45842049E+02     -3.01867204E+02     -4.95518759E+01
      3.64179263E+02      1.60849852E+03     -1.87666782E+03
      7.35156051E+02      8.10646056E+01     -1.39183369E+03
     -7.45487144E+02     -6.10092033E+02     -4.42480452E+02
     -7.61764160E+02      4.09406038E+02     -2.26330066E+02
     -5.66248199E+02      1.11598520E+03     -9.24337373E+02
     -2.95843685E+02     -7.63627530E+02      4.56986640E+01
     -1.37112420E+03     -2.03325642E+03      1.12207148E+03
     -1.99738748E+03     -2.10570487E+03     -1.70663700E+03
      2.46825247E+02     -4.63454487E+01     -8.59525048E+02
      1.65756543E+03     -2.81213285E+03     -9.46953864E+02
     -1.49217270E+03     -1.43393709E+03      1.69994072E+03
     -3.53801603E+02     -6.84669302E+02      4.40533010E+02
     -7.81088188E+01      3.75673500E+01      2.19449740E+01
     -1.66673295E+03     -2.40798075E+03     -2.45462576E+03
      6.34816147E+02     -2.12364492E+01      3.30795284E+02
      2.54662691E+03      3.87087815E+03      1.28817523E+03
     -1.06716623E+02      1.57210837E+03      3.45506638E+02
      5.35024690E+02      5.86859786E+02     -6.24508980E+02
     -6.12507079E+02      1.56156786E+02     -2.09797958E+03
      1.30759745E+02      3.51965281E+02      1.10049078E+03
      4.44630545E+02      8.93013660E+02      7.72550566E+02
     -1.02204040E+03     -1.65290934E+02      2.11315197E+02
     -1.08621086E+02     -5.79126059E+02     -7.36755643E+02
     -2.39979695E+03      1.18284312E+02     -9.01381762E+01
      2.15952437E+02     -1.40517115E+01      6.90793141E+01
      8.67111742E+01     -5.01839786E+02      2.25485759E+00
      9.22275219E+02     -1.27652751E+03     -4.91499337E+02
      3.10215333E+03      8.58264915E+02     -9.51658601E+02
      4.91637741E+01     -7.70493350E+02     -5.30353283E+02
     -8.04000482E+02      5.91842567E+02     -5.01555426E+02
     -2.22369234E+01     -2.40297707E+03     -3.14684719E+02
      1.45554159E+02     -2.60553020E+01     -1.81224812E+02
      1.27865278E+03      3.45256029E+00      2.47911941E+03
      1.70381889E+02      2.55297229E+03      9.88758233E+02
     -1.47563023E+02      2.12888989E+01     -6.69542060E+02
      4.98661582E+01      7.79755218E+02      2.99321695E+03
      1.94856255E+03      1.09505781E+03      5.23988164E+02
     -6.29790997E+02      1.26101577E+02      2.80341901E+02
     -3.86627411E+03      9.30705793E+01     -1.03613223E+02
     -2.06583740E+03      4.85417755E+02     -6.92208976E+02
      3.77856127E+02      3.31992405E+02     -3.27037864E+02
     -2.04237034E+03      7.30908852E+02     -3.31738933E+03
     -4.92883325E+01      1.19284476E+03     -5.88724407E+02
      1.14982266E+01     -2.81429350E+01      8.84711192E+01
     -2.82043742E+03     -2.14768667E+02      5.34185366E+02
      7.87026812E+01      5.99148940E+02     -7.20273588E+02
     -4.61146601E+02      1.52471468E+02     -4.29858405E+02
     -1.66999330E+02     -3.89661466E+03      1.19740782E+03
      9.66566429E+02     -1.40516102E+03     -1.81951360E+03
      9.41867669E+02     -1.01370278E+02      1.90047852E+02
     -2.39750231E+02      2.47089933E+03     -2.91445142E+02
     -2.33101719E+03     -8.12400922E+02     -6.42114482E+02
      5.87771588E+02     -1.27992719E+03     -1.59834574E+03
      5.89528433E+02      1.21110707E+02     -4.28563979E+02
      1.82057323E+03     -1.78195214E+03      1.85189536E+03
     -1.40041877E+03     -2.26303051E+03      1.49356245E+03
      1.89103265E+03     -1.18190860E+03      1.14230494E+03
      3.05992089E+02      3.05334341E+02     -2.85280132E+01
      1.27943170E+02     -1.83179465E+03     -4.61459102E+02
     -1.43606591E+03      9.92368607E+02     -3.09134200E+03
      6.33586361E+00     -5.83075887E+02     -7.19309499E+02
      2.62638450E+02     -1.18478736E+03     -4.38144168E+02
     -1.51150164E+03      4.42561144E+02     -1.62177261E+03
     -8.37602805E+02     -8.69021848E+02     -2.38974378E+02
     -7.82228619E+02      7.94722548E+02     -9.54238197E+02
      1.60400134E+03     -5.29958234E+02     -1.77189896E+03
     -1.12620260E+02     -3.10255566E+02     -6.31993863E+02
     -2.39134156E+03     -1.28831212E+03     -1.11172453E+03
     -8.36489996E+01     -3.64839348E+02     -1.17741519E+03
      4.74725982E+02      1.39024913E+02     -2.25301367E+02
      3.47105633E+02      2.27741267E+02     -1.04631607E+02
     -8.85979312E+02     -2.91183367E+03      4.51709279E+03
     -4.36733323E+02      5.02604583E+02     -4.35308622E+02
     -2.00614580E+03     -1.29253055E+03      1.04559053E+03
     -8.44594905E+01     -1.36063310E+03      1.37974276E+03
     -2.04226156E+00      1.71304590E+02      3.26273236E+02
      1.31076199E+03      1.57501796E+03      9.61715975E+02
      7.72684894E+02      1.20980478E+03      1.02638877E+03
      1.37484825E+02      1.97149944E+01     -1.07482915E+03
      2.17366030E+03     -3.37884845E+03      6.56742470E+02
     -1.46444556E+03      7.54716126E+00     -1.88991715E+03
     -2.82391149E+02     -6.42709618E+02     -2.83085650E+02
      9.01966637E+02      1.01172682E+03      5.88445705E+02
     -1.81216382E+03     -1.12518607E+02      7.51456286E+02
      2.04100170E+03      7.02005331E+02     -3.17314682E+03
      4.42560979E+02      5.24544728E+02     -5.23687545E+02
      1.40891582E+03     -4.82964826E+02      1.35880642E+02
     -1.56284491E+03     -2.96783323E+02      9.31190883E+02
     -6.05809384E+02     -4.05671763E+02      1.53097265E+03
      5.09830433E+01     -2.59095444E+02     -3.46540758E+02
     -5.67278875E+02      1.08395120E+03      6.95361088E+02
      1.97507846E+03     -8.96573481E+02      1.01506333E+03
      2.48692691E+02      3.16351420E+02      1.48319802E+02
     -9.22923161E+02      1.76908498E+03     -1.24955742E+03
     -3.29258558E+02      5.20441560E+02      1.95899304E+03
     -1.06640748E+02     -8.68173354E+02      6.44858010E+02
     -6.22738013E+01      1.09813643E+03     -5.06637889E+02
     -5.71301555E+02      3.72580888E+02     -1.24381191E+03
      2.20258130E+02     -3.35734509E+02     -2.13301626E+01
     -1.14626591E+03      4.58575070E+02     -7.25512591E+02
     -4.92798539E+02      2.75328274E+03     -2.61483960E+03
      3.34528204E+02      1.39142025E+02     -1.94038287E+02
      2.04035051E+03      1.55578559E+02      9.44860543E+02
      2.56771253E+03     -4.11439962E+02     -2.17315619E+03
     -1.16806174E+02     -1.14541440E+02      4.46913076E+02
      2.92219544E+02      1.11104839E+03     -1.81046007E+02
      1.00379149E+03      6.35044900E+01     -2.62568071E+03
      2.39466647E+01     -1.08577009E+03     -2.27858680E+02
     -3.66044041E+03      4.99488742E+02      4.61751463E+02
      8.68126236E+02     -1.15818936E+03      1.38404205E+03
      2.00993697E+02      7.68892611E+01     -2.69287069E+02
      1.65934808E+03     -5.37684653E+02     -4.70585077E+02
     -2.24957576E+02     -1.68133594E+02      2.35934873E+03
      6.45671959E+02     -2.92122022E+02     -2.35762151E+02
     -1.27440336E+03      3.68390687E+03      2.23196936E+03
     -7.15967148E+02     -7.15807250E+02      1.78896335E+03
     -8.52382653E+02      7.32627691E+02     -5.62743572E+02
      3.24094285E+02     -7.14527479E+02     -1.42374662E+02
     -2.32117239E+02     -1.21812882E+03     -4.02212346E+02
      7.69869239E+02     -7.91136639E+02     -2.05647654E+03
     -8.14844692E+02     -2.60852599E+03     -8.39913206E+02
      7.64282068E+01      2.97943730E+02     -4.08245813E+02
      1.94411378E+03      7.11881923E+02     -5.86375054E+01
     -2.38485737E+02     -2.40978406E+03     -2.56269825E+03
     -6.18358570E+02     -4.92837770E+02      6.58461903E+02
      9.05372424E+02     -1.76369520E+03      1.15686077E+03
      9.02253762E+02     -5.36314590E+02      1.34252858E+02
      5.65430568E+02      3.25000010E+02      3.36269298E+02
     -4.18513600E+01      3.31831813E+03     -4.10202913E+02
     -3.40473387E+02     -1.45789179E+03      1.81396883E+03
     -8.87240746E+02     -5.50983642E+02     -1.84690489E+02
     -4.25672598E+02     -2.32298530E+03     -4.53791312E+03
     -3.31614829E+03     -7.74123880E+02     -1.62573328E+03
     -9.65100887E+00     -8.67850092E+02     -4.35236957E+02
     -2.02233217E+03      4.09349762E+02      2.08804823E+01
     -3.67287630E+03      1.34236996E+02      2.22893143E+03
     -4.63350750E+02      8.17378345E+02     -2.10992941E+01
      9.39811141E+02     -3.29990180E+02     -1.58649615E+03
     -1.47170918E+03      9.89068731E+02     -4.20608974E+03
     -5.12968895E+01      1.50681206E+02     -7.15727821E+02
      8.78882237E+02     -1.65654109E+03     -2.97290900E+02
     -2.20922268E+03     -3.10235836E+02     -5.90812100E+02
     -3.43885517E+02     -4.70762052E+02      1.20136192E+02
      2.37090691E+02     -2.06503429E+03     -3.29092113E+03
     -2.91820652E+03      5.41998941E+02     -1.39641090E+03
      2.14934517E+02     -5.06289340E+00      4.87996037E+01
      2.37418867E+03      4.33364367E+02     -7.94284739E+02
     -1.29961173E+03     -1.40625460E+03      7.63544686E+02
     -2.84892118E+02     -2.65807265E+03     -3.68544677E+02
     -2.45484102E+02     -4.25237461E+02     -1.15965453E+02
     -2.13826236E+02     -5.73527695E+02      4.14068321E+02
     -6.41697982E+02      2.44724224E+03      1.32319574E+03
     -2.51737827E+03     -7.87289799E+02     -7.50370609E+02
     -1.69247238E+02     -5.97817560E+02     -3.85986004E+02
     -1.96351488E+03      3.34713647E+02      1.53176949E+03
     -6.67951720E+02      2.08149724E+02     -9.86773794E+02
     -1.35219374E+02      2.63984873E+02     -1.46897161E+02
     -9.81312688E+02     -4.08167970E+02     -2.52129279E+03
     -3.98248387E+03      6.24422838E+02      3.17139902E+03
     -3.96615192E+02     -9.51660013E+02     -8.17903349E+02
     -2.33893950E+03     -1.24337654E+02     -5.82083812E+01
      1.08130243E+03     -7.28466659E+02      1.45385179E+03
      2.25007471E+02      7.73864457E+02     -1.08647664E+03
      7.25953582E+02      7.88693343E+02     -5.89055089E+02
      1.75384061E+02      6.85032699E+02      4.94800217E+02
     -2.17089735E+02     -5.09293602E+02     -3.52950382E+00
      2.18158572E+01     -9.06927828E+01      2.60516436E+02
      1.31732187E+03     -4.80314524E+02      2.93188173E+03
     -1.42706468E+03      2.07375344E+02     -8.01224097E+02
      2.27711660E+02      1.20064015E+02      2.20344540E+03
      1.67097458E+03     -1.64920638E+03     -1.57899768E+03
      2.69304774E+02      6.31549057E+01     -4.95081798E+02
     -1.34072015E+03     -2.24464855E+03     -3.33006112E+03
      6.05382711E+02      7.80380711E+01     -1.72921843E+03
      7.91449620E+01      3.66218757E+02     -9.67990250E+01
     -1.75596077E+03     -1.38384094E+03      4.23743937E+02
      6.15823247E+02      6.02150947E+02     -4.92595299E+02
     -5.57045209E+02      1.28380810E+02     -6.43657473E+02
      6.18422924E+02      1.14371884E+03     -2.21375359E+03
     -1.72343223E+03     -1.73047237E+03     -8.72988399E+02
     -6.33146497E+02     -9.57235192E+02      2.55705068E+02
     -5.19894547E+02     -3.06224328E+02      2.35491989E+02
     -6.19238502E+02     -2.40373984E+03      9.56385463E+02
     -3.07099176E+02      8.51086724E+02      1.55927074E+03
     -2.28088676E+03      3.07912371E+02      1.08372585E+03
     -1.66170567E+02     -6.48071835E+02     -8.02192410E+01
     -3.34821469E+01      2.07437408E+03      1.23776060E+03
      8.05882504E+02     -4.41670198E+02      2.14230152E+03
     -5.15739579E+02     -8.97574492E+02     -1.94115100E+02
      9.52741728E+02     -5.47359724E+02     -1.96558816E+03
     -2.76632242E+03     -1.95901545E+02      1.24244604E+03
     -4.08689359E+02      4.03375087E+01      2.87066692E+02
      5.87515372E+02      1.82179776E+03      7.50095824E+02
      8.15195435E+02      1.29105503E+03     -5.48931618E+02
      1.30340669E+04      1.50669552E+04      1.98972064E+04
     -7.95420338E+02      2.90632190E+03     -1.02830641E+03
      1.99685431E+03      8.93492391E+02     -2.92668470E+02
     -4.38903969E+02     -7.60604815E+02      4.72633170E+02
     -2.19810473E+03      7.28776977E+02      7.29875443E+02
      2.53458479E+03     -1.61270145E+03     -5.04966097E+02
     -2.07038982E+02      2.46817205E+02     -8.81605264E+01
     -9.16657892E+02      1.44734254E+02     -4.14546189E+02
     -7.39717495E+02     -4.79396070E+02     -1.04173530E+03
     -6.08435305E+02      2.55520928E+02      7.28076766E+02
      6.53535603E+02     -1.76284860E+03     -1.75364080E+03
      2.67057352E+03      3.01105452E+02     -6.21944114E+02
     -3.22109795E+02     -9.92012072E+01      2.97607509E+02
      3.90647762E+02      3.68453570E+03      4.58811833E+02
      3.84529464E+02     -7.69576433E+02     -2.20869801E+03
      1.85178292E+02     -4.36765870E+01     -5.90211033E+02
      1.72737431E+02     -7.05209036E+02     -2.47128464E+01
     -9.79469053E+02     -2.49177128E+03      3.96311576E+02
      2.07545313E+03      3.23925754E+03      2.94724563E+02
      4.12871428E+02      5.26791804E+02     -6.91846810E+02
      2.00948832E+03     -1.84391280E+03     -1.83466930E+03
      2.48746706E+03     -1.44653863E+03      2.16738187E+02
     -2.16539316E+03      2.74285778E+03     -2.54760615E+03
  }
}

Hamiltonian = DFTB {
  SCC = Yes
  SCCTolerance = 1e-6
  MaxSCCIterations = 200
  ForceEvaluation = Dynamics
  MaxAngularMomentum = {
    C = "p"
    H = "s"
  }
  Charge = 0.0
  SpinPolarisation = {}
  Eigensolver = Standard {}
  Filling = Fermi {
    Temperature [Kelvin] = 300.0
  }
  SlaterKosterFiles = Type2FileNames {
    Prefix = "../../pbc-0-3/"
    Separator = "-"
    Suffix = ".skf"
    LowerCaseTypeName = No
  }
  KPointsAndWeights = {
    0.0000000000000 0.0000000000000 0.0000000000000 1.00000000000000
  }
  Dispersion = LennardJones { 
    Parameters = UFFParameters {}
  }
}

ParserOptions = {
  ParserVersion = 3
}
