Geometry = GenFormat {
<<< "system.gen"
}

Driver = VelocityVerlet{
  Steps = 100000
  TimeStep [fs] = 0.2
  MDRestartFrequency = 5
  Thermostat = None {
    #InitialTemperature [Kelvin] = 300.0
  }
  Xlbomd{ 
    IntegrationSteps = 6 
    MinSccIterations = 2
    MaxSccIterations = 200
    SccTolerance = 1e-6 
  }
  Velocities [m/s] {
     -7.89833022E+02     -8.72637119E+01     -2.26030627E+02
     -2.13322963E+03      5.08882501E+02     -2.67522087E+03
     -2.82828534E+03      5.31918707E+02      1.70654174E+02
     -2.80521501E+02      8.34447448E+01      2.84732842E+01
     -1.73043338E+02      9.14056916E+02      8.50692166E+02
      2.10778438E+03     -5.68313041E+02     -1.37459499E+03
      1.09875239E+02     -8.01051761E+02      3.05192976E+02
     -1.89866660E+03      1.05139144E+03     -7.30474514E+02
     -2.40995804E+03      8.70399239E+01      2.78271401E+03
     -6.83771706E+02      5.01064743E+02     -2.35906025E+02
     -2.21950335E+03     -1.73643368E+02      7.99925775E+02
      2.98497804E+02     -1.47369101E+03     -3.02532695E+02
      2.33188912E+02     -7.19522639E+02     -3.38451338E+02
      1.58445831E+03     -6.48518340E+02     -2.98574805E+03
      1.65448089E+03      3.47309884E+02     -6.13693764E+02
      5.68529679E+02     -7.31708644E+02     -2.02132309E+02
      5.60714261E+02      7.37188233E+02      1.73361082E+03
     -3.99531604E+02     -9.41505919E+02     -3.44223310E+02
     -4.95157362E+02      1.16257794E+02     -5.58245798E+02
     -1.82540134E+03     -2.80225746E+03      2.60507671E+01
      2.75170297E+02      3.81617668E+02      2.10556547E+03
      4.44976267E+02      9.51244281E+00      3.32172637E+02
     -1.08452179E+03     -1.44602485E+03     -2.61551728E+00
      5.41885432E+02      1.52923668E+03      1.02737197E+02
      8.74697660E+01     -2.82470112E+02     -4.75183000E+02
      5.89602837E+02      2.19223235E+02      3.62749453E+02
     -4.97959167E+02     -2.94903272E+02      2.95027238E+03
      1.16702940E+03     -4.56245295E+02     -6.89828609E+00
     -4.49284931E+02      7.37983613E+02     -5.04805451E+01
     -1.13049308E+03      2.19848906E+03     -1.30454533E+03
     -3.93099766E+01     -9.92439157E+02      3.56976341E+03
      8.25165031E+02      2.07615897E+03      7.74358199E+02
     -3.06708385E+02     -8.37681180E+01      1.71888648E+02
     -2.54302901E+03     -1.41564357E+02      2.45134784E+03
      2.63584285E+02      1.01590501E+03     -1.54269560E+03
     -8.21229163E+02      5.36442286E+02      3.52147002E+02
      1.49299842E+03     -2.19939644E+03      3.55850688E+03
     -7.15031675E+02      1.30047168E+03     -1.25055590E+02
     -2.41702936E+02     -5.43552569E+01     -5.64309913E+01
     -1.53301440E+03      4.43700853E+02     -4.04048739E+02
     -1.00959008E+03      6.20570794E+02      1.52243526E+03
     -4.74206697E+02     -3.39931599E+02     -6.73137024E+02
      1.99844249E+03     -7.12028685E+02     -1.00472809E+03
     -1.18366668E+03      8.40536621E+01     -2.79787160E+02
      5.85323904E+02     -1.78462408E+02     -3.18806958E+02
      8.53948974E+02      2.31416625E+03     -2.35791402E+02
     -8.43717471E+02      2.02918612E+02      5.39479550E+02
      2.11319451E+02      2.09828745E+02      2.07335132E+02
     -8.43832705E+02      2.03590951E+03     -1.84842505E+03
     -2.31714031E+03      8.00391738E+02     -1.70038882E+03
     -6.84466596E+02      4.52446003E+02     -6.93560320E+01
     -1.66978784E+01     -1.59620884E+03      1.11217211E+03
      6.60057520E+02      3.01846042E+02      6.67709494E+02
     -8.57066434E+01      6.28226535E+01      7.70312772E+02
     -1.30490492E+03      2.33385730E+03      4.70664519E+02
      1.01569516E+03     -1.49465960E+03     -2.89512678E+02
     -7.72161939E+02     -7.34647607E+02      4.38661379E+02
      1.24763086E+03      1.46759794E+03      3.68729376E+02
      4.10388147E+02     -6.44413693E+02      1.19645032E+03
     -2.50967859E+02     -1.76665149E+03      3.17339473E+03
     -9.65672903E+02      1.44463356E+02     -2.26162852E+02
     -1.75782025E+03     -4.12032300E+03     -2.74175509E+01
     -2.69853563E+03      1.07996004E+03      2.36992150E+03
      7.93599251E+02      2.09726660E+03     -8.93633550E+01
     -8.46478971E+02     -3.46421101E+02      4.84455632E+02
      2.32601630E+02      7.19636477E+02     -1.55153205E+03
      1.21654557E+03      6.17016408E+01     -2.88778272E+02
     -2.28270634E+02      5.05831001E+02      8.73577124E+02
     -2.20904997E+03      3.77241187E+03      1.32517787E+02
      1.41387207E+03      6.35164808E+02     -1.07063650E+03
      3.18001963E+02      6.23435004E+02      3.35433690E+02
      3.71127543E+03      1.12286773E+03     -8.44796761E+01
     -9.44690943E+02      9.53954032E+02     -1.52505665E+02
     -4.23179150E+02      6.91729507E+02      1.21069198E+02
     -4.35954227E+03      1.00245730E+03      8.19330645E+02
      2.84119276E+03      1.53783542E+03      1.57735209E+03
      3.58220723E+02     -2.97106439E+02     -2.79185890E+02
      7.20523648E+02      4.70282440E+02      1.23855955E+03
      1.61742304E+03     -1.63726041E+02      2.24839939E+03
      2.15639389E+02     -7.18459651E+01      3.32350343E+02
      2.02977847E+03      1.31625918E+03      1.44465341E+03
     -3.33357092E+01     -1.09050992E+03     -2.59970151E+03
     -3.86190357E+02     -1.83749638E+02      5.26002222E+02
     -5.69478691E+02      2.45690387E+03      2.10728232E+03
     -1.74200332E+02      1.13149969E+03      1.21304479E+03
     -5.92292285E+02      5.23897412E+01     -1.28279316E+02
     -2.55703312E+03      2.04364280E+03     -5.91889160E+02
     -1.86005712E+02      1.68454285E+02     -1.14803340E+03
      1.32026340E+02      3.41206917E+02      3.93272561E+02
     -1.29245527E+03     -1.30145655E+03      5.22056849E+01
     -3.12394395E+01      9.32759331E+02     -2.14304603E+02
      2.75744762E+03     -6.17452431E+02      1.68961817E+02
      5.64606891E+02      3.77673613E+02     -5.29934546E+02
     -1.39792010E+03     -1.19099705E+03      1.67766834E+03
      6.47175857E+03      4.86742989E+02      6.07460446E+02
     -1.01996941E+03     -2.57757952E+02     -1.81049651E+03
     -2.04363655E+02     -2.31738975E+02     -2.34811175E+02
     -4.17930068E+02      1.11997413E+03     -2.46134871E+03
     -2.15251763E+03      2.40210943E+03     -2.13099883E+03
      5.60608711E+02      6.71173944E+01     -3.49173847E+02
      5.23573999E+02      3.56292834E+02     -3.82832668E+02
     -2.87001671E+02     -8.80484103E+02     -1.03048502E+03
     -1.45398140E+02      1.68267401E+02     -3.36661459E+02
      2.23211382E+03      1.67106975E+03      1.62858902E+03
     -8.98842645E+02     -2.27822685E+03     -4.25342005E+03
      2.22786006E+02     -3.51406951E+02     -4.27620906E+02
      1.66133634E+03      1.38586425E+03     -2.10833563E+03
     -1.12540659E+03      1.43312769E+03      2.52439675E+02
     -3.93368483E+02      3.00032527E+02     -7.91299062E+02
     -1.99623299E+03      3.95194805E+01     -1.76778756E+03
     -9.85701789E+02     -1.19975563E+03     -1.47586743E+03
      9.43182024E+02     -4.86993637E+02      2.97584526E+02
      3.48078323E+02      4.73478627E+02      1.63406006E+02
     -9.58289881E+02     -2.58134236E+02     -2.34333675E+03
     -4.02199858E+02      2.89530593E+02      1.00345574E+02
      2.78733166E+03      1.69979287E+03      3.16024374E+03
      1.21833024E+02      8.13747455E+02     -4.52434583E+02
     -4.30251518E+02     -3.89530017E+02     -8.05878920E+02
      9.67222060E+02     -2.41879158E+02     -8.03915627E+02
      5.21508534E+02     -1.16371919E+03     -1.96823234E+03
      4.87437445E+02      1.21770375E+02      5.48108691E+02
      1.68233414E+03     -1.32549179E+03     -2.62135756E+03
     -8.04051534E+02     -2.19779338E+03     -1.84206622E+03
      1.23432256E+02     -1.84739455E+03     -6.56077024E+02
     -5.06340744E+02      2.43874189E+02      6.99600731E+01
      3.72438384E+02     -1.05653829E+02     -1.32571164E+03
     -2.24857614E+03      2.32426228E+03     -3.45378899E+02
      2.40592053E+03     -1.68144153E+03      2.04001562E+01
     -3.33234800E+02      9.39484361E+01      1.23755444E+02
      1.08083193E+03      9.38280713E+02     -1.91774769E+03
     -6.99742673E+02      5.93423045E+02     -4.39956286E+01
     -4.95922549E+02      4.05615087E+02      8.27826962E+02
      1.45449587E+03     -1.84603779E+03      1.52450407E+03
     -1.17915313E+03      2.84571042E+01     -2.82958913E+03
     -5.05756957E+02      4.17163672E+02     -1.98046052E+01
     -1.27532684E+03      1.38617316E+03     -5.40784364E+02
      6.13466077E+02      8.47456493E+02      1.09773406E+03
     -2.76055891E+02     -2.00096622E+01     -5.10580907E+02
     -2.85053636E+03     -4.79689291E+02     -6.36865654E+02
      1.72547280E+03     -1.12139850E+02      1.54389683E+03
     -6.69235128E+00      5.08666389E+02     -2.16129928E+02
     -1.37686023E+03      1.51449093E+03      2.46391378E+02
     -2.50768734E+02      1.27589216E+02      5.91689230E+02
     -2.57177189E+02     -5.78299195E+02     -6.91226477E+02
     -1.37684959E+02      8.33473257E+01     -5.08390239E+02
      4.63002788E+02     -2.59509280E+01      2.44161484E+03
      6.43376719E+02     -1.26260305E+03      8.41552475E+01
     -9.99582631E+02     -2.79748411E+03      2.62592367E+03
     -2.71007537E+03      1.71161802E+03      1.32520526E+03
     -2.80261490E+02      3.11734445E+02      6.79233039E+02
     -3.00206275E+03      1.76603740E+03      3.44516592E+02
      1.15796767E+03     -1.91678429E+01      2.59566542E+03
      5.28760477E+02     -3.77827257E+01      4.49985603E+02
     -1.35215822E+03      2.18356289E+03      1.40231229E+03
     -3.54143351E+03      1.14620726E+02     -9.09703036E+01
     -8.26531514E+02      4.76351123E+02     -1.39296952E+02
      3.14381287E+02     -5.48881125E+02      4.34075078E+01
     -1.84343244E+03      3.71007802E+03      1.49139551E+03
     -2.37094982E+03      2.21544275E+02      1.08405706E+03
      1.82874005E+03     -5.82888035E+02      2.02789562E+03
     -1.90979645E+02      6.79643541E+02     -2.94016450E+02
     -4.65656558E+02     -9.18737943E+02     -4.55442858E+03
     -5.23754692E+02     -1.11879994E+03      2.48441335E+03
      4.78852079E+02      1.92046504E+02      4.21292076E+02
     -4.99949720E+02      2.89124983E+03      2.15864203E+02
      9.74008819E+02     -1.27544936E+03      4.68890624E+02
      5.03860646E+02     -4.21883196E+02     -3.01320061E+02
      8.74268622E+02      3.12259637E+03      1.43195889E+03
     -2.65421521E+03      8.01389597E+02     -7.43010842E+02
     -6.17237396E+02      3.35427855E+02     -6.07613500E+02
      3.39090684E+02     -3.84194890E+03     -2.34982994E+02
      8.85228323E+01      1.08035287E+03      1.55189617E+03
      2.56093909E+02      1.00101516E+03     -3.99343435E+02
     -3.64510095E+02      2.18333576E+03     -1.24436230E+03
     -1.93364127E+03     -1.56522634E+03      1.13086983E+03
     -2.59769398E+02     -5.08276742E+01      8.61329040E+02
     -1.57695395E+03      2.89494960E+03      1.31778139E+03
     -1.21041317E+02      1.10745810E+03     -1.11763168E+03
     -3.58115455E+02      4.13152041E+02      2.62127006E+02
      4.99969539E+01     -2.77751344E+03     -1.34054880E+03
      8.85695261E+02     -8.09083258E+02      7.45892591E+02
     -2.39189961E+02     -1.79595504E+01      7.47344806E+02
     -3.20030400E+02      1.09798104E+03      9.14440408E+01
      8.63117088E+02     -5.44167643E+02      2.87561885E+03
     -8.27348852E+01      1.48148253E+02      2.62939982E+02
      3.96445745E+02      1.28813275E+03     -2.52332636E+03
     -2.21387137E+03      3.09802713E+03      3.79036954E+02
     -2.97383491E+02      1.37732557E+03     -1.47561868E+03
     -2.60506420E+02     -2.89115135E+02      4.26661890E+02
     -8.98589799E+01     -3.16765074E+02      2.64535429E+02
     -3.37880035E+03     -1.42774315E+03      2.04284250E+03
      6.46576936E+01     -2.16682278E+02      7.26367934E+02
     -7.84468296E+02      2.39796686E+02     -5.99831150E+02
     -1.23620848E+02      1.65912266E+03     -2.34466503E+03
     -1.40193534E+03      4.83794770E+02     -1.73262437E+03
      2.47344490E+02     -1.20484897E+02      6.09448591E+02
     -5.16023019E+02     -1.71015766E+03     -6.26975641E+02
      1.42127013E+02     -1.66678144E+03      1.91773518E+03
      1.27866836E+04     -1.48545352E+04     -9.54417259E+03
      2.96720471E+03     -5.37989808E+02     -3.66959783E+03
      3.02377575E+03      3.56084624E+03      1.04251086E+03
      6.46543451E+02      6.33042540E+02     -4.56118416E+01
     -2.22736535E+03     -9.07185864E+02      8.66460151E+02
      1.69087681E+03      1.63581439E+03      8.99913563E+02
      2.37298293E+01      7.75027544E+02      8.94927458E+02
      1.79299622E+03     -2.01562077E+02     -6.88490256E+02
      2.72043804E+03     -2.56346680E+03      7.43182035E+02
      3.05222288E+02     -1.65727268E+02      3.77539456E+02
     -5.10775513E+02      1.67080676E+03      1.07950583E+03
      1.01319615E+03     -1.07086288E+03     -2.33518358E+03
     -7.40873887E+02      6.45468508E+02     -5.72347836E+02
     -1.15589598E+03     -1.42332133E+02      1.03517203E+02
      7.70998207E+02     -4.46309210E+02      6.19655136E+02
     -4.86681378E+02     -3.30393697E+02     -2.51361640E+02
      1.17048312E+03      2.82956107E+02      4.04164110E+02
     -2.71298184E+03      2.04969501E+03      1.15523373E+03
     -6.63955011E+02     -2.92232956E+02      2.00053893E+02
      1.02791613E+03      7.67033369E+02     -2.19882616E+03
     -3.45618153E+02      1.13367398E+02     -1.70021818E+03
      1.16082282E+03     -7.50740840E+02     -2.67595717E+02
     -5.43882424E+02      6.22672609E+02      3.62717840E+01
     -9.75385391E+01      5.62917295E+02     -1.41606905E+03
      2.00921247E+03      2.76915274E+00      2.82617894E+02
     -1.72653087E+03     -1.14630160E+03     -2.40926468E+03
      1.79527059E+02      1.90204183E+02      1.59364938E+02
      1.91779817E+03      2.15379038E+02      1.97054889E+03
      2.82676391E+03     -1.60637373E+02     -1.35805615E+03
     -2.80962710E+02     -1.72802396E+00      1.04022468E+03
     -1.90233211E+03      1.55593201E+03     -2.18249322E+02
     -2.17030696E+03      1.57964934E+02      3.73844182E+03
     -3.78583429E+02      7.77899418E+02      2.60873560E+02
     -2.76760672E+03     -1.39845272E+03     -1.73404309E+03
      1.60371215E+03     -1.64123117E+03      3.36433862E+02
     -5.89276667E+02     -7.29674432E+02     -1.13575013E+02
     -1.04932058E+03      2.68065899E+03      9.80861039E+02
      4.21635498E+00      2.26073798E+03      1.25165646E+03
      9.26241395E+01     -2.80701835E+01      1.37100405E+02
     -2.64908743E+02     -1.82162626E+03     -1.69069466E+03
     -1.48023262E+03      1.06855582E+03     -7.87726127E+02
     -1.07354707E+02      3.08123868E+00      2.15939461E+02
     -3.37424825E+02     -6.67501534E+02      1.93429010E+03
      3.30495425E+02     -1.18059022E+03      1.49876107E+03
      3.92535335E+02      1.39098120E+01      3.08684132E+01
      2.19458488E+03      1.02527223E+03      2.10632700E+03
      3.08885429E+02      1.86625233E+03      8.81698354E+01
      3.87262810E+02      4.63413927E+01      3.18489317E+02
      2.15158996E+02     -7.71724853E+02      1.81198260E+03
     -1.27445174E+03     -4.99694627E+02     -4.97068702E+02
     -3.15683479E+02     -2.62529421E+02      8.59529638E+01
     -1.80466696E+02      1.80040660E+03     -2.67482890E+03
      7.48549741E+02      2.62187867E+03      4.81030505E+03
     -8.78774389E+01      3.38724132E+02      1.06728828E+03
      6.60956341E+02      7.37887491E+01      2.32124898E+02
     -2.02727114E+02      2.14777260E+03      1.65937017E+03
     -1.46230637E+03     -6.56207207E+02      1.66833895E+02
      1.76422699E+03      2.48490286E+03      2.07264866E+03
      1.30563392E+02      3.83782367E+02      2.04276754E+02
      2.09172897E+03     -2.73300236E+03     -1.96534237E+03
      1.18572680E+02     -1.84953303E+03     -1.11247514E+03
     -4.95037299E+02     -1.75684991E+02     -4.64064721E+02
     -5.02528152E+02     -2.88785607E+03     -1.35790808E+03
     -7.54609084E+02      1.30597024E+03     -4.50371011E+02
      1.03089020E+02     -1.01368537E+02      6.35250955E+02
      1.66867174E+03     -4.20396853E+02      2.36689505E+02
      5.04427029E+02     -3.34456357E+03      1.01798250E+03
      5.72107381E+02      4.89783629E+02      2.02301169E+02
     -1.61007244E+03     -7.01960715E+01      2.75467867E+02
     -1.56387696E+03     -1.48411179E+03      1.48976922E+03
      4.24351925E+02      6.27780439E+02      1.27286671E+02
      1.36153562E+03     -7.91976404E+02      2.12352848E+03
     -1.10033402E+03     -2.18762923E+03     -1.76385048E+03
     -4.78925489E+02     -4.33584660E+02     -4.19433463E+02
      2.95704523E+03      4.22450263E+02     -4.83204470E+02
      1.55474773E+03      5.21477390E+03     -7.36237961E+02
     -1.30581820E+02     -1.31858110E+02      1.48451210E+02
      6.73093723E+02     -9.21416402E+02     -7.34504827E+01
     -2.84850321E+03      1.44819587E+03      6.44996560E+02
     -7.89111880E+01     -5.25187461E+02     -6.71987281E+01
      7.25843135E+02      9.35463915E+02     -3.95296833E+02
      7.00354823E+02     -1.08505257E+02     -1.17409353E+02
      2.41694975E+02      5.99968629E+02      6.02459484E+01
     -2.03940347E+03      7.75462353E+02      1.66731377E+03
      3.61866279E+03      2.91690771E+03     -3.82643553E+02
     -6.00051081E+00     -2.20597445E+02     -1.72173604E+02
     -2.76446787E+02      3.83857596E+02      5.87946433E+01
     -9.06268788E+02      3.66273157E+03      2.07109434E+03
      8.83270384E+02     -2.00451130E+01      1.47118986E+03
     -4.58911766E+00      2.82229560E+02     -1.60999033E+03
      7.10177906E+01      1.04328239E+02     -2.48529059E+02
      2.37908391E+03      2.16469976E+03     -4.91218205E+03
      1.23685574E+00      6.70091427E+02     -2.11836498E+03
     -2.67939716E+02      2.01398759E+02      6.37310306E+02
     -3.98970162E+02      1.01933154E+03     -4.20065187E+03
     -3.76544868E+03     -6.94520334E+01      1.24879774E+03
      2.74491593E+01      5.51387428E+02     -2.92655116E+02
      7.70205634E+02     -4.87175945E+02     -1.05676895E+03
      7.10185038E+02     -1.47964501E+03      2.02767519E+02
     -3.04255145E+02      6.73619452E+02     -3.11484368E+02
     -2.14754743E+03      8.30488429E+02     -9.22028831E+02
     -1.46164841E+03      5.07386348E+02      3.95948322E+02
     -5.89534576E+01     -1.46268928E+02      6.06067191E+02
      1.51640815E+03      1.01176227E+03      1.68757605E+03
      1.43945156E+03      8.36084667E+01     -1.50317020E+03
     -7.10424625E+01      3.06570925E+02      5.65650667E+02
      1.75481050E+03      8.77425514E+01      9.34483025E+01
      1.42147002E+03     -1.16566404E+02     -1.50716938E+03
     -4.08224135E+02     -1.73210684E+02     -1.61260954E+02
     -2.54998187E+02     -3.37996371E+02     -1.45438635E+03
     -3.21788789E+03      1.16025116E+03      8.89001986E+02
     -3.12312971E+02      3.46695925E+02     -8.68626521E+01
      2.55783723E+03     -5.31991789E+02     -4.87090722E+01
      8.22941923E+02      2.15401632E+03     -8.94065380E+02
     -4.10216332E+02      9.33406102E+02     -2.16034091E+02
      3.11341013E+03      2.60640078E+02     -1.13884620E+03
      3.73647305E+02     -2.03998435E+03      2.32310925E+03
      1.14084844E+03     -6.34476422E+02      2.42429482E+03
      1.52133029E+02     -2.72552290E+01      2.48436060E+02
     -2.07257178E+03      1.79880542E+02     -1.83064883E+03
     -3.41366982E+02      1.42920169E+03      1.06396238E+02
      7.47121435E+02      2.24795070E+03      2.22431772E+03
     -7.08973316E+02      9.37066951E+02      2.02960148E+02
      4.22028066E+03      3.04115930E+02     -1.07822614E+03
      1.43692878E+03     -1.90904308E+03      4.16951376E+02
      1.63447615E+02      2.00588856E+02     -5.50026086E+02
      3.15802301E+03      7.83431062E+02     -2.33859913E+02
      7.19010478E+02      1.04967514E+03      4.58926468E+02
     -1.07046703E+02     -5.22243483E+02      2.02209401E+01
     -6.13664569E+00     -1.45966483E+03      1.59104419E+03
      3.08839992E+03      2.73983400E+03      2.05778724E+03
      5.29042791E+02      3.21161976E+02      2.40868819E+02
     -2.00787651E+03     -1.67105370E+03      6.47370491E+02
      3.06515037E+02     -1.83963046E+02      2.41121599E+02
     -9.48043339E+02      5.72764094E+02     -9.43429101E+01
      8.00558134E+02     -8.69057011E+02     -9.02849999E+02
      1.41495139E+03     -1.73202328E+03      2.86175959E+02
     -1.82507942E+02      2.45045216E+02      6.42212959E+02
      1.53025226E+03      3.61179060E+03     -2.66088751E+03
     -3.68205017E+03     -3.79891318E+02     -1.51412766E+03
     -2.66812730E+02      2.40238007E+01      5.03238570E+02
     -1.54508780E+03     -8.98700537E+02      9.74493842E+02
     -4.07103449E+02      7.36815399E+02     -1.12729077E+02
     -1.54370298E+02     -2.13500679E+02      8.05391335E+02
      9.67859651E+02      9.29200606E+02      1.09423263E+03
      1.21505654E+03      9.80470657E+02     -3.79641839E+02
     -6.73751926E+02     -1.46485533E+02      7.82293812E+02
      2.76739926E+02      1.96085710E+03      1.44871676E+03
     -1.33048068E+03      2.37729108E+03      2.74069056E+02
      2.83860618E+03      6.53252995E+02      1.06517186E+03
     -2.88501960E+02      5.78061863E+02      1.86632630E+02
      1.09530048E+03      1.07166152E+03     -1.02931124E+03
      1.52090151E+03     -1.06950600E+03     -9.43320420E+01
      2.11781552E+03      5.37759387E+02      2.26045636E+02
  }
}

Hamiltonian = DFTB {
  SCC = Yes
  SCCTolerance = 1e-6
  MaxSCCIterations = 200
  ForceEvaluation = Dynamics
  MaxAngularMomentum = {
    C = "p"
    H = "s"
  }
  Charge = 0.0
  SpinPolarisation = {}
  Eigensolver = Standard {}
  Filling = Fermi {
    Temperature [Kelvin] = 300.0
  }
  SlaterKosterFiles = Type2FileNames {
    Prefix = "../../pbc-0-3/"
    Separator = "-"
    Suffix = ".skf"
    LowerCaseTypeName = No
  }
  KPointsAndWeights = {
    0.0000000000000 0.0000000000000 0.0000000000000 1.00000000000000
  }
  Dispersion = LennardJones { 
    Parameters = UFFParameters {}
  }
}

ParserOptions = {
  ParserVersion = 3
}
