Geometry = GenFormat {
352  S
C  H
1 1    0.3885561707E+02    0.2647439578E+02    0.4082136726E+02
2 2    0.3978354573E+02    0.2615540148E+02    0.4021696687E+02
3 2    0.3914927885E+02    0.2752702714E+02    0.4121886865E+02
4 1    0.3769574159E+02    0.4175730158E+02    0.3984858706E+02
5 2    0.3674021581E+02    0.4160698169E+02    0.4035332197E+02
6 2    0.2244468653E+02    0.4075977642E+02    0.3936264679E+02
7 1    0.3743234319E+02    0.4283355091E+02    0.3872419220E+02
8 2    0.2217981382E+02    0.4387074701E+02    0.3916724405E+02
9 2    0.3646823424E+02    0.4288936458E+02    0.3838859946E+02
10 1    0.2296829952E+02    0.4257305367E+02    0.3752067265E+02
11 2    0.2254081927E+02    0.4327978441E+02    0.3675013359E+02
12 2    0.2266089965E+02    0.4151366144E+02    0.3712017195E+02
13 1    0.3980523426E+02    0.4281560591E+02    0.3772736379E+02
14 2    0.4006370125E+02    0.4176559532E+02    0.3811550260E+02
15 2    0.3984725752E+02    0.4361588448E+02    0.3852059230E+02
16 1    0.2541071695E+02    0.4311278792E+02    0.3661583693E+02
17 2    0.2513327674E+02    0.4409284065E+02    0.3602101451E+02
18 2    0.2540816306E+02    0.4216594683E+02    0.3601576372E+02
19 1    0.4217886173E+02    0.4334043617E+02    0.3707401431E+02
20 2    0.4263455282E+02    0.4237607106E+02    0.3744959908E+02
21 2    0.4230650749E+02    0.4411004388E+02    0.3794350481E+02
22 1    0.4304780766E+02    0.4398884348E+02    0.3587999195E+02
23 2    0.2708396201E+02    0.4474896085E+02    0.3535530668E+02
24 2    0.2801768509E+02    0.4329054573E+02    0.3497590977E+02
25 1    0.3852555274E+02    0.2559206904E+02    0.4200934914E+02
26 2    0.3930937313E+02    0.2497337043E+02    0.4238467006E+02
27 2    0.3807227750E+02    0.2610353904E+02    0.4281998428E+02
28 2    0.3783308110E+02    0.2482180844E+02    0.4182841059E+02
29 1    0.4434877999E+02    0.4457099913E+02    0.3629719513E+02
30 2    0.4480080338E+02    0.4421621820E+02    0.3731103642E+02
31 2    0.4521436826E+02    0.4435262936E+02    0.3558676973E+02
32 2    0.4431646073E+02    0.4563063765E+02    0.3656802888E+02
33 1    0.2309476920E+02    0.3043070414E+02    0.3250645758E+02
34 2    0.2278393737E+02    0.3064543637E+02    0.3144024241E+02
35 2    0.2250814677E+02    0.2957444983E+02    0.3281611734E+02
36 1    0.2465582472E+02    0.3033115982E+02    0.3245473760E+02
37 2    0.2485779963E+02    0.2934092843E+02    0.3199900864E+02
38 2    0.2501311826E+02    0.3035962823E+02    0.3347282588E+02
39 1    0.2532841476E+02    0.3135457476E+02    0.3155252112E+02
40 2    0.2472074338E+02    0.3216048028E+02    0.3112302027E+02
41 2    0.2590121541E+02    0.3088939777E+02    0.3072383894E+02
42 1    0.2619604128E+02    0.3228560708E+02    0.3244594920E+02
43 2    0.4219786931E+02    0.3167837483E+02    0.3310321896E+02
44 2    0.2556082696E+02    0.3288049703E+02    0.3317646649E+02
45 1    0.2688267060E+02    0.3330611337E+02    0.3156011084E+02
46 2    0.2683879059E+02    0.3423492019E+02    0.3206222872E+02
47 2    0.4159281893E+02    0.3342357134E+02    0.3056989421E+02
48 1    0.4362248893E+02    0.3284474256E+02    0.3140829749E+02
49 2    0.4387303855E+02    0.3207800749E+02    0.3216558773E+02
50 2    0.4442862255E+02    0.3366150564E+02    0.3159180515E+02
51 1    0.2856015465E+02    0.3213377491E+02    0.3001140927E+02
52 2    0.2829414137E+02    0.3290124465E+02    0.2928359045E+02
53 2    0.2799245965E+02    0.3113392306E+02    0.2976547665E+02
54 1    0.4532332687E+02    0.3177625780E+02    0.4528666765E+02
55 2    0.4555113902E+02    0.3109880050E+02    0.4612621877E+02
56 2    0.4577747584E+02    0.3272342504E+02    0.4564377935E+02
57 1    0.2255105716E+02    0.3166242192E+02    0.3329411072E+02
58 2    0.2263194409E+02    0.3156364013E+02    0.3436378744E+02
59 2    0.2302705883E+02    0.3260119749E+02    0.3294708543E+02
60 2    0.2142283532E+02    0.3161955090E+02    0.3304106272E+02
61 1    0.3051286050E+02    0.3139168806E+02    0.4395996904E+02
62 2    0.3000179460E+02    0.3046519181E+02    0.4348735693E+02
63 2    0.3033821281E+02    0.3227783020E+02    0.4335012719E+02
64 2    0.3163250221E+02    0.3124564323E+02    0.4399246102E+02
65 1    0.3893385214E+02    0.3683235325E+02    0.4038481902E+02
66 2    0.3822919763E+02    0.3735424418E+02    0.4102221982E+02
67 2    0.3862903868E+02    0.3697209772E+02    0.3927286704E+02
68 1    0.4026170515E+02    0.3763844675E+02    0.4067652160E+02
69 2    0.4083908023E+02    0.3734604534E+02    0.4159006328E+02
70 2    0.3990514942E+02    0.3867159454E+02    0.4094449948E+02
71 1    0.4126743974E+02    0.3767685219E+02    0.3948005084E+02
72 2    0.4132663327E+02    0.3668510646E+02    0.3908436991E+02
73 2    0.4225647841E+02    0.3798540206E+02    0.4008558790E+02
74 1    0.4096258730E+02    0.2333419514E+02    0.3827815665E+02
75 2    0.4166865028E+02    0.2417430505E+02    0.3820920664E+02
76 2    0.3992237070E+02    0.2369928119E+02    0.3842888194E+02
77 1    0.4117184056E+02    0.2268019313E+02    0.3691678468E+02
78 2    0.4062047772E+02    0.3704096218E+02    0.3683498310E+02
79 2    0.4221670989E+02    0.3775945162E+02    0.3674102865E+02
80 1    0.4068120616E+02    0.2360585907E+02    0.3569456856E+02
81 2    0.4147717030E+02    0.2436167267E+02    0.3573347978E+02
82 2    0.3969739866E+02    0.2409751534E+02    0.3581211711E+02
83 1    0.4072899212E+02    0.2298940671E+02    0.3436234964E+02
84 2    0.3970836236E+02    0.2280604583E+02    0.3402046899E+02
85 2    0.4114616930E+02    0.2199329876E+02    0.3447654677E+02
86 1    0.4148200634E+02    0.2382854325E+02    0.3326791688E+02
87 2    0.4247538889E+02    0.2418436738E+02    0.3363983132E+02
88 2    0.4083170314E+02    0.2471742968E+02    0.3314970450E+02
89 1    0.3919802717E+02    0.3533779702E+02    0.4074996376E+02
90 2    0.3970725017E+02    0.3539552789E+02    0.4170637196E+02
91 2    0.3832740406E+02    0.3468744211E+02    0.4077391010E+02
92 2    0.3993130097E+02    0.3494392903E+02    0.4000279580E+02
93 1    0.4159755837E+02    0.2313019082E+02    0.3191636041E+02
94 2    0.4194374602E+02    0.2384394804E+02    0.3118271549E+02
95 2    0.4228620359E+02    0.2222993959E+02    0.3190340611E+02
96 2    0.4059329309E+02    0.2281006619E+02    0.3162238715E+02
97 1    0.3062722157E+02    0.3834382776E+02    0.3501262635E+02
98 2    0.3170818414E+02    0.3834580153E+02    0.3514841275E+02
99 2    0.3021227417E+02    0.3731820577E+02    0.3524314346E+02
100 1    0.2985693598E+02    0.3929604462E+02    0.3600137386E+02
101 2    0.2877502139E+02    0.3942420824E+02    0.3569420488E+02
102 2    0.3036858565E+02    0.4033672443E+02    0.3591298619E+02
103 1    0.2992411438E+02    0.3876280891E+02    0.3744743851E+02
104 2    0.2944579988E+02    0.3768646033E+02    0.3737958462E+02
105 2    0.2932968342E+02    0.3930142707E+02    0.3827545630E+02
106 1    0.3140559392E+02    0.3867811682E+02    0.2277029826E+02
107 2    0.3169391578E+02    0.3963671029E+02    0.2303980905E+02
108 2    0.3215874041E+02    0.3846490837E+02    0.2193196314E+02
109 1    0.3164537278E+02    0.3770385145E+02    0.2389671348E+02
110 2    0.3274463312E+02    0.3759530916E+02    0.2391512452E+02
111 2    0.3126204097E+02    0.3671997936E+02    0.2362246604E+02
112 1    0.3104551808E+02    0.3810049597E+02    0.2527506694E+02
113 2    0.3113213217E+02    0.3925817300E+02    0.2533626685E+02
114 2    0.3177256608E+02    0.3763299264E+02    0.2599541154E+02
115 1    0.2965942614E+02    0.3750111260E+02    0.2556136569E+02
116 2    0.2929374821E+02    0.3670534062E+02    0.2482937398E+02
117 2    0.2876946108E+02    0.3823485017E+02    0.2532366298E+02
118 1    0.2946990333E+02    0.3703191301E+02    0.2703427043E+02
119 2    0.2926937051E+02    0.3794564992E+02    0.2761712638E+02
120 2    0.3045715811E+02    0.3666369026E+02    0.2732259056E+02
121 1    0.3043521258E+02    0.3841278046E+02    0.3348580288E+02
122 2    0.2944015763E+02    0.3865733224E+02    0.3310607425E+02
123 2    0.3107552009E+02    0.3926115937E+02    0.3302796502E+02
124 2    0.3080285212E+02    0.3744891100E+02    0.3306272025E+02
125 1    0.2841087297E+02    0.3598029498E+02    0.2711842869E+02
126 2    0.2737796336E+02    0.3629337522E+02    0.2697827158E+02
127 2    0.2853836543E+02    0.3531987809E+02    0.2632405192E+02
128 2    0.2844333092E+02    0.3548350475E+02    0.2810205538E+02
129 1    0.3649876701E+02    0.4125036950E+02    0.3392190621E+02
130 2    0.3645093667E+02    0.4095071915E+02    0.3498256002E+02
131 2    0.3611337723E+02    0.4031770124E+02    0.3330036526E+02
132 1    0.3526458783E+02    0.4233882793E+02    0.3379509959E+02
133 2    0.3551202454E+02    0.4287779265E+02    0.3288881440E+02
134 2    0.3553045905E+02    0.4301131136E+02    0.3461125725E+02
135 1    0.3394509999E+02    0.4166363130E+02    0.3396031634E+02
136 2    0.3400307988E+02    0.4067522034E+02    0.3343368939E+02
137 2    0.3318715498E+02    0.4223981214E+02    0.3346824525E+02
138 1    0.3361383158E+02    0.4135480819E+02    0.3541149362E+02
139 2    0.3451544040E+02    0.4103018154E+02    0.3599353047E+02
140 2    0.3282683131E+02    0.4052629445E+02    0.3543706387E+02
141 1    0.3305089258E+02    0.4260651237E+02    0.3619262463E+02
142 2    0.3208717654E+02    0.4233959694E+02    0.3664542407E+02
143 2    0.3264314355E+02    0.4334214903E+02    0.3553031052E+02
144 1    0.3400888613E+02    0.4331095027E+02    0.3721684433E+02
145 2    0.3380397452E+02    0.4436481632E+02    0.3702561385E+02
146 2    0.3507269811E+02    0.4303890257E+02    0.3691585471E+02
147 1    0.3372297978E+02    0.4296727735E+02    0.3869448130E+02
148 2    0.3442219872E+02    0.4212409021E+02    0.3910504670E+02
149 2    0.3268330072E+02    0.4255751223E+02    0.3878265272E+02
150 1    0.3384514775E+02    0.4425031076E+02    0.3955085296E+02
151 2    0.3363233124E+02    0.4512796512E+02    0.3893415622E+02
152 2    0.3485101814E+02    0.4444581654E+02    0.3985576484E+02
153 1    0.3789894387E+02    0.4169895698E+02    0.3357796401E+02
154 2    0.3870845098E+02    0.2561896304E+02    0.3381004973E+02
155 2    0.3800413104E+02    0.4192886810E+02    0.3246992533E+02
156 2    0.3798880650E+02    0.4261362511E+02    0.3415684551E+02
157 1    0.3287947188E+02    0.4433695572E+02    0.4075571045E+02
158 2    0.3302255174E+02    0.4362405849E+02    0.4156039260E+02
159 2    0.3308781730E+02    0.4539437892E+02    0.4103467627E+02
160 2    0.3181545265E+02    0.4426232457E+02    0.4050539320E+02
161 1    0.4416131952E+02    0.2633589717E+02    0.2629273336E+02
162 2    0.4464391505E+02    0.2735220942E+02    0.2610947932E+02
163 2    0.4493204532E+02    0.2552282672E+02    0.2619387852E+02
164 1    0.4360573038E+02    0.2636333645E+02    0.2774471974E+02
165 2    0.4434653114E+02    0.2667662732E+02    0.2836419594E+02
166 2    0.4352640467E+02    0.2525999217E+02    0.2805243836E+02
167 1    0.4226762227E+02    0.2720292615E+02    0.2801709827E+02
168 2    0.4135957720E+02    0.2673874774E+02    0.2754492258E+02
169 2    0.4251970317E+02    0.2815479821E+02    0.2731382337E+02
170 1    0.4204531459E+02    0.2749666639E+02    0.2949743089E+02
171 2    0.4215114609E+02    0.2654019900E+02    0.3006264633E+02
172 2    0.4098982619E+02    0.2797232957E+02    0.2972927047E+02
173 1    0.4298511913E+02    0.4394064254E+02    0.2995193316E+02
174 2    0.4236764089E+02    0.4481845683E+02    0.2970142458E+02
175 2    0.4381432218E+02    0.2864920888E+02    0.2926142965E+02
176 1    0.4349624724E+02    0.4380151998E+02    0.3140817077E+02
177 2    0.4269575222E+02    0.4361393675E+02    0.3219316952E+02
178 2    0.4379685189E+02    0.4486912333E+02    0.3165020115E+02
179 1    0.4477365260E+02    0.4294959131E+02    0.3149112904E+02
180 2    0.4452275345E+02    0.4187372836E+02    0.3131084861E+02
181 2    0.4520989362E+02    0.4312201240E+02    0.3252954510E+02
182 1    0.4595408127E+02    0.4362264434E+02    0.3060385699E+02
183 2    0.4642866144E+02    0.4445283046E+02    0.3128677470E+02
184 2    0.4562678411E+02    0.4414542561E+02    0.2965789655E+02
185 1    0.4319045735E+02    0.2608644991E+02    0.2518271073E+02
186 2    0.4254713157E+02    0.2526030158E+02    0.2540497199E+02
187 2    0.4255366294E+02    0.2699688843E+02    0.2516514230E+02
188 2    0.4368371438E+02    0.2599438391E+02    0.3955317175E+02
189 1    0.4698794507E+02    0.4267550100E+02    0.3014650526E+02
190 2    0.4730358949E+02    0.4204339720E+02    0.3099673057E+02
191 2    0.4678278123E+02    0.4215430792E+02    0.2927735179E+02
192 2    0.4786720554E+02    0.4325432149E+02    0.2985959705E+02
193 1    0.3445360896E+02    0.2245241901E+02    0.4268333942E+02
194 2    0.3337602075E+02    0.2214666185E+02    0.4270399581E+02
195 2    0.3494926284E+02    0.3743844669E+02    0.4363386400E+02
196 1    0.3490343452E+02    0.2156301408E+02    0.4152861784E+02
197 2    0.3591886357E+02    0.2181102826E+02    0.4111153257E+02
198 2    0.3419587628E+02    0.3716498051E+02    0.4058410341E+02
199 1    0.3472891668E+02    0.2007545697E+02    0.4178082208E+02
200 2    0.3394307243E+02    0.1987969966E+02    0.4246347392E+02
201 2    0.3558456356E+02    0.1968729450E+02    0.4242054701E+02
202 1    0.3463898250E+02    0.1928088532E+02    0.4039811060E+02
203 2    0.3556492070E+02    0.1940837774E+02    0.3980608572E+02
204 2    0.3387054736E+02    0.1978216962E+02    0.3977139431E+02
205 1    0.3437631829E+02    0.1777414995E+02    0.4070595703E+02
206 2    0.3514100976E+02    0.1724559744E+02    0.4145449172E+02
207 2    0.3449341535E+02    0.1718910898E+02    0.3970448363E+02
208 1    0.3292497312E+02    0.1775900551E+02    0.4109095532E+02
209 2    0.3263737054E+02    0.1857391760E+02    0.4179622521E+02
210 2    0.3263551340E+02    0.1684684053E+02    0.4172568684E+02
211 1    0.3197290072E+02    0.3312273616E+02    0.3990521508E+02
212 2    0.3208306961E+02    0.3224346433E+02    0.3922030831E+02
213 2    0.3217710611E+02    0.3409757844E+02    0.3934176850E+02
214 1    0.3047780025E+02    0.3324102385E+02    0.4024936442E+02
215 2    0.3050674091E+02    0.3394625014E+02    0.4116459620E+02
216 2    0.3003424534E+02    0.3233196094E+02    0.4069119794E+02
217 1    0.3464324193E+02    0.2392519014E+02    0.4229858928E+02
218 2    0.3567335296E+02    0.2416640466E+02    0.2672185283E+02
219 2    0.3404988666E+02    0.2402832481E+02    0.2604692931E+02
220 2    0.3428963422E+02    0.2465194282E+02    0.4305846455E+02
221 1    0.2972459149E+02    0.3370125583E+02    0.3899440401E+02
222 2    0.3027220802E+02    0.3428817312E+02    0.3821989193E+02
223 2    0.2937922789E+02    0.3280867987E+02    0.3858301231E+02
224 2    0.2895025315E+02    0.3428910989E+02    0.3936728504E+02
225 1    0.3451502816E+02    0.4728759954E+02    0.3501584587E+02
226 2    0.3561808462E+02    0.4735042581E+02    0.3483959474E+02
227 2    0.3397690248E+02    0.4830893326E+02    0.3465392556E+02
228 1    0.3388321532E+02    0.3063035932E+02    0.3457210442E+02
229 2    0.3297658194E+02    0.3042768536E+02    0.3496077636E+02
230 2    0.3441143680E+02    0.2970721570E+02    0.3499080822E+02
231 1    0.3384203412E+02    0.4565900623E+02    0.3312635109E+02
232 2    0.3310485288E+02    0.4480896872E+02    0.3308119995E+02
233 2    0.3474831579E+02    0.4524120525E+02    0.3273758945E+02
234 1    0.3322891394E+02    0.4682094640E+02    0.3212288994E+02
235 2    0.3371405427E+02    0.4770788800E+02    0.3264905339E+02
236 2    0.3209649639E+02    0.4689698319E+02    0.3229908809E+02
237 1    0.3370716623E+02    0.4651152620E+02    0.3075014989E+02
238 2    0.3330353142E+02    0.4730243453E+02    0.3005642069E+02
239 2    0.3339323378E+02    0.3010745129E+02    0.3055975790E+02
240 1    0.3512325613E+02    0.4666338215E+02    0.3040389230E+02
241 2    0.3581080982E+02    0.3106342785E+02    0.3123822050E+02
242 2    0.3550675452E+02    0.3235511022E+02    0.3016491304E+02
243 1    0.3555736716E+02    0.4593564220E+02    0.2911866397E+02
244 2    0.3628480448E+02    0.4650670373E+02    0.2851710357E+02
245 2    0.3481713223E+02    0.4568863843E+02    0.2831861999E+02
246 1    0.3638707355E+02    0.4457343454E+02    0.2946800629E+02
247 2    0.3656190768E+02    0.4468676377E+02    0.3051128057E+02
248 2    0.3693748370E+02    0.4447469897E+02    0.2846432298E+02
249 1    0.3428376531E+02    0.3225541401E+02    0.3656534216E+02
250 2    0.3314283624E+02    0.3211570023E+02    0.3665556875E+02
251 2    0.3490137675E+02    0.3157967182E+02    0.3727037323E+02
252 2    0.3461906876E+02    0.3326485617E+02    0.3676155976E+02
253 1    0.3546800788E+02    0.4333287587E+02    0.2934512066E+02
254 2    0.3431448192E+02    0.4347247879E+02    0.2976671374E+02
255 2    0.3520240512E+02    0.4326356171E+02    0.2827353240E+02
256 2    0.3525823002E+02    0.4121149567E+02    0.4497969404E+02
257 1    0.4617364178E+02    0.3401613237E+02    0.4940428446E+02
258 2    0.4700153106E+02    0.3433036576E+02    0.5020305261E+02
259 2    0.4632838905E+02    0.3466907237E+02    0.4847135305E+02
260 1    0.4609599497E+02    0.3255471951E+02    0.4929352438E+02
261 2    0.4667611589E+02    0.3213016802E+02    0.5019204486E+02
262 2    0.4523000276E+02    0.3212498149E+02    0.4854789366E+02
263 1    0.5125905653E+02    0.2665230648E+02    0.4492689415E+02
264 2    0.3775921436E+02    0.3233520587E+02    0.3838811113E+02
265 2    0.5233944248E+02    0.2663967736E+02    0.4490325279E+02
266 1    0.3753860570E+02    0.3118656432E+02    0.3837089639E+02
267 2    0.3641528442E+02    0.3093701864E+02    0.3836297907E+02
268 2    0.3823506905E+02    0.3086711993E+02    0.3915193178E+02
269 1    0.3803554009E+02    0.3091611137E+02    0.3694641176E+02
270 2    0.3736264507E+02    0.3148135732E+02    0.3629212274E+02
271 2    0.3816787474E+02    0.2989317418E+02    0.3655433794E+02
272 1    0.3941284006E+02    0.3183438599E+02    0.3662400896E+02
273 2    0.3897367542E+02    0.3279511380E+02    0.3632915758E+02
274 2    0.3985646911E+02    0.3138612407E+02    0.3572579499E+02
275 1    0.4037248180E+02    0.3192971015E+02    0.3788818625E+02
276 2    0.4047538482E+02    0.3085107365E+02    0.3844645450E+02
277 2    0.3988544655E+02    0.3264668906E+02    0.3869854060E+02
278 1    0.4173939355E+02    0.3251854271E+02    0.3749619789E+02
279 2    0.4211045062E+02    0.3201329318E+02    0.3657051546E+02
280 2    0.4247547297E+02    0.3216317551E+02    0.3819970739E+02
281 1    0.4479571782E+02    0.3440522207E+02    0.5004220865E+02
282 2    0.4457490135E+02    0.3549614119E+02    0.5002641085E+02
283 2    0.4405702940E+02    0.3378848482E+02    0.4953809022E+02
284 2    0.4467943778E+02    0.3414500788E+02    0.5115279675E+02
285 1    0.4180804881E+02    0.3411393044E+02    0.3746815947E+02
286 2    0.4233893385E+02    0.3448538290E+02    0.3644128245E+02
287 2    0.4079597243E+02    0.3443181278E+02    0.3737433725E+02
288 2    0.4240974456E+02    0.3443607742E+02    0.3831959139E+02
289 1    0.2286848595E+02    0.3632870518E+02    0.4473015703E+02
290 2    0.2229919737E+02    0.3614857145E+02    0.4377808411E+02
291 2    0.2220486401E+02    0.3667114549E+02    0.4552629686E+02
292 1    0.2372871398E+02    0.3501653346E+02    0.4511279312E+02
293 2    0.2421610123E+02    0.3514539678E+02    0.4613632776E+02
294 2    0.2461928559E+02    0.3500653673E+02    0.4434288307E+02
295 1    0.2283036835E+02    0.3384108938E+02    0.4500207161E+02
296 2    0.2174270632E+02    0.3416586795E+02    0.4531505463E+02
297 2    0.2322600945E+02    0.3312118123E+02    0.3045973954E+02
298 1    0.2288367698E+02    0.3325769639E+02    0.2827968060E+02
299 2    0.2334708195E+02    0.3388762711E+02    0.4287251095E+02
300 2    0.2173259387E+02    0.3306435204E+02    0.2803358933E+02
301 1    0.2360782924E+02    0.3194637445E+02    0.2819610841E+02
302 2    0.2327150337E+02    0.3139498677E+02    0.2729211131E+02
303 2    0.2330234998E+02    0.3123885240E+02    0.4434817999E+02
304 1    0.2518568013E+02    0.3212616531E+02    0.2811148850E+02
305 2    0.2591408205E+02    0.3128555262E+02    0.2857157983E+02
306 2    0.2551766066E+02    0.3294383476E+02    0.2873363806E+02
307 1    0.2566685958E+02    0.3236661501E+02    0.2671315067E+02
308 2    0.2660662020E+02    0.3301237303E+02    0.2653870911E+02
309 2    0.2482512559E+02    0.3300610889E+02    0.2621985067E+02
310 1    0.2589438656E+02    0.3111763869E+02    0.2584061435E+02
311 2    0.2543435725E+02    0.3129452501E+02    0.2475467866E+02
312 2    0.2520715715E+02    0.3033928758E+02    0.2615063476E+02
313 1    0.2374919568E+02    0.3759599051E+02    0.4450367135E+02
314 2    0.2479187863E+02    0.3723487303E+02    0.4412530212E+02
315 2    0.2334384903E+02    0.3816334516E+02    0.4362897076E+02
316 2    0.2381584676E+02    0.3825381242E+02    0.4536536860E+02
317 1    0.2735358807E+02    0.3067693104E+02    0.2576477472E+02
318 2    0.2792696733E+02    0.3146234951E+02    0.2522164555E+02
319 2    0.2775718893E+02    0.3045957029E+02    0.2672654557E+02
320 2    0.2730272023E+02    0.2969102463E+02    0.2517667602E+02
321 1    0.3628091779E+02    0.3843728978E+02    0.2294858168E+02
322 2    0.3606739154E+02    0.3832461533E+02    0.2410177273E+02
323 2    0.3734485153E+02    0.3874884379E+02    0.2298102928E+02
324 1    0.3626735952E+02    0.3710115481E+02    0.3759085963E+02
325 2    0.3528663140E+02    0.3656005659E+02    0.3767679902E+02
326 2    0.3680689420E+02    0.3645361682E+02    0.3822606679E+02
327 1    0.3676418273E+02    0.3697383846E+02    0.3613911155E+02
328 2    0.3787775965E+02    0.3704162132E+02    0.3612896976E+02
329 2    0.3649822384E+02    0.3781018209E+02    0.3542684123E+02
330 1    0.3635179005E+02    0.3569942837E+02    0.3550190061E+02
331 2    0.3521077036E+02    0.3561343665E+02    0.3543842517E+02
332 2    0.3659638842E+02    0.3489711431E+02    0.3624047892E+02
333 1    0.3692298787E+02    0.3539843801E+02    0.3418820432E+02
334 2    0.3684090561E+02    0.3426915576E+02    0.3391448718E+02
335 2    0.3806980896E+02    0.3548426563E+02    0.3400084436E+02
336 1    0.3621838282E+02    0.3622979027E+02    0.3310403829E+02
337 2    0.3695940493E+02    0.3650753791E+02    0.3237661293E+02
338 2    0.3591573430E+02    0.3720238579E+02    0.3342850186E+02
339 1    0.3490155250E+02    0.3559432547E+02    0.3261695450E+02
340 2    0.3406068103E+02    0.3595983865E+02    0.3334230953E+02
341 2    0.3500120563E+02    0.3448116486E+02    0.3250469540E+02
342 1    0.3444187259E+02    0.3624777373E+02    0.3126522522E+02
343 2    0.3530394240E+02    0.3638618096E+02    0.3056894399E+02
344 2    0.3391172525E+02    0.3733194387E+02    0.3145686506E+02
345 1    0.3529834060E+02    0.3942876032E+02    0.2242450956E+02
346 2    0.3444726890E+02    0.3886087120E+02    0.2221499390E+02
347 2    0.3500862540E+02    0.4030209322E+02    0.2301017966E+02
348 2    0.3560647270E+02    0.3987727241E+02    0.2147094074E+02
349 1    0.3337592821E+02    0.3544137221E+02    0.3054547626E+02
350 2    0.3300338798E+02    0.3596090800E+02    0.2967096516E+02
351 2    0.3369255300E+02    0.3437458348E+02    0.3034381631E+02
352 2    0.3254923403E+02    0.3545107696E+02    0.3129233200E+02
0.0000000000E+00    0.0000000000E+00    0.0000000000E+00
0.1532620600E+02    0.0000000000E+00    0.0000000000E+00
0.0000000000E+00    0.1532620600E+02    0.0000000000E+00
0.0000000000E+00    0.0000000000E+00    0.1532620600E+02
}
Driver = VelocityVerlet {
  Steps = 50000
  TimeStep [fs] = 0.2
  MDRestartFrequency = 5
  Thermostat = None {}
  Xlbomd = {
    IntegrationSteps = 6
    MinSccIterations = 2
    MaxSccIterations = 200
    SccTolerance = 1e-6
    PreSteps = 0
  }
  Velocities [AA/Ps] = {
-4.25971319 -3.95160354 -1.78900256
7.36369968 23.00740847 9.85420833
2.05394951 21.30497934 -12.07444068
-7.23369518 -7.63895293 1.95597343
17.98132227 -16.21007542 -1.30805722
-1.38164103 -16.63115985 -5.53612044
-2.05542456 -2.49476836 -5.49778768
-1.72384834 -3.90917844 -33.38084673
-0.15710981 0.98407514 -6.35462341
-7.58394632 -1.58561706 -0.89068086
-31.86416092 29.77395876 22.49992502
-12.35249056 33.22845119 -0.86611180
-12.19724778 -0.76556037 2.15272952
21.27884376 -11.60483026 -16.68475358
-22.30936628 -14.11135043 16.71629122
2.63001539 -8.58600658 3.15355327
-32.70752845 -14.99089742 -26.92060817
-8.40257135 -4.56829786 -11.80765819
10.23570142 0.72041494 4.34275410
13.82531052 3.38678437 13.07726216
-28.37677242 -29.59588339 -22.48863429
-6.28371481 -6.26106954 3.50210216
-7.94830896 -19.00031456 27.92740401
-10.51317589 -5.63934141 -31.12286516
1.65582547 3.31842217 0.46452560
28.33023540 4.02867515 19.61938547
-2.47560680 16.34659919 16.20643909
20.06277366 12.59932385 29.94944905
-1.09128414 -18.22387990 -4.40072977
22.69765981 -16.52998710 -18.48999933
74.45617359 -21.76383016 15.20013881
-2.27981699 0.09834276 -5.83608328
3.32389348 -2.78343794 0.54040852
7.94189704 18.47006760 1.04443597
29.30659032 3.14807342 13.83357728
1.34642285 -10.64537632 4.99539328
33.12731364 -25.64699123 44.60305184
15.55933274 10.29266125 3.61287427
-2.15872507 -4.82563626 11.86162816
-5.44781202 -1.16394860 -20.23022876
15.83312615 -34.31198491 -6.05492400
8.68564113 9.31051355 10.15605104
0.89440981 14.00579459 11.68749963
9.66665486 -27.52840958 -12.16539383
2.97336073 -5.28773282 -12.92452161
-6.61935803 11.37927343 8.51714605
15.98970044 7.89181191 -25.54670791
4.21529776 4.29304797 -6.98018630
28.11432656 51.57661358 -0.98384741
-1.77227785 -12.04002765 -10.89262418
-0.04029516 3.60006060 2.30879550
-3.87011215 4.44655644 1.01928459
-30.13087065 17.57113554 26.09796760
9.28540848 5.01672845 -2.99580590
2.32955628 41.36005781 24.14107864
-0.83211238 5.91997732 -3.20796095
3.00018173 -4.22443111 6.46044092
20.91326663 7.52200726 10.49507276
-12.56946134 9.22794029 -36.12405407
-4.16541021 -17.73467699 15.71599661
6.93474444 0.05466748 -1.04164853
12.51257517 12.88211313 -6.34361714
-3.74588949 -27.48693452 -11.85896830
-28.71749118 19.78438458 20.30626650
-7.17370582 0.87269853 -8.42603358
-16.50090552 26.65232416 -0.46481410
5.51684416 39.25915320 9.14002057
13.21779650 -3.58045881 7.28441726
10.69640899 34.34581295 -53.16765761
-21.73195357 -6.57327542 -11.67765572
5.66596808 -10.07315294 -12.33263552
9.40430866 15.81590163 -13.36680223
-20.84034919 10.40615511 33.29537898
-5.88542388 -11.60779149 -9.47903949
3.69775683 30.71184747 11.17838775
-9.11745989 -37.55219906 -9.96998554
-0.55997404 -1.34908468 -1.26783054
30.16777478 12.18731908 0.01391203
5.99159757 -22.04347386 9.35952700
6.09037874 3.49435075 10.54146671
27.65894023 25.63735733 1.54822841
39.66019525 22.80373298 14.20020341
-1.58561876 1.74456446 -5.80935033
-15.85796708 18.26852442 2.92688658
15.11914761 1.83210585 -21.71975312
-4.21194912 13.42291202 0.21378572
9.97900066 -9.70694911 -35.46934342
-7.74607892 31.55552530 -12.16788726
8.23395296 2.85277043 4.35019155
19.19831356 -3.62855593 -1.63689144
11.00108576 20.46830264 37.74897146
21.12306509 -1.20977005 9.92015122
4.34099522 13.21386180 -6.84626208
13.30691047 6.03549269 14.01774420
-0.90140028 -5.47828643 -3.35157871
-0.24712210 0.30905567 -3.19098253
-5.13815560 2.07409963 0.53769188
8.66103982 4.32992782 3.18837256
15.07533598 22.58108113 -21.66518555
-8.87665404 1.52667614 -9.32240733
-2.05207182 -1.18833762 -11.32187291
-6.11294493 14.90746266 2.92851810
8.97882349 -0.74203880 -14.20982458
27.52247204 25.14532802 -20.00484877
-18.17079822 -20.57132683 -22.00287576
-0.23115863 -5.34836088 -1.21250957
20.19934848 -1.54202998 17.41008996
-9.63668354 4.42460846 22.95185114
-0.89390313 2.67633733 -3.28433187
35.81961842 -2.26653111 16.37578055
-6.20407750 -15.90999009 11.76267508
-2.27995574 7.34031487 3.68669483
43.78606816 7.69173330 27.68276771
10.01322758 -1.48870852 26.52511204
-6.33012660 3.00332848 0.75346188
-5.25562604 -7.78818680 13.49789346
-9.34505015 -20.06700015 3.35404403
2.25904553 -1.49525753 9.74853595
8.43183262 -9.99683948 -23.40757248
26.94383152 20.60262305 -3.10463524
4.97654716 -3.44177582 -5.63785204
26.75706386 27.34627393 -7.76051745
22.20144931 -2.57021514 10.35663217
9.42493241 16.02280100 12.06661635
6.24647670 7.80443817 -7.41032911
14.98607764 -21.29542820 6.27372940
23.20039647 3.29014590 14.82800438
-12.36875607 -22.42649480 -8.04388291
-6.82269074 -1.12548639 -3.12132019
10.84758932 18.96091134 -7.29654329
-11.38059090 -8.01364253 1.47391297
-6.70122136 2.79747271 -8.59218790
16.93167794 11.80385449 -17.00745853
16.80033715 10.97413496 -3.00850045
-1.31645319 2.77641602 3.68573071
-17.10597190 5.70707802 -1.01897280
-18.03221934 -1.44190968 -31.14601749
-4.98580932 -6.85682809 8.66881744
4.46811152 8.43448708 -55.35444553
-3.77059930 -8.43281337 21.06938196
3.07720078 1.14921939 -3.58539977
8.96794533 -29.08864447 12.20901078
-3.40093114 -33.21819417 21.49102173
7.65902793 3.28372296 -5.73181643
10.23231968 24.78421681 27.94784423
-16.09867292 -13.91038914 3.96137757
-2.73608934 -0.55392423 -1.79080200
-22.53753469 -11.02153414 -27.65732375
19.84755342 6.73393195 -16.88374111
-1.14323837 0.77792975 10.90424685
-5.28013832 10.04096883 -3.18933572
20.53266899 -22.62552739 25.63972549
11.05056462 -5.17519669 1.61333968
0.39513637 -12.62336620 -18.71660849
12.98099846 33.16379460 -3.44027135
3.26635232 -22.40059198 16.62170399
-5.01709426 21.16831816 11.31144415
-27.66170732 -12.92634959 -24.68947411
-2.34074355 16.47996210 0.78039640
-8.24404279 -36.44204701 18.88916274
-11.28708341 -5.79273946 3.70780096
-2.47100030 5.28529646 -27.74135826
27.41281121 -14.88903045 34.09510360
3.65045109 12.97696622 3.71506114
6.40775509 3.02147844 -2.37449379
10.72620480 -22.42451051 -1.91734446
5.34562145 -8.64542497 6.38962250
14.10932552 -27.39588697 8.34853138
-40.80454221 -21.86529209 20.08793438
2.62681102 0.87939322 4.75761225
0.51080453 1.77869126 24.50893537
21.13864047 -17.21297644 26.81419728
-1.75693388 8.14901342 -2.54238928
36.94150117 -24.44506432 6.14382575
10.04919580 -1.89175570 8.71596310
-1.30958087 -5.02800064 3.47468156
17.15122980 -25.90297409 19.87840082