Geometry = GenFormat {
<<< "system.gen"
}

Driver = VelocityVerlet{
  Steps = 50000
  TimeStep [fs] = 0.2
  MDRestartFrequency = 25
  Thermostat = None {
    #InitialTemperature [Kelvin] = 300.0
  }
  Xlbomd{ 
    IntegrationSteps = 6 
    MinSccIterations = 2
    MaxSccIterations = 200
    SccTolerance = 1e-6 
  }
  Velocities [m/s] {
     -9.37716041E+02     -1.09579610E+02      4.19526502E+02
      1.10179613E+03      9.84176182E+02     -1.65445158E+01
      1.30433867E+03     -1.75540487E+03     -1.03104474E+03
     -2.89436548E+02     -3.87102425E+02     -6.68327886E+02
      1.48908045E+03      2.44427051E+03      1.09749473E+03
     -1.06902835E+03     -1.63502561E+03      3.91801982E+01
     -1.77585055E+02      7.86625343E+02      3.78858648E+02
      1.74427030E+03      1.89279812E+02      1.36218040E+03
     -7.71869751E+02      3.26204084E+03     -9.71063470E+02
     -2.28968600E+02      2.64595726E+02      1.14951644E+03
     -2.60085642E+03     -3.32262955E+03     -2.68744865E+03
      5.00089194E+01      6.19731053E+02     -4.56244129E+02
     -5.08127551E+02      8.58015834E+02      5.84617666E+02
     -5.65339827E+02      1.40684088E+03     -3.07507139E+03
     -4.19238811E+02     -1.52524142E+03     -1.15482247E+03
     -8.09695185E+02      3.83638145E+00      3.93128283E+02
      1.20580354E+03     -4.06050818E+03      1.03868769E+03
     -4.91004246E+02     -1.78588983E+03      1.96864974E+03
     -1.00973163E+02      2.90168739E+02     -1.88939216E+02
     -5.57013121E+02      1.87926833E+03      1.34022948E+03
     -2.29479022E+03     -3.77448148E+02      7.68799751E+02
      5.92741980E+02     -5.49086303E+02     -3.21912757E+02
      1.19582711E+03     -1.99135622E+03      9.27002504E+02
      1.66809302E+03      1.79237741E+02     -5.88978348E+02
     -1.19340372E+02     -1.23329083E+02      6.75489060E+01
     -1.77886253E+01     -1.45504542E+03      2.14290136E+03
      6.01041173E+02     -2.22776448E+03     -2.63823777E+02
     -2.29040443E+02     -1.04901251E+03     -1.59543911E+03
     -1.44838857E+02     -8.20808632E+02     -3.10645150E+02
      1.86869016E+03     -2.41222226E+03      1.73262119E+03
      4.15939536E+02     -3.70202666E+03      1.11101937E+03
     -4.62774366E+02      4.47451570E+03     -1.09826555E+03
      1.79697303E+02     -3.86628749E+02      5.51626686E+02
     -3.74742360E+02      1.32411001E+02      1.96074962E+02
      3.98110345E+02      3.93819450E+01      2.93334641E+03
      4.36283078E+02     -3.67388568E+02      8.12658355E+02
     -5.36114898E+02      4.44689729E+02      1.32388236E+03
      6.41297442E+02      2.21874107E+03     -1.65492958E+03
     -7.05797758E+02      3.96917471E+02     -6.26682474E+02
      2.36562446E+03      8.58841081E+01     -9.30163240E+02
     -1.48770716E+03     -3.05853231E+03      3.29121288E+01
      5.51638960E+02     -3.25240352E+02     -6.16075605E+02
     -8.39509962E+02     -2.53445914E+03     -5.26712227E+02
      2.46088227E+02      1.38440390E+02      2.95689596E+03
      2.30519500E+02     -4.15448764E+02     -2.69714182E+01
     -3.23257988E+03      1.19773302E+03      6.69166565E+02
      3.38163312E+02     -1.51281337E+03      1.90122950E+02
      3.08297975E+02     -4.72777154E+00      3.99815077E+02
     -9.29913960E+01      1.73835324E+01      4.54013439E+02
     -3.64062737E+03     -4.66274856E+02     -1.48890561E+03
      5.19141045E+02     -7.05867836E+01     -1.49521264E+02
     -1.20276853E+03     -5.52474583E+02     -8.15940005E+02
      7.55077197E+01     -1.65235265E+03     -1.18415987E+02
     -5.22706528E+02      2.49094388E+02      1.08722610E+03
     -1.62846969E+03      1.22521681E+02     -1.15841780E+03
      1.15395235E+02     -2.26575732E+03     -7.87439968E+01
      6.27753256E+02     -1.50951539E+02     -1.77140082E+01
      1.15286619E+03      1.32831756E+03     -1.89160248E+02
     -1.40770152E+02     -1.83539457E+03     -7.92433764E+02
     -1.67366312E+03      9.25856659E+02     -2.95732113E+03
      6.37788555E+02     -5.14659348E+01      7.32494854E+02
      1.54864553E+03      3.47710701E+02     -6.14654750E+02
      1.42835165E+03     -4.10899617E+02      1.17452029E+02
      2.48358604E+03     -3.19924754E+03      1.29957210E+03
      1.15976077E+02      7.72024487E+02      9.37973084E+02
     -1.41620551E+03     -8.53711442E+02     -1.18278525E+03
      1.16406613E+03      1.11625876E+03      5.54016232E+02
      1.12248164E+02      3.30220799E+02      9.30710268E+02
      9.70091348E+02     -1.90155949E+03      2.41936345E+03
     -1.47271137E+03     -1.86795331E+03     -1.19775793E+03
      3.23974759E+02     -6.22576306E+02     -1.14027402E+02
      1.95948132E+03     -5.05571157E+02     -2.09744757E+02
      6.37481577E+02      2.11881143E+03     -5.25678993E+02
     -1.20661666E+02     -2.18340156E+02     -1.25906651E+02
     -1.51733235E+02     -2.65555763E+03      1.76098928E+03
      2.04322308E+03     -1.99542989E+03      1.44073641E+03
      1.12112821E+03      2.06446377E+00      6.09206268E+02
     -8.69154733E+02     -1.15559449E+03     -8.09446270E+02
     -5.98554160E+02     -2.16049306E+03     -1.94766095E+03
     -3.73699115E+02      5.38629035E+02      1.38247144E+02
      1.44970295E+03     -4.21647779E+02     -1.13884254E+03
     -5.82895709E+02     -1.52076972E+03     -1.81038145E+03
      5.07098656E+02     -1.17481020E+02     -2.60892883E+02
     -1.17879698E+02     -4.52208999E+02      1.46004138E+03
     -4.37896025E+02      8.02568216E+02      1.83852698E+03
     -2.99264610E+03      1.78112391E+04     -1.21632885E+04
      2.60444799E+03     -7.38844456E+02      1.16816910E+03
      8.61630124E+01     -7.98256225E+02      7.60516846E+02
     -9.42851301E+02      7.18442407E+01     -3.94231599E+02
      3.56051343E+02      9.19958392E+02      3.44898224E+03
      6.63952182E+02     -1.16836744E+02      6.83386719E+02
      2.02379786E+02     -2.62003765E+01      5.03211332E+02
     -4.83957345E+02     -6.07437767E+01      4.00936417E+02
     -1.46499125E+03      2.69009408E+03      6.09269990E+02
      9.64202454E+02     -6.24239435E+02     -2.39337108E+03
      9.91875163E+02     -4.18870360E+02     -2.05825880E+03
     -7.17587111E+02      9.07447258E+01     -3.57560681E+02
      1.99408967E+03     -2.31482690E+03     -1.67524223E+03
      2.15308448E+03      2.76456038E+03      1.73470855E+01
      6.94226753E+01     -1.44786394E+02      4.13401936E+02
     -7.36509620E+02      1.29420531E+03     -2.09773658E+03
     -3.04800705E+03     -6.03306758E+02     -4.41592321E+02
     -1.51849770E+02     -9.18324115E+01      5.86105140E+02
      5.63730140E+02      2.36648196E+02      7.76373693E+02
      2.02423861E+03     -1.39604792E+03     -2.88244937E+02
     -4.05390380E+01     -2.37041512E+02     -1.88170836E+02
      9.00963034E+02     -1.62000835E+03     -2.85644517E+03
     -1.04643630E+03      1.08062491E+03     -2.06147147E+01
      3.86345931E+02      4.33485273E+02     -3.54536749E+02
      1.45976480E+03     -1.67076337E+02      2.91772280E+03
      1.58261184E+03      2.89915867E+03      1.72134938E+03
     -4.88872771E+02      9.83091868E+02     -4.84121479E+01
     -9.50378161E+02      2.79331157E+03      1.05448294E+03
      9.48135173E+02      7.60677979E+02     -1.96753390E+02
     -1.25779584E+02     -4.54420836E+02      2.17593429E+02
      9.92090762E+02      1.00882404E+03     -7.91562539E+02
      2.46370962E+03     -4.08703816E+02      3.79658007E+03
     -1.57451663E+02     -1.28668000E+03     -3.50323736E+02
      2.64369551E+03     -1.93630386E+03      8.61312818E+02
      3.03534243E+02      2.47524338E+03     -1.08865517E+03
     -1.42317463E+02     -4.80410363E+02     -5.67815467E+02
     -1.82414992E+02     -1.34137059E+03     -8.39728679E+01
      1.49021608E+03      2.81585866E+03      3.71748756E+02
     -1.28138680E+03      9.81046449E+02     -3.95689473E+02
      3.88617528E+01     -4.96409759E+02      5.46601558E+02
      1.19982512E+02      4.75606910E+02     -6.55152532E+02
      3.07990794E+03     -1.16619534E+03      1.98313993E+03
      1.15274193E+03      3.76920836E+02      2.98650113E+02
     -3.83844851E+01      4.98784140E+02     -9.41877433E+01
      1.22700873E+03      4.13513610E+02     -1.15846326E+03
      1.55870007E+03     -4.37779381E+02      5.50125131E+02
     -2.15749998E+02     -2.13919156E+02      5.66244371E+02
      5.34163700E+02      4.69350694E+02      1.09435227E+03
      3.67559755E+03     -1.19620562E+03      2.52663547E+03
     -6.17925439E+01     -3.34261908E+02      7.40191948E+02
     -1.54878975E+03      1.89574209E+03      3.31272630E+02
     -7.05871157E+02      6.14926825E+02      1.78037465E+03
     -4.59176960E+02     -5.64083492E+02      4.25970349E+02
     -1.22699493E+03     -1.43397137E+03     -8.35060531E+02
      1.55395108E+03      1.55696920E+03      4.69412021E+02
      1.09414500E+02      4.39533324E+02      1.26158720E+02
     -1.11860118E+03     -5.83152662E+02     -7.56115407E+02
     -2.76694532E+03      8.74207160E+02      1.30675869E+03
      1.15807653E+02     -8.04930104E+02      3.41502538E+02
      1.84659265E+03     -1.01987057E+03     -1.38283846E+02
     -2.23119898E+03      6.68182317E+02      2.49500480E+03
     -8.09138960E+01     -2.09916274E+02     -3.99687750E+02
      1.54910933E+02     -7.73071966E+02      1.10931478E+03
     -1.52125370E+03      1.53528254E+02     -1.13814830E+03
     -8.52366998E+01      1.67764931E+01     -7.62376666E+01
     -7.64447761E+02     -4.52919598E+02     -1.48170461E+03
     -5.01724168E+02      1.95644626E+03      2.53838660E+03
      1.13512083E+02     -4.40102439E+02     -9.13939418E+02
     -1.98085369E+03      2.51268485E+03     -2.46759904E+03
      2.25927826E+02      3.74058798E+01      1.23199126E+03
     -1.79412757E+03      4.20936389E+02     -1.53647180E+03
     -3.33939222E+02      4.78526194E+02     -1.32004663E+02
     -2.93035787E+02     -1.16446627E+03      2.24777513E+03
     -8.90713718E+02     -6.95552812E+02     -2.44775908E+02
     -2.74471919E+02      3.28081116E+02      2.50815799E+03
      6.81418510E+02     -9.40941141E+01      4.53363222E+02
     -3.10414167E+02     -1.42371723E+03      9.38867705E+01
      2.38954928E+03      2.01336080E+01     -5.20954978E+02
      3.79910374E+01      1.11696130E+02     -1.22691915E+03
     -5.33690901E+01     -1.97778791E+03     -8.70134860E+02
     -1.65125872E+02      1.32716262E+03      1.74991350E+03
      6.41622074E+02      7.94010831E+01      2.96427603E+01
      2.59709602E+03     -1.91283767E+03     -8.48378965E+00
     -9.73436691E+02     -1.58442406E+03     -1.58859352E+03
     -2.31980496E+02     -6.63016974E+02      2.32225478E+02
     -3.23968987E+02     -3.78969019E+03      3.61105713E+02
      1.05952876E+03     -7.84309462E+02      5.79879735E+01
      9.68163538E+02     -4.69891400E+02     -5.10111002E+02
     -8.45119569E+02     -1.33025285E+03     -1.64825205E+03
     -2.46570025E+02      1.41813266E+03     -1.99233442E+03
      3.41376802E+01      1.27934231E+02     -4.45833993E+02
      9.64953243E+02     -8.44937439E+02     -1.90245298E+03
     -3.41285912E+02      1.21483188E+03     -6.20940361E+01
      3.74624648E-01      7.05020432E+01      1.26535641E+02
      2.60104809E+03     -2.34766611E+03     -2.04199989E+03
      1.26135523E+02     -4.71146219E+02      4.86315524E+02
     -9.30840021E+01      1.46769653E+02      9.04876361E+01
     -1.02796914E+02      5.15101491E+02      1.28387875E+03
     -5.53370629E+01      2.42358169E+03     -2.11475689E+03
      3.59756937E+01      2.92848541E+02     -1.60136097E+02
     -2.33275024E+03      6.35217268E+02     -2.75078384E+02
      1.37176900E+03     -1.72758097E+03     -5.70222333E+02
      2.61576347E+03      2.29309467E+03     -1.47539872E+03
      1.27075553E+02     -1.02287594E+03     -4.72731488E+01
     -7.54470238E-02     -6.18449877E+02     -9.44747318E+02
     -1.45356108E+03     -1.07791867E+03      1.12745630E+03
      1.75958950E+03     -1.34634942E+03      5.63608905E+02
      2.37316274E+01     -7.19555789E+02      9.95896471E+02
     -5.40274961E+02     -2.84247776E+03      1.70548184E+03
      2.56440261E+03      1.61555909E+03     -1.43159597E+03
     -6.29985181E+00     -6.80725215E+02      1.25436279E+03
      4.67839389E+01      1.04881534E+03     -2.53551240E+03
      1.29727502E+03      6.29447743E+02     -2.64867438E+03
      5.16274745E+02     -3.24352596E+02     -2.85299268E+02
     -6.60083011E+02      8.53534708E+02     -1.95127202E+02
     -2.81636725E+03     -2.08559014E+03      1.12379704E+03
      6.09833937E+01     -3.81995356E+02      8.78827043E+01
     -8.94773281E+02     -2.22668726E+03     -1.56984145E+03
      1.52073467E+03      6.66485818E+01      2.57493365E+02
     -3.27085415E+02     -7.43958109E+02      3.02637919E+02
      2.71376717E+02      2.62396493E+02      1.35305981E+03
      2.50117331E+03      3.64428269E+03      1.04618033E+03
      3.73723471E+02      1.61066884E+02      2.50264427E+02
      1.23254300E+03      1.98357991E+03      1.57630727E+03
     -7.39811899E+00     -1.69142631E+03      7.27726605E+02
     -1.83913385E+02     -6.23039140E+02     -1.74086288E+02
      3.83984213E+02     -2.95775597E+02      6.50139043E+02
     -9.02460019E+02      8.83977364E+02      9.85341414E+02
      2.54178886E+02     -1.15121606E+02      4.50294517E+02
      2.00775880E+03      1.90342650E+03      1.40849574E+03
     -5.80580737E+02     -8.57145888E+02     -1.01896853E+03
      2.92766184E+02     -2.83512690E+02      9.75292398E+01
     -4.31317693E+02     -1.18851007E+02     -5.33422238E+02
     -3.06260622E+03     -7.05956376E+01     -5.27650535E+02
     -2.25859966E+03     -1.59300287E+03      8.76697978E+02
     -4.33563880E+02     -2.78761073E+02      1.16735927E+02
     -1.41693063E+03     -1.30691041E+03      1.52924451E+02
     -1.14243440E+03      7.59792471E+02     -1.87302755E+03
      1.13561505E+03     -3.50762816E+02     -1.50059192E+03
     -5.67125534E+02     -1.03548170E+03     -5.08501930E+02
      2.69280574E+03     -6.15698080E+01      1.40378382E+02
      1.38731477E+02     -6.78290608E+02     -1.28424199E+03
      3.72826503E+02     -3.42542695E+02      2.73288491E+02
     -1.59798727E+03      6.30041889E+02      5.27009982E+02
      8.42253621E+02     -2.26329165E+03     -6.15243841E+02
     -6.29853433E+02     -1.08846311E+02     -1.19670476E+03
      2.90289789E+03     -1.96075194E+03     -7.08894911E+02
      2.45672222E+02     -1.58057434E+01      7.01057802E+02
      2.33984400E+02      2.39171796E+01     -2.09378286E+02
     -1.60993188E+02      1.10435270E+03      4.15574119E+02
     -1.34747290E+03     -1.26780901E+03      5.33373421E+02
      7.79619797E+01      4.23395633E+02     -3.94853950E+02
     -1.32401615E+03     -3.72948635E+03     -1.71655262E+03
     -7.24169626E+02     -1.68567121E+03     -1.93010761E+02
     -4.48788250E+01     -3.22207229E+02     -2.94886411E+02
      1.63140112E+03      3.45798608E+03      4.64639887E+01
     -1.88666424E+03      8.87987836E+02     -1.48098756E+03
      4.92647506E+02     -3.77400756E+01      1.24929156E+02
     -2.02538637E+02      1.93857623E+03     -3.22636536E+03
      6.06906524E+02      1.13642671E+03     -3.92828486E+02
      1.38033611E+02     -3.75269101E+02     -7.95186801E+01
     -5.35210949E+02      8.59503174E+02     -2.10679306E+02
      1.78108883E+03     -2.98814984E+02     -5.28963073E+02
     -4.75084826E+02     -4.02849641E+02     -6.85462238E+01
      1.98450478E+02      2.73627980E+02     -1.89844196E+03
     -2.00465948E+03     -2.29354268E+03      1.65596134E+03
      1.54512444E+03     -1.20894259E+03     -2.25634444E+02
      9.09897402E+02     -2.42958009E+01     -2.60131216E+02
      2.33459547E+03     -4.27887374E+02     -1.40342399E+03
      9.75715181E+02     -4.25181393E+02      2.90422003E+03
      2.57647811E+03     -2.06709465E+03     -6.35353012E+02
     -1.82488421E+02      3.75781724E+02     -8.43941460E+02
      1.24084882E+02     -1.03639508E+02     -1.99543203E+03
     -2.44045965E+02     -1.83437704E+03      1.09781556E+03
     -2.91970250E+02     -8.94470004E+02      5.04923360E+02
      1.84004558E+03      1.46777184E+03      1.17140484E+03
     -2.13226893E+03     -6.35118176E+02     -1.24054264E+03
     -1.22473778E+02     -2.70315472E+02      3.41455734E+02
      1.65337474E+03     -2.45648999E+03     -7.99508295E+02
     -6.68412182E+02     -1.79889595E+03     -1.28431002E+02
     -8.14382816E+01     -2.15621992E+02      7.17927641E+00
      7.45479651E+01     -3.06181649E+02      6.71403609E+02
      4.47721157E+02      1.78967680E+02      3.67004184E+02
      2.75297044E+02      8.93013351E+02      2.22407336E+02
      7.45702459E+02     -1.60359074E+03     -3.64716928E+03
      2.00378199E+03      1.32728769E+02      4.70497353E+02
     -1.14822494E+02     -5.83239799E+01      1.38608010E+02
      6.35185237E+02      8.51654631E+02      1.69196058E+02
      1.09329241E+03      9.73952837E+02      3.41329495E+03
     -6.95993220E+01      4.81804028E+02     -1.52048499E+00
      7.14195153E+01      1.34352373E+03      2.02644392E+03
     -1.50050302E+03      1.03848597E+03      2.68964023E+03
     -7.96426062E+01     -8.00948692E+01      1.76411474E+02
     -1.78881234E+03     -3.06088469E+03     -2.16614125E+02
     -3.09222606E+03      3.19339090E+03      1.94398568E+03
      3.66691211E+02      2.53807709E+01      9.62269281E+02
     -7.31114425E+02     -1.77267082E+03     -2.38023869E+03
     -3.34436010E+03     -3.05992268E+03      1.22337585E+03
     -7.43881591E+02     -2.08544650E+03     -7.39228385E+02
     -5.90606091E+02     -5.73516826E+02      7.69579633E+02
     -1.00327699E+02     -7.51138699E+02      3.28499539E+03
      7.02860686E+02      7.44943222E+02      1.63255306E+03
      5.36883104E+02     -1.96766713E+03      2.25875463E+03
     -7.68379910E+02     -2.28475511E+01     -6.28962875E+02
     -4.76841837E+02     -1.81595781E+01     -9.52061523E+02
     -3.30883643E+02      1.21023724E+03      1.03553674E+03
      8.82451106E+01     -3.92795968E+02     -4.27509167E+02
      2.81141819E+03      8.99251568E+02     -1.55226345E+03
     -9.80795645E+02     -2.88556814E+03      1.69206952E+03
      8.60763889E+01     -8.77902739E+01      4.52204711E+02
      2.76864144E+00      1.10661970E+03      7.08563967E+02
     -2.07116397E+03     -2.08197297E+02     -1.21655402E+03
     -1.66497807E+01      4.81871611E+02      2.16261880E+02
      6.85755158E+02      2.60400583E+02      1.74013149E+03
      1.41092341E+03     -1.45885626E+03      2.80442611E+03
     -6.05224117E+01     -9.56352411E+02      6.60366214E+02
     -3.60479054E+02      1.53866364E+02     -2.90666180E+01
      9.93200383E+02     -1.85226213E+03      1.74915697E+03
      9.42136679E+02     -1.36109601E+01     -4.95864193E+02
      2.39395963E+02      2.51207465E+03      1.37143549E+03
     -3.93360141E+02      3.53611684E+03      4.08542235E+02
      7.08688093E+01      4.61299693E+02      1.56000259E+02
     -1.54666395E+03      4.80919499E+02     -1.24740595E+03
     -1.12048821E+03     -1.73349620E+03     -3.67519806E+03
      2.27363233E+02      1.05594684E+02      5.04200464E+02
      1.45672130E+03      1.18234507E+03      1.83758625E+02
     -1.08940926E+03      1.08428577E+03     -2.78984332E+00
      5.41831419E+02     -1.19763292E+02      1.19269785E+02
      8.15847133E+02      1.64746597E+03      1.42184770E+03
      1.50653386E+01     -7.67154803E+02     -2.10925254E+03
      2.14223546E+03     -1.95630138E+02      2.17621530E+03
      1.14933470E+02     -4.27628102E+02      2.63472161E+02
     -4.94891063E+02     -6.95461024E+02      3.45225309E+03
      2.36349072E+03      7.12918917E+02     -2.66835635E+03
      8.96868081E+02      1.72899213E+02     -5.36033984E+02
      1.47939268E+02     -3.80192790E+02      3.97725516E+02
     -1.45057830E+03     -2.63814309E+02      1.84679033E+03
      7.81962714E+02      1.24172047E+03      1.83761395E+03
     -3.79900900E+02     -2.79084414E+02      5.75720130E+02
      1.57533492E+03     -4.92859695E+02      2.96015756E+03
     -1.12971213E+03     -5.65785119E+02     -6.91143512E+02
     -2.08509825E+02     -4.66115156E+02      2.66850234E+02
      6.79551341E+02      1.64161625E+03      1.86197848E+03
     -1.28397130E+03     -1.88357490E+03      2.38485096E+03
     -5.93888861E+02      3.69936910E+01      1.15192533E+02
      5.92166872E+02      2.72321332E+03      9.20357495E+02
     -3.83478951E+03      3.46058339E+02     -1.16061333E+03
     -7.38828706E+02      2.16302653E+02     -6.93238213E+01
      2.16606361E+03      6.82429971E+02     -1.12688972E+03
      1.27843954E+03      2.46960213E+02     -3.43117796E+03
      7.34430002E+02      2.47647226E+02      6.89154417E+02
     -1.31784758E+03     -4.82430392E+02      1.87735974E+03
     -2.06866959E+03     -4.63973523E+02     -6.17359667E+02
      8.42419692E+01     -4.05458294E+02     -6.16124273E+01
     -1.49442119E+03      1.52755109E+03     -1.34258765E+03
     -6.64134754E+01     -3.71548660E+02      9.35281864E+01
     -8.39523305E+02     -3.25528661E+02      4.68413519E+01
     -1.62316909E+03     -3.77228951E+02     -4.76909935E+02
      1.11873992E+03     -8.40275800E+02      5.95608610E+02
      5.50495746E+02     -3.90645668E+02      7.80498704E+01
      9.23562723E+02     -1.15739112E+03     -4.44686598E+01
      4.10649241E+02     -1.23464192E+03      2.05277786E+03
     -3.85382880E+02      1.32854453E+02     -5.27394504E+02
      3.78712143E+02     -1.65874210E+02      1.69755434E+02
     -2.68056688E+03     -1.17555972E+02     -7.44371655E+02
      4.65537632E+03     -8.40934876E+02      1.22924957E+03
      3.80301053E+03     -1.27605957E+03     -1.27608715E+03
  }
}

Hamiltonian = DFTB {
  SCC = Yes
  SCCTolerance = 1e-6
  MaxSCCIterations = 200
  ForceEvaluation = Dynamics
  MaxAngularMomentum = {
    C = "p"
    H = "s"
  }
  Charge = 0.0
  SpinPolarisation = {}
  Eigensolver = Standard {}
  Filling = Fermi {
    Temperature [Kelvin] = 300.0
  }
  SlaterKosterFiles = Type2FileNames {
    Prefix = "../../pbc-0-3/"
    Separator = "-"
    Suffix = ".skf"
    LowerCaseTypeName = No
  }
  KPointsAndWeights = {
    0.0000000000000 0.0000000000000 0.0000000000000 1.00000000000000
  }
  Dispersion = LennardJones { 
    Parameters = UFFParameters {}
  }
}

ParserOptions = {
  ParserVersion = 3
}
