Geometry = GenFormat {
<<< "system.gen"
}

Driver = VelocityVerlet{
  Steps = 100000
  TimeStep [fs] = 0.2
  MDRestartFrequency = 5
  Thermostat = None {
    #InitialTemperature [Kelvin] = 300.0
  }
  Xlbomd{ 
    IntegrationSteps = 6 
    MinSccIterations = 2
    MaxSccIterations = 200
    SccTolerance = 1e-6 
  }
  Velocities [m/s] {
     -1.05004478E+03     -5.70938430E+02     -3.79441817E+02
      2.67295868E+03      2.55359446E+03      6.55779356E+02
      1.14111877E+03      2.01723136E+03     -1.77573677E+03
     -4.64232124E+02     -5.71466551E+02     -2.55573442E+02
     -4.62329812E+02      1.23913068E+03      6.03706586E+02
     -1.10725259E+03     -7.76760460E+02     -1.43481380E+03
     -9.37764566E+02      6.57136671E+01     -9.44285483E+01
     -8.66697700E+02      1.16766446E+03      6.37024829E+02
      4.93879303E+03     -7.70994251E+01     -1.77428909E+03
     -6.75169992E+02      4.58977505E+02     -7.87919794E+00
     -3.37104907E+03     -4.45723360E+02      2.49730498E+02
      2.72305592E+03      3.54631313E+03     -1.78154711E+02
     -5.01472188E+02     -5.23298275E+02      9.64565953E+01
      1.77448880E+03     -1.12377819E+03     -1.51274785E+03
     -1.50215012E+03      2.98192630E+02     -8.52901794E+02
     -1.46487377E+02     -2.63835469E+02     -4.02177318E+02
      2.11401766E+03      1.96620018E+03      7.97741974E+02
      1.08658863E+03      1.29408863E+03     -5.51623131E+02
      6.20483839E+02      4.35804292E+02     -4.21015817E+02
     -1.00246014E+03     -5.86331518E+02      5.52197740E+02
      1.08399735E+03      3.29705124E+01      1.22479233E+03
      3.76601246E+02     -1.01941472E+03      7.47827872E+02
      4.34017007E+02      3.68362644E+02     -3.29988072E+02
     -2.44649121E+03      3.26463222E+03     -1.78699275E+03
     -1.17733667E+02     -5.27503269E+02     -5.16464259E+02
      1.26375348E+03      1.59110194E+03      4.46621303E+02
     -5.74549204E+02     -1.14730960E+03     -1.05459281E+03
     -7.71046985E+02      2.22314806E+01      1.40446762E+03
      7.48718070E+01     -1.51573237E+02     -1.51018074E+02
     -5.17057194E+01      3.79605748E+02     -6.33942151E+02
      3.20533643E+02      1.65721049E+02      9.88003495E+02
     -2.42615622E+03      2.80682652E+03      5.79892954E+02
     -3.68614181E+01      3.82311574E+02      2.16776931E+02
      9.64104144E+02     -6.26309191E+02      1.25058842E+03
      1.41743798E+03     -1.51787734E+03      2.49350816E+03
      2.69063209E+02      2.43510908E+02     -2.07969865E+02
     -7.97463312E+02     -5.99704938E+02      1.93989358E+03
      3.01802068E+03      9.82213166E+02     -4.52913368E+01
      8.44821311E+02      7.24150369E+02     -1.01618384E+03
     -4.10427144E+02      7.70999442E+02      6.46231416E+02
     -4.24431202E+02      6.54616142E+02      1.76766375E+03
      7.63490015E+02     -1.60065641E+02      1.10674598E+03
     -3.83836395E+03     -1.16840354E+03      5.61311730E+02
     -3.25235583E+02     -7.96797796E+00     -4.68976016E+02
      1.48605499E+02     -3.48288194E+02     -3.66833456E+02
      4.72236062E+02     -6.32730811E+02     -9.98191110E+02
      7.15956123E+02      2.91758815E+02      3.87578287E+02
     -2.43131411E+02     -5.43962005E+01     -7.73731499E+01
      1.54859302E+03      1.44963714E+03      4.50713655E+01
      1.12561386E+03     -1.16187964E+03      1.34570499E+03
      1.87534615E+01      1.26705719E+02     -1.52999146E+02
      1.07693043E+03      1.38618155E+03     -2.50691374E+03
     -1.98171370E+03     -1.30921533E+02     -1.40324656E+03
     -5.39176683E+02      2.12701941E+01      7.41817021E+02
      8.48940034E+02      1.11626263E+03     -5.77858027E+02
      9.82427246E+02     -3.06607504E+03     -7.68798065E+02
      1.02746575E+03     -3.19405158E+02      3.09374605E+02
     -1.90068042E+03     -1.38025532E+03     -9.77449675E+02
     -1.68427168E+03     -2.93634753E+03      1.85942903E+02
     -1.72836859E+03      1.34522705E+03      9.07008786E+01
     -2.89929482E+01     -6.47724096E+02     -5.79796580E+02
     -5.66864172E+02      6.24056969E+02      2.38170751E+03
      1.17832168E+03      5.33853066E+02     -1.85712340E+02
     -6.26668779E+02      9.43320236E+02     -2.12769302E+03
     -4.67724655E+02      1.71676844E+02     -9.41795624E+01
     -2.62790409E+03     -2.79728028E+03     -3.12175571E+02
      1.81818899E+02      9.91432181E+01     -1.10837907E+03
      8.26658041E+02      3.96279573E+02      3.14942941E+02
     -1.65667099E+03      2.87863262E+03      2.14516250E+02
      2.12148606E+03      2.34364067E+03     -3.01813784E+03
     -7.92513101E+02      7.52938029E+02     -2.54485683E+02
     -9.69851879E+02     -1.34024463E+03     -1.42083243E+03
     -2.37423103E+03      2.11181826E+03      1.47791910E+03
      2.54831262E+02      4.01115848E+02      2.19439723E+02
     -2.23026843E+03      3.74215561E+02     -1.14070660E+03
     -1.77273380E+03      7.91061213E+02     -1.20956581E+03
     -3.61161810E+02      7.51186650E+02     -6.42392136E+02
     -1.09780910E+03      4.34943478E+02      9.46296858E+02
      3.81359226E+03      1.00255292E+03      7.32924889E+02
      4.50068418E+02      8.60479091E+02      3.42870895E+02
     -1.24415000E+02      1.53852162E+02      3.89867686E+02
     -1.38831128E+03      1.68866672E+03     -2.62008228E+03
     -1.20642956E+02     -3.54840806E+02      8.90416527E+01
     -2.79316080E+02     -2.99984853E+02     -1.21943143E+03
     -1.06113091E+03      1.11197633E+03      3.00926767E+03
     -1.51579891E+02      5.26093735E+02      6.01905247E+00
      1.42314421E+03      2.19713989E+02      2.23252656E+02
     -1.37234825E+03     -3.56884558E+02      9.16745917E+02
     -6.54621190E+01      8.65267064E+01      1.80356342E+02
      3.22135139E+02      1.62367853E+03      1.00667787E+03
      7.53656492E+02      1.08876649E+03      1.11895998E+03
     -1.48914418E+03      4.96352544E+02      3.59652388E+03
     -3.55611430E+02      2.63384875E+02      3.99226619E+02
     -1.76633056E+03      3.46171005E+03     -8.67015100E+02
     -7.73367130E+02      4.53960751E+02     -1.50042031E+03
      2.04479639E+03     -5.51820642E+01      1.46329561E+02
      5.65880494E+02      5.31257872E+02     -1.40741842E+02
     -1.24877033E+03      3.22172501E+03     -2.47175727E+03
      6.16804845E+02     -1.24286366E+03      1.72577450E+03
      4.15750713E+02     -3.90156773E+02      8.75194733E+01
      2.05170502E+02      2.81104604E+03      1.51014029E+03
     -1.83995776E+03      9.16791605E+02      4.59321869E+02
     -1.79066591E+02      1.93543151E+02     -4.64329508E+02
      8.61262064E+02      4.38337355E+02     -4.91899357E+02
      6.56918963E+02      1.09558152E+03      1.56332093E+03
     -8.18210869E+02      1.47958610E+01      2.45362178E+02
      3.13786930E+02      3.37915446E+03     -9.60374464E+01
     -8.84423112E+02     -6.72496936E+02      1.60282539E+03
     -7.82229184E+02     -3.25727476E+02      8.14858604E+02
      2.16124714E+03      8.78088699E+02     -1.39258416E+03
     -6.27505976E+02     -1.23044297E+03      2.99661711E+03
      3.06091970E+02      7.77345087E+02      3.20865251E+02
     -1.13049963E+03      2.98959370E+02      1.22868159E+03
     -1.40657331E+03     -3.30522385E+03      4.53238258E+02
     -3.84039614E+02     -4.17692471E+02     -1.57730349E+02
     -9.96143145E+01     -2.15873468E+02     -1.71389861E+03
     -1.99472489E+03      6.49828574E+02      2.49667402E+03
     -2.98971408E+02      3.83371639E+02     -6.35200956E+01
     -1.28279000E+03      7.81904676E+02      3.43909478E+03
     -2.25687655E+03     -1.55781114E+02      4.53143844E+02
     -4.30918581E+02      4.90743484E+02     -6.82228993E+02
     -4.73368707E+02     -1.45879234E+03      1.06908991E+03
     -8.91690737E+02      2.12361002E+03      2.16348211E+03
      1.18258662E+03      2.22057745E+03      1.53138131E+03
      1.44288570E+02      4.57512567E+02     -4.67871861E+02
     -2.73127374E+03      3.00565219E+02     -1.78375114E+03
      4.39540581E+02      1.18633190E+01      9.31247069E+02
      3.42220881E+02      9.82353686E+02      3.27117280E+03
      7.93005210E+02     -8.54008731E+01      3.62388838E+02
      2.10815214E+02     -1.99142928E+03     -2.49484242E+03
      1.19447106E+03      5.49828455E+02     -6.19107656E+01
      2.42109055E+02      1.75668110E+02     -2.75019112E+02
      1.43175871E+03      2.35839161E+03      5.08228005E+02
      5.56716850E+02     -2.79504324E+02     -1.14980051E+02
      1.00529578E+03     -1.09448939E+02      2.44982438E+01
     -2.43258241E+02      1.76715327E+03      6.70336179E+02
      3.38987220E+01      1.86700834E+03     -3.32883105E+03
      4.07187776E+02      7.83336420E+01     -6.18353139E+01
     -2.10675878E+02     -1.14318904E+03     -7.36367297E+02
     -1.71006839E+02      1.95478295E+03     -2.09559359E+03
     -1.42388942E+02      3.59780922E+02      7.75763952E+01
     -2.25494958E+03     -6.95480497E+02     -1.14499899E+03
      1.42819099E+03     -2.49284925E+03     -2.14224531E+02
      1.98801622E+02      5.98716203E+02     -1.49273838E+02
      2.00506254E+03     -1.18773691E+03      8.67292964E+02
      2.36778178E+03      1.87551529E+03      1.72749487E+03
      5.98229554E+02     -4.73038722E+00      6.09169979E+02
      1.82105353E+03      8.49051995E+02      1.77082276E+03
      6.39521260E+00      4.75851788E+03     -7.30935261E+02
     -1.11167857E+02      1.17282132E+01      2.57331327E+02
     -8.49573189E+00     -9.57583076E+02     -1.21714149E+03
     -6.03992271E+03     -2.35821995E+02      3.22255509E+02
      2.33166257E+02     -1.71250054E+02      8.09822353E+02
     -7.51197581E+02     -9.83298468E+01     -1.20408581E+00
     -7.10153182E+02     -2.19559419E+02     -6.53628919E+02
      2.43444870E+02      2.02248999E+03     -1.28670055E+03
      6.73803718E+02      5.17737892E+02     -3.91705889E+02
      1.18177591E+03      3.03398616E+03     -1.23902817E+03
      3.61763274E+03     -2.07751156E+02     -1.66978843E+03
      2.96305396E+03     -2.67071456E+02      2.49303162E+03
      6.57763809E+02     -1.12528150E+01     -6.84138750E+02
     -3.00032771E+03     -1.88780860E+03     -2.15376516E+03
     -2.40496993E+02      1.53829509E+03     -8.66534053E+02
      7.44353710E+02     -4.13439721E+02     -1.26797388E+03
     -3.78848140E+02     -4.40081261E+02      7.29839182E+02
      9.80204482E+02      5.24270778E+02     -1.98513460E+03
      2.08074916E+02      2.70221483E+02     -3.63957878E+02
      1.86644170E+03     -7.05966069E+02      2.12531992E+03
     -2.52616800E+03     -1.96380449E+03     -5.03023848E+02
      3.68451186E+00     -3.72225594E+02     -1.89569608E+02
     -1.44302649E+03     -8.55665918E+02     -6.66440990E+02
     -1.05905795E+03      6.11094224E+02     -2.58310261E+03
     -2.61458241E+02     -7.99842393E+01      1.16250816E+02
     -2.21651340E+03     -2.86457709E+03      1.07980018E+02
     -5.77543948E+02     -4.07507276E+02      1.18049174E+03
     -3.82206294E+02      5.01562952E+02      6.76987583E+02
      1.47659842E+02      3.06715534E+03      4.24819298E+03
     -2.17798740E+03      7.51961791E+02     -4.23433028E+02
     -3.49158639E+02      2.78596879E+02      5.20298852E+02
      1.78098967E+03     -1.30316128E+03      5.37330680E+01
      1.18594331E+03     -2.83808967E+02     -1.34331123E+03
      3.93986273E+02      3.08590997E+01      7.03372119E+02
     -5.67986620E+02     -5.92805429E+02      1.50578414E+03
     -1.92458021E+03      1.36205174E+02      2.13264193E+03
      7.99121271E+02     -1.20161507E+04     -3.70232816E+03
      1.14904164E+03     -7.90406893E+02     -3.39996138E+02
     -2.62635115E+02     -7.13802691E+02      1.04613656E+03
     -8.17846697E+02      2.15959184E+03      8.51847571E+02
     -6.28825990E+02     -1.38673559E+02      1.56241539E+02
      1.30889167E+02      1.34329819E+03      4.87374503E+01
      1.71970808E+03      2.19847007E+03     -8.04237047E+02
      3.25002695E+03     -1.95817011E+03     -7.59583067E+02
      9.56905090E+01      8.72369105E+02      8.81278032E+02
     -2.25787505E+03     -4.53691417E+03     -1.53779148E+02
     -4.61314629E+02     -1.45566251E+03     -2.25167014E+02
      8.14618447E+02     -3.57916516E+00     -2.83744552E+02
     -1.30653381E+03     -5.22695034E+01      2.60626666E+01
     -1.28616522E+03     -2.00460395E+03      1.46507760E+03
     -1.83171548E+02     -4.38577587E+02     -2.52834216E+02
      2.05176969E+01     -4.96752655E+02     -9.45839331E+02
     -2.63490650E+03     -2.40580032E+03     -2.26744667E+03
      1.94250048E+01     -2.06563465E+02      2.10399424E+02
      2.50562663E+03     -5.98948398E+02      2.95198862E+02
      1.54587260E+03     -1.01653449E+03      3.70094069E+03
      4.10047827E+01      4.03482477E+02     -7.85828633E+01
      1.33897854E+03      9.55583422E+01      1.00937012E+03
      3.07386880E+01     -3.86596817E+03      3.13398476E+02
      6.16995779E+02     -4.21004655E+02     -1.72319394E+02
     -1.95363570E+01     -1.21126004E+02      1.24750516E+03
      9.81685938E+02     -9.91693875E+02     -7.99707572E+01
     -2.56713176E+02      5.38088911E+01      1.11540349E+02
      1.03246683E+03     -7.71319788E+02     -5.26682111E+02
      1.04434754E+02      8.31407288E+02     -1.16930518E+03
     -4.15258903E+02      4.75961164E+00      4.71790601E+01
      1.22670664E+03      4.84647333E+02      1.72926164E+03
      5.72057707E+02      1.16920707E+03     -1.57874748E+02
      3.85376135E+01      2.71180387E+02     -4.02814648E+01
      1.70332470E+03     -1.82385961E+03     -1.72609398E+03
      7.07476322E+01      5.32140329E+01      4.83121037E+02
     -1.42783275E+03     -2.13752837E+03      2.96954874E+02
     -4.46932109E+02     -2.13652054E+02     -3.42675324E+02
     -2.37155744E+03     -3.88609647E+02      2.62791613E+03
     -3.50794061E+02      2.27460965E+03     -2.86827012E+02
      1.24852392E+03     -3.82810054E+03      1.12990497E+03
     -5.37021421E+02     -3.37955522E+02      3.39935060E+02
     -6.69558187E+01     -1.01638203E+03      2.49903400E+02
     -1.67620707E+03     -1.71601598E+03      1.33764817E+03
      2.70676079E+01      4.53436530E+02      1.22016321E+03
      2.27700170E+03     -1.12394104E+03     -1.94632039E+03
     -6.20205383E+02     -3.32548694E+02     -4.84702416E+02
     -4.47884531E+01      1.48926721E+02     -6.52350055E+02
      1.02660453E+03      2.15172631E+03      1.04163476E+03
     -5.58975887E+02      1.10014213E+03      1.43342451E+03
     -8.73288562E+02     -1.37501761E+02      1.07757501E+03
      9.94183065E+02     -3.65513000E+02      2.96815086E+03
     -2.69972932E+03     -1.47832073E+02     -1.20619974E+03
      4.39709201E+02      1.19751266E+02      5.71526313E+02
      1.04449836E+03     -4.66217265E+02      1.92786764E+03
     -5.09593840E+02     -6.57706873E+02      3.25106210E+02
      7.32582051E+02     -6.98709790E+02     -9.02046231E+01
      4.99798791E+02      4.35680191E+03      8.40110696E+02
      2.06549225E+02     -9.63159247E+01      9.50658913E+02
     -5.93159464E+02     -7.31117781E+02     -5.95238553E+02
      3.61626698E+01      3.97529917E+02      1.43103355E+03
     -1.67344944E+03      1.43297914E+03     -8.31696735E+02
     -3.54462426E+02      2.31445101E+02     -1.17069095E+03
     -1.83969406E+03      1.00275641E+03     -1.00615904E+03
      1.98163742E+03     -2.03186996E+02     -2.18349213E+03
     -1.22133633E+03     -1.43160117E+02      7.12330422E+02
     -3.08936763E+03     -1.55068829E+03     -2.63972248E+03
     -2.03918163E+02      9.85946221E+02     -1.74739174E+03
      1.63139740E+03     -3.27221002E+02     -2.09488051E+03
      1.41805150E+02     -5.15393123E+02     -1.56144513E+02
      2.02984400E+03      2.90264136E+02      4.24526794E+03
     -8.63516277E+02     -2.90015675E+02     -1.47744448E+03
      8.81225514E+01      7.20256031E+02     -2.52104376E+03
      3.67062711E+01     -2.58458689E+02      4.59928391E+02
      4.40168053E+03      4.41226107E+02     -1.96636186E+03
      1.37717090E+03     -4.85008836E+02     -5.27960675E+02
      3.80128104E+02     -1.54081263E+02     -7.30739907E+02
      9.15568813E+02      1.29911356E+03     -1.65952084E+03
     -1.19594149E+03      2.83977365E+03      1.54749909E+03
     -1.19667041E+02      7.30708387E+02      4.75724624E+02
     -4.42935863E+02     -1.72894690E+03      2.68285980E+03
     -3.58883159E+03     -4.05214733E+02     -1.20033006E+03
      1.01956459E+02     -5.25612369E-01     -9.11612366E+01
     -1.35279577E+03      1.80160556E+03      1.80171330E+02
      9.65142205E+02      2.47577738E+03      3.58129377E+03
     -1.05039492E+02     -3.76160689E+02     -3.02347007E+02
     -2.98349914E+02      8.88012165E+02      1.51778906E+03
      2.07060090E+03     -1.60955597E+03      2.09591989E+03
      6.44762810E+02     -4.72430563E+00      1.54558666E+02
     -3.72853998E+02      7.86707295E+02     -1.70629595E+02
      1.36876877E+03     -6.36143871E+02     -1.73606930E+03
      4.74882602E+02      7.55695114E+01     -4.58645958E+02
     -7.61242779E+01      4.55186693E+03      1.52680807E+03
     -1.57883261E+03      7.17705006E+01     -2.45360284E+03
     -1.93506240E+02     -4.76647808E+02      5.90261561E+02
      6.13458160E+02      8.03432078E+02      1.62007664E+02
      1.22309779E+03      1.25885827E+03      1.66584970E+03
      8.32920762E+01      6.17021900E+02      7.86376317E+02
     -5.96629367E+01      1.42719195E+03     -1.17309809E+02
      1.90723172E+03     -1.47607659E+03      1.41373914E+03
      3.96442713E+02      2.02435581E+03      2.56976464E+02
      1.20948261E+03      1.83904418E+02     -4.32770006E+02
     -1.24298914E+03      7.10038032E+01      5.90263166E+02
      6.33941241E+02     -7.71606162E+02     -1.00950059E+03
     -9.61767361E+02     -1.96577175E+03      2.42322366E+03
      5.50601678E+01      3.10693298E+02     -7.17357329E+02
      3.90172474E+03      6.40722239E+02     -1.59856404E+03
     -1.04965782E+03     -6.19670938E+02      2.94748446E+03
     -3.45383946E+02      4.75003750E+02     -1.81420740E+02
      4.92235450E+02      5.62968855E+02      1.97382100E+03
     -2.27392311E+03     -4.78599963E+02      1.42943704E+02
     -2.82441953E+01      2.02080466E+02     -7.07489282E+02
      1.37665492E+03      1.46322537E+03      1.15667269E+03
     -1.10454581E+03      1.41299715E+03      2.41093283E+03
      9.46316189E+02      7.79768490E+02      3.34628517E+02
     -5.06670469E+01      1.97091030E+03      2.77539413E+03
     -1.21330158E+03      4.12415746E+03      1.36623659E+03
     -6.25986369E+01      5.05988798E+02      5.86091490E+02
      1.60466686E+03     -5.37108250E+02     -1.21462781E+03
     -2.60451786E+03     -3.18468810E+03      6.62885106E+01
      2.63857798E+02     -2.76644397E+02     -1.63203031E+03
      1.45614682E+03      5.58683621E+01     -4.25208757E+03
      3.28469280E+02      3.19581626E+03     -1.19111086E+03
      1.47997350E+02      2.60163451E+02      1.15512204E+02
      3.49566760E+01     -1.46165282E+03      3.08892137E+03
      2.16812831E+03     -1.00490974E+02      5.65000595E+02
     -3.86831871E+02      2.83965029E+02      8.21070507E+02
      1.09358005E+02      1.58435243E+03     -6.65529085E+02
      1.27697618E+03      1.19387587E+03      2.37054681E+02
     -5.50791141E+02     -3.02636922E+02      4.08584373E+02
     -1.42093398E+03      2.07538998E+01      3.06905901E+03
      1.71343363E+03      2.35174495E+03      7.57630376E+02
     -2.99361922E+03     -3.16243281E+02     -9.78286995E+02
      7.22667179E+02     -2.00232566E+02     -4.22414171E+02
     -2.60725834E+03      4.70427351E+02      3.68086022E+03
     -2.42789530E+02     -2.38858126E+02      3.65913459E+03
      1.11806422E+03      2.58106771E+01     -6.86203369E+02
     -6.19811785E+02      7.06103885E+02      2.66645248E+02
      2.31569472E+03      1.91146273E+03     -5.47848085E+02
     -1.30810443E+03      1.98626644E+03      2.16881334E+03
      4.39738202E+02      5.53060899E+02     -2.38974369E+02
     -9.59266625E+02     -2.50478931E+03      1.74616080E+02
     -2.69339438E+03      2.95127585E+03      2.66832804E+03
      2.18975352E+02     -1.55703666E+02     -4.88389329E+01
     -6.48992510E+02      2.59427815E+03     -2.39628509E+03
     -5.22870543E+02     -2.12707687E+02     -1.22019935E+03
     -1.03053378E+03     -3.54113812E+02      4.81982451E+02
      4.52366166E+01      2.94666644E+03     -1.01055779E+03
      7.85532975E+02      3.12327913E+03     -6.53978351E+02
      1.39053454E+02     -8.56552183E+02     -7.59883736E+02
      7.97883035E+02      1.11802134E+03      8.88738618E+02
      1.04434749E+03     -2.69780820E+03      1.34567867E+03
     -6.90420424E+02      4.98822694E+02      5.04272404E+02
     -1.43939081E+03     -3.62660313E+03      1.76664139E+03
     -2.52224142E+03      1.30056744E+03      1.56198532E+03
      1.52985522E+02     -3.46831778E+01     -4.66713867E+02
      1.24786699E+03      3.37793697E+03      1.26253672E+03
     -1.57815268E+03     -4.70859598E+02     -4.01466584E+02
      1.44659759E+02      4.10686588E+02     -6.05179326E+01
     -2.44676232E+03      2.35303509E+03      4.33137843E+01
      1.00087707E+03     -4.84192106E+02     -1.45634873E+02
     -3.28101014E+01      2.29747610E+02     -5.62067617E+02
     -2.12322744E+03      5.52897785E+02      3.35943958E+02
     -1.64394638E+03      1.38895711E+03     -2.33072124E+02
     -2.47248169E+03     -1.25673791E+03      4.32967543E+03
      7.10452078E+01      1.22091922E+01      2.97479183E+02
     -3.61039660E+03     -3.61016988E+02      7.66805843E+02
      1.41998710E+03     -3.87199479E+03     -1.05900133E+03
     -3.02139333E+03     -1.15233120E+03     -2.16503116E+02
  }
}

Hamiltonian = DFTB {
  SCC = Yes
  SCCTolerance = 1e-6
  MaxSCCIterations = 200
  ForceEvaluation = Dynamics
  MaxAngularMomentum = {
    C = "p"
    H = "s"
  }
  Charge = 0.0
  SpinPolarisation = {}
  Eigensolver = Standard {}
  Filling = Fermi {
    Temperature [Kelvin] = 300.0
  }
  SlaterKosterFiles = Type2FileNames {
    Prefix = "../../pbc-0-3/"
    Separator = "-"
    Suffix = ".skf"
    LowerCaseTypeName = No
  }
  KPointsAndWeights = {
    0.0000000000000 0.0000000000000 0.0000000000000 1.00000000000000
  }
  Dispersion = LennardJones { 
    Parameters = UFFParameters {}
  }
}

ParserOptions = {
  ParserVersion = 3
}
