Geometry = GenFormat {
<<< "system.gen"
}

Driver = VelocityVerlet{
  Steps = 100000
  TimeStep [fs] = 0.2
  MDRestartFrequency = 5
  Thermostat = None {
    #InitialTemperature [Kelvin] = 300.0
  }
  Xlbomd{ 
    IntegrationSteps = 6 
    MinSccIterations = 2
    MaxSccIterations = 200
    SccTolerance = 1e-6 
  }
  Velocities [m/s] {
      7.48283828E+02      4.18800362E+02      4.08873590E+01
     -2.24007286E+03      2.30081854E+03     -1.03451143E+03
     -2.25709834E+02      1.02625205E+02      1.76550749E+03
     -6.32249572E+02     -1.16245506E+03     -1.02731549E+02
      1.50576434E+03      8.88430896E+02     -1.57784742E+03
      2.69549246E+03      1.35368484E+03      1.32868515E+03
      3.05262859E+02     -1.47132946E+02      2.27756817E+02
      6.23076148E+02     -2.46826138E+02      2.38356830E+03
     -2.73718304E+03      6.58562112E+02     -4.92470783E+02
     -2.86486303E+02      7.10860014E+01     -6.56760812E+02
     -1.05685449E+03     -3.36272789E+03      1.42253305E+03
     -3.35054852E+02     -2.13443237E+02     -3.55589648E+03
     -2.63485593E+01      1.78932758E+02     -1.03602406E+03
     -3.67285551E+03     -1.03323682E+03     -3.24723063E+02
     -8.95695812E+02     -3.82468983E+02     -9.94986789E+02
      1.40107873E+02      9.19332922E+02     -1.72907896E+02
      3.96520032E+02      1.63602514E+03      1.80919643E+03
      7.25012848E+02     -5.99984870E+01      8.69255547E+01
     -8.83698513E+02      1.48594799E+02      1.96749086E+02
     -3.32072235E+03     -2.74070406E+01      1.04458526E+03
     -4.49125183E+02     -9.65833725E+01     -1.02632203E+03
      1.31829222E+02      8.29819581E+02      7.43490467E+01
      6.12624690E+02      1.20020311E+03     -3.76617522E+02
     -1.87921513E+03      7.94104061E+02     -1.08577657E+03
     -9.36418681E+02      4.07477622E+02     -4.37103630E+02
     -1.84776710E+03     -1.70211295E+03      1.48533325E+03
     -1.22769109E+03      1.16223684E+03     -2.20670208E+03
     -8.06981396E+02      3.70492865E+03      9.82957343E+02
      4.08257673E+02      6.73322738E+02      1.23155576E+01
     -5.79037015E+02      1.63928501E+02     -4.41361362E+02
      3.14284337E+02      3.34038814E+03      2.10639131E+03
      5.58614175E+02     -3.40439931E+03     -1.67302363E+03
      3.35541901E+01     -3.03458926E+02      2.29984988E+02
     -5.39829764E+01      1.89008695E+02      9.61235826E+02
     -2.03125268E+03      4.21835429E+03      1.38346561E+02
      1.08144850E+03     -7.19089825E+02     -2.45743025E+02
     -1.41923061E+03      6.42586197E+02     -1.39056363E+03
     -2.78448871E+03     -2.75913959E+03      9.45450406E+02
     -4.40956633E+02      8.59165705E+02      3.55989363E+02
      7.47784362E+01      8.05861131E+02      2.22306384E+03
     -9.36573477E+02      6.96070248E+02      5.77682970E+02
      1.90234710E+02     -5.53943647E+02      1.84110998E+01
      3.53263219E+02      3.29061662E+03      5.18611987E+02
     -8.10119631E+02      9.75896374E+02     -8.67907892E+02
     -3.95501664E+02      5.22415500E+01     -1.52160018E+02
     -1.61053100E+03      1.68916073E+03      1.05570721E+03
      1.25773686E+03      1.12473346E+03     -8.99333117E+02
      4.80274138E+02     -1.01827880E+02      3.97395252E+02
      1.51386170E+03     -1.44635982E+03     -1.85985304E+03
     -7.37030087E+01     -5.86404923E+02      2.12810990E+03
      3.62272418E+02      8.03213040E+02     -3.71190182E+02
     -1.29408650E+03      3.85075933E+02     -1.29275923E+03
     -6.98419932E+02     -1.01052125E+02     -1.99036379E+03
     -1.81486502E+02     -3.30796764E+02     -9.22749315E+02
      1.02271001E+03      9.73500227E+02     -1.14075383E+03
     -4.90626637E+02     -9.30115241E+02     -2.38142084E+03
     -2.91210147E+02     -2.29795056E+02      5.47221505E+02
     -5.68382946E+02     -4.84148090E+02     -6.37694801E+02
      4.41502542E+02      7.55691557E+02     -1.40719045E+03
      4.84865372E+02      9.99073085E+02      1.40785530E+03
     -3.52466835E+02      4.26703715E+02     -5.60555202E+02
     -2.42022782E+02      4.76972035E+02     -9.19811066E+02
      2.86698330E+03     -4.47255610E+02     -3.25253729E+03
      9.34321316E+02      7.02939384E+02      1.37274882E+03
     -2.82855059E+02      2.60247784E+02      4.01645056E+02
      3.67329718E+02     -2.90344302E+02     -1.25788456E+03
     -1.31534716E+03     -1.44046045E+03      5.53445202E-01
     -8.54971824E+02      3.01670877E+02      7.90273214E+02
     -9.88560326E+02     -2.61906137E+03      1.46367392E+03
      6.95400758E+02     -7.48750356E+02      2.88982439E+02
     -4.83103172E+02      4.53389834E+02     -2.72707161E+02
     -3.30732721E+03     -1.18298406E+03     -5.66856260E+02
     -2.43060071E+03      1.58283131E+03     -6.13751722E+02
     -8.79454735E+02      4.65183930E+02      4.64434661E+02
      3.25404907E+03      2.21683154E+03      2.08612243E+03
     -5.05867261E+01      3.31841209E+02     -1.94714166E+03
     -2.34981177E+02     -9.67825068E+02      8.93642101E+01
      1.15873408E+03      1.74317320E+03      3.33949904E+03
     -1.92582696E+03      3.60849689E+03      2.86612850E+03
      4.32625920E+02      7.02905917E+01     -3.80713458E+02
     -4.85744808E+02     -7.32710282E+02      1.86286604E+03
      1.29906137E+03     -2.73712889E+02     -2.73405476E+02
     -6.01406735E+02     -3.45610193E+02     -2.19026682E+02
     -2.19574112E+03      1.45766162E+03     -1.92290464E+03
      1.01587335E+03     -4.64926554E+02      3.56789451E+02
     -1.73140235E+02      6.59780928E+01      2.18116129E+02
     -2.12539688E+03      2.53057369E+03     -7.85510887E+02
      2.75315174E+02      4.50349948E+02     -2.28813635E+03
     -6.68298028E+02     -1.78170799E+01     -2.28684644E+02
      4.08871792E+02      5.57761049E+02     -1.14034873E+03
     -3.02256885E+03     -1.76973778E+03     -2.54434287E+02
     -4.37183483E+02      9.74436601E+02     -4.01151118E+03
     -3.93658324E+02     -2.07758460E+02     -1.04270972E+02
     -2.59443860E+03     -1.30007294E+03     -2.67721207E+03
      1.19778231E+03      2.48214595E+03     -2.06449102E+03
      8.17626491E+02      2.09620672E+03      1.44750650E+03
     -3.36297825E+02      3.38980464E+02     -3.42421459E+02
     -6.45973916E+02     -4.61961554E+02      7.67099334E+02
      2.29972694E+03      1.67388355E+03     -2.77509500E+03
     -2.49423421E+02      2.07046139E+02      1.96454191E+02
      1.28151245E+03      1.52474977E+03      1.53512255E+03
     -1.63294217E+03      2.45357778E+03      1.11883284E+03
      4.36676920E+00     -2.13389599E+01     -4.51562683E+02
      6.13182197E+02      9.25427568E+02     -1.00280473E+03
      1.87785163E+03      3.11323468E+03      1.98389993E+03
      2.85425782E+02      2.19961962E+02     -4.19795161E+02
      1.88788542E+02     -1.18881239E+03      1.05539735E+02
      1.08667963E+03      1.03794812E+03      2.33553414E+02
     -2.39949676E+02     -4.58665069E+02     -1.76010174E+01
     -9.54714241E+02     -7.98528868E+02     -4.35597543E+02
      3.23760324E+02      4.65215763E+02      2.92844560E+03
      3.32296310E+02     -3.58626796E+02     -4.66785758E+02
      2.43273382E+03     -3.52814199E+02     -2.23835625E+03
     -1.50446084E+03     -2.16334694E+03      2.25990643E+02
      2.74288661E+02      9.24229960E+01     -1.78481746E+01
     -1.76373153E+03      2.17876412E+03      4.70436724E+02
     -1.81646601E+03     -1.49422352E+03     -1.91136529E+03
      1.05435379E+03     -5.32120757E+02      3.59591280E+01
      8.20076530E+02      3.36186004E+03      8.96562178E+02
      1.24045128E+03      1.81752390E+03      4.35296397E+03
     -1.81316159E+02     -6.64896161E+01     -3.35176052E+02
     -2.51869094E+03     -2.55446119E+03      2.04990352E+03
      4.17056194E+03      4.49106083E+02     -7.31364081E+02
     -5.83556104E+02      1.78873285E+03     -3.92324706E+02
     -2.19420911E+02      1.85054059E+01      1.00984722E+02
     -1.11531231E+03     -1.33932029E+03     -3.91749411E+02
      1.99751989E+03      1.43828877E+03     -1.17080088E+03
     -2.61842215E+03     -1.52061515E+03     -1.65270202E+02
      5.59274102E+02      4.73249466E+02      2.61881208E+02
     -1.28382730E+03      1.46167436E+03     -2.66065649E+02
     -1.13924866E+03      2.15058325E+03     -8.87113786E+02
     -3.71797014E+02      4.47940214E+02     -1.41966047E+02
     -3.82496614E+02      1.48142979E+03      4.02616694E+01
      1.10283304E+03     -1.23444770E+03     -1.41383010E+03
     -3.01134410E+02      1.96513499E+02     -3.52492066E+02
     -4.86883096E+03      7.37339421E+02     -1.94191260E+03
      6.26461225E+01     -2.94663559E+03     -2.25657282E+02
     -1.15804954E+03      4.02252459E+02     -3.46666462E+02
     -4.12955013E+02      1.48424099E+02      7.46207307E+02
      7.71071270E+01      1.97110423E+03      3.96744943E+03
      1.32402883E+04     -1.16291758E+04      1.28504073E+04
     -5.59882120E+01     -4.01806956E+02      2.68702014E+03
      2.22133251E+03      2.48319921E+02     -2.48063816E+03
     -1.15727724E+03      3.69900088E+02      7.73740684E+02
     -2.43820471E+03      1.67260371E+03     -1.55376355E+03
      9.11812424E+02     -4.07915923E+03     -7.59210441E+02
     -1.16274415E+03      8.48479044E+02     -3.08846345E+01
      1.30071752E+03      7.34409187E+02     -3.08486176E+03
     -1.35463356E+03      3.22692897E+03      2.25189853E+03
      4.16444403E+01     -5.46899917E+02     -2.49128056E+02
      4.82528272E+02     -5.02140437E+02      1.17296203E+03
      8.73883124E+02      2.48830727E+03     -3.42433878E+03
      5.37262794E+02     -7.00297297E+00     -2.17712804E+02
      2.04553213E+03     -1.77801227E+03     -3.45323275E+03
      1.25118981E+03     -1.31949871E+03      9.02433315E+02
     -2.46357843E+02      4.70536904E+02     -1.53205518E+03
      1.09169033E+02     -1.27977862E+02     -1.11094568E+02
      1.09101243E+03     -4.93771434E+02      1.55974250E+03
     -8.20076044E+02      1.44982110E+03      5.25428117E+02
      5.40685474E+02     -4.44791176E+02     -1.42854070E+03
      2.42089055E+02      3.93483270E+02     -1.26127326E+02
     -1.03675365E+03     -2.84936151E+03     -2.27727413E+02
     -2.14542399E+03      2.21835053E+03      3.97040013E+02
     -2.90633622E+02      4.70958337E+02     -7.51962430E+02
      2.23517798E+03      6.34850964E+02     -1.32984786E+03
      1.12137783E+03      3.09960866E+01     -6.82097409E+02
     -5.02573119E+02     -1.49091241E+02      8.96994925E+02
     -2.91059926E+03      1.37625472E+03     -3.86104189E+03
      5.44923161E+02     -5.90049855E+01     -2.35918654E+02
     -1.86153942E+02     -7.01181347E+02     -2.85313394E+02
      3.21889509E+02     -1.16527643E+03     -2.27907896E+03
      8.93644439E+02     -8.84963996E+02      2.79980415E+03
      7.33488279E+01      6.39594463E+02     -1.45302068E+02
     -1.77898241E+02      3.28475501E+02      2.24928035E+03
      2.04669241E+03      1.88801090E+03      2.52937777E+02
      2.00341364E+02     -8.27423959E+01      1.66847381E+02
      5.05387775E+02      3.93896286E+02      6.21590064E+02
      1.61954913E+03      2.08240493E+02     -6.58117269E+02
     -1.97164401E+02     -5.60268266E+02     -6.63068100E+02
      1.92142534E+03      2.99282244E+03      1.20299565E+03
      2.67066275E+03      1.08568671E+03      3.35064322E+03
     -2.79888393E+02      3.86514483E+02     -5.57072622E+02
      1.20867960E+03      3.45439712E+02     -1.50741123E+03
      2.70494326E+03      2.79041306E+03      9.74190710E+02
      1.31928831E+02      4.66326006E+02     -3.24219594E+01
      7.40999724E+02     -3.39360428E+02     -9.30930224E+00
      2.18665284E+03     -2.51813136E+03     -1.16874403E+03
     -1.75404585E+02     -2.82859282E+03     -2.33810080E+03
     -1.66914143E+03      7.32324117E+02     -4.08886957E+02
     -8.61524210E+02     -1.77715369E+03     -3.99002777E+02
      6.32950180E+02      2.84830052E+03      5.73406785E+02
     -1.48432122E+03     -2.33962166E+03     -1.14870751E+03
     -7.31486843E+02      2.01947399E+02     -8.97639141E+02
     -1.47429732E+02      1.88638779E+02      2.40674435E+03
      3.83431982E+03      1.36910194E+03      2.59693659E+03
      5.97275806E+01      2.88357411E+02      9.82046134E+01
     -1.81594408E+03     -2.87501134E+02     -1.76160045E+03
      6.03578689E+02      1.65991194E+02     -2.54714669E+01
     -3.04328907E+02     -1.11729782E+02      1.39601844E+02
      2.26649502E+03      8.52063386E+02     -7.02944605E+01
     -1.27282206E+03     -7.77390644E+02     -2.98439267E+02
      1.65893014E+02     -5.77653498E+02      7.00673770E+02
      4.43059358E+02      2.35668180E+03      6.54647067E+02
      2.16432970E+03      1.19448484E+03     -1.21578446E+03
     -2.18551981E+01      4.70693121E+02     -3.62322106E+02
      2.33279301E+03     -1.96002008E+03      1.45659969E+02
      6.55076809E+02     -1.28260704E+02     -2.56301931E+03
      2.22044478E+01     -9.63951316E+02     -1.77124558E+02
      1.04986131E+03      3.18151614E+03      2.95696080E+02
     -1.74122744E+02      2.61376196E+02     -1.25453743E+03
     -3.32968246E+02     -1.22883770E+01     -2.50633377E+01
     -4.75325031E+03      1.37244188E+03     -1.29285327E+03
     -7.09122900E+02     -1.81529497E+03     -1.29450306E+03
     -2.42669907E+02     -7.31427529E+02     -2.50453648E+01
     -2.39142736E+03      9.49059982E+02     -8.03896160E+02
      1.39813645E+03      7.55166064E+02     -7.28246038E+02
     -2.69755639E+02     -4.03566578E+02     -2.02688834E+02
     -3.39404320E+03     -2.14026073E+03     -8.49319389E+02
      8.92107404E+02      1.05403066E+02      1.11324223E+02
      4.67340677E+02      3.44194006E+02     -7.58539560E+02
      1.49308724E+02     -5.91722250E+01      4.77554210E+02
      1.34736892E+03     -8.94262761E+02      9.67527583E+02
      6.24316517E+02     -1.20848694E+03     -1.30654625E+03
      1.72243557E+03      3.89898472E+02     -1.09379201E+03
     -4.32623771E+02      4.21616764E+02     -1.63545034E+02
     -9.65395570E+02     -1.34437693E+02     -1.80933595E+03
      1.82026771E+03      1.03072781E+03     -1.14677991E+03
      3.70367370E+02      6.46263613E+00     -9.98869573E+01
      9.09058713E+02      1.14447264E+03      6.58405820E+01
      2.16717294E+03     -6.05340275E+02     -8.91756493E+02
      7.44595555E+01     -5.18266041E+01      1.30219899E+02
      9.98135368E+02      1.94978693E+03     -1.18189946E+03
     -1.51015832E+03      9.76798367E+02     -1.21585267E+03
     -8.91470784E+02     -2.46300258E+02      1.70276453E+02
     -1.80406709E+02     -3.09494900E+03      2.29578991E+03
      6.73193274E+02      1.40368811E+03      3.57410520E+02
     -3.78353278E+00     -7.65739750E+02     -5.49854414E+02
      3.62348347E+03      5.60147454E+02      1.87046808E+03
      1.68008963E+03      1.37185255E+03      9.22624728E+02
      3.28358171E+02      1.43479189E+02      8.08604555E+01
     -3.47185638E+02      9.74202927E+02      1.42692135E+03
      6.12165317E+01      2.14832020E+03      1.11587549E+03
     -2.06558566E+02     -3.38476895E+01     -6.09461232E+02
      1.07261449E+03      1.44039657E+03     -1.02016246E+03
      2.84053890E+02     -1.43072257E+03     -3.08960552E+02
      1.35267604E+02      1.73516216E+02      2.62036524E+02
      2.16328815E+03      1.53306183E+02     -3.02244460E+02
     -2.80827616E+03      1.31818769E+03     -6.25314719E+02
     -1.06700855E+03     -2.81471689E+01     -4.51913967E+01
      4.82736889E+01     -1.48825891E+03     -4.14522471E+02
      2.03896650E+03     -2.89759861E+02      1.03358366E+03
      4.25702169E+01      2.45767708E+03     -1.61642442E+03
      1.18769453E+02      2.80476919E+02     -1.62890245E+02
      7.02734616E+02      1.71308277E+03     -1.08139603E+03
     -1.59688554E+03      1.59253952E+03      2.73430924E+03
      1.74246672E+03      1.37862772E+03     -2.77156384E+03
     -2.26114289E+01      1.93545940E+02      2.73659959E+02
     -2.25715208E+03      6.04609275E+02     -1.30204280E+03
     -3.66083783E+03      2.42269946E+02     -4.26749962E+02
     -3.11025376E+02      3.81715519E+02      1.74801804E+02
      1.79240219E+03     -1.79206314E+03      7.33034659E+02
     -1.89651781E+03      1.00345057E+02      1.08804843E+03
      4.84611169E+02      5.50088818E+02      3.87477325E+02
      2.08610712E+03      7.96382829E+02     -1.23642443E+03
     -2.74789529E+03      1.77170347E+03      2.77468403E+03
      7.34841181E+02      1.05485393E+02      9.37872246E+01
     -1.55249355E+03     -1.99982387E+02     -4.12579155E+03
      1.41576771E+03     -1.46019837E+03      1.14503833E+03
      2.49047971E+02     -4.76516821E+02     -1.06388407E+01
     -1.01098674E+03      9.49281713E+02      2.05539219E+02
      8.86537722E+02     -1.38048166E+03      1.05844718E+03
      7.09428911E+01      1.88344195E+02     -2.72150554E+02
      2.98660580E+03      2.20800255E+03     -1.27757870E+03
     -3.88333376E+02      1.33249249E+03     -1.77989111E+03
     -5.30124496E+02      2.21710691E+02      6.54759395E+02
      2.54509785E+02     -9.72557668E+02      8.06030076E+02
     -8.34844997E+02      3.58249735E+02      1.35911460E+03
     -6.69441582E+02     -4.19074024E+02     -4.93863780E+02
     -1.12781025E+03     -1.52214949E+03     -2.69187354E+03
     -3.78058346E+02     -1.28274845E+03     -2.01025687E+02
      6.24811684E+02     -7.56923973E+01      2.26903401E+02
      2.15029715E+03      3.89070653E+02     -4.45411077E+02
     -4.02115944E+02      2.61023387E+02     -8.48338892E+02
     -4.25663733E+02      1.02426931E+03     -2.07548391E+03
     -7.97617354E+02      2.65853173E+02     -7.84945256E+02
     -1.88564807E+02     -9.02257512E+02      1.67616442E+02
     -1.51463381E+02     -1.34740380E+03     -3.40957708E+02
     -1.22674065E+02      8.08234457E+02      2.96045806E+03
     -1.57245451E+02     -1.43902388E+02     -6.42550642E+02
     -2.95034710E+03     -9.25348839E+02     -3.28745759E+02
      1.55245178E+03      3.45566611E+03     -1.07514352E+03
     -3.06118723E+02      3.56935734E+01     -1.05842298E+02
     -6.05995259E+02     -9.60320777E+02     -2.44666579E+03
     -7.31933558E+02     -1.10616924E+03      1.43762311E+03
      6.59823184E+02      5.51441044E+02     -2.65039435E+02
      8.85674474E+02     -2.12124588E+03     -1.35845684E+03
      9.43600394E+02     -7.12842942E+02      3.03180516E+02
      2.48733212E+02     -7.12985411E+02     -2.02919783E+02
     -4.50448624E+02      3.04429861E+03      3.20413183E+03
      1.89092397E+03      2.72790225E+03      9.49049804E+01
     -2.36294149E+02     -2.05007396E+02     -2.01251497E+02
     -1.10060314E+02     -5.12893789E+02     -6.46459675E+02
      1.21735979E+03     -7.10503168E+02      3.09672178E+02
      2.45294534E+01     -1.02142422E+03     -8.50864643E+02
     -5.61487712E+02     -4.74897478E+02     -2.53778909E+02
      2.59008099E+02      1.67809925E+03     -3.11195764E+03
      1.55037949E+02     -4.11993065E+00      3.15372940E+02
     -6.75356824E+02     -2.13496762E+02     -3.78348914E+03
     -1.74789626E+03     -2.06764211E+03     -1.59470625E+03
      2.34864818E+02     -1.24813786E+01      3.48382666E+02
      2.76322142E+03     -8.30646681E+02      1.64181573E+03
      1.03077089E+03      6.04962999E+01     -1.73183822E+03
     -1.78026474E+02      8.01598268E+02      5.39342758E+02
      1.20993652E+02      4.73825314E+02      4.74399252E+01
     -6.58385436E+02      1.34055687E+03      1.33692211E+03
      1.12603650E+03      5.30649163E+03      1.10327641E+03
     -8.81260032E+02      5.85352581E+02      4.50023956E+01
      1.25928330E+03      1.63230157E+03     -1.42063494E+03
     -1.78558587E+01     -5.92478781E+02      4.13786735E+02
      4.24303061E+03     -3.44569077E+03     -1.34084017E+03
      7.27547071E+00     -3.72260235E+02      3.80047341E+02
      2.81507874E+03      2.30782060E+03      2.22005296E+03
     -4.56794049E+02      1.08774557E+03      9.74615230E+02
      3.81750763E+02     -2.89284732E+02     -5.99811760E+02
     -2.14962266E+03      3.15459171E+03      1.36041399E+03
     -1.56659544E+03     -1.40462273E+02     -8.61762036E+02
      3.41187429E+01      8.12697800E+02     -7.47396347E+00
     -1.41630592E+03      2.06498243E+02     -2.41838595E+03
     -1.73996105E+03     -7.64555155E+02      9.96512941E+02
     -1.38641829E+02      2.03268246E+02      8.59999197E+01
      2.38824504E+02     -1.25802737E+03     -2.16170829E+03
      2.00331959E+02      1.79804375E+03     -2.27637904E+02
      5.06075839E+02      4.79011982E+02     -6.36532691E+01
     -1.67675475E+03     -1.58028328E+03      1.34913210E+03
      7.92154252E+02      8.85408740E+02      3.53325502E+03
     -8.51997476E+02     -1.05580646E+02     -8.19178562E+00
      1.39610113E+03      9.63923546E+02     -1.79441749E+03
      5.89048260E+01      2.03814370E+03     -1.88162909E+03
      9.98344108E+01     -5.84468185E+02     -9.18955764E+02
     -1.78222369E+03     -6.28374494E+02      1.73869262E+03
      1.72778641E+02      2.22689405E+03      1.62235958E+03
     -1.96168543E+01      3.91070386E+02      5.88917003E+01
      9.85491103E+02      2.68925836E+03      4.15693838E+03
     -1.31039456E+03      1.40906054E+03      4.43567917E+03
     -2.25831402E+02     -3.11037224E+02     -9.09364236E+02
      2.03409373E+03      4.25808403E+01     -9.02099293E+02
     -2.47387210E+03      8.28010053E+02     -8.68057222E+01
     -2.76481527E+02     -4.36879155E+03      8.64310750E+02
     -3.29151839E+01      1.66380449E+02     -4.87195689E+02
     -1.03203079E+03      2.12391126E+03      8.49912138E+02
     -7.49273007E+02      2.76775148E+02      1.50720669E+03
      8.46419315E+02      1.53514239E+03     -1.10945610E+03
  }
}

Hamiltonian = DFTB {
  SCC = Yes
  SCCTolerance = 1e-6
  MaxSCCIterations = 200
  ForceEvaluation = Dynamics
  MaxAngularMomentum = {
    C = "p"
    H = "s"
  }
  Charge = 0.0
  SpinPolarisation = {}
  Eigensolver = Standard {}
  Filling = Fermi {
    Temperature [Kelvin] = 300.0
  }
  SlaterKosterFiles = Type2FileNames {
    Prefix = "../../pbc-0-3/"
    Separator = "-"
    Suffix = ".skf"
    LowerCaseTypeName = No
  }
  KPointsAndWeights = {
    0.0000000000000 0.0000000000000 0.0000000000000 1.00000000000000
  }
  Dispersion = LennardJones { 
    Parameters = UFFParameters {}
  }
}

ParserOptions = {
  ParserVersion = 3
}
