Geometry = GenFormat {
<<< "system.gen"
}

Driver = VelocityVerlet{
  Steps = 50000
  TimeStep [fs] = 0.2
  MDRestartFrequency = 25
  Thermostat = None {
    #InitialTemperature [Kelvin] = 300.0
  }
  Xlbomd{ 
    IntegrationSteps = 6 
    MinSccIterations = 2
    MaxSccIterations = 200
    SccTolerance = 1e-6 
  }
  Velocities [m/s] {
      9.24186823E+02      2.34691093E+02     -8.22770735E+02
      9.30927596E+02     -2.47101594E+03     -2.15967222E+03
     -2.28534636E+02      2.81559216E+03      8.40463845E+02
      1.73362126E+02     -2.29527605E+02     -7.56563588E+02
      7.95906867E+02      1.01646846E+03     -1.52386035E+03
     -1.57559817E+03      2.07622842E+03     -1.82431578E+03
      2.87065246E+02     -4.31986335E+02     -7.91961600E+02
      7.99876529E+02      4.14129991E+02     -1.16432355E+03
     -1.04615312E+03      6.95765721E+02     -1.52595061E+03
      5.13369853E+01      5.20709083E+02      1.11204139E+01
      4.81117745E+02      5.20922271E+02     -2.45206282E+03
     -9.98925818E+02      8.91123334E+02      6.06407350E+02
      2.55324661E+02      4.13316028E+02     -1.38430722E+02
      1.62092062E+03     -2.10748843E+03     -7.85517618E+02
      2.27380547E+03      1.50169496E+03     -6.31379082E+02
     -1.51069619E+02      5.29644860E+02     -7.74986019E+02
     -3.99728154E+02      2.40635305E+03      2.12821141E+03
      2.78194158E+03     -1.95875042E+03     -4.24767138E+02
     -3.67493934E+02     -4.58381158E+02      2.66669753E+02
     -8.99317884E+02     -3.42213667E+02     -1.06226383E+03
      2.37227925E+03     -1.21296973E+03     -1.39656278E+03
     -4.59949212E+02      5.39312398E+02      7.05493199E+01
     -3.11270201E+02      1.87182942E+02     -1.45689025E+03
     -9.18034550E+02     -5.28344629E+02     -1.36454233E+03
      7.88762077E+02     -4.20229702E+02     -4.76509268E+02
     -1.21202251E+03     -1.59681659E+03      9.33934066E+02
     -3.75217053E+01      3.97605780E+02     -9.04991556E+01
      2.30404530E+03     -4.43480819E+03      9.46506580E+02
     -2.22273793E+02     -5.28739460E+02     -3.84575445E+02
     -4.23374484E+02      1.72309807E+03      1.45217084E+03
     -4.47446277E+01     -1.38342855E+03     -1.17250676E+03
      1.51491791E+03     -1.55145579E+03      2.14151009E+03
      7.29860788E+02      2.14158155E+01      4.86489015E+02
      1.28997499E+03      2.40031485E+03      1.13514223E+03
      2.41020846E+03      1.73706300E+03     -2.81680940E+03
      3.43119100E+02      4.08020475E+01     -1.65220903E+02
     -1.59021743E+03      4.38888280E+03     -2.03143374E+03
     -8.66221545E+02     -1.14073058E+03      1.37826341E+03
     -1.09230468E+02     -5.15528894E+02      9.17354576E+01
      1.58706557E+02      1.48822821E+03     -2.52556783E+03
     -2.13989567E+03      1.00481572E+02     -8.19352659E+02
      9.83800449E+03      1.81821879E+03      1.93861216E+04
     -1.51498426E+03     -2.60122171E+03      5.50515413E+02
     -7.15804556E+02      1.06206300E+03     -3.50591613E+03
      2.32445755E+01     -1.88458280E+02     -7.64116588E+02
     -2.24371505E+03     -2.16773884E+03      7.08473079E+02
      2.65028436E+03      2.86275406E+03     -5.20921463E+02
     -4.17202309E+02     -2.67435823E+02      1.62654320E+02
      8.87962446E+02     -1.51413071E+03     -4.11912701E+03
     -1.07565772E+03      1.05999214E+03      1.29729567E+03
     -5.65246768E+02     -2.18281309E+02     -1.13809142E+02
      4.95958349E+02     -7.45696655E+02      2.27704431E+03
     -1.29985002E+03      2.19453355E+03     -9.72306862E+02
      2.11702250E+02     -2.10355389E+02     -3.59612485E+02
     -6.10071260E+02     -1.30810279E+03     -2.19308646E+03
     -2.72015275E+01     -2.27530167E+02      2.63958299E+03
     -1.30172542E+02      4.31182028E+02      8.68928849E+01
      1.61328244E+03     -1.87535903E+03     -5.19746963E+02
     -2.40547357E+03      2.28212949E+03     -2.60700845E+02
     -4.53255377E+02      7.34902741E+02      1.52539068E+03
     -4.62281601E+01     -5.45115237E+02     -2.19157941E+02
     -9.19227190E+02     -3.96209857E+01     -5.33446805E+02
     -1.63702993E+03      9.29010477E+02      1.31969181E+03
     -1.31881806E+03      1.20952606E+03     -2.50206778E+03
      9.50106395E+02     -3.01865656E+01     -1.57059766E+02
     -2.34780868E+03      8.80333538E+02     -1.39402646E+03
      2.79881362E+03      1.52716359E+02      3.47087589E+02
     -2.63001163E+02      4.65167188E+02      2.02306102E+02
     -5.39304035E+02      1.01157937E+03     -1.42392024E+03
      1.70979257E+03      3.06599387E+02      8.51419301E+02
     -4.33895405E+02      3.01789078E+01     -4.65444679E+02
     -1.21227534E+03     -1.56486096E+03     -5.23529890E+02
      1.63178958E+03     -1.22407055E+03     -1.81765652E+03
      4.35772374E+02      1.04956076E+02     -6.26131115E+02
      1.91711152E+03      3.85608780E+03     -2.54922028E+02
      2.57884578E+02     -2.53926063E+02      4.77144950E+02
     -3.82313341E+02     -6.59606321E+02      1.16937383E+03
     -1.34234174E+03      1.04310123E+03      2.77460717E+02
     -2.98705664E+03     -4.65354597E+02      1.74497212E+02
     -7.04424628E+02     -7.11222083E+02     -3.39897638E+02
      1.81607635E+03      1.83466563E+03      1.20691680E+03
     -1.02457358E+03     -9.26801465E+02      7.65339569E+02
      2.96871863E+02     -7.93218402E+01     -7.13183889E+01
      2.67180712E+03     -1.56165405E+03     -2.09974817E+03
     -4.20899266E+03      3.21891469E+03     -3.48013797E+01
     -7.38438958E+02      3.78130022E+02     -3.63586728E+02
     -1.19701767E+03      2.68487744E+03     -9.08778376E+02
      4.58887982E+03      1.42504269E+03     -1.86686421E+02
      2.41855034E+01     -3.56317270E+02     -5.36286909E+02
      4.41466978E+02      1.79309774E+03     -9.65872093E+02
     -6.63660151E+02     -9.70992614E+02      1.72067434E+02
      1.52215085E+03     -4.15021196E+02      5.79486562E+02
     -6.87023760E+02      3.16802299E+02     -2.75170830E+01
     -1.46699383E+03     -1.41656880E+03     -1.29660930E+03
      1.29332431E+03      9.46769976E+02     -2.31438215E+03
     -1.72614702E+03      1.37477771E+02     -6.39383827E+02
     -7.78449933E+02     -1.98336646E+02      7.95537221E+02
      9.65706744E+02      1.59010930E+03      1.97885570E+03
     -9.51142861E+02      5.86813761E+02      4.72904321E+02
     -5.85994865E+02     -2.02295420E+02     -7.62958906E+01
     -4.41762698E+02      7.14483557E+02     -1.53191210E+03
      9.27267535E+02      4.41292068E+02      2.35828201E+03
     -3.55314588E+02     -2.37576488E+02     -4.59202088E+02
      3.79530137E+03     -1.72409518E+03     -2.34594200E+02
     -1.90453975E+03      1.30797614E+02     -1.18023267E+03
     -7.64374772E+02      1.58083700E+02     -6.73449212E+02
      2.59056366E+02      1.73316506E+03     -2.78957740E+02
     -2.82799920E+03      3.31291208E+02      1.92544438E+03
      1.74230861E+02      3.90674097E+02     -4.23414140E+02
      8.73361730E+02      1.63315343E+03     -1.32447791E+03
     -2.63784568E+02      2.92089139E+02      3.36130328E+02
     -5.02099157E+02      3.56262919E+01     -2.25986432E+02
     -2.04876104E+02     -4.38710015E+02     -1.68171931E+03
      4.88081258E+02      1.45047783E+03     -1.09608857E+03
     -7.10237367E+02     -1.93364984E+02      3.28649254E+02
     -1.17274271E+03      4.14273816E+02      7.40561710E+02
      1.25508544E+03     -8.27309173E+02      7.00649422E+02
      4.62930415E+02     -4.38552405E+02      1.94943009E+02
     -7.65781992E+01     -1.99098727E+03     -2.29114467E+03
     -6.13161463E+02      1.85316731E+03      7.99594260E+02
     -3.24686592E+02     -7.96363414E+02     -1.51200698E+02
      5.25329524E+02      4.24410897E+02     -7.19617133E+02
     -4.70202580E+02      9.95176829E+02     -2.11906809E+03
      7.49208093E+02     -2.01470963E+03     -5.50082733E+02
     -2.07274014E+02      1.81803038E+02     -2.48034303E+02
      1.04149041E+03      5.22705312E+02      2.40392061E+01
     -5.56019655E+02      3.67120317E+03     -4.23164369E+03
      6.41826551E+02      1.25998968E+03      1.83475482E+03
     -1.10631372E+03      6.22064108E+02      7.83066387E+02
     -2.27141862E+03     -7.30781548E+02     -5.59435777E+02
     -2.27893073E+03     -1.27347665E+03     -2.09034021E+03
     -5.78391053E+00      8.10847756E+02     -6.20729623E+02
      1.53480751E+03      1.04861928E+03      7.14791307E+02
      1.20704151E+03     -2.51363732E+03     -1.68610353E+03
      1.88839112E+02     -3.36067706E+02     -5.69291704E+02
     -3.59769761E+02      2.70720034E+03     -9.54565123E+02
      1.12772525E+03     -1.28670574E+03      8.35767072E+02
     -3.63550944E+02     -5.19184115E+02     -8.40736167E+02
      2.66268821E+03     -2.33147715E+03     -1.21858576E+03
      1.22704592E+02      1.13685118E+03     -4.12959351E+02
     -7.60196375E+02     -1.86453191E+02      4.25311646E+02
      1.08479251E+03     -2.40053120E+03      2.90270985E+02
     -2.80145423E+03     -1.45074207E+03     -1.06723076E+03
     -5.91208521E+02     -2.75565394E+02     -5.21338640E+02
      1.93102118E+02     -2.03067898E+03      1.83619534E+03
      3.15743722E+03     -1.60776301E+03      9.71969743E+01
      2.04256483E+02      3.62118532E+02      6.68440875E+01
      1.88603688E+03     -5.49315211E+02     -1.08814149E+03
      1.73481650E+03     -1.12629173E+03     -2.06292334E+03
      1.29303111E+02     -9.62609737E+01     -1.06525730E+03
     -9.35959087E+02      1.61393719E+03     -1.35494689E+03
     -1.57165354E+03      1.66873652E+03      2.33995660E+03
     -2.50490314E+02      2.14227271E+02     -3.73279157E+02
     -1.02269574E+03     -2.17048150E+03     -5.30966891E+02
      8.86138285E+01      4.52683279E+02      1.92663395E+03
      2.79562762E+03      2.73609462E+03      1.17409408E+03
      6.34363830E+02      6.17556186E+02      2.68310993E+01
      1.66685292E+03      5.68100752E+02     -1.70398737E+03
     -3.11639414E+03     -1.83491420E+03      3.07003301E+03
     -3.09900427E+02     -3.68826463E+03     -1.12351921E+03
     -1.55215497E+02     -1.49243571E+02      7.27910945E+02
     -1.05145404E+03     -1.08918706E+02      1.55449555E+03
     -5.83247271E+02     -3.29548895E+02      1.72238225E+03
     -3.94985445E+02      8.93939909E+02     -1.20384849E+02
     -1.38632582E+03     -1.65825886E+03      7.33649535E+02
      1.57996331E+03      1.91873228E+03      6.88610869E+02
      1.35194587E+01     -4.31019822E+02     -8.61473392E+02
     -8.69839369E+02     -1.19842981E+03      3.41373624E+03
     -2.40000939E+03     -2.13423130E+03      4.50866306E+02
      6.61717925E+02      5.51861285E+02      2.58076441E+02
     -9.99491717E+02      2.78021753E+03     -9.80519072E+02
      3.30568577E+02      1.05125640E+03     -2.48732485E+03
      5.55692082E+02      1.93383260E+02      8.09338887E+01
      1.57720310E+03      1.73030613E+03      2.98223336E+02
      1.88969967E+02     -2.88646538E+03      7.78247379E+02
      2.25319696E+02     -8.77962304E+01     -3.40469807E+02
     -4.69052149E+02     -2.25748600E+03     -8.99763055E+01
      2.22124409E+03      7.65961330E+02      1.60841192E+03
      9.70015127E+01     -4.47861335E+02      1.75967858E+02
      1.18972361E+03      1.87806483E+02      9.41445480E+02
      1.78162584E+03     -1.03764891E+03      9.20279717E+01
     -2.66432892E+02      2.25013876E+00     -2.45253267E+02
     -1.70075903E+03      1.16322799E+03      2.43896367E+02
     -7.06887444E+02      2.06059698E+03     -1.52344513E+03
      4.90765282E+02      2.27284773E+02      2.30646403E+01
     -1.00301171E+03     -2.99821911E+03     -5.94303901E+02
      1.72344264E+03     -5.42212358E+02      8.14929890E+02
     -1.66620501E+03     -7.70641885E+02      1.24967465E+03
      2.67296382E+02     -9.79483783E+02     -1.78134808E+02
      2.28173116E+02     -9.91861222E+02      4.38503451E+02
      1.59129839E+02      7.37778374E+02     -6.92100640E+02
      1.52014435E+03     -3.79607771E+03     -1.75849354E+03
     -7.53141242E+02      8.39662811E+02     -8.74052164E+01
      6.07396602E+02      1.68652906E+03      4.77825120E+02
     -1.58030661E+03     -1.63189452E+03      1.98790487E+03
     -5.05630809E+02     -1.61404192E+01      3.74260122E+02
      1.70199508E+02     -1.87983576E+02     -1.02504312E+03
     -4.82733882E+02     -1.38872969E+03      2.20735065E+03
      1.95703097E+02     -1.46542030E+02     -4.88989423E+02
     -1.14497545E+03      1.71513927E+03     -2.50667633E+03
      8.84394342E+01     -3.91078806E+02      4.69367295E+02
      3.93156934E+01     -7.05420580E+02      4.48853790E+02
     -7.31209460E+02     -1.76977989E+02     -7.91498742E+02
     -2.78400058E+03      4.74339337E+02     -8.28239217E+02
     -1.71149025E+02      2.47750276E+02     -5.46288079E+02
     -1.77427620E+03      6.88568552E+01      1.70522317E+03
      1.98998991E+03      1.46419393E+03      1.92731871E+03
     -8.78596106E+01     -4.79436859E+02     -3.63909168E+02
     -3.10009999E+02     -9.38651271E+02     -1.53795098E+03
      4.73593937E+02      2.73776165E+03     -1.21998442E+03
     -8.54340541E+01     -3.09555875E+02     -5.80897269E+01
     -2.23256882E+03     -1.01002197E+02     -8.61638186E+02
     -2.74089124E+02      6.84978960E+02     -9.25507136E+02
      2.42371314E+01     -4.76815639E+01      5.85954753E+02
      3.24665780E+03      1.48212268E+03     -4.39855964E+03
     -2.17804815E+03      4.26534053E+03      9.91848553E+01
     -4.05197104E+01     -5.97383663E+02      9.64002662E+01
      1.82033234E+03     -6.38060598E+02     -8.14270087E+02
     -4.44549336E+01      5.20872845E+01      2.24276928E+03
      5.06333365E+02      1.24323679E+03     -2.22819196E+03
     -4.85556188E+00     -3.16674946E+02      1.24780009E+02
      9.63011996E+02     -2.64416535E+03      2.77877168E+02
      4.19299153E+02     -5.38212995E+02     -1.25933527E+03
      4.93570035E+02      1.08309307E+02      2.88453615E+02
     -4.88493522E+02      1.53956304E+02      1.57471668E+02
     -1.77956583E+03     -1.48039505E+03     -2.37651810E+03
     -3.06958165E+03     -6.93781980E+02      2.21007097E+02
     -1.44324152E+00      2.90059861E+02     -5.98208626E+02
     -4.49674668E+02     -1.96140037E+02     -3.00582924E+03
     -4.43401846E+03     -1.05909185E+03     -2.04794514E+03
     -1.03286743E+02      2.68532732E+02      8.62266138E+01
      2.17485406E+03     -5.94440668E+02      5.80656672E+02
      5.17739312E+02      1.00615101E+03      6.74276202E+02
     -2.37988448E+02     -5.12418524E+02     -5.01116367E+02
     -5.72510246E+02      1.88805543E+03      3.35359400E+02
      1.37428131E+02      2.65455967E+03     -1.27165313E+03
     -3.51924827E+02      2.73670860E+02     -3.91321975E+02
      8.59321419E+02      7.83797249E+02      2.07390169E+03
     -1.89568794E+02      7.68929214E+02     -3.04584452E+02
     -3.23340352E+02      3.47557046E+02     -8.01272052E+01
     -5.63806197E+02      3.03322305E+03     -2.62321185E+03
     -5.09008503E+02      1.23674246E+03     -1.88180401E+03
     -2.82071762E+02      5.70620611E+02      2.26196845E+02
     -3.09858413E+02     -9.67649707E+02      3.89792595E+02
     -3.64920436E+03      3.60043074E+03      5.55267516E+02
     -1.60253595E+01      8.30291986E+02     -1.75020264E+02
     -2.15056650E+03     -6.08258239E+02      6.10149480E+02
      2.69949210E+03     -4.12683909E+03      9.36035872E+02
     -4.67414160E+00      4.91886153E+02      6.34708087E+02
      2.22537199E+03     -1.35850202E+03      8.62522181E+02
      1.13038627E+02     -1.03134850E+03     -1.36644731E+03
     -1.26819430E+02      4.60582217E+02      1.65360549E+03
      9.39907464E+02      9.55132933E+02     -1.82706995E+02
     -1.80390974E+03      2.49581755E+02     -2.95193098E+03
     -2.96634151E+03      4.88248019E+02     -8.36318521E+02
      5.58142536E+02      2.36862839E+03      1.92863213E+02
     -2.21224237E+02      4.65565949E+02     -5.20879529E+02
      9.35907665E+02     -1.82477182E+03      1.46434409E+03
     -1.61057851E+03     -9.38217066E+01     -2.14157080E+03
     -5.32603847E+02      5.58021075E+01     -4.57933943E+02
     -2.11700799E+03      2.72168716E+02     -4.01234828E+02
      2.19491538E+03      1.54865014E+03      2.62145293E+02
      2.72673150E+02     -1.02929694E+03     -2.70887832E+02
      2.52244595E+02      1.03945817E+03      2.13689805E+03
     -1.87169617E+02      7.73355260E+02     -3.58594075E+02
     -1.79292286E+02     -8.93033221E+01     -3.96921733E+01
     -1.36215235E+03      2.33721872E+03     -1.48981510E+03
     -1.93349539E+03     -1.77436232E+03      1.88203645E+02
     -2.67062415E+02     -4.60556130E+02      2.28953732E+02
     -5.07021873E+02     -1.39841242E+03     -2.94637586E+03
      9.43640848E+01     -1.86130426E+03      2.21770187E+02
     -2.91417613E+02     -9.45629538E+01     -4.71960664E+02
     -4.78806608E+02     -2.77776692E+03     -1.81742720E+02
      1.65221882E+03     -4.26657346E+02      1.63825774E+03
     -1.92710812E+02     -3.10661416E+02      2.27184799E+02
      1.04313284E+03     -2.49506490E+03     -5.75688569E+02
      7.44721619E+02      1.39120986E+03      3.83514082E+03
     -3.79708294E+02     -2.67765156E+02     -3.30919327E+02
      1.28562600E+03     -4.15162021E+02     -2.70176246E+03
     -9.04763900E+02     -1.19946264E+03      1.93892194E+03
      2.41827806E+02      3.75783376E+02     -1.97255336E+02
     -2.21313431E+03      2.38955294E+03     -8.79557566E+02
      9.94985092E+02     -9.07748566E+02     -1.72818459E+01
      3.64643094E+02      7.64768978E+02     -1.99340268E+03
      1.72135550E+02      3.74833292E+02      1.59928394E+02
      1.86190765E+02     -5.66580910E+02     -3.75751411E+02
      9.10057465E+02      1.19975898E+03      4.81797437E+02
     -1.11470734E+03     -1.51056329E+02     -3.21518523E+03
     -2.84766634E+02      1.34641659E+02      2.82503796E+02
      1.11667643E+02      1.48668864E+03     -4.87997219E+02
     -1.78617120E+02     -2.39845432E+03     -1.26756413E+03
      1.24346025E+01     -3.84987328E+01     -6.07968922E+02
     -3.41642374E+02     -1.07805518E+03     -2.62646854E+03
      9.28155561E+02     -4.16256484E+01     -6.62315488E+02
     -4.97847100E+02      5.89865701E+02     -4.54778130E+02
      1.82177931E+03     -2.03581851E+02     -2.53431328E+03
      4.57786904E+03     -2.98265815E+01     -6.65537755E+02
     -6.63327895E+02     -4.66648637E+02     -3.81768339E+02
     -3.03988779E+02      1.78265903E+03      1.10929955E+03
      4.14318048E+02      8.87914653E+02     -2.90581339E+03
      2.84742608E+02     -3.18347215E+02      2.63660822E+02
      9.19801849E+01      3.76273171E+02      6.06034827E+02
     -6.81963423E+02     -7.97129716E+02      1.30030089E+03
     -3.31166601E+02      2.35847286E+02     -4.91676743E+01
      1.05154087E+03     -8.86441268E+02     -5.95290239E+02
      2.41924677E+03     -8.65301480E+02      8.98269578E+02
      1.74959662E+02     -1.11735809E+03     -4.95803859E+02
      3.31611361E+03     -9.09917948E+02     -4.24184778E+02
      1.12310942E+02     -1.18219944E+03     -6.18107263E+02
      5.01766238E+02      2.81740962E+02      5.34218740E+00
      4.66064335E+03      1.84294785E+03     -6.32329184E+02
     -2.96465527E+03      7.27979236E+01     -1.58990143E+03
      3.38607100E+02     -5.15644348E+02     -2.69370368E+02
      6.83206731E+02     -1.42537922E+03     -1.21498297E+03
     -2.88741476E+03      6.80205813E+02     -1.01211403E+03
      7.44372856E+02      5.69183945E+02      7.71268825E+02
      9.10721969E+00      9.02855652E+02      4.75983631E+02
      2.26161782E+03      1.02000575E+02     -1.97286267E+02
      1.75131288E+03     -2.53100471E+03      1.58681909E+03
      2.21972888E+03      2.03129887E+03     -2.28089745E+03
      1.88752744E+02      3.04051513E+00      2.60268372E+01
     -1.00797148E+03     -2.48410487E+03     -1.05998468E+01
     -1.50024398E+03      2.02816583E+02     -2.16259246E+03
     -5.87704718E+02     -2.57210628E+02      4.68583806E+02
      2.63823791E+02     -7.50838202E+02     -2.05912172E+03
      1.84593666E+03     -3.36065868E+02     -6.28038590E+02
     -6.63952411E+02     -5.47226198E+01      8.09185739E+02
      5.28916045E+02      2.21374629E+03      4.24223263E+02
     -1.55940581E+03     -3.17400450E+03     -1.40201486E+03
     -2.67591853E+02      3.59346784E+01     -6.48214909E+02
      1.79593535E+03     -2.61965183E+02     -8.12926398E+02
      1.14435943E+03      1.32367628E+03     -1.62138855E+03
     -7.63937409E+02     -1.35018797E+02      4.59747061E+02
     -6.63476228E+01      6.30491215E+02      4.85056182E+02
     -1.48913444E+02      3.12009364E+03      2.49513944E+03
     -1.03055661E+02     -7.44590504E+01     -4.57382165E+02
     -1.91354973E+03     -8.66891247E+01      1.54222618E+03
      2.32123807E+03      1.10979440E+03     -1.15517891E+03
      1.35142920E+02     -3.09834308E+02     -9.71114557E+01
     -2.40157175E+03     -3.39879857E+02     -2.85032679E+02
     -3.01197053E+03     -1.85025654E+03     -3.59697171E+00
      1.43953189E+02     -3.14059811E+02      2.34930031E+01
     -4.54465959E+02      3.74706437E+02      8.61668559E+00
      1.35937424E+03      2.86831426E+03     -5.10988167E+02
      7.61628057E+00     -2.06003673E+02     -2.57780950E+02
      1.72138073E+03      1.72644824E+03     -1.99402612E+03
      8.58417998E+02     -1.72356030E+03     -4.29170224E+02
      1.07907883E+03     -2.18112385E+03     -1.58872497E+03
     -7.57439787E+02     -3.08460061E+02      3.38783532E+02
      1.37894061E+03     -1.88193705E+03      6.36382898E+02
      1.27911795E+03      1.97876217E+03      1.34006270E+02
      1.17085102E+03     -2.56347512E+03     -1.38820997E+03
  }
}

Hamiltonian = DFTB {
  SCC = Yes
  SCCTolerance = 1e-6
  MaxSCCIterations = 200
  ForceEvaluation = Dynamics
  MaxAngularMomentum = {
    C = "p"
    H = "s"
  }
  Charge = 0.0
  SpinPolarisation = {}
  Eigensolver = Standard {}
  Filling = Fermi {
    Temperature [Kelvin] = 300.0
  }
  SlaterKosterFiles = Type2FileNames {
    Prefix = "../../pbc-0-3/"
    Separator = "-"
    Suffix = ".skf"
    LowerCaseTypeName = No
  }
  KPointsAndWeights = {
    0.0000000000000 0.0000000000000 0.0000000000000 1.00000000000000
  }
  Dispersion = LennardJones { 
    Parameters = UFFParameters {}
  }
}

ParserOptions = {
  ParserVersion = 3
}
