Geometry = GenFormat {
<<< "system.gen"
}

Driver = VelocityVerlet{
  Steps = 100000
  TimeStep [fs] = 0.2
  MDRestartFrequency = 5
  Thermostat = None {
    #InitialTemperature [Kelvin] = 300.0
  }
  Xlbomd{ 
    IntegrationSteps = 6 
    MinSccIterations = 2
    MaxSccIterations = 200
    SccTolerance = 1e-6 
  }
  Velocities [m/s] {
     -2.45113293E+02      3.95063746E+02     -6.90931238E+02
      4.22082791E+02      5.84260595E+02     -1.87212812E+03
     -8.34591539E+02      2.48379854E+03     -1.09693019E+03
     -4.06092290E+02      2.13621630E+02      4.47414874E+02
     -3.17713703E+03      2.31881006E+03      1.40818507E+03
     -7.27612496E+02     -1.10153909E+03     -5.04808946E+02
     -5.18852229E+02      1.72891912E+02     -5.22917763E+02
     -8.05852897E+02     -2.23921745E+02      1.09628023E+02
     -7.20108844E+02      1.09310678E+03      7.01458161E+02
      5.94096651E+02      4.23744839E+02      5.36134302E+02
     -7.56193142E+02      9.88906951E+02     -6.62929673E+02
     -4.20221811E+03      1.65488302E+03     -9.07966236E+02
     -2.51942274E+00      5.83931286E+02      7.31287360E+01
     -1.07751333E+03      9.30068023E+02     -4.92266679E+02
     -1.71553492E+03     -1.56933358E+03     -7.22966661E+01
     -1.11792586E+02      5.62560484E+02      2.66143448E+02
      2.80909051E+03      1.77521521E+03     -1.61565955E+03
     -9.01088832E+02      8.73626318E+02      1.58208144E+03
      2.12886201E+02      3.77772451E+02      7.92141316E+02
      1.25605465E+03      1.38100216E+03     -6.07273868E+02
     -3.00397386E+03     -1.02372564E+03     -3.64789164E+03
      3.59355553E+02      1.03429712E+03     -3.72888498E+02
     -1.15683986E+03      1.69165895E+03      1.83520958E+02
      1.33792025E+03      1.95054252E+02     -8.36843268E+02
     -2.34447476E+00      5.65328458E+02      5.61340533E+02
      1.13549474E+03     -8.15156394E+02     -6.25930268E+02
     -1.02411324E+03      2.33587370E+03      7.76472839E+02
     -7.51405118E+02      2.43858648E+03     -5.65678800E+02
      6.47932636E+01      2.69260369E+02      1.62898212E+02
     -3.17795428E+02      1.63013707E+03     -2.25354084E+03
      2.51191668E+03     -1.62912695E+03     -4.28091799E+02
     -6.55398024E+02     -1.52877117E+03     -5.80577969E+02
      2.04039792E+02     -1.39134432E+02      2.37474974E+02
     -1.53842078E+03     -6.43764557E+02     -1.26098494E+03
     -2.68294056E+03     -1.02584183E+03      2.54398233E+03
     -3.01893392E+02      1.79815063E+02      5.26081917E+02
      6.85105736E+01      7.52656911E+02     -6.29809596E+02
      9.24375203E+02     -2.03143470E+03      1.71343375E+03
      1.52803488E+02     -5.67918464E+02     -4.15374606E+02
     -4.96507113E+02     -1.11571545E+03     -1.20148690E+03
     -8.66372520E+02     -7.34668900E+02     -2.19229618E+03
      1.73859950E+02      2.92292365E+02     -4.04207272E+02
      9.28573403E+02     -1.35123598E+03      9.00216871E+02
      1.85042816E+03     -8.09767493E+02     -2.81438967E+03
      6.10793070E+02      8.26674134E+02      1.68260075E+02
     -4.07527624E+03     -2.39814715E+03     -2.37304372E+02
      3.28844100E+02     -2.60867857E+03     -2.45624815E+03
     -3.03852695E+02     -4.66260370E+01      9.69074855E+01
      1.58002334E+03      2.05800804E+03     -1.34726522E+03
      3.44059358E+03     -1.75633801E+02      1.47875527E+03
      3.43304409E+02      1.78223570E+02     -5.55671013E+02
     -4.09157599E+02     -1.75068644E+03     -2.84759558E+03
      8.74141609E+02     -2.38942350E+01      1.47281232E+03
     -7.54721834E+02      1.94207518E+01     -1.24790860E+02
     -1.16633756E+02     -2.01743660E+03     -2.87545406E+03
     -1.64890892E+03      1.54029398E+03      3.53201369E+02
      3.55582589E+02     -7.48866510E+01     -3.39291622E+02
     -1.14004824E+03      4.13242452E+02     -9.19739472E+02
      2.64810956E+03     -6.07454660E+02      3.00948974E+02
      7.95746827E+02     -1.43046336E+03     -1.85265766E+03
      2.22779545E+02      4.60443765E+02      5.88655244E+01
      2.36178934E+03      2.38160721E+03      5.30275466E+01
     -8.70975443E+02     -1.18360338E+03     -8.49896569E+02
     -2.44992437E+02     -8.36111468E+02      1.12891873E+03
     -1.06999185E+02      3.64511829E+02     -3.65198445E+02
      3.07938982E+02     -4.56813770E+01      2.40803862E+03
      4.66011089E+02      2.98575027E+02     -7.87832761E+02
     -9.23671534E+01      7.47478221E+02      4.61694626E+02
     -1.40269148E+03     -2.58634405E+03     -2.27948569E+03
      1.70672581E+02      1.17815506E+02      7.45561370E+02
      5.07461103E+02      2.39623048E+01     -4.22626853E+02
     -1.71829139E+02      5.92577380E+02      2.17474292E+03
      2.83987192E+03      2.13165144E+03     -1.78644944E+03
      3.61051316E+02      3.34809137E+02     -6.76648189E+02
      2.37254606E+03      5.33548718E+02     -8.96356031E+02
      1.09975076E+03     -1.61881176E+03     -1.66034515E+03
     -5.18941711E+02      3.70327908E+02     -3.33499684E+02
      9.65608578E+02      1.45317267E+03      3.53428605E+02
     -1.93637702E+03      8.69271884E+00     -6.64890093E+02
      2.43787237E+02      1.20069157E+02     -3.41143613E+02
      2.19656424E+02     -2.03185732E+03      3.76232552E+03
      1.32940892E+03     -1.72008548E+03     -5.43555347E+02
      1.48025448E+02      1.58264899E+02     -1.09072416E+01
      7.18331829E+02      6.64791489E+02     -1.52083672E+03
      4.17211965E+03      1.84165926E+02      2.25579135E+02
     -3.89255841E+02      6.65902695E+02      1.54614629E+02
      1.27107809E+03      8.21375470E+02      4.83889757E+02
     -7.58740767E+02     -4.67506014E+02      1.80640498E+03
     -3.12395272E+02      4.37399100E+02      4.00032198E+02
      1.21144174E+02     -1.46714130E+03      2.60869665E+03
      3.16456273E+02     -4.02572742E+03      2.34293253E+03
     -1.87049777E+03      1.12669520E+02     -3.04299899E+03
     -2.51793152E+01     -2.56715919E+02     -1.36934607E+02
     -1.16113352E+03      1.49059000E+03     -6.09017043E+02
     -3.74129766E+03     -9.98385862E+02      2.87800193E+02
      2.56806866E+03     -7.80995959E+02      7.54661742E+00
     -3.16460873E+02     -1.72742314E+02      1.24328152E+02
     -6.22917130E+02     -1.12205334E+03     -1.52843786E+03
     -2.98023125E+03      4.23064447E+02      1.77657152E+03
     -2.99349311E+02     -1.45434051E+02      1.02274367E+02
      1.85536700E+03     -6.89761450E+02     -1.78342775E+03
     -1.21409410E+03      1.18995288E+03      8.25699161E+02
      7.32263082E+00     -5.88603752E+02     -1.42634023E+02
      1.45864927E+03      4.52921610E+01     -1.81277685E+03
      6.47884494E+02      3.29192380E+03      3.53854419E+02
      4.34449569E+02      4.61354687E+01     -3.81093416E+02
     -4.90188243E+02      1.44444667E+03     -2.86596647E+03
     -7.59780329E+02     -8.52369081E+02      6.88837025E+02
     -4.17764425E+02     -1.39325308E+02      1.37710922E+02
      2.06813458E+03      3.18064257E+03      1.47915381E+03
     -1.71061764E+03      2.81919543E+02     -2.89366012E+02
     -4.24812268E+02      2.42840116E+02     -7.36017385E+02
     -4.48176880E+02     -6.99746125E+02      9.63657922E+02
     -3.22919847E+03      3.72998469E+02     -4.13049547E+03
      2.08221144E+02     -2.46720147E+02      8.73877108E+02
     -1.77447914E+02     -9.47506925E+02      3.76676969E+03
      4.46886005E+02      1.74828688E+03      2.73980631E+03
      1.66708305E+02      2.06631574E+02      1.90125085E+02
     -1.99729522E+03     -5.63332328E+02      2.26085977E+03
     -1.52325722E+03      6.35810393E+02     -5.70169413E+02
     -1.20463331E+02      2.76831239E+02     -2.63031305E+02
      1.04489220E+03     -1.26280998E+03     -1.00225109E+03
     -1.27773965E+03     -2.70421862E+02     -2.33821852E+03
     -1.04132252E+02      8.15352368E+02      3.61639724E+03
      3.91864152E+00     -1.17661370E+01      7.17020667E+02
      2.87332899E+03      1.37785844E+03      4.67410513E+02
      8.45103692E+02      3.18896254E+02     -2.40252017E+03
      3.58356031E+03      1.85621300E+03      4.27113999E+01
     -3.42823619E+02      2.29265985E+02      2.73548906E+02
     -2.92699281E+02      3.62054083E+03      1.98389012E+03
      2.00613499E+02      1.70191375E+03     -1.58658360E+01
     -7.06284931E+02      3.09872072E+02     -4.49032967E+02
      1.50349871E+03      9.11414277E+02      1.21724194E+03
      6.87837299E+02      6.68080919E+02      6.59555127E+02
     -8.52611485E+02      9.85493962E+02     -5.22389193E+02
     -4.60747351E+02     -2.45563446E+02      5.15464342E+02
     -4.77217429E+02      1.17408950E+03      1.12213286E+02
      8.12561784E+01     -1.42742501E+02     -1.63470639E+02
      1.89983683E+03     -2.02501669E+03      2.54124771E+03
     -5.08165893E+02      3.51048851E+02     -3.14941380E+02
     -7.89702000E+01      8.89598191E+01     -1.83522200E+01
      1.54195173E+03      1.01679353E+03      2.09610647E+03
     -1.01680919E+03      3.38333542E+03      1.49585817E+03
     -5.27119558E+02      6.80750812E+02     -1.23532010E+03
      1.82756305E+03      1.52530058E+03      2.73542220E+02
      1.17264463E+03      7.16201487E+02     -7.62799402E+02
     -1.21667907E+02      2.69448897E+02      2.95239947E+02
      2.46544258E+02      1.11934854E+02      2.18861224E+03
      3.91312442E+02      3.02618603E+02     -1.27474930E+03
     -2.32070472E+02     -3.89116736E+02     -9.22210507E+02
     -4.02146664E+02      2.41262339E+03     -1.84731203E+02
     -2.61406075E+03      1.38412664E+03      7.22202167E+01
      6.14699511E+02      4.71325145E+02     -2.15395873E+02
      8.50820339E+01      8.99680995E+01     -1.62540138E+03
     -6.22884036E+01      2.68397947E+03      1.06134068E+03
     -9.01841191E+02     -2.48609421E+03     -4.10332338E+02
     -1.05113907E+02      7.09594331E+02     -6.31498136E+02
      4.57468483E+02     -1.28737885E+03      1.60253014E+03
      2.72951313E+03      2.64090458E+02     -1.83773806E+03
      2.57258371E+03      1.09940370E+02     -1.97294193E+03
     -6.78457350E+01      6.06377806E+02     -8.48644299E+02
      1.19766910E+03     -4.99062129E+01      5.05086467E+02
     -9.95436698E+02     -1.95264987E+03      7.60016793E+02
     -1.42886986E+02      4.23401456E+02      1.53979582E+02
     -3.35760068E+02     -8.87222144E+02      2.29394339E+02
     -2.40403777E+02     -2.40122417E+03      1.84467928E+03
     -5.37552822E+02      6.99917137E+02     -3.24335619E+02
     -1.41856748E+03      3.62991293E+03     -1.90686836E+03
     -1.19564697E+03     -1.33000649E+02     -1.06052660E+03
     -4.53486288E+02     -6.65110504E+01      4.12408366E+01
      1.08609543E+03      2.13134191E+02      1.63916255E+03
     -2.14028290E+03      2.98534509E+03      3.00824975E+03
     -7.46613037E+02      4.36813156E+02      5.87394101E+02
     -1.02396942E+03     -2.39785473E+03     -7.76152038E+02
      1.71023808E+03      6.55333992E+02      1.26806568E+02
      8.91181257E+02      3.68831298E+01     -7.49304627E+02
      8.15646163E+02     -4.87442603E+02      4.63109022E+02
      1.55392507E+03      9.60186244E+02     -2.18541255E+03
     -1.00477186E+03      2.97416579E+02      1.78845653E+02
     -3.43765070E+03      2.16745905E+03     -2.38737277E+02
     -1.14631639E+03      1.22886775E+03     -3.69645010E+02
     -7.34543940E+02      7.07014451E+02     -3.08644393E+02
      2.25651322E+03     -2.04811372E+01     -2.68517051E+02
      8.30557285E+02     -1.01185119E+03     -1.03970611E+03
     -5.51313702E+02      1.33526350E+02     -8.14454037E+01
      5.55645757E+00     -4.44316194E+02     -1.32521430E+03
     -2.44507315E+03     -9.46377225E+02     -2.29039497E+03
     -1.75582258E+03      9.29468310E+02     -1.89840671E+03
      4.53293794E+02      7.20155893E+02      3.32391591E+02
      1.61534633E+02     -3.83196096E+03      1.72010453E+03
     -3.40861135E+01      1.67079658E+02      2.49192824E+03
     -2.20030072E+03      1.02107392E+03      1.91600576E+03
      6.28033557E+02      4.77115543E+02     -7.41828919E+02
      1.51638893E+02      1.42346167E+03     -1.36182092E+03
     -1.29783172E+03      4.67152703E+02     -8.20832879E+02
      3.02627923E+02      3.97093701E+02     -3.85906046E+01
      1.08965143E+03     -3.65815730E+02     -1.29166877E+03
     -1.94403518E+03      1.14950437E+03     -2.23520960E+03
      3.65531475E+01      8.05047650E+02      5.59989347E+02
     -1.43103167E+03      1.68029835E+03      4.94392217E+01
      2.98364919E+03     -4.95685468E+02     -2.44145643E+02
     -3.64124422E+02      9.96298841E+02     -4.28767526E+02
     -9.10932481E+02     -3.82624309E+02     -2.15867137E+03
      4.45924754E+02      3.47289551E+02     -6.92947151E+02
     -1.41814171E+02      1.21325136E+03      9.34037782E+02
      1.76945271E+03      2.18025207E+02     -3.86817910E+03
      3.05551180E+02      7.34909759E+02     -1.11650632E+03
     -5.09752286E+02     -5.20174810E+02      5.04367663E+01
      9.93703440E+02     -1.66021669E+03      1.33207369E+03
     -1.17812615E+03     -5.23062132E+02     -3.44167091E+02
     -2.60316319E+02      6.47949633E+02     -3.81721484E+02
     -1.08374870E+03      6.65974957E+02     -2.20041123E+02
      3.43038211E+03      3.50908472E+02     -8.74008031E+02
      1.55169284E+02     -1.03310111E+03     -1.04591716E+02
     -4.54688077E+02      3.62066503E+02      2.84240772E+02
     -1.05271109E+03      4.46650633E+02     -1.37073418E+02
     -8.21315041E+02     -1.73078850E+02     -6.86820878E+02
      5.78498984E+02      2.44440763E+01      2.52212762E+02
     -6.68304760E+02      2.28765307E+02      1.56426040E+01
      4.76952514E+02      1.52710971E+03      3.91408320E+02
     -5.49215083E+02      2.47260749E+02     -6.52490830E+02
      9.71495998E+02     -9.23265958E+02     -1.14908785E+03
     -1.50382214E+03     -1.24980538E+03     -1.15876698E+03
     -8.31689591E+02      2.48307678E+02     -8.33872248E+02
      1.03057648E+02      8.52469509E+02     -4.53523001E+01
      1.92894955E+03     -3.45117624E+02     -4.10099035E+02
      6.10416159E+01     -2.37470827E+02     -3.01221803E+03
     -1.00607488E+02      2.58501508E+02      1.70979368E+02
     -1.21808716E+03     -1.01877285E+03      1.82019210E+03
     -8.60058449E+02     -7.12372222E+02      8.75473925E+01
      1.02456181E+04     -2.84091057E+04      1.40485977E+04
      2.60373597E+03      9.32733085E+02      3.30978508E+02
      8.56823071E+02      3.02461671E+03      2.07337691E+03
     -5.71241137E+02      2.23115885E+02      5.30742695E+00
      3.87969727E+02     -1.98838700E+02     -1.39479780E+02
     -6.59014178E+02      2.97964368E+02     -5.25209683E+03
      3.97695677E+02     -4.35737594E+02     -2.85583674E+02
     -1.26004118E+03     -1.86099317E+03      2.09171185E+03
     -1.63340542E+03     -2.09398510E+02      1.62355062E+03
     -4.57668545E+02      8.87326971E+02     -1.09191598E+03
      7.02315538E+01     -5.34893655E+02     -6.50314293E+02
     -6.50303073E+02     -2.07858326E+03      4.47479205E+02
     -2.29722393E+02     -5.58455247E+02      6.77477424E+02
      1.70589451E+03      9.90603282E+02     -1.08320943E+03
     -2.31873519E+02      1.43832704E+03      1.48699158E+03
     -9.58271801E+02      2.15430468E+02      7.41757638E+01
     -1.39209463E+03     -1.35402661E+03     -1.73072568E+03
      1.95126041E+03     -1.95440192E+03      2.27959431E+02
      6.70499196E+01     -2.28072686E+02      2.18863316E+02
     -5.24051646E+02     -1.43241560E+03     -6.70030891E+02
      2.84987995E+01      3.85542304E+03     -1.81840770E+03
      6.83710206E+02     -1.19380199E+03      1.48055407E+03
     -2.85212126E+02     -7.70768884E+01      7.90854475E+01
      2.12555277E+03     -1.74832698E+03     -1.22053457E+03
      4.36922981E+02      8.78313586E+01     -4.16143698E+03
     -1.92092972E+03      9.82799375E+02     -1.52606641E+02
     -5.16409854E+02      3.38547378E+02      3.31943507E+02
     -2.00890336E+03      4.13290838E+03      1.69543283E+03
     -2.78931543E+03     -2.01794737E+03     -1.89781596E+03
      3.88586010E+02     -7.40785173E+01      1.02209824E+00
     -1.32751101E+03     -1.65171689E+02     -1.28870041E+03
     -1.36484975E+03     -1.38158757E+03      2.88031871E+02
     -2.14927637E+02     -5.30664713E+02      3.99066334E+02
     -2.69908302E+03      1.48144072E+03     -5.73265865E+02
     -5.45711173E+02      1.43029618E+03      1.03277690E+03
     -3.61724234E+02     -1.21423218E+02     -2.29412663E+02
     -2.76079682E+03      2.85581209E+02      2.05298779E+03
      9.19667204E+02      4.25840046E+02     -2.01032507E+03
      2.13620053E+02      8.36546709E+02     -8.73207716E+01
      4.54190233E+02      1.48355900E+03     -7.51055395E+02
      2.31418306E+03      2.49444855E+03     -2.51405282E+03
      7.01744581E+02      6.12587643E+02     -3.72492066E+02
      1.98670274E+03     -1.29358557E+02     -6.77415501E+01
      1.19982042E+03     -1.72884384E+02      3.09171161E+03
     -1.33396709E+02      6.10603750E+02     -6.56902735E+02
     -3.29827065E+02      6.46478400E+02      1.98272006E+03
      1.06686104E+03      9.71334214E+02     -7.17596791E+02
      9.82481416E+02      8.50509545E+02     -5.33195347E+02
     -6.28945682E+01     -1.05107386E+03      2.55651035E+01
      4.75531476E+01     -2.42104365E+03      2.87927214E+02
     -2.13820580E+01      1.08025791E+03      3.49504231E+02
     -4.55444966E+02     -1.65915468E+03      1.25230866E+02
      2.65751107E+03      1.51201032E+03     -9.59890257E+02
     -1.94385378E+03      1.95436359E+03     -4.01064398E+02
     -1.18609510E+02     -2.74636578E+02      1.30002750E+02
     -4.46502829E+02      3.13673578E+03     -4.76074803E+02
      6.50104090E+02      1.02589056E+02     -3.46507914E+03
     -1.17754100E+03     -1.69151317E+03     -8.52185318E+02
     -4.16617825E+02     -2.14463402E+02      1.68408780E+02
     -2.12971958E+03      3.18400661E+03     -7.02014214E+02
      5.14743704E+02     -1.79740771E+03      4.26850821E+03
      3.92360808E+02      7.08989582E+02      1.15929432E+02
     -1.12520783E+03      3.07266547E+03      6.85001588E+01
     -9.61537438E+02     -1.65048598E+03      3.23891708E+02
     -1.25817664E+02     -9.76976329E+02     -2.91095857E+02
     -3.63679405E+02     -1.52124006E+03      4.38883019E+02
      9.23865123E+02     -8.73073361E+02      2.16197988E+03
      6.98108842E+02      4.08290481E+01     -2.01616891E+02
      8.62122528E+01      6.01664890E+02      6.17648933E+02
      2.17850087E+03     -3.19413484E+03     -1.50021163E+03
     -4.96032690E+02      6.34876954E+02     -2.54219134E+02
      2.64304215E+03      6.71055265E+02     -1.40712628E+03
      3.01385386E+02     -8.48356119E+02     -2.44825000E+02
     -2.81023392E+02      8.32762226E+02     -3.25158693E+02
     -2.49101029E+03     -7.07124710E+02      2.16578737E+03
     -2.76628855E+03      1.86207309E+03     -8.94750940E+02
      4.76502847E+01     -6.26414859E+02     -4.82841864E+02
      1.30525349E+03     -3.04395294E+02      2.22273659E+03
      3.57659520E+02      5.63052339E+02      2.11002256E+03
     -6.89441999E+02      3.12608288E+02     -5.27774274E+02
     -3.91401290E+03      2.05723871E+03     -1.79644032E+03
      1.70024502E+03      2.97498087E+03      1.22179126E+03
      1.00193990E+02      3.96264694E+02     -6.69401936E+01
      2.06361476E+03      4.23878251E+02     -8.63762671E+01
     -1.86053156E+03     -1.86473169E+03     -1.11265292E+03
      2.79120358E+03      6.35019630E+02     -2.24637586E+03
      5.53966342E+02      8.47866745E+02     -7.84388808E+02
     -2.14658552E+03     -7.78448224E+02      1.09483972E+03
     -4.61408218E+02     -3.96215204E+02      6.66876331E+02
      2.25458170E+03     -5.60136179E+02     -1.27926362E+03
      8.93698783E+02      9.47109704E+02      3.29436005E+01
     -2.02862642E+03      3.44318834E+02     -4.29825435E+02
     -3.37871653E+03      2.95856311E+03     -1.21386842E+03
     -6.87133020E+02      2.08908483E+02     -2.80877033E+02
     -7.30118116E+02      3.17587133E+02     -6.15856862E+02
      7.64133691E+01      1.87031671E+02     -3.72475552E+02
      6.26890667E+01      9.73650332E-01     -6.37030899E+02
      1.50873966E+03     -1.85278544E+03     -1.24575746E+03
     -1.58411000E+02     -1.92694044E+02      2.29111396E+03
     -3.92426179E+01     -2.17131189E+02      5.65760552E+02
     -8.72985816E+02      2.16629771E+02      1.76034652E+02
     -1.74346871E+03     -2.40981986E+03     -1.10258381E+03
     -8.91439254E+01      2.46013031E+02     -3.77254999E+02
     -8.68466876E+02     -3.03446727E+03      5.80952192E+02
      3.84678706E+03     -3.90441981E+02      7.86628519E+02
     -3.20849379E+02      3.90331547E+02      3.13000672E+02
      1.54243376E+03      9.59832337E+02     -1.12004710E+03
     -5.18891163E+02     -1.81419797E+03      4.03099832E+02
     -2.22155031E+02     -4.37313869E+02     -6.21440262E+01
      5.34594453E+02     -5.63406653E+01     -1.01037945E+03
      2.51405009E+02      6.34326221E+02      1.44898221E+02
     -3.55227663E+02      3.70699807E+02      8.58806218E+01
     -7.76968028E+02      3.44219042E+03     -9.66814683E+02
      1.34736717E+03     -1.37531021E+03     -1.20266434E+03
     -2.51635912E+02      7.41043114E+01     -7.43477377E+02
     -4.34761146E+02     -6.56476350E+02     -1.86614596E+03
     -1.01987460E+03      1.51718381E+03     -7.90291547E+02
      9.13166432E+02     -2.68923262E+02     -3.93798759E+02
     -4.20699621E+02     -4.47211081E+02      5.67699911E+02
      5.18374125E+02     -2.51619924E+03      1.26917612E+02
      2.10462040E+02      2.66719197E+02     -1.57778394E+03
      4.84986671E+03      7.87354235E+02     -1.07458912E+02
  }
}

Hamiltonian = DFTB {
  SCC = Yes
  SCCTolerance = 1e-6
  MaxSCCIterations = 200
  ForceEvaluation = Dynamics
  MaxAngularMomentum = {
    C = "p"
    H = "s"
  }
  Charge = 0.0
  SpinPolarisation = {}
  Eigensolver = Standard {}
  Filling = Fermi {
    Temperature [Kelvin] = 300.0
  }
  SlaterKosterFiles = Type2FileNames {
    Prefix = "../../pbc-0-3/"
    Separator = "-"
    Suffix = ".skf"
    LowerCaseTypeName = No
  }
  KPointsAndWeights = {
    0.0000000000000 0.0000000000000 0.0000000000000 1.00000000000000
  }
  Dispersion = LennardJones { 
    Parameters = UFFParameters {}
  }
}

ParserOptions = {
  ParserVersion = 3
}
