Geometry = GenFormat {
<<< "system.gen"
}

Driver = VelocityVerlet{
  Steps = 100000
  TimeStep [fs] = 0.2
  MDRestartFrequency = 5
  Thermostat = None {
    #InitialTemperature [Kelvin] = 300.0
  }
  Xlbomd{ 
    IntegrationSteps = 6 
    MinSccIterations = 2
    MaxSccIterations = 200
    SccTolerance = 1e-6 
  }
  Velocities [m/s] {
     -9.33361117E+02      1.90651650E+02      1.36259825E+03
      9.48647331E+02      4.79481192E+02      9.24236304E+02
     -2.84987261E+03      1.23210451E+03      1.01951161E+03
      2.78385833E+02      7.31820177E+02      3.21359346E+02
     -1.40602001E+03      2.21821549E+02     -2.28388416E+03
      1.28526770E+03     -2.07801900E+03      2.37143724E+02
      5.05168941E+02      4.36627137E+02      9.57974643E+02
     -3.74358283E+02     -3.84735684E+03      5.65282047E+02
     -2.42200551E+03      4.66480052E+02     -1.97626208E+02
     -1.03255385E+03      5.83212015E+02      1.53238398E+02
     -7.98854487E+02      1.36947538E+02      5.80156172E+02
      1.72696234E+02      1.92827882E+03     -1.40407971E+03
     -8.34828945E+01      3.81397369E+02      4.19652795E+01
      1.08464337E+03      4.35975937E+02      1.65519236E+03
      1.37517862E+02      1.58994305E+03      1.32447473E+03
      3.79097689E+02      5.31076573E+02      1.15022490E+02
      1.16116189E+03      1.73954001E+03     -3.06447273E+02
     -1.07024916E+02     -3.76654483E+03      1.84911414E+03
     -5.25821487E+01      4.04298489E+02     -3.71108680E+02
      2.21717946E+03     -9.72411448E+02     -8.30949897E+02
      2.20856771E+03      2.48291341E+02     -8.93947650E+02
      1.61033698E+02      3.19257914E+02     -4.75304796E+02
      6.96668032E+02     -1.36049767E+03     -1.15242867E+03
     -1.21705498E+03     -8.95951593E+02      4.90040482E+02
     -6.42369438E+02     -1.25357165E+02     -1.77057675E+02
     -1.91459321E+02      2.13901077E+03     -2.76413635E+03
     -1.33187680E+03     -2.22200161E+03     -3.70520705E+03
     -2.81685450E+02     -2.24844021E+03     -2.36448682E+03
     -4.89284845E+02      4.97211446E+02     -1.02262382E+02
      1.87095612E+03      1.55700108E+03     -3.24885835E+02
     -5.43792585E+02      1.34646611E+03     -9.91877398E+02
     -1.07847088E+02      1.71783875E+03      3.47824383E+01
      1.81767305E+02      8.44865481E+02      2.49326924E+02
     -2.31654740E+03     -3.46196162E+03      1.06713842E+03
      2.56912742E+03      1.56238818E+03      1.77508255E+03
      3.33636167E+02      3.80582930E+02      1.78091567E+02
     -1.96363896E+03     -1.72603378E+03      1.96128986E+03
     -1.07412496E+03      1.05102669E+03     -1.86952782E+03
     -1.70038626E+02     -3.30514417E+02      4.39051010E+02
      1.06382854E+03     -1.34611402E+03      2.75279588E+03
     -2.06627088E+02     -1.41855604E+03     -1.78997192E+03
     -1.85138854E+02      8.42538312E+01      9.76454680E+02
     -1.25241571E+03     -2.24275052E+03      2.73235571E+02
     -2.73803109E+03      4.39316097E+02      9.03846437E+02
     -4.03558219E+02      2.71424565E+02     -9.32975422E+01
     -1.93147228E+03     -1.42324508E+03      6.10230997E+02
     -5.31339660E+03      1.45140302E+03     -2.34477986E+03
     -1.21692715E+02     -8.69171338E+01     -4.81750345E+02
      2.76585534E+02      3.39440958E+02     -5.27749804E+02
     -1.17391444E+03      1.22011842E+03      3.57166948E+01
     -7.19916113E+02      9.19133827E+01      1.20732880E+02
      6.36720849E+01      2.86940907E+03     -1.23194250E+02
     -1.14214224E+03      1.09953057E+03     -4.63604485E+01
      5.38790505E+01     -1.98552692E+02      6.49253491E+02
     -2.74439993E+03      2.54172705E+03     -9.08105413E+02
     -2.24914710E+03      1.15306168E+03      8.25825497E+02
     -5.13553729E+02      1.36358810E+03      1.24517279E+02
     -1.50584001E+03     -4.40304551E+02     -2.28690196E+02
      1.53459310E+01      2.69579650E+02      7.12091798E+02
     -4.25536565E+02     -1.10868579E+03      3.00839716E+03
      4.94544764E+02     -2.33866858E+02     -7.59541655E+01
      2.72099777E+03     -4.87455006E+02     -5.05517330E+02
     -1.13597558E+02      2.31462822E+02     -2.11465577E+03
      9.90262340E+02     -1.70086179E+03      1.16873926E+03
      7.33111525E+02      2.13040939E+02      2.09686313E+02
      4.99565827E+02     -1.17894917E+03      1.26410102E+03
     -4.35762731E+02     -2.78739939E+02     -8.48733130E+02
     -3.30134302E+02     -8.66168962E+01     -9.15502389E+01
     -5.17588633E+02      1.89596016E+03     -4.92338152E+02
      1.18962672E+03     -1.43543656E+03      1.64533910E+03
      1.45061650E+02     -9.34334727E+01     -1.26950226E+03
      7.75165280E+02      8.64131086E+02      1.56590118E+03
      3.28459357E+03     -1.71289456E+03     -2.81904274E+03
      1.98184031E+02      7.20015401E+02      3.94909346E+01
      8.93004054E+01     -1.64980190E+03      1.13236787E+03
      3.97390349E+03      2.01437186E+03     -2.15430543E+03
     -3.80382720E+02      2.60787657E+02     -2.26024837E+02
     -8.38312747E+02      1.61460408E+03      7.54604306E+02
      1.45907898E+03      6.55551017E+02     -3.31071450E+02
      4.33804582E+02     -3.35972740E+01     -5.53894088E+01
     -1.13703164E+03      1.20197672E+03     -9.30980582E+02
     -2.93973996E+03      4.48087798E+01     -5.08587484E+02
     -2.48078134E+02      2.69697867E+02      5.99183281E+02
      4.03977399E+03     -9.31948696E+02      1.25232135E+03
     -1.92405368E+03     -3.02404697E+03      7.02899566E+02
     -4.79073058E+02     -1.85149556E+02      3.15248427E+02
      3.98138817E+02     -2.11911953E+03     -9.93116621E+02
     -7.63442241E+02     -5.18936618E+02      6.41284592E+02
     -6.74336199E+01      8.08675190E+02      1.55409523E+01
      1.22678444E+03     -1.65157904E+03      1.52333881E+03
      1.49497914E+03      1.08039365E+03      1.28925648E+03
     -2.04619427E+03      2.72737265E+03     -7.61960378E+02
     -4.89979828E+02     -3.26613302E+02      1.84350246E+02
      6.19654850E+02      9.79576484E+02      2.82409139E+03
      1.76497198E+02     -1.31025076E+03      1.56604350E+03
      1.34894382E+03     -6.30695117E+02      3.11360055E+03
      6.03372319E+01      2.91802795E+02     -2.10763290E+02
     -1.06218740E+03     -1.05080901E+03      3.47609006E+03
      6.14578357E+02     -1.99489496E+03      7.76601774E+01
      9.91786870E+02      6.62050941E+02     -1.14124767E+03
      1.59744313E+03     -4.68062822E+02     -1.54559542E+03
     -3.21050005E+02      1.51986553E+03     -2.74413813E+03
      1.00011862E+02     -2.61795965E+02      1.23029492E+02
      2.14245820E+03     -2.27362759E+03      1.98909258E+03
     -1.87234362E+03     -9.06771979E+02      6.33168314E+02
     -6.22823961E+02     -2.14073938E+02     -8.49098580E+02
     -4.27454178E+02     -2.61290806E+02     -1.86598893E+03
      7.69028660E+02      4.21452121E+02      2.62168374E+02
      9.34777349E+02      3.36015303E+02     -5.62392316E+02
      7.27484287E+02     -1.87687721E+03     -1.12767053E+03
      9.16649533E+02     -1.29158872E+03      4.02743350E+03
     -3.47674533E+02     -5.13679633E+02      1.52628170E+02
     -1.64748721E+03     -7.80315860E+02      1.84578243E+03
      1.65291088E+03     -5.86066285E+02      3.84528865E+02
      5.45117146E+02     -6.73866010E+02      1.54852254E+02
      1.04939614E+03     -2.53324455E+03     -1.24550145E+02
      9.02112312E+02      1.97283868E+03     -9.92233336E+02
     -5.67674998E+02     -2.63248667E+02      2.39050248E+02
      1.57639046E+03      3.12472002E+03     -5.23385228E+02
      1.44885184E+03      1.93918674E+03      2.46337461E+02
      3.33132157E+02     -1.20257253E+02     -9.53848115E+02
     -1.25813964E+03      2.83657758E+03      1.77567208E+03
      4.98556424E+02      2.16109449E+03     -9.03509837E+02
      5.89972315E+01      1.20578244E+03     -6.80337165E+02
     -1.02594938E+02     -2.77869991E+00      2.37405199E+02
      1.26440314E+03     -3.89004692E+02      2.89581214E+03
     -8.07676532E+02      1.37234405E+03      2.57498423E+02
     -2.06672841E+03     -1.90901552E+02     -1.65102241E+03
      7.20474257E-01     -2.12307531E+02     -6.81065009E+00
      1.30736972E+03     -1.84735102E+03     -4.75593050E+03
      1.05226966E+03      1.77501157E+03     -1.43515411E+01
      4.87634203E+02      3.11134979E+02     -7.56823406E+02
      1.26187969E+03     -1.02935843E+03      3.97656246E+02
     -2.24630538E+03      2.85382111E+03     -2.53407655E+03
      3.84321451E+02      8.21382407E+02     -8.50990478E+01
     -3.04083825E+03     -4.26649510E+02      1.36821086E+03
     -1.30186962E+03      1.65988336E+03      1.50425851E+03
      2.77380634E+01      4.05155904E+02      3.32163836E+02
     -2.69087614E+03     -1.80196987E+03     -1.37152094E+03
     -2.24138662E+03     -1.03479706E+03      1.27154124E+03
      2.88041356E+02      2.69980976E+02      4.93499202E+02
      1.59839418E+03      1.38237932E+03      1.50460586E+03
     -2.14856976E+03      7.95340313E+02      2.41362679E+03
     -1.23039064E+02      4.43229769E+02     -5.71775057E+02
     -2.37802464E+01     -1.02286135E+03     -1.91517855E+03
      6.64008957E+02      2.23218096E+03     -2.18141938E+03
      8.91381741E+01      7.84083379E+02      5.19372655E+02
      1.69098336E+00      6.25182623E+01      1.94119383E+03
      8.41970016E+02     -2.27679038E+03      2.34657677E+03
     -1.25437692E+03     -2.58408220E+02     -1.09301948E+03
     -1.31660082E+03     -1.11592808E+02      2.89460350E+01
      1.84686480E+03      1.72167267E+03      2.61583449E+03
     -4.74863718E+02     -2.92268686E+02     -1.64657506E+02
     -5.97934610E+02     -1.13925594E+03     -1.50493512E+03
      5.49795134E+02      2.97992594E+02      1.09067524E+02
      6.28944046E+02     -7.56001888E+02     -2.94620699E+03
     -3.37928723E+02     -2.91397602E+02      2.26170259E+02
     -1.45862164E+03     -9.28653567E+02     -5.08870021E+02
      1.93836292E+03      1.99619204E+03      2.22275730E+02
     -6.29604781E+02     -8.53269320E+02      1.96590083E+03
     -3.25585709E+02      9.45858625E+02     -1.78939630E+02
      6.91100071E+02      5.44144179E+02      7.37463020E+01
     -2.21490505E+03     -3.89779492E+03      3.69964669E+02
      1.16361056E+02      2.35839801E+02      1.81995825E+02
      7.45659359E+02     -1.12357356E+02     -5.92265877E+02
      1.44644548E+03      3.40365422E+02     -2.90687682E+03
     -4.53898325E+02      6.91036821E+02     -6.96109420E+01
      4.56207084E+02      1.47139635E+01     -1.66099331E+03
     -8.03094957E+02     -1.74847994E+03      1.53793813E+03
      6.28271446E+01      4.62852080E+02      5.59297067E+02
      4.86589869E+02      1.39742509E+03      2.58884094E+02
      1.37396761E+03      2.39588290E+03     -4.03796411E+02
      1.12959395E+02     -3.73125696E+02     -2.56463918E+02
      1.55265252E+03     -1.83868303E+03     -1.00461403E+03
     -8.09288194E+02      2.70244250E+01     -1.85687773E+03
      2.67483410E+02      6.63439588E+02     -4.20902405E+02
      1.73125751E+03     -6.02786309E+02     -2.18898368E+03
     -4.50401831E+02      1.62476455E+03      3.76273409E+02
      1.42760997E+02     -1.78736790E+02      1.84158574E+02
      4.18878376E+03      1.73228440E+03      1.17891316E+02
      1.07851705E+03     -7.75647940E+02     -2.49322807E+03
     -4.79514684E+02      4.06288455E+02      4.17862311E+02
     -1.28318239E+03      2.50594193E+02     -1.39497116E+03
     -9.78926037E+02      4.89220300E+02      3.19841751E+02
     -4.50601186E+02     -3.09203557E+02      2.03276622E+02
     -2.31595104E+03      2.46656527E+03     -1.06679457E+03
      8.37537965E+02     -5.01630696E+02      2.61470451E+03
      1.70944732E+02     -2.07224623E+03      2.74341439E+03
      3.32492135E+02      3.39697011E+02      4.90030917E+01
     -1.46938168E+02      2.41138575E+03     -8.68711520E+02
     -3.26091070E+03      1.16660134E+03     -1.28135666E+03
      5.23966250E+02     -2.01453079E+03      2.05330749E+03
      1.00451588E+02     -2.79458125E+02      5.11070864E+02
     -1.85592980E+02     -1.30425445E+03      9.29674481E+02
     -2.27530323E+03      8.81564664E+02     -6.80698106E+02
     -1.41057913E+02      7.64106513E+02     -2.69877977E+02
      1.28284206E+03      1.12169040E+03     -1.39230320E+03
     -9.66472932E+02     -4.14958849E+02     -6.80562574E+02
     -4.99339556E+02     -2.99954330E+02     -5.35857353E+02
     -2.49818291E+03     -1.54775027E+03      2.29918669E+02
      3.51323490E+03     -1.32463147E+03      9.90537284E+02
      5.95940554E+02     -1.28574964E+01     -5.54962571E+02
     -2.75366603E+03      1.88562726E+03      1.50716909E+02
      5.11759662E+02      6.03114056E+02      1.74421907E+03
      1.11349561E+03      4.38598134E+02     -6.94065907E+02
     -3.49226213E+03     -7.59535558E+02      3.39382369E+02
     -2.64954080E+02      2.13473805E+03      1.54273941E+03
     -9.42534686E+02      1.49619350E+01      3.46985929E+02
      2.43762241E+03     -3.17344916E+03      1.43993464E+03
      1.79460238E+03      7.67046774E+02     -9.90683164E+02
     -5.45934853E+02     -4.54128749E+02     -1.40804497E+02
      1.67403063E+03     -1.58436715E+02      1.21958712E+03
      1.25565975E+03      5.10956390E+02      8.11991464E+02
     -5.20504810E+02     -5.61921628E+02      6.88062588E+02
      5.31575984E+01     -1.23907533E+03     -3.74524052E+02
     -2.57538561E+03      1.73649356E+02      2.22319425E+03
     -4.11123748E+02     -5.23098041E+02     -1.79003390E+02
     -3.96556570E+02      9.70694460E+02     -8.70841515E+02
     -2.77208914E+03      4.88720002E+01     -2.70670632E+02
      3.95064413E+02      7.41582598E+02     -1.51589401E+03
     -1.66966883E+02     -6.20214864E+02     -4.08580058E+02
      1.92431575E+03     -8.29215188E+02      2.78023750E+03
      1.96679333E+03     -1.98159955E+03      3.17921413E+02
     -9.06508121E+02      3.73616683E+02     -4.98412859E+02
      3.10785486E+02      3.12993616E+02      4.38601902E+02
      7.64463306E+02      8.99055632E+02      1.57980465E+03
     -9.43300430E+01      1.01589553E+03     -2.89221471E+03
     -2.27952261E+02      1.50707288E+02      8.84959321E+02
     -2.46686075E+03      6.48395143E+02     -1.27064118E+03
     -2.45701825E+03      2.46544576E+02     -9.08408505E+02
      8.10871318E+02      2.02968184E+02     -4.41476299E+02
     -1.74665552E+03      1.95120695E+03     -2.27210503E+02
      3.24624363E+02      2.75966345E+02     -1.23598857E+03
      1.79482597E+02     -3.43420377E+02      2.66723077E+02
     -4.69231801E+02     -6.81169571E+01      3.73868739E+02
     -1.49544666E+03     -7.28126172E+02     -1.94264031E+03
     -6.50351099E+02      6.42616978E+02     -4.58985120E+02
     -8.50528958E+02     -7.12975554E+02     -4.80910369E+02
     -1.40554150E+03     -8.83694740E+02      1.49208104E+02
      4.82355608E+02      2.33897035E+02     -2.42376743E+01
      1.21625339E+03      2.24014908E+03      1.34756736E+03
      6.18848799E+02     -2.25310925E+03     -1.67061058E+03
     -2.97272106E+02      2.42106972E+02      3.97704378E+02
      1.39392646E+03     -7.92367734E+02      1.93303850E+02
     -5.10544410E+02     -2.63937257E+03     -2.63586710E+03
     -3.89366624E+02      2.87931094E+02      1.09663880E+03
      8.83903895E+01     -3.20868654E+02      1.48404020E+03
      9.45020355E+02      1.96392348E+03      1.01224088E+03
      7.43631526E+02      1.45577586E+02      2.66235224E+02
     -1.53899670E+03      1.63092386E+03      2.57242375E+01
     -1.98170720E+03      6.27411412E+01      1.71960534E+02
     -1.57698853E+03      1.24161780E+03      1.94904519E+03
      2.85333733E+02     -6.82448297E+02      3.42137952E+02
     -5.23703629E+02      1.74733484E+03      1.57291952E+03
     -1.27550271E+03     -3.84834932E+03     -1.33143693E+03
     -9.87794015E+02      1.73789963E+01      1.05879593E+03
     -8.46347069E+02      2.92817115E+02      4.89042404E+02
      2.15460919E+03      3.57625673E+02     -7.67695171E+02
     -6.53007584E+02     -7.58947379E+02      1.53334920E+03
     -8.66683438E+02      6.80003734E+02      8.20113215E+02
     -7.12125443E+02      4.29364169E+03     -9.61157462E+02
      6.17413839E+02      6.55680472E+02      4.82440250E+02
      8.05972081E+01     -3.02029056E+01      7.47049931E+02
     -2.81437670E+03      3.36514519E+03     -1.40073915E+03
      2.69788249E+03     -1.45750064E+03      1.30657003E+03
      6.24657830E+02      4.68124496E+02      2.64143980E+02
      1.50406059E+03     -4.88868047E+02      7.27663418E+02
     -6.57662518E+02      5.25015987E+02      4.26328055E+02
      4.97368138E+02      1.33940905E+02     -7.74727482E+01
      3.82510992E+01     -3.17261592E+02     -4.62828994E+02
      8.85552786E+02      5.90388117E+02      2.35148160E+03
      7.76701708E+01     -2.69104602E+02      7.00602860E+01
     -4.29339168E+02     -2.40480138E+03     -2.77567518E+03
      1.86859095E+01     -1.66662740E+03     -1.47341308E+03
     -8.70861229E+02     -2.95619278E+01     -2.55289817E+02
     -2.64423304E+03      4.44083346E+03      1.15024211E+03
     -2.17392651E+03      1.62084173E+03      1.04162224E+03
     -2.92031885E+02      6.62120602E+02      2.55509897E+02
      1.01732549E+03      2.08183269E+03      5.34135081E+02
      4.35319494E+02      1.11972820E+03     -1.64009360E+03
      4.09429231E+02      3.44343320E+02     -4.71247482E+02
     -6.37006454E+02      7.09861373E+02     -3.34640125E+01
     -2.77313870E+03      1.64314152E+03      5.58912823E+01
      2.84265598E+02      2.76784713E+03     -2.55092247E+03
     -4.35042091E+02      5.44473041E+02      7.22916871E+02
     -8.11009246E+02     -1.80417517E+03     -2.31298925E+03
      4.84980388E+02     -1.54629405E+03      8.67397367E+02
     -2.68305953E+02      3.14473269E+03     -2.03117096E+02
      6.87862504E+02      1.99383729E+02      9.49341332E+02
     -6.16485110E+01      1.27521907E+03     -5.59777974E+02
     -5.28038910E+02      7.92474432E+02      2.42733877E+03
      4.38083459E+02      3.99608450E+02     -1.58853605E+02
      7.06651766E+02     -7.61024002E+02      2.45282875E+03
      8.34136025E+02      1.22125252E+03      6.23266000E+02
      5.26853110E+01      5.21773435E+02     -4.87562512E+02
     -5.80380170E+02      5.84083036E+02      1.00500546E+03
     -1.92006784E+03     -1.70227452E+03     -1.62473938E+03
     -4.36031934E+02     -9.23100089E+01     -1.53186554E+02
     -5.51753566E+02     -6.29405628E+02      7.98225215E+02
     -4.17930659E+02      7.74795549E+02     -2.29139257E+03
     -2.35210539E+02     -5.52243845E+02     -1.51079823E+01
     -2.48343713E+03      1.47978768E+03     -2.40519079E+02
     -7.55458761E+02     -9.93767558E+02      1.90616014E+03
     -3.48352090E+01      2.33771299E+02      6.51738708E+02
      1.29729914E+03     -1.73032632E+03      1.76986344E+03
      3.56970505E+02      2.48669991E+03     -5.99904457E+02
     -3.51384892E+02     -7.67444016E+01      2.57629406E+02
      4.82233398E+01      8.26737965E+02     -5.65948678E+02
      8.27425134E+02      4.62601606E+02     -5.18031018E+02
      8.98686880E+01     -3.50861354E+02     -4.47282719E+02
     -1.50021193E+03      2.63553645E+03      2.02110862E+03
      9.74128085E+02     -8.81066095E+02      5.80734189E+02
      4.13717053E+02      4.34485821E+01      1.27499433E+02
     -2.13662506E+03      1.79051341E+03      9.24265344E+02
      1.28396211E+03     -2.35411481E+03     -4.95978312E+02
      1.25122174E+03      1.84832486E+03      2.57975999E+03
     -1.22512082E+02     -7.00946183E-01     -1.46490143E+02
     -2.65131364E+03      1.73722510E+03      9.42466616E+02
      1.86715346E+03     -1.97513837E+03      1.66892066E+03
      1.42533074E+03     -2.68495379E+03      1.95488644E+03
      1.01248820E+04     -1.85430407E+04     -5.56008356E+03
     -2.06737347E+03      4.20345182E+02      1.14540604E+03
      4.19164317E+02      2.06528175E+03     -1.50523405E+03
      7.28436739E+02      4.47129345E+02     -1.01396434E+03
      6.74880590E+01      9.56032030E+02     -4.17526828E+03
      1.18321881E+03      1.58874473E+03     -1.82459558E+03
     -4.22977164E+02      4.51175211E+02     -1.40891611E+02
     -4.15286943E+02     -9.09734815E+02      3.69749106E+02
     -1.75156590E+02     -1.30572682E+03     -1.23304348E+03
     -6.68469399E+02     -9.20543183E+02     -3.79764758E+02
     -1.08208794E+03     -1.47368231E+02      1.04127259E+03
     -3.11542044E+02      2.18026648E+03      1.48680524E+02
     -2.78344794E+02      5.91931093E+01     -3.28414253E+02
      2.20863837E+03      1.25467303E+03     -2.27348779E+03
      2.17270129E+01     -2.01976957E+02     -3.31243609E+02
     -7.68416797E+01      7.11732005E+02      3.02206336E+02
     -2.89303894E+03      2.57372808E+02      2.17090063E+03
     -2.81020611E+03      1.81565939E+03      9.48090477E+02
     -6.30776394E+02     -8.38569392E+01      3.31548319E+02
      1.21823937E+03      1.19535056E+03      2.35031842E+03
     -1.18231564E+03      2.62588448E+02     -1.29640615E+03
     -1.98788336E+02      3.99764896E+02     -2.85770602E+01
     -1.69422121E+03     -1.81742743E+02      1.05659277E+03
     -4.35447675E+03     -1.62978222E+03     -1.60607994E+03
     -1.11660934E+02     -1.91371133E+02     -1.43559692E+02
      9.34342138E+02      1.21320179E+03      1.23936740E+03
     -1.52477081E+02      1.21832842E+03      3.36111972E+02
     -3.20695770E+03      3.20080437E+02     -4.49711204E+02
      2.63538977E+02      4.69856647E+02      5.47223228E+02
     -7.33012811E+02      3.12535437E+03      9.18109696E+02
     -1.31561846E+03     -1.48769063E+02     -3.19069690E+02
      8.78106667E+02     -4.03499567E+02      1.05913513E+03
  }
}

Hamiltonian = DFTB {
  SCC = Yes
  SCCTolerance = 1e-6
  MaxSCCIterations = 200
  ForceEvaluation = Dynamics
  MaxAngularMomentum = {
    C = "p"
    H = "s"
  }
  Charge = 0.0
  SpinPolarisation = {}
  Eigensolver = Standard {}
  Filling = Fermi {
    Temperature [Kelvin] = 300.0
  }
  SlaterKosterFiles = Type2FileNames {
    Prefix = "../../pbc-0-3/"
    Separator = "-"
    Suffix = ".skf"
    LowerCaseTypeName = No
  }
  KPointsAndWeights = {
    0.0000000000000 0.0000000000000 0.0000000000000 1.00000000000000
  }
  Dispersion = LennardJones { 
    Parameters = UFFParameters {}
  }
}

ParserOptions = {
  ParserVersion = 3
}
