Geometry = GenFormat {
<<< "system.gen"
}

Driver = VelocityVerlet{
  Steps = 50000
  TimeStep [fs] = 0.2
  MDRestartFrequency = 5
  Thermostat = None {
    #InitialTemperature [Kelvin] = 300.0
  }
  Xlbomd{ 
    IntegrationSteps = 6 
    MinSccIterations = 2
    MaxSccIterations = 200
    SccTolerance = 1e-6 
  }
  Velocities [m/s] {
      1.29011845E+03     -2.12548075E+02     -5.46847798E+02
      3.53175599E+03     -1.91666510E+03      1.72602210E+02
     -3.72915648E+02     -1.39447213E+02      5.05607987E+02
     -3.65079151E+02      1.50610325E+02     -4.31560905E+02
     -1.37030940E+03      1.68398001E+03     -7.60355733E+02
      1.09393889E+03     -4.00638277E+03      2.37608448E+03
     -2.20770696E+02      2.26022484E+02     -5.69661146E+01
     -1.46740342E+03     -3.81634597E+03      1.09704354E+03
      1.92228783E+03     -2.73108005E+03     -1.33051462E+03
      5.11345247E+02      1.03431808E+03      3.28149820E+02
     -1.77524239E+02      3.19974119E+03     -1.53279538E+03
      2.01880321E+02      4.36282349E+03      2.33292781E+03
     -3.39948196E+02      1.54671209E+01      4.05990610E+01
      8.06024363E+01      1.31092385E+03      4.99702279E+01
     -2.39594775E+03     -1.27123504E+03     -2.39764796E+03
      1.08045436E+02      4.09038633E+02      1.41177274E+02
     -3.95868785E+01     -6.53381230E+02     -1.83318668E+03
     -2.17363962E+02      1.55206802E+03     -4.04118013E+03
      9.91385500E+02      4.51529545E+02     -5.39565718E+02
      2.65254128E+03     -8.87394027E+01     -1.30366082E+03
     -3.43754030E+03      1.01746677E+03     -6.84862213E+01
     -2.17791074E+01      5.79865732E+01      1.18951957E+02
      2.38168757E+03     -9.74959332E+02      2.61283314E+03
     -1.24497013E+03      2.36238335E+03      1.03881983E+03
      3.51920212E+02      3.55870472E+02     -5.26353178E+02
     -3.21524789E+02      3.46107130E+03     -6.92074869E+02
      1.08302876E+03      4.52613049E+02     -7.99450995E+02
     -6.20158237E+02      2.36072859E+03      5.38395925E+02
      5.77117210E+02      3.02231312E+02     -5.86976759E+01
      1.09599706E+03     -1.08972949E+03     -2.08471081E+03
      5.62118633E+02     -1.06453341E+03     -1.82150525E+03
     -1.38332190E+03      1.74523007E+02     -1.48292868E+03
     -1.55175988E+02      4.43674683E+02      2.09465733E+02
     -1.43428429E+03      6.52836940E+02     -1.59150058E+03
     -3.72653273E+03      1.20261835E+03     -9.14115413E+01
     -1.73979470E+02     -6.01711277E+01     -2.50680172E+02
      1.65638265E+03      1.33754075E+03     -1.22491187E+03
      9.90457380E+02      2.02174511E+03     -1.26169443E+03
     -2.67969171E+01      4.66185599E+02      1.21689157E+03
     -1.46739563E+03     -1.35110707E+03     -7.45140859E+02
      1.46966740E+03      1.33211035E+03     -6.59809195E+02
      5.11360030E+02     -2.38043156E+02      5.16293041E-01
      4.63771649E+01     -1.05005840E+02     -1.00228632E+03
     -8.69932682E+01     -6.00798196E+02      1.30548851E+03
     -6.61998111E+02      2.95239661E+02     -6.56787225E+01
     -8.18173681E+02      1.73525617E+03     -1.05265602E+02
     -1.37307191E+02      1.02690959E+03      1.20579960E+03
     -1.59732290E+04     -9.70420871E+03      1.12111476E+04
     -1.16891244E+03      3.36570344E+01      4.52494126E+02
     -3.66470045E+02     -1.77627784E+02      3.26872636E+02
      5.06199777E+02      3.09603470E+02     -4.47139080E+02
     -3.81358276E+02      1.76785403E+03      2.00853517E+03
     -7.56002790E+02     -1.09529798E+03      1.20347835E+03
      4.17319261E+02      7.27763483E+02     -1.96769924E+02
      1.82882727E+03     -7.94366723E+01      8.02949306E+02
     -4.62337845E+02      7.62554380E+02      1.57223914E+03
     -7.14937756E+01      4.80075163E+01     -1.81694119E+02
      1.84296414E+03      4.55966390E+02     -9.44539214E+02
      2.96660568E+01      1.14550177E+03     -8.82375110E+01
     -2.53596054E+03      4.95894326E+02      1.60101986E+02
     -3.25458409E+02      1.07173748E+02     -5.16565736E+02
     -8.20290814E+02     -1.13959600E+02      2.15404962E+03
      6.47342419E+02     -2.94595512E+03      1.00571671E+03
      2.66900297E+03     -3.31619150E+00      1.49890101E+03
      7.86045063E+02      2.12146164E+02     -3.29830798E+02
     -2.33238871E+02     -1.96968437E+03      3.99626101E+02
      7.04350071E+01     -7.25318375E+02      7.56594759E+02
      4.12740453E+02      4.02157102E+02      2.87682617E+02
     -3.39599778E+02      2.05448915E+02     -7.24002473E+02
      2.44104886E+03     -7.70383392E+02     -3.29368607E+03
      1.34922622E+02      5.63037498E+02      7.11844868E+01
      6.97748089E+02      1.49130815E+03     -1.24070039E+03
     -1.68724755E+03     -2.83191451E+02     -3.90666419E+03
     -1.61742410E+02     -9.70810244E+01      3.94043440E+02
     -6.08916322E+02     -1.32098676E+03     -1.99000386E+03
      7.24953383E+02     -3.75824439E+03      7.28741557E+02
      4.62634455E+02      2.57742806E+02      5.54107030E+01
      8.15837812E+02     -1.53533573E+03     -1.05018459E+03
      2.11299532E+03      5.67382359E+02     -9.07643931E+02
     -5.56355799E+02      4.39259003E+02      6.40162074E+02
     -2.08204610E+02     -1.87381934E+03     -1.17371821E+02
      2.39420599E+03     -6.45108293E+02      7.04609787E+02
      4.75457066E+02     -1.53460793E+02     -3.53039565E+02
     -8.16836040E+02      1.16501572E+02     -1.78398902E+03
      7.20188230E+02      1.54622395E+03      3.05546531E+03
     -3.82225480E+02      5.05901451E+02     -7.05191737E+02
      2.16898637E+03     -2.05391298E+01     -2.95296911E+03
     -2.69550064E+02      8.95154444E+01     -1.42728285E+02
     -7.58920860E+02     -2.91480413E+02      4.59399967E+02
     -9.61526588E+02      9.49607208E+02      1.01193250E+03
     -1.37666953E+02     -4.73222279E+02      5.88155207E+02
      4.45905274E+02     -1.49710054E+03      1.69826901E+03
     -1.93830212E+02      2.03922480E+02      6.58010113E+01
     -2.54038485E+03      1.03914337E+03      2.49450918E+03
      1.28227723E+03     -1.39280428E+02     -7.27904412E+02
     -2.64509315E+03     -1.49319847E+01      1.36079769E+03
      3.75585553E+02     -1.55346271E+02      9.48217805E+00
      1.56400845E+03      1.71040008E+03     -1.26941258E+03
      5.71187128E+02      4.72049148E+00     -1.32146560E+03
      7.48469896E+02      3.83654205E+02     -1.00977687E+02
      4.20013535E+02      8.78080453E+02      2.08223129E+02
     -1.78127699E+03     -1.15293765E+03      3.79256841E+02
      3.09472766E+02      2.87116801E+02      7.04735064E+01
      2.44445118E+01      2.34138290E+03     -1.84973851E+03
      2.23908354E+03      1.07553090E+03     -1.39955211E+03
      6.17571688E+02      1.08286662E+02     -2.58431875E+02
      1.24940587E+03      4.01494354E+02      2.77665734E+03
     -3.04458501E+03     -4.42379452E+02      2.48984155E+03
      6.29309005E+02      2.98584788E+01      2.02909375E+02
      3.58003512E+03      3.00145360E+03     -6.73131829E+02
      3.70925622E+03      4.06586334E+02     -7.28302675E+02
     -5.30112611E+02      3.84507194E+02     -1.92286971E+02
      6.62128458E+02     -3.90028570E+02     -4.13517402E+02
     -1.62232301E+03     -2.15035749E+03     -1.37291740E+03
      5.66459355E+02      1.31476625E+01      4.65494480E+02
     -1.09697915E+02      2.58270818E+03     -3.78027850E+02
     -2.85348629E+03     -3.20757960E+03     -2.25500195E+03
      8.89787522E+02      8.73611192E+02     -9.88062076E+02
      9.38656561E+02      2.45105133E+02      1.81384357E+03
      1.99566557E+02     -1.54735576E+03     -2.82591182E+03
      3.40634611E+02     -4.67690325E+01      4.13320855E+02
      8.95553709E+02      1.05071316E+03      5.28845465E+02
     -1.92607001E+03      3.87553512E+02      3.44293883E+03
      7.66174221E+02     -6.38653782E+02      1.16898415E+03
     -1.71604602E+02      6.04841517E+02      8.05090290E+02
     -1.30355501E+03      5.47289158E+01      2.66094821E+02
      2.58629895E+03      1.63659511E+03     -2.10874679E+03
      3.14405164E+03      1.12649197E+02     -5.51792451E+02
     -5.45819668E+01      2.24299349E+02      5.62957829E+02
     -1.75354480E+03     -1.79587856E+03      6.29123754E+02
     -7.50850858E+01     -3.71018111E+02     -2.91864896E+03
      3.96491322E+02     -9.70649578E+01     -3.09106669E+02
      3.32771859E+03     -3.78074337E+03      5.84490065E+01
      5.48308268E+02     -9.34230012E+01      1.17718999E+03
     -3.31357889E+02      6.62945973E+02     -3.84768978E+02
      7.93224448E+02      1.27609348E+03      7.10225352E+02
     -2.00731996E+03      9.22875174E+02     -1.36890914E+03
     -3.72881755E+02      1.19960101E+02     -4.12125469E+02
     -6.23446501E+02     -1.37405207E+03     -2.16597843E+02
      2.30477127E+03     -1.77916043E+02     -2.94381927E+03
      9.63573902E+02      1.52710152E+02     -4.53041885E+02
     -2.71532162E+03     -3.48503331E+03     -1.05451901E+02
     -6.28809707E+02      6.03085821E+02     -1.82452783E+03
      3.63215244E+02     -4.61816510E+02     -1.90271345E+02
     -4.53839432E+03      6.32265857E+02      6.72297359E+02
     -2.97123591E+03      6.22693768E+02     -2.23734118E+02
      1.64904061E+02      4.43255953E+02      4.26708878E+02
      1.11090288E+03      1.09148072E+03     -1.92668280E+03
     -2.26984188E+01      6.24294128E+02      6.94499474E+02
     -1.12545070E+02      6.23806220E+02     -2.30251748E+00
      1.09423866E+03     -4.42519395E+02      1.35053536E+03
      3.35561449E+03     -6.38520962E+02     -2.20646828E+03
      1.31096260E+02     -1.29190701E+02     -1.75328848E+02
      1.15455011E+03     -1.82052234E+03      6.34788124E+02
      1.58328771E+03     -1.61305900E+03     -6.49131355E+02
     -2.54799958E+02      1.42287726E+03     -4.13997999E+03
      8.46126329E+02      2.48732727E+01     -3.12302014E+02
      1.17722079E+03     -5.74106345E+02     -1.29912798E+03
      1.64579493E+03      3.55248046E+02     -9.66499883E+01
     -1.52005547E+02      1.17088315E+03      5.07595170E+03
     -1.39811156E+02      1.95692137E+02      3.88142185E+02
     -1.59821727E+03     -1.79489769E+03      2.30994808E+02
      7.33232438E+02      1.61828458E+03     -6.32026133E+02
     -1.25566900E+02     -5.20388794E+02     -9.47428980E+02
     -2.21545331E+03     -4.80655492E+02     -5.20548440E+03
     -1.17635309E+03     -1.88339204E+03      2.73797836E+03
      6.76831280E+02     -9.53307064E+02     -1.54241954E+02
     -1.82025742E+03     -1.25740993E+03     -1.40091712E+03
      2.72830789E+03     -3.46957379E+03      1.66777734E+03
      2.70579779E+02      9.17190586E+02     -2.02974537E+00
      7.04406483E+02     -1.76618353E+03     -3.37256190E+02
      1.09033661E+03     -1.69921969E+03      2.10577793E+03
     -1.75907623E+02     -4.08891000E+02     -2.65135183E+02
     -1.39347602E+03      1.07012375E+03      1.10426682E+03
     -1.70566996E+03      7.03114167E+02      5.57813183E+02
     -4.32431147E+02     -6.76536845E+02      3.61225864E+01
      3.85315621E+02      2.43533044E+03      2.68359856E+03
      2.34743587E+03     -2.39122934E+03     -4.30200189E+02
     -3.06567180E+02     -2.98978893E+02     -2.47782970E+02
     -4.10234719E+02      4.78306753E+02     -7.63909371E+02
     -2.06441967E+03     -1.04603984E+03     -1.33446157E+03
     -5.83391319E+02     -1.49642534E+02     -2.19325169E+02
     -5.36480284E+02     -8.15326163E+02     -1.94741652E+03
     -7.11085501E+02      1.02373244E+03     -5.67576549E+02
      8.31228483E+02      7.29335768E+02      1.05490684E+02
     -9.56648730E+02      2.56963193E+03      4.00717912E+02
      1.56855855E+03     -3.56337408E+03     -5.39763426E+02
      3.10200357E+02     -2.76484003E+03     -2.52615547E+03
     -1.44243520E+02     -1.59975718E+02      7.86001968E+02
     -1.60706154E+03     -6.36736542E+02     -4.33122379E+02
      1.52426319E+03     -1.11014847E+03      1.02063862E+03
     -4.29386839E+02     -3.58226633E+01      1.39043885E+03
      6.37840173E+01     -4.10399532E+02     -4.86593308E+02
      1.88462890E+03      2.25595695E+03     -2.86720995E+03
     -4.06048414E+02      1.24940785E+03      1.06512063E+03
      4.20618042E+02     -3.00094729E+02     -2.68010350E+02
     -1.67440321E+01      1.25748193E+02     -1.67015147E+02
      2.73237026E+03      2.28134058E+02     -3.85848792E+02
     -3.40680410E+02     -2.18347202E+02     -2.75899339E+02
      1.96980358E+03     -5.03141257E+02      2.57165875E+03
     -4.57538816E+02      2.26662242E+02      5.72736815E+02
      6.04074613E+02      1.46766599E+02     -3.57127211E+02
      1.46277614E+03     -4.30680195E+02      2.08902710E+03
      6.16033344E+02      2.11400095E+03      1.14767957E+03
      7.05267696E+02      1.01413676E+03      4.17906378E+02
      7.19734186E+02     -1.23109815E+03      6.32960300E+02
     -2.24889702E+03      1.06745333E+03     -1.02710279E+03
     -1.29707363E+00      5.58190526E+02     -7.01963841E+02
      1.55883924E+03      1.43607626E+03     -2.86063131E+03
      9.84468395E+02     -2.03032730E+03     -4.51374105E+02
      3.24558951E+02      7.42386260E+02     -6.26058069E+02
     -1.82226850E+03     -5.55367205E+02     -1.76605141E+02
      7.60583046E+02      2.14503377E+02     -7.91817468E+02
      1.18726455E+02      2.09031818E+01     -7.74066050E+01
     -2.80395456E+03     -6.46319386E+02     -9.27995759E+02
     -9.67493368E+02      1.32110862E+03     -3.19707677E+02
     -3.04340007E+02     -4.66005911E+02      2.63815150E+02
      1.08776024E+03     -1.14623044E+03      1.22128112E+03
      1.01053441E+03      1.50555779E+02      8.59437033E+02
     -3.25654907E+03     -5.18564242E+02      4.39420378E+03
      2.09139944E+02     -1.16447955E+03      2.98544426E+02
     -2.42450592E+02     -2.06557658E+03      1.64242437E+03
     -4.17052662E+03     -1.11720270E+03     -2.18338382E+03
      6.85782738E+02     -4.62209973E+02     -1.40177718E+03
     -1.48244670E+02     -1.07152890E+01      5.70715537E+02
     -1.63109934E+02     -2.07390400E+02      7.63172970E+02
     -8.30534367E+02      3.56245250E+02      7.36693950E+02
     -6.83727346E+01     -2.78864134E+02      4.66325071E+01
     -1.62742501E+03      3.16623723E+03     -8.84822273E+02
      1.30993424E+03      1.72401392E+03      1.08939892E+03
      5.89457478E+02     -5.88341486E+02     -3.70210882E+02
      2.00571510E+03      7.67216881E+02      1.29922295E+02
     -3.41958783E+03      7.95704328E+02     -1.06996056E+02
     -6.17172497E+02      7.67396255E+01     -4.76831226E+02
      1.25380010E+03     -1.03765539E+03     -3.85541845E+03
      1.64921459E+03     -1.82580587E+03     -4.45561636E+01
      3.42635097E+01     -4.29454563E+02     -2.09862203E+02
     -1.73563288E+03      1.19579446E+03     -2.34849528E+03
     -2.11803126E+01     -1.75610207E+03     -5.82070015E+01
      4.68545840E+02     -2.85919608E+02     -3.48930805E+02
      2.56949135E+03      2.25163128E+03      1.12890939E+03
      7.78748122E+01      7.19402424E+02     -4.44576462E+01
      3.66320532E+02     -2.58746415E+01      3.46475623E+02
     -2.12780233E+03      1.09364488E+03      2.31830437E+03
      1.89544282E+01     -1.83621866E+02     -3.05974425E+03
     -6.94115452E+01      8.95424918E+02     -6.39820046E+02
     -1.05936854E+03      1.85456311E+03      1.39948839E+03
      2.89179160E+02      8.38215229E+02      1.25063436E+03
      7.85923076E+02      1.65593950E+02     -2.15972537E+02
      1.83916098E+03     -9.58466705E+02     -1.19330523E+03
     -1.88478947E+03      9.39280337E+02     -1.67892212E+02
      2.99576658E+03     -3.48323839E+02     -2.15845660E+03
      6.34805563E+02     -8.12320992E+01      2.36732607E+02
     -1.68724413E+03      4.99594416E+02     -1.03343133E+02
      2.66921832E+02      1.02543768E+03      2.23866109E+03
      1.49013154E+03     -1.62673143E+03     -4.06305100E+01
      2.52173277E+02     -2.31416072E+01     -4.77876024E+02
      2.60831010E+02      8.05138876E+02     -2.43585057E+03
     -1.95359248E+03      1.59896923E+03     -1.87247123E+03
      4.53904139E+02     -6.10933181E+02     -2.97106931E+02
     -4.14345567E+02     -2.54806205E+03      2.48241203E+03
      2.39471316E+03      2.35819320E+03      1.46538688E+03
      1.27382885E+02      1.00615719E+02     -8.15767946E+02
     -1.04151594E+03      2.83765933E+03     -4.14015655E+02
      2.28206813E+03      1.78227587E+02     -2.43045827E+03
      1.76731310E+01     -3.04969687E+02     -1.85922289E+02
      3.86537083E+02     -1.36167347E+03      3.50654183E+03
     -1.67631766E+03     -6.46923022E+02     -1.36243803E+03
     -3.24619065E+02     -1.04938644E+03      8.03332817E+02
     -1.84695896E+03      1.76653047E+02     -4.46723488E+02
      1.16439196E+03     -1.65119030E+03      6.82561451E+02
     -2.07166008E+02      1.97646979E+02     -4.30701935E+02
     -1.23672282E+03      1.64838400E+03     -4.53386118E+02
      2.37140500E+03      9.75462282E+02      5.81836720E+02
     -2.23982522E+02      4.85268580E+02     -2.71827575E+02
     -8.80425901E+02     -5.67701427E+02      1.26560990E+03
     -4.60664624E+02     -1.47822594E+03     -1.90707938E+02
     -8.53649453E+02      1.32773946E+02      2.59795350E+02
      2.30890763E+03      1.62518601E+02     -5.37386987E+02
      1.35093930E+03      1.73247362E+03      1.94097910E+03
      4.48244858E+02     -3.17677824E+02      6.30047454E+02
      9.35862519E+02      1.43899936E+03      1.72115615E+03
     -2.10278892E+03      4.87386578E+02     -2.49254450E+03
      4.35818661E+02     -5.43051279E+02      1.72820365E+03
      6.43995079E+02     -6.65116587E+02     -1.31779492E+03
      1.73966780E+03      1.89350523E+03     -2.61411208E+01
      4.38753212E+03     -8.21187210E+02     -1.40275703E+03
     -1.15002156E+03     -9.31542509E+02      1.80391869E+03
      8.09773940E+01     -2.20236084E+01      4.67541970E+02
     -1.26668750E+02      1.11377296E+03      4.32262469E+03
      2.13531954E+03      1.36670805E+03      2.04436050E+03
      5.56791223E+02     -1.31758617E+02     -1.01538881E+03
     -1.23496249E+03      1.53228742E+03     -9.45413540E+02
      6.88791209E+02     -1.08967738E+03     -8.01077757E+02
     -1.56393264E+02      2.44255447E+02     -5.31220156E+02
     -1.08641920E+03     -1.20437316E+03     -5.82058025E+02
      1.24163034E+03     -1.35813422E+03     -1.21551559E+03
      5.30735638E+01     -9.00305421E+02     -9.72767739E+01
      1.15535115E+03     -1.62645624E+03     -1.38327628E+02
     -1.42039228E+03      2.61938265E+03      1.48954673E+03
      6.58218979E+02     -2.57341710E+02     -4.83887202E+02
     -1.44427396E+03      1.78364091E+03     -1.41545265E+01
     -2.32842147E+03     -4.40025240E+02     -2.29718623E+03
      5.65089174E+02      3.17141935E+02     -3.32333763E+02
     -1.42150996E+03      1.31322662E+03      8.42946020E+02
     -1.98439286E+03      2.15622155E+03     -2.01008170E+03
     -3.48116960E+02     -7.25968277E+02      1.51489535E+02
      6.82602656E+02     -1.30801141E+03      1.13963182E+03
     -1.41026669E+03      1.27303643E+03     -1.08626298E+03
     -7.82201371E+02      5.49084700E+02      9.13686182E+01
     -1.58307453E+03      6.10768639E+02      1.19737098E+02
     -1.55422293E+03     -7.59989893E+02      1.35589531E+03
     -6.18709303E+02      5.41705853E+02      5.33619281E+02
     -9.15356703E+02      6.07254782E+02     -4.40146297E+02
     -6.37122189E+02      2.84541405E+03     -2.11011987E+03
     -2.06311798E+03     -2.49201216E+02     -1.33365009E+03
      7.82429643E+02      8.45652018E+02     -7.20839625E+02
      1.41000869E+03     -1.97449550E+03      1.70978045E+03
      2.11458492E+03     -3.18991700E+03      2.21279341E+03
     -1.09856778E+03     -9.02553669E+02      1.42189111E+03
      3.68987050E+02     -3.39207746E+02     -1.26040236E+03
      1.93487623E+03     -3.79860013E+03     -1.80311929E+02
      1.36275960E+03      2.05342019E+03      1.75166843E+03
      4.90430164E+01      3.10900488E+02      9.92007569E+01
     -1.28404305E+03     -8.12067687E+02     -1.97575997E+02
     -3.38598231E+02     -8.77544149E+01      2.41295412E+02
      4.24999990E+02     -3.99226208E+02      8.01872960E+02
      9.17716232E+01     -1.54154413E+03      1.34527908E+02
      6.14574963E+02      1.11674884E+03      2.71955674E+03
      7.11823247E+02      1.20742068E+03     -2.19500015E+01
     -2.39923118E+02     -1.13753511E+03     -3.01045019E+03
     -7.28156902E+02     -2.74823420E+02      1.20545275E+02
     -1.05533475E+02     -2.34477996E+02     -4.02115914E+02
      6.30617918E+02      1.29294305E+02     -4.05917708E+02
     -1.28675088E+03     -2.07184417E+03     -2.23257543E+02
     -2.27253015E+02      1.11237204E+03      7.71856531E+02
      2.86856737E+03     -2.08482639E+03     -1.12615363E+03
      9.02478508E+02     -1.90523219E+03      1.18963977E+03
     -4.98020696E+02      1.72238442E+02      4.64225245E+02
      9.79549621E+02      1.43645337E+03     -7.11939089E+01
      1.37344444E+02      9.27388114E+02     -4.69591582E+02
      6.04666935E+02      1.81335366E+02      1.65298642E+02
     -4.88154117E+02     -2.71980892E+03     -1.73352421E+03
      9.59739579E+02     -1.26637693E+02      4.29489900E+02
     -2.52936936E+02      1.81651090E+01     -3.18103439E+02
     -3.97801696E+02     -1.45711491E+03     -3.18135709E+02
      1.15576724E+03      1.09076267E+03     -8.64750228E+02
      3.56882852E+03      2.36126408E+03      1.03261843E+03
     -5.44362388E+01      5.16983087E+02     -4.05192418E+02
     -2.65173528E+02     -1.13690292E+03     -5.01331866E+01
     -1.14471951E+03      1.87770778E+03      6.20200607E+02
      6.35673832E+02      4.55658322E+02     -1.24001102E+03
  }
}

Hamiltonian = DFTB {
  SCC = Yes
  SCCTolerance = 1e-6
  MaxSCCIterations = 200
  ForceEvaluation = Dynamics
  MaxAngularMomentum = {
    C = "p"
    H = "s"
  }
  Charge = 0.0
  SpinPolarisation = {}
  Eigensolver = Standard {}
  Filling = Fermi {
    Temperature [Kelvin] = 300.0
  }
  SlaterKosterFiles = Type2FileNames {
    Prefix = "../../pbc-0-3/"
    Separator = "-"
    Suffix = ".skf"
    LowerCaseTypeName = No
  }
  KPointsAndWeights = {
    0.0000000000000 0.0000000000000 0.0000000000000 1.00000000000000
  }
  Dispersion = LennardJones { 
    Parameters = UFFParameters {}
  }
}

ParserOptions = {
  ParserVersion = 3
}
