Geometry = GenFormat {
<<< "system.gen"
}

Driver = VelocityVerlet{
  Steps = 50000
  TimeStep [fs] = 0.2
  MDRestartFrequency = 25
  Thermostat = None {
    #InitialTemperature [Kelvin] = 300.0
  }
  Xlbomd{ 
    IntegrationSteps = 6 
    MinSccIterations = 2
    MaxSccIterations = 200
    SccTolerance = 1e-6 
  }
  Velocities [m/s] {
     -6.42387485E+02     -5.51047083E+02      3.07159544E+01
      2.25200874E+03     -5.09897824E+02     -2.91663343E+03
      1.85272821E+03      4.19786773E+02      1.20893271E+03
     -5.33296650E+02     -5.68017177E+02      6.76628939E+02
     -2.23298793E+03     -9.51592870E+02     -2.51465990E+03
     -1.53525965E+03      1.99144926E+03      3.62129304E+02
     -3.99992225E+02     -3.16139280E+02     -9.21996552E+01
     -1.28666883E+03      2.01557012E+03     -4.30737196E+02
     -2.50718401E+03      7.73131794E+02      3.36001232E+03
     -5.64315427E+01     -1.99018260E+02     -4.10253941E+02
     -9.22298907E+02     -2.62902231E+03      1.80584567E+03
     -1.66589738E+03     -1.24776124E+03     -3.31308444E+03
      1.90663759E+02     -3.81464319E+02      4.08628787E+02
     -2.55070017E+03     -7.33014238E+02      9.22277571E+02
     -1.20449065E+03      1.30222151E+03     -2.68149402E+03
     -1.00553428E+03      3.73917861E+02     -2.50005006E+01
     -1.05729947E+02     -1.06193134E+02      6.11450981E+02
     -8.22536117E+01     -2.86872351E+02      4.06213754E+02
     -5.63622721E+02      2.25066738E+02      7.85729093E+02
     -5.06294421E+02     -6.37091373E+02     -5.18601595E+02
      3.49858846E+02      5.03918507E+02      2.78785082E+03
      5.81676868E+02      2.25632778E+02      2.15322535E+02
     -1.03339179E+03      3.78986365E+01     -2.41169465E+03
     -4.02492068E+03      7.18965835E+02     -4.34302483E+02
     -2.22299730E+02      1.09198494E+03     -1.00688300E+03
      1.47116732E+03     -1.34738988E+03      3.54305041E+03
      1.23626574E+03     -1.06623767E+03     -4.93023157E+02
      9.07503225E+02      1.27373428E+03     -1.46377649E+03
      5.79181282E+02     -6.57906260E+01     -3.85653542E+02
     -7.84578582E+02      1.43196904E+03     -3.84893691E+01
     -1.35439823E+03     -3.42975866E+02     -1.55555513E+02
     -1.15581739E+02      1.48090007E+03      3.31365636E+02
      5.09888278E+02     -3.48642640E+02      1.74001719E+02
      1.98209802E+02      1.37194382E+02     -1.16300169E+03
      7.33900400E+02      1.30540308E+03      1.36872470E+03
      2.85205878E+02      1.47079630E+02      1.37326426E+02
      2.05968889E+03     -2.69019741E+03     -1.81393896E+02
     -4.41937641E+02     -8.71897029E+02      2.53460026E+02
      4.79416938E+02     -1.98245595E+02      1.03259059E+03
      6.76062090E+02     -7.63009672E+01     -1.87188262E+03
     -7.76553987E+02     -1.71848903E+02      3.85966511E+02
      3.08486037E+02     -1.19767101E+02     -2.71560466E+02
     -2.10324802E+03     -6.12233360E+02      1.03977467E+03
     -5.35500006E+02     -2.81882461E+03     -9.60887776E+02
      9.12779145E+02     -5.40973704E+02      2.37409289E+02
      5.41194045E+02      2.13183679E+03     -7.83436888E+02
      5.10745587E+01     -8.15470101E+01     -1.81807002E+02
     -5.45702470E+02     -1.87179701E+02      2.97585799E+02
      1.95226049E+03     -1.46420979E+03     -1.34341973E+03
      8.01272500E+02      2.41823329E+02      1.28964650E+02
      1.82504997E+02      6.05194767E+02     -7.80644046E+02
     -8.11680272E+02      5.63008688E+02      3.51125330E+02
      1.60333315E+03      1.41693054E+03     -1.35835739E+03
     -9.61195154E+02      3.75173125E+02      4.67648846E+02
      7.49700997E+02     -2.30624495E+02     -2.12216314E+02
     -1.09144379E+03     -8.23698586E+02      8.74937103E+02
     -3.89876269E+02     -3.49651152E+02      9.23301312E+02
     -1.56867032E+03     -2.97018759E+03     -2.61734502E+01
     -4.54674320E+02     -1.95627374E+03      1.78823055E+03
     -4.11598685E+03     -8.53412899E+02      1.87913097E+03
      1.81128096E+01     -4.72296371E+02      1.90891341E+02
      1.49638164E+02     -1.01385935E+03      2.60075922E+03
     -2.07675930E+03      3.83563643E+02      2.32003065E+03
     -1.89507650E+02     -1.39546202E+03      2.00059868E+03
     -4.09731207E+02     -1.83820769E+02      3.54372365E+00
     -6.24984392E+02      7.51755984E+02      1.21920483E+03
     -5.62019761E+02     -7.73861080E+02     -2.25841915E+03
     -3.26501259E+02      2.17319474E+02     -1.26226499E+02
     -1.57076165E+03     -3.87358577E+03     -1.37824028E+03
      2.02053024E+03      8.98497605E+02      1.80581645E+03
      2.54028738E+02      8.93189106E+01      6.08987797E+02
      6.99353154E+02      1.21817086E+03     -6.12900567E+02
      1.79320081E+02      9.93200437E+02     -1.30624780E+03
      2.09286779E+02      3.54696346E+02     -1.06002665E+02
      2.85018541E+02     -7.98485610E+02      2.75324682E+03
      1.46703722E+03     -1.72424318E+03      4.56520590E+01
      1.25485133E+02     -4.73040581E+02     -1.12039312E+03
     -1.52428189E+03      3.78403527E+02     -6.14875273E+02
      6.09129726E+02     -2.07165773E+03      2.59465682E+02
     -6.51765352E+02      1.85408075E+02      3.76139732E+01
     -2.14632991E+03     -2.02687105E+03      2.55733375E+03
      1.96676529E+01     -4.30872082E+02     -1.13906393E+03
      6.99327967E+02     -4.75773209E+02     -5.56135974E+02
     -1.56042292E+03      1.11756145E+03      1.70475872E+02
     -3.23390866E+02     -6.74602953E+02      1.10601916E+02
     -5.37290451E+02     -4.38262520E+02      2.33936580E+02
      7.23911986E+02      1.09358596E+03     -8.49226356E+02
      3.30997021E+03     -7.53218814E+02     -1.54225827E+03
     -7.59783840E+02      1.06376117E+03      5.29426492E+02
     -1.78241731E+03      2.19902484E+02      1.20898898E+03
      5.57849518E+02     -3.18498964E+03     -7.37246197E+02
     -8.82120475E+02      7.28980170E+01     -6.59515089E+02
     -4.36415922E+02     -4.44916721E+02      5.66845833E+02
     -2.67477646E+02     -2.27823244E+03     -1.43247483E+03
      9.19647306E+02      8.86651058E+01     -1.41479219E+03
     -7.76641581E+02      4.10121495E+02     -8.09281724E+02
     -3.17461496E+02      1.83724033E+02      8.19609168E+02
      8.78331497E+02     -2.30823134E+02     -1.47486396E+03
      2.00994604E+03     -1.47158602E+03     -1.09290806E+03
     -6.15782891E+02      4.78189623E+02      3.30830422E+02
      8.04553367E+02      1.47346342E+03     -1.18668584E+03
     -5.79753866E+02      2.09698981E+03      3.07761081E+03
      1.89809045E+02      4.53307214E+02     -8.77039492E+02
      2.09393507E+03     -1.24907368E+03     -1.71896429E+03
      1.08889826E+03      1.11609158E+03      9.68222907E+02
     -4.46270176E+02      2.22753585E+02      1.35626211E+02
      2.67021106E+02     -5.95642568E+02      1.18704199E+03
     -1.18485665E+02     -2.51107869E+03     -1.60054144E+03
     -4.17445092E+02     -3.64382004E+02      5.21839964E+02
     -1.84276469E+03      3.86893775E+02     -1.97915526E+03
      2.13189436E+03      8.53759531E+02     -1.43946455E+03
      6.90836973E+02      3.47221682E+02      2.40923049E+02
      6.11871044E+02     -1.66624014E+02      6.28739894E+02
      2.09868928E+03     -7.57200135E+01     -1.91270059E+02
      2.47641053E+02     -3.57895784E+02      5.21779219E+02
      2.51287965E+03      5.13331552E+02      5.15618435E+02
     -1.71575833E+03     -2.52610708E+03     -1.27886010E+03
     -5.79210376E+02     -2.17422984E+02     -6.79077777E+00
     -7.78692138E+02     -1.38760459E+02      7.96675700E+02
      6.72984759E+02      1.79394474E+03     -4.59226913E+02
     -4.15161017E+02     -3.30022027E+02      4.30398618E+02
      4.08545800E+02      5.58729601E+02     -1.96321992E+03
      1.04788345E+03     -7.39184456E+02      3.50956711E+01
     -3.27337672E+03     -9.24288037E+02      2.48913050E+03
     -6.29994708E+00      2.81260313E+02      9.91549929E+00
      6.11441911E+02     -2.05801708E+03      4.25411096E+02
      2.62232352E+03     -4.92607113E+02      1.40679811E+03
      1.14262267E+03     -3.39555625E+01     -9.34937334E+02
     -7.89994943E+02     -1.34416428E+02      3.93393605E+01
      2.27856502E+03      2.15519023E+03      1.09474316E+03
      1.69815217E+02     -1.22898927E+03     -8.43079672E+02
     -3.00570032E+02     -2.55322716E+02     -1.75838921E+02
     -1.22827678E+03     -6.21235517E+02     -3.60967479E+02
      5.52264402E+02      9.13321382E+01     -2.13525815E+03
     -4.72446998E+02      6.29262867E+01     -3.01873302E+02
      1.93109994E+03      1.00996904E+03     -1.93943479E+03
      1.71282443E+03      1.51742090E+03      7.80786744E+02
      1.87380452E+04      1.04092541E+04     -3.82082409E+03
      1.29161363E+03     -1.99908736E+02      6.35247237E+02
      2.39963057E+03     -2.32401453E+03     -3.46713358E+02
      6.11821610E+01     -6.55113544E+02      3.19089343E+02
      1.82790193E+03     -1.61516970E+02     -1.88172389E+02
     -3.61619700E+02     -4.87113778E+02     -3.37526453E+03
     -1.17887866E+01     -5.87129701E+02     -1.12759951E+02
      1.58538321E+03      1.88103933E+03      8.19132992E+02
      8.18318256E+02      3.56588846E+03     -1.76058210E+03
     -1.88597888E+02     -5.05762256E+02      3.99982225E+02
      7.75152170E+02     -1.13042373E+03      1.87046770E+03
      1.78610287E+03     -3.39017172E+03     -2.07167902E+03
      4.63176724E+02     -1.98695265E+02      2.56241915E+02
     -2.14623694E+03     -2.69184955E+03     -2.86405392E+03
     -1.83956821E+03     -2.73823588E+03     -9.24693485E+01
     -2.06003372E+01     -2.20518665E+02     -2.16708420E+02
     -1.22985925E+03     -2.07448865E+03      1.21040282E+03
      1.32490151E+03     -9.75287709E+02      5.71947530E+02
     -4.63833887E+02     -3.28731542E+02      4.83241454E+02
      3.00839518E+02      3.41616337E+02      2.99251584E+02
     -1.85213636E+03      5.64841097E+02      1.45987444E+02
     -2.86528538E+03     -1.34352368E+03     -1.93481188E+03
     -7.31289100E+02      1.28196554E+03      2.97272731E+03
     -3.22250276E+02      7.52901050E+02      3.66255939E+02
     -4.25385259E+02     -2.53919021E+03     -1.68459383E+02
      2.07270466E+02     -1.63133377E+03     -1.12476765E+03
     -2.59536446E+02     -3.04745055E+02     -1.01354668E+03
      2.30273629E+03      5.36886706E+02     -3.68167704E+03
      2.26079036E+03      1.53090136E+03      6.79687057E+02
      1.32353165E+01     -4.04198556E+02      7.81077972E+02
     -7.19618228E+02      2.19692270E+03      6.12105489E+02
     -1.92273014E+03      1.04836289E+03     -5.58859646E+02
      6.54841646E+01      4.80959476E+01     -1.48565392E+02
     -8.42514442E+02     -2.54140385E+02     -1.27040885E+03
     -3.22029112E+02      1.78084952E+03     -3.50828511E+03
     -1.11961511E+03      7.24422534E+01     -4.60064963E+02
      8.56659119E+02      9.80453052E+02     -8.46922640E+02
     -9.36152720E+02      2.51423354E+03      7.97211251E+02
     -4.37398311E+02     -5.06364068E+02     -3.37758665E+02
      3.23486008E+03     -5.78211832E+02      6.45184803E+02
      7.36002212E+02     -4.75715451E+02     -1.48136411E+03
      1.58426876E+02     -2.18118719E+02     -1.72695713E+02
      6.27821169E+02      1.51480450E+03     -6.72516907E+02
     -1.86461259E+03      7.74177368E+02     -2.24028640E+03
     -3.22781907E+01      2.57239039E+02      2.98979658E+02
      1.38909150E+03      1.34088182E+03      6.49486499E+02
      1.71226356E+01      8.54034766E+02      2.15187956E+02
     -9.83350667E+01      3.40044127E+00     -6.74273179E+02
      3.03840972E+03     -1.60072246E+03     -3.11167928E+02
      1.27797180E+02      2.22455159E+03      5.94318027E+02
     -2.05464822E+03      1.03276986E+03      3.28308543E+02
      1.15098323E+03     -7.16520080E+01      1.30009558E+02
     -1.59744931E+03      2.06879710E+03      6.96189045E+02
      2.84678597E+01     -3.91638796E+00      3.12547490E+00
      2.51269063E+03      1.78644333E+03      4.41806354E+03
      5.32318165E+02     -2.52953973E+02     -1.95565459E+02
     -1.67736124E+03      5.47985245E+02      1.12902666E+03
     -1.70739529E+03     -7.16831132E+01     -1.65175530E+02
     -1.40080896E+02     -1.79254626E+02      1.34312011E+02
      1.70149449E+03     -6.56928368E+02     -3.60898749E+02
     -2.09958428E+03     -7.31984742E+02      3.94497458E+02
     -6.71054498E+02     -3.80798699E+01     -4.19729983E+02
     -5.85847231E+02     -1.48557204E+02     -1.08796671E+03
     -4.08610359E+03     -9.12819342E+02     -1.82404929E+03
     -3.78129440E+02      2.13229408E+02     -1.24768430E+02
      3.15252940E+03     -2.01814882E+03     -1.56403462E+03
     -6.81686220E+02      8.05674146E+02      1.07685848E+03
      6.19159911E+02     -3.70428219E+02      6.01268491E+01
      1.41464628E+03      7.47737714E+02     -7.06172729E+02
     -6.76094659E+02     -9.85934274E+02      3.60151589E+02
      2.76217014E+02      2.83448566E+02      7.03525531E+02
     -1.73230498E+03     -8.48985832E+01      1.71854891E+03
     -1.49200492E+03     -4.59136442E+02     -8.71204118E+02
     -1.10205910E+02     -7.56566558E+02      5.94110760E+02
     -1.43409102E+03     -1.33702837E+03     -2.12822284E+03
     -1.27873766E+03      2.47325896E+03      4.46261889E+02
      3.35391932E+02     -5.31689755E+01      2.05191285E+02
     -2.21593015E+03     -7.11190014E+02      4.86005251E+03
      2.09892016E+03     -2.13788239E+03      5.70495428E+02
      1.34539319E+02     -4.80015240E+02     -3.03343789E+02
      2.50964052E+03      1.05659593E+03      1.80811493E+03
     -4.55254744E+03      4.47451637E+00      1.88276851E+03
     -3.65835834E+00     -5.32704819E+02      3.66773650E+02
     -1.24066010E+02      7.08825988E+02      7.01783399E+02
     -2.29563334E+03      3.08947344E+03      1.70774433E+01
     -1.86853955E+03     -4.32750597E+02      4.03117987E+03
     -3.41862305E+02      4.84025011E+02     -1.30155204E+03
     -8.69561463E+01      2.56231223E+02     -2.73285597E+02
      2.73144460E+02      1.67783256E+02     -1.61933626E+03
     -3.45923584E+03     -1.47573241E+03      1.10365276E+03
     -6.52010465E+02     -8.07467333E+02      6.51691398E+02
      1.68953101E+03     -1.64033398E+03      3.48334517E+02
     -5.26884594E+01     -5.84973379E+01     -2.46085513E+02
      1.54526170E+02     -8.24013249E+02     -4.48356208E+01
      3.33478233E+02     -1.69849516E+03      2.56663734E+03
      1.51190873E+03      7.66154997E+02     -1.23972738E+03
     -7.32455595E+02     -7.46382229E+02      3.43401371E+02
      8.62839505E+02      1.02142295E+03     -5.00487269E+02
     -1.43251082E+02     -2.25224389E+02     -6.63485627E+02
     -8.79334466E+02     -1.10593806E+03      3.04328993E+02
     -9.88780883E+02     -1.29228710E+02     -1.82473097E+03
     -7.30790372E+01      1.32213171E+03      1.73171001E+03
     -3.83350944E+02     -3.45141755E+02      3.79471075E+02
      2.17108089E+03     -9.86046663E+02     -5.50198406E+02
      6.23307489E+02      1.69986068E+02     -2.24755063E+03
     -6.19291590E+02      4.18555433E+02      1.43180130E+01
     -3.66405659E+03     -2.95908367E+02     -1.97110657E+02
     -8.31433479E+02     -1.60899997E+03     -1.18615401E+03
      5.81476229E+02      6.05412099E+02      8.04828293E+02
      1.49329469E+03     -7.82499519E+01      7.01312486E+02
     -2.11815703E+03      2.31787773E+01      4.61041579E+01
     -1.72794636E+02      5.34533187E+02     -3.03812193E+02
     -1.71330495E+03      1.42803588E+03     -1.16270693E+03
     -2.08473847E+03     -2.16921372E+03     -1.36304699E+03
     -1.66925869E+02      1.44974534E+03     -1.19798828E+03
      2.11587412E+02      2.15533997E+00     -4.97762443E+01
     -1.91328227E+02     -5.22272860E+02     -6.18200212E+02
      3.25752491E+02     -2.12644234E+03     -1.33054767E+02
     -2.19874302E+03      2.59828933E+03      9.02596129E+02
     -3.92202701E+02      1.21290164E+02      1.67642885E+01
     -4.33045385E+03     -2.16284767E+03      1.95107400E+03
     -5.10101179E+02     -1.10606066E+03      1.39999584E+03
      2.50421966E+02     -1.10780520E+02      6.17097785E+01
      9.88890870E+02     -1.81271041E+02      1.13718212E+02
     -1.43099193E+03     -9.50575881E+02      2.27810244E+02
     -7.17683310E+02      5.89002026E+02     -5.32938974E+02
      7.37861090E+02     -1.52712016E+03     -2.47415163E+02
     -3.14880048E+03     -1.86021967E+03     -6.00522968E+02
     -4.22171550E+01      3.69421232E+02     -3.28122633E+02
     -2.14383089E+03     -2.35087734E+02     -8.74634626E+02
      1.67666064E+03     -1.07021090E+03     -1.61378676E+03
     -6.39399167E+02     -3.63639587E+02      4.41187864E+02
      6.60253772E+02     -2.53002740E+03      1.21374943E+03
      3.37230200E+02      5.71827017E+02      8.45153219E+02
     -2.71711590E+02     -3.75735021E+02     -2.35546601E+02
     -1.36963428E+03      1.29468237E+03     -2.14677767E+03
     -2.79310061E+03      1.31646472E+02      1.83456432E+02
     -4.74164221E+02     -3.18373754E+02      4.30114741E+02
      9.12608774E+02      6.91955546E+02     -7.53518015E+01
     -8.58517517E+02      5.80410386E+02     -3.12484248E+03
     -4.83589176E+02      1.71294013E+02     -3.64407041E+02
      3.92938573E+02     -3.90271103E+03      1.12971431E+02
     -5.30582026E+01      1.63802396E+03     -1.38953340E+03
      2.47281855E+02     -4.47700306E+02     -7.25580455E+01
      7.14882623E+02      3.75384954E+02      3.46804244E+03
     -4.19080044E+02     -8.65858047E+02      4.55704685E+02
     -1.60753582E+03     -2.43985085E+02     -1.24216515E+03
     -6.27769268E+02     -4.12761802E+02     -8.37727451E+02
     -1.23668767E+03      2.05631509E+03      1.07327210E+03
      1.46282270E+03      6.48637958E+02     -3.53114730E+03
      5.58368593E+02      1.21083767E+02     -1.10211177E+03
     -2.51920811E+02      4.24825289E+02      4.84866228E+02
     -1.39896225E+03      5.00748436E+02      1.70180317E+03
      1.02717247E+03      4.77748100E+03      1.21951818E+03
     -1.53069733E+02     -8.82820007E+02      5.62116177E+02
      1.74838277E+03     -1.22094139E+03      2.74510606E+02
     -1.17254538E+03      3.76280728E+03     -6.80266047E+02
      1.15452355E+02     -1.82242895E+02     -1.77526933E+02
      1.61153071E+03      5.20689557E+02     -6.14571957E+02
     -2.26502050E+03     -9.43764924E+02     -4.12183529E+03
     -6.85151259E+02      3.14658416E+02      5.91088774E+02
     -1.29640162E+03     -1.52058725E+03     -8.50517989E+02
      2.42627827E+02      1.02160143E+03     -2.70387323E+03
      1.91900639E+02      1.95703044E+01     -2.52020167E+01
      8.11967342E+02      2.02215058E+03     -3.46912080E+03
     -2.22116100E+02      2.66281587E+03     -1.81079811E+03
     -8.70837489E+02      1.03157117E+02     -7.86985841E+02
     -8.09024109E+02     -3.03925357E+02     -8.12202975E+02
     -3.95831993E+02      4.45953053E+02     -5.84243822E+02
     -1.23703747E+02     -3.79045265E+02      2.17349102E+02
      7.22471998E+02      1.19827640E+03     -1.75171186E+03
     -3.73133609E+02     -5.12775461E+01     -9.87775325E+02
     -4.62718946E+02      5.88019546E+02      4.36049100E+02
     -3.72600162E+03     -1.98548246E+03     -1.63600476E+03
      2.77373415E+03      1.31367832E+03      3.31068797E+03
      4.59903866E+02     -3.13959101E+02     -2.31133825E+02
      6.70039582E+02      1.74369193E+02     -1.93204121E+03
      6.21332691E+02      8.14954945E+02      8.55523046E+02
     -1.30098303E+03      6.30731767E+02     -6.10757081E+02
     -4.79543559E+01     -2.00210724E+02      3.98238484E+02
      1.98981535E+03      1.34378379E+03      7.42785626E+02
     -1.30018647E+02      1.23287848E+03     -1.87781720E+03
     -5.98479955E+02     -4.32723664E+03      2.50866314E+02
     -4.64087136E+02     -2.26166073E+02     -5.60902705E+02
     -4.69495263E+02     -7.24595574E+02     -1.15680303E+02
      1.27970664E+03      2.38821621E+03      1.09947811E+03
     -6.36302051E+02     -6.57959573E+02      9.61215338E+01
     -6.78264612E+02     -2.04461340E+03      1.83107794E+01
      6.07590248E+02     -5.30390474E+02     -1.39700508E+03
     -1.32320893E+03      1.46055404E+02      2.07519197E+02
      1.96225059E+03     -2.45524023E+03     -5.21012250E+02
      7.10023518E+02      1.50863320E+03     -4.36542003E+02
     -5.95910044E+02     -3.98216366E+01      2.35227836E+02
      3.30608155E+03     -3.58440007E+02      2.46593886E+02
     -7.13716197E+02     -5.56111588E+02      2.13825770E+03
     -1.30976326E+02      2.71163766E+02      9.75600768E+01
     -8.85187568E+02      1.64674660E+03      2.34817162E+03
      4.27396179E+02      1.53099821E+03     -1.51455320E+03
     -5.46345077E+02     -1.40858177E+02      1.36559350E+02
     -6.69789587E+02      1.03604321E+03      1.22496000E+03
     -1.16086094E+03      1.54769673E+03      1.08898731E+03
      9.90408362E+02     -5.68757669E+01     -4.82335090E+02
      1.40291488E+03     -2.01788603E+03      3.98444202E+02
     -6.57282769E+02     -4.85692334E+02      3.95299995E+02
      3.34656929E+02     -5.78972427E+02     -9.54602946E+01
     -5.42615047E+02     -2.04333771E+03     -1.03116757E+03
      2.14916481E+03      1.63936806E+03      4.74199653E+01
      3.36192880E+02      5.04374520E+02     -5.27448048E+02
      1.59532048E+02     -6.44081009E+02      1.71657646E+03
     -9.09674856E+02     -1.99254667E+03      2.49304012E+03
     -1.21715256E+02      1.62242678E+03      1.45110377E+03
     -1.72665644E+02     -4.25795037E+02     -3.04329520E+02
      1.28605831E+03      8.92852591E+02     -6.22165489E+02
     -4.86784045E+03      1.37382891E+03     -2.12818808E+02
     -1.53095419E+03     -2.13662253E+03      6.57009074E+02
  }
}

Hamiltonian = DFTB {
  SCC = Yes
  SCCTolerance = 1e-6
  MaxSCCIterations = 200
  ForceEvaluation = Dynamics
  MaxAngularMomentum = {
    C = "p"
    H = "s"
  }
  Charge = 0.0
  SpinPolarisation = {}
  Eigensolver = Standard {}
  Filling = Fermi {
    Temperature [Kelvin] = 300.0
  }
  SlaterKosterFiles = Type2FileNames {
    Prefix = "../../pbc-0-3/"
    Separator = "-"
    Suffix = ".skf"
    LowerCaseTypeName = No
  }
  KPointsAndWeights = {
    0.0000000000000 0.0000000000000 0.0000000000000 1.00000000000000
  }
  Dispersion = LennardJones { 
    Parameters = UFFParameters {}
  }
}

ParserOptions = {
  ParserVersion = 3
}
