Geometry = GenFormat {
<<< "system.gen"
}

Driver = VelocityVerlet{
  Steps = 50000
  TimeStep [fs] = 0.2
  MDRestartFrequency = 5
  Thermostat = None {
    #InitialTemperature [Kelvin] = 300.0
  }
  Xlbomd{ 
    IntegrationSteps = 6 
    MinSccIterations = 2
    MaxSccIterations = 200
    SccTolerance = 1e-6 
  }
  Velocities [m/s] {
     -1.10874004E+03     -9.84758359E+02      3.24027001E+02
      4.24549981E+02     -6.96657143E+02      3.35266746E+01
     -1.88405006E+02     -2.30906310E+03     -1.44298928E+03
      4.38692086E+02      7.69730752E+01     -1.22791187E+02
     -7.75960739E+02     -2.73224612E+03      6.44876369E+02
      3.11944398E+03     -1.21439711E+03     -5.83602116E+02
      2.05092694E+02     -8.44176135E+02      8.04839242E+01
      4.43063999E+03      4.47187526E+02     -1.99087257E+03
     -4.30806577E+02     -2.12917996E+03      6.51694701E+02
     -2.18906126E+02      5.07290821E+02      1.59332477E+02
      7.52651450E+02     -2.54554114E+02     -1.97845945E+03
      2.04029783E+03     -1.48032876E+03      1.86301733E+03
     -3.63914544E+02     -3.58838058E+02     -1.51064849E+02
      1.37707108E+03     -1.72216946E+03     -3.23039930E+03
      1.91134623E+03     -3.94946752E+02      1.17971239E+02
     -1.12506909E+03     -7.76380838E+02     -4.79011722E+02
      3.46889486E+01      3.97354121E+03     -1.42806474E+03
     -2.28135145E+03     -4.20346888E+02     -5.43922614E+02
      7.77568277E+02     -2.01846561E+02     -4.85933521E+02
      1.13710090E+03      1.86796473E+03      1.89650892E+03
     -2.99860243E+02     -6.38181069E+02      6.47203691E+02
     -4.96860960E+02     -3.65868388E+02      9.68639593E+01
      1.93682943E+03      1.59049114E+03      1.57077497E+03
     -4.97460032E+02      4.08711849E+02      2.06487266E+02
      2.23055781E+02      1.25765738E+02     -3.90232261E+01
      1.67359311E+03     -3.80264942E+03     -5.53581976E+02
      6.86265301E+02     -5.45615607E+02      1.75230896E+02
      1.42492128E+02      1.90600437E+03     -9.34793794E+02
     -5.74540702E+02     -3.09196448E+01      1.00654922E+02
     -3.28974947E+03     -1.78116708E+02      6.03125087E+02
      5.25214858E+02     -5.52161561E+02     -2.61328718E+03
      1.15386497E+03     -1.30367032E+03      1.10096777E+03
      2.83791673E+02     -6.09320099E+02      4.16360414E+02
     -2.83612809E+03      2.17864762E+03      3.42505208E+02
     -4.19582014E+02     -3.52090202E+02      1.70153643E+03
      2.90134802E+02     -3.64391758E+02      5.20167978E+02
     -1.14003253E+02      7.27540108E+01      3.45403967E+03
      7.90798818E+02     -4.14779975E+02     -2.25346959E+03
     -5.39830420E+02      2.01422244E+02     -3.83692711E+02
      3.52292461E+03     -3.17929716E+02     -2.31216472E+03
      1.01327357E+03     -1.44372029E+03      1.67108906E+03
     -3.90347129E+02     -2.32987911E+02     -5.26658545E+01
     -5.73778929E+02     -2.12185166E+03      8.64002132E+01
      7.25081301E+02     -1.81630027E+03     -9.05912953E+02
      6.52406116E+02      1.72922360E+02     -1.42703430E+02
     -1.15539600E+03     -1.66305559E+03     -1.99050702E+03
      3.22578961E+03      3.05983111E+03     -1.30113640E+03
     -2.44223419E+02     -4.93907177E+02      1.67504272E+02
     -7.48691632E+02      1.15560102E+03     -7.11069481E+02
     -4.13593824E+03      5.09959073E+02     -1.43594441E+03
      5.20531332E+02     -7.59209189E+02      6.91214139E+02
     -2.86338080E+03      7.78193423E+02     -3.20518042E+02
      2.95932931E+03      1.07605138E+03     -3.57772274E+02
     -6.36302926E+02     -3.02187674E+02     -2.71006850E+02
      8.63570236E+01     -1.89205493E+03      1.37882986E+03
      5.29743343E+02     -4.03227354E+02     -1.95378447E+03
      3.71376733E+02     -3.43621401E+02     -1.65927455E+02
     -2.94889299E+02     -6.48355857E+02      7.55719485E+02
     -1.28984395E+03     -7.40928925E+02      1.94486694E+03
     -1.03393768E+03     -2.76002333E+01      1.38106618E+03
     -9.84103524E+02      4.33518549E+02     -3.72252985E+02
      1.64696683E+03     -2.07532408E+03      2.40607527E+03
      1.49374857E+03     -7.18594308E+02      4.47654829E+02
      3.77047633E+02     -1.10678297E+03     -9.94181684E+02
      2.74861654E+01      5.58568459E+00      2.92569738E+02
     -4.31326967E+02     -1.23023028E+03     -1.08266385E+02
      2.17931818E+03     -4.18561796E+03     -1.41823389E+03
     -1.03593772E+03     -5.58121900E+02      8.29845875E+01
     -8.21842204E+02      1.11172186E+02      1.63245103E+02
     -1.33835825E+03     -4.01459078E+02      1.71680513E+03
      7.12542776E+02      7.54294543E+02      2.88519569E+02
      6.82914546E+01      1.92064307E+03      1.22369470E+02
     -1.37863539E+03     -2.45636278E+02     -3.37496734E+02
      6.20092768E+02     -5.51587408E+01      2.30261920E+02
     -2.22402306E+03      9.94260647E+02      6.23579313E+02
     -1.23894297E+03      4.21334180E+02     -7.59219128E+01
     -1.89083628E+02     -8.12712467E+02     -1.73746618E+02
      6.29967299E+02     -1.90347705E+03      4.77181048E+02
      6.67871291E+00     -1.95622128E+03      1.82866546E+03
      1.44788776E+02     -8.73853807E+02      3.87860735E+02
      1.40601973E+03     -1.30843675E+03      8.11091846E+02
     -2.50247041E+03     -3.11426893E+03     -2.46183532E+03
     -5.70813686E+01     -1.63628208E+02     -1.10257201E+02
      1.99158244E+03      1.48419443E+03     -2.84373883E+03
      1.92224089E+02      5.62954999E+02     -4.57221952E+02
     -2.68980025E+02     -3.73250424E+02     -3.73064437E+02
      1.27857281E+03     -1.98410270E+03      1.41614758E+03
     -7.65032253E+02     -6.77574657E+02     -4.21616351E+02
     -1.03775009E+02      6.15551211E+02     -3.93634394E+02
     -8.45067279E+02      1.05053115E+03     -3.80594157E+02
      8.11525600E+02     -1.77094699E+03     -2.31139616E+03
      1.41653231E+03     -1.01999029E+03      1.10374586E+03
      3.87255845E+03      2.12889329E+04     -2.44643980E+03
      1.13226312E+03     -8.45554987E+02      7.28416195E+02
     -4.96318065E+01      8.02227851E+01     -1.18244655E+03
     -2.37948234E+02     -9.50695782E+02      1.49467769E+03
      3.31498304E+01      3.72063947E+02      6.79895859E+02
      1.18973031E+03     -1.11434435E+02      7.98099132E+02
     -2.36267163E+02     -7.32271547E+02     -1.51750733E+03
     -8.95517299E+02     -3.98597352E+02      3.16173366E+02
     -4.69100713E+02     -2.63936462E+02     -5.61297676E+02
      2.32566454E+02     -2.38671695E+03     -4.52158553E+02
     -3.24965795E+02     -4.49949126E+02      2.90491467E+02
     -3.64198336E+03     -2.33678016E+03     -2.64283851E+03
     -2.65472296E+02      2.56635237E+03     -4.65409192E+02
     -5.73668691E+02      1.37301956E+02      2.42975513E+02
      1.26927636E+03     -1.30875681E+03     -1.03118201E+02
     -2.45707369E+02      1.34825171E+03     -5.04407179E+02
      2.65863062E+02     -5.19622886E+02      9.79127193E+01
      2.57745522E+03     -2.57401398E+03      3.54847353E+02
      6.56541588E+02     -2.24834017E+03     -8.42595117E+02
     -4.93889966E+02      1.86967831E+02     -1.38986618E+02
      2.45258876E+03     -1.83457262E+02      8.31203203E+01
     -8.05452033E+02      6.92397409E+02      1.20464835E+03
      4.55246918E+02      3.02116640E+02      1.78336783E+02
     -7.32459713E+02      9.77390410E+01      1.28782706E+03
      5.52451499E+02     -1.28383272E+03     -2.34778609E+03
      2.68879056E+02      3.67712090E+02      3.03562512E+02
     -7.24913827E+01     -2.79210957E+03     -3.13129014E+02
      1.51925666E+03      5.67318504E+01      7.32603265E+02
      6.45009669E+02      6.87643912E+02      3.58553961E+02
      1.14616403E+03      3.68822887E+02     -6.26431995E+02
      9.38322356E+01     -8.64363696E+02      2.40488118E+03
      3.27756271E+02     -1.15944289E+03      7.78810475E+02
     -8.96071272E+02     -2.15510502E+02     -2.36425565E+02
      1.76026572E+01      2.47057037E+02      7.35118272E+02
     -1.02827930E+03     -2.28708794E+03      2.67346428E+03
     -6.13400250E+02      7.87179411E+02      4.15651957E+02
      1.52719618E+02      3.05944255E+02      8.62030974E+02
      9.28421481E+02      1.07400289E+03      9.39817980E+02
      1.00737947E+03     -4.62915044E+02     -1.51661541E+03
     -5.15829702E+02     -8.11625714E+02     -1.92804736E+02
      2.63860719E+03     -6.29800156E+01      2.78379474E+03
     -1.90128535E+03      2.81825537E+02     -3.11869716E+02
     -1.95036362E+02     -5.27245259E+02     -4.03731093E+02
     -3.69910205E+03      3.51731617E+01     -1.34441349E+03
     -8.62043335E+01      4.90706468E+02     -1.10934905E+03
     -2.23526193E+01      3.06819029E+02      5.69453855E+02
     -1.59190673E+03     -9.24450172E+02     -1.92290213E+03
      2.74277110E+03      1.86232231E+03      5.26106839E+02
      1.44559831E+02      7.19911659E+02      2.41085665E+02
      1.13071966E+03     -2.83035725E+03      2.77207740E+03
      1.48934932E+03     -1.39097434E+03      9.34306943E+02
      3.60675937E+02     -6.94477520E+02     -4.94956608E+02
      9.20796756E+01      6.74457553E+02     -3.04729670E+01
      2.76105453E+03      6.85842199E+02     -7.04361429E+02
     -2.18672349E+02     -1.48070095E+02     -9.45461979E+02
     -3.09504017E+03      1.23187100E+03      1.20812894E+03
     -1.37083765E+02      1.36676735E+03     -3.11066263E+01
     -5.91816102E+02     -6.13696601E+02     -7.30093063E+01
      4.69439203E+02      2.83874022E+03      1.35864355E+03
      1.50019151E+03      2.39328674E+03     -8.73190613E+02
      5.18777811E+02      8.68807718E+01      1.04235196E+03
     -3.34244392E+02     -1.52125315E+03     -2.70082443E+02
     -1.96674643E+03      1.34522560E+03     -2.64399818E+03
     -9.64696681E+02     -2.84513342E+03     -6.51406977E+02
     -8.73008088E+02      4.69006953E+02     -3.51682735E+01
     -1.66572334E+03     -2.30813046E+00     -6.55326855E+02
      1.24952001E+03     -7.11532698E+02      5.73146590E+02
     -3.90361776E+03     -1.53756823E+03      5.09216133E+02
      1.64368192E+02     -3.16012565E+02      1.04396154E+02
     -1.02229162E+02      9.67844936E+02     -2.90027450E+03
     -2.11285334E+02      9.45811899E+02      5.17976357E+02
      8.57986822E+01     -2.68715669E+02     -3.15861990E+02
     -1.46188402E+03     -1.96546108E+03      5.76286500E+02
     -2.26324693E+02      2.20053661E+03     -1.69930757E+02
     -2.73361193E+02      6.43635538E+02     -8.52360688E+02
     -2.05453348E+03     -1.78917398E+03      6.77792769E+02
     -8.06424645E+02      1.21525833E+03     -2.49216515E+03
      5.67667007E+02      2.29641401E+02      1.06623363E+03
      1.25338115E+02     -1.34942211E+01      6.19766455E+02
      4.23965104E+02     -4.78418591E+02      1.32854881E+03
      5.72398517E+02     -4.43835150E+02      5.21594617E+02
      1.11062110E+03      1.31833068E+03     -1.30856106E+03
     -1.81650113E+03     -1.24871190E+03     -1.92127878E+03
      3.77800940E+02     -6.66303972E+02      2.03235938E+02
      3.16613603E+03     -1.86303510E+02      3.14834391E+03
     -2.61207839E+02     -8.10802875E+02      2.37159318E+03
      1.02501496E+02      6.04534224E+02     -1.44430294E+02
      5.82025916E+02     -2.11314549E+03      1.39618536E+03
      2.12200057E+03     -5.84017944E+02      1.15702381E+03
      5.34444563E+02     -2.46489082E+00     -2.18739532E+02
     -7.70635704E+02     -7.06796871E+02     -3.56595310E+02
     -3.61954157E+02     -2.72999022E+03     -1.82509134E+02
      2.56763956E+02     -3.92009664E+02      3.45197551E+02
      1.32154846E+03      1.44982939E+03     -2.22129571E+02
      3.55583453E+02      1.56793840E+03     -3.39775028E+03
      2.47032789E+03     -1.07032464E+03      2.18001994E+03
     -3.40466481E+02     -6.00417008E+02      2.29370456E+02
     -2.93584005E+01      3.24884896E+02     -9.50926015E+02
      1.57380022E+03     -1.70727206E+03      7.78652990E+02
     -4.39108558E+02     -2.94110269E+02     -1.31023843E+03
      5.96450935E+02     -5.34700334E+02     -8.91923144E+01
     -6.85837383E+01     -8.15909417E+02     -1.24284513E+03
     -1.19079686E+03      7.76524252E+02      5.94445593E+02
      4.53212093E+01      7.86698676E+02      4.39641965E+02
     -7.01454962E+02     -9.64061607E+02      1.78187843E+02
      8.57025624E+02      8.08914179E+02      2.22686557E+02
     -2.03943802E+02      4.42890738E+02     -3.69165492E+02
      1.47343368E+03      5.45245382E+02     -1.89313788E+02
     -1.83504777E+03     -2.61865042E+03      5.66406868E+02
     -3.82798292E+01     -4.09207775E+02     -1.06244005E+02
      2.54497105E+02      7.01855062E+02      1.43190702E+03
     -1.82712175E+03      4.33292078E+02     -8.55428941E+02
      1.25939517E+02     -1.61215451E+02      9.34839232E+02
      8.41940875E+02     -2.08499175E+03      2.65588786E+03
     -2.65160703E+03      2.72418464E+02      1.10655669E+03
     -6.09476028E+02     -1.60668669E+02      2.32500288E+02
      9.80748835E+02      3.33673505E+02      2.32839246E+03
     -4.13064454E+03      1.51433755E+03      5.24771370E+02
      3.78818293E+02      6.80550965E+01      1.85279639E+02
      7.64554370E+02      1.44456300E+03      5.06427674E+02
      6.54740141E+02     -1.38623643E+03      1.53903252E+03
     -6.16527564E+02     -2.16774914E+02      5.57820975E+02
     -1.53978208E+03      4.43977184E+02      1.78090318E+03
      1.72652087E+03     -1.64981211E+03     -2.30939315E+02
     -3.60825144E+02     -6.60502901E+02     -5.64580740E+02
      6.13043310E+02     -3.82528121E+02     -8.95308696E+02
     -4.30722402E+00     -2.14241274E+02      1.91285582E+03
     -1.59717337E+03      1.36895154E+03     -1.55528537E+03
      6.26426835E+02     -1.53004458E+02     -2.51835947E+02
      1.29298376E+03      2.49013948E+03     -2.03818510E+03
      3.10111207E+03      6.34080647E+02     -3.80547171E+02
     -2.89550579E+02      2.35600298E+03      1.26959723E+03
      7.82623118E+02      2.72377568E+01     -2.72019480E+02
     -3.46704317E+03      1.76800062E+03      2.69550490E+03
     -1.68833988E+03      1.65266663E+03     -1.93135382E+02
     -7.68775386E+01      2.43205548E+00     -3.73955573E+02
     -1.03196119E+02      1.15038434E+03      3.94899754E+02
      4.44710827E+02      1.28071024E+03     -9.99460194E+01
     -1.94380808E+01      8.09720975E+02      1.15187187E+02
      1.64197208E+02     -3.64579009E+03     -2.42678627E+03
      2.40506191E+03      7.92188777E+02     -1.83906735E+03
     -3.17307628E+02      1.29869729E+02     -3.49508875E+02
      6.11245745E+02     -1.14974127E+02      2.24184873E+03
     -1.18401640E+02      2.02220910E+02     -1.49408978E+03
      5.22692076E+02      1.29921455E+03     -2.60440631E+01
      7.39417841E+02     -9.82384262E+02      1.46664112E+03
     -9.87726847E+02      1.91853100E+03      1.39166622E+03
      3.25622776E+00      3.21073209E+02      2.55981727E+02
     -2.40117550E+03      5.13414882E+02     -2.69469823E+02
     -2.64072335E+02     -5.68756481E+02     -4.57833696E+02
      1.47195424E+02      3.71523360E+02      2.20877961E+02
      8.67356236E+02     -6.13488933E+02     -1.68572415E+03
     -2.41939231E+00      2.83805257E+02      2.37691805E+03
     -6.76482478E+02     -1.20649267E+03     -2.29460356E+02
     -1.82235448E+03      4.64842699E+02     -9.80121118E+02
      1.86220461E+03     -3.42691436E+02      8.85770991E+01
     -1.55092476E+03     -1.98873368E+02     -1.59681214E+02
     -1.66507730E+03     -2.00739539E+03     -1.05291499E+03
      2.95800498E+02     -1.98180655E+03     -2.22419623E+02
      1.94092860E+03      1.73413931E+02     -2.18135028E+01
     -1.34869101E+01     -3.39878375E+02      6.76516023E+02
     -6.05859940E+02     -5.33805189E+02     -9.34887196E+02
      3.94531635E+02     -1.61867822E+01     -1.17649059E+03
      1.04683679E+03     -1.81425807E+03      2.92482264E+03
      2.96654062E+02     -1.16401732E+02     -1.04743966E+02
     -1.49349599E+03     -2.11110784E+03     -1.08346107E+03
      1.75466625E+02      1.72674517E+03     -2.29022272E+03
     -2.89901958E+02     -9.41678665E+02      5.24846324E+02
      2.56949580E+03      3.12258229E+02     -4.08833513E+03
      2.46424775E+01      2.27586629E+03      7.75939131E+02
      2.85311605E+02      2.94417864E+01     -2.12349351E+02
     -3.24366550E+02      2.19814145E+03     -4.57545739E+02
      2.19229723E+03      1.68395247E+02     -2.99853079E+02
     -1.91673657E+01     -3.73161366E+02      3.56481745E+02
      3.49501117E+02     -6.83079838E+02      5.61656379E+02
      5.34220270E+00      1.50303508E+03     -1.15785990E+03
     -1.21999191E+02     -1.24295186E+01     -2.50521886E+02
     -2.30400190E+02      1.54743790E+03      1.63637874E+03
      3.90833975E+02     -6.76889657E+02     -4.00642787E+02
      2.98131297E+02     -2.73399281E+02     -3.07032894E+02
     -2.65748894E+02      7.26267755E+01      2.67765559E+02
      5.86846464E+02     -6.12300525E+02      4.25793241E+02
     -5.71193307E+01     -6.32937716E+01      7.85770773E+01
      9.69137318E+02     -2.60682496E+03      4.54365820E+02
      2.02494988E+03     -3.70581115E+02     -2.95605954E+03
     -7.08962376E+02      1.81353070E+02     -5.69045940E+02
     -5.95985328E+02      4.85604827E+02      2.54161298E+03
      5.41671385E+01      2.14279698E+03     -5.75135422E+02
      3.50323498E+02     -4.54142910E+02     -1.04035903E+03
     -2.77373173E+03     -4.50664337E+02      1.14816902E+03
     -2.86983357E+02      4.35540545E+02     -1.38784766E+03
     -9.00267546E+02     -6.90933425E+02     -8.17094109E+01
     -4.84184800E+02     -4.24610635E+01     -1.76237834E+02
     -1.57516168E+03     -4.70744144E+02     -8.70131077E+02
     -1.96798557E+03      8.66456756E+02      1.00637149E+03
     -2.56647260E+03      5.04345482E+02      2.23048469E+03
     -2.47847927E+02     -2.21041049E+02     -2.24357363E+02
     -3.37430915E+03     -5.26230837E+02      1.75663265E+03
      1.63745693E+03     -8.16324147E+02      3.51352887E+00
     -4.02586608E+01     -2.82487964E+02      3.97702005E+02
      2.92809875E+03     -5.84959730E+02      6.82923690E+02
      2.15202899E+03     -2.60722336E+03      7.62710326E+02
     -1.95682779E+02      3.94591505E+01      5.38039576E+02
     -2.88964059E+02     -1.00030766E+03     -6.44379646E+02
      1.73675284E+03     -1.22782139E+03     -5.75676789E+02
      7.50994496E+02     -3.18039130E+02      1.93743957E+02
     -4.68018033E+02      1.69011220E+03      1.49590482E+03
      1.52155618E+02     -3.09021451E+01     -6.96022460E+02
      2.16282265E+02      2.88235313E+02     -5.58689268E+02
      1.85803997E+03     -4.71739171E+02      2.20349770E+03
     -1.60498632E+03      9.54207308E+02      2.38278238E+03
     -4.49414761E+02     -6.13614961E+02      3.43942018E+02
      2.62503316E+03      1.49971412E+03     -5.81759160E+01
      3.12250078E+03     -1.26394986E+03      6.50704991E+02
     -4.38582423E+02      4.41405413E+02      2.98635688E+02
      3.29677106E+02      1.87703852E+03     -3.43894865E+02
      5.48642968E+02     -3.88134104E+02     -2.69244954E+03
     -3.06920244E+02      3.36684098E+02     -5.78377965E+02
      1.26811190E+03     -1.03309731E+03      3.77962985E+02
      6.40007975E+02     -1.14149791E+03      9.85951624E+02
      1.84860210E+02      1.29718911E+01      6.68926626E+01
      1.56189352E+03     -2.59374830E+03     -8.80780758E+02
     -1.91319738E+03     -1.91589104E+03      6.29731692E+02
     -6.30115909E+02     -1.87992269E+03      2.39348810E+03
      2.71585463E+02     -5.24241275E+02     -1.02580005E+02
     -1.23053883E+03     -1.90960919E+03     -4.57017820E+03
      2.51197516E+02      7.20732843E+02     -8.34046044E+02
     -5.26950500E+02     -2.51348154E+03      7.83150961E+02
      3.46064833E+02     -6.33701465E+02      3.25722028E+02
      6.73105298E+02      1.11332098E+03     -1.16828031E+03
     -7.41508015E+02     -3.83956744E+02     -7.01971004E+02
      5.35910344E+02     -7.25790244E+02     -3.96296308E+02
     -5.35448005E+02     -3.25295059E+03     -1.83160359E+03
      2.50528495E+03     -6.25550553E+02      2.48517495E+03
      4.10645286E+02     -3.95213022E+02      2.00212638E+02
     -1.36323610E+03     -5.13442063E+02     -2.87479297E+03
     -9.71271246E+02     -1.15943197E+03     -8.77346750E+01
      1.07560047E+02     -1.30689375E+03     -3.38500048E+02
     -6.49399317E+02      1.45835416E+03     -1.89796752E+03
     -5.87821320E+02      3.84401397E+02     -7.78531680E+02
     -3.77127679E+02     -8.78558146E+02      9.41693841E+01
     -1.01877576E+02      5.91981303E+02      2.60743367E+03
      3.76473975E+02      1.17821971E+03     -3.89104918E+01
     -1.05430047E+03     -4.47409081E+02      1.63578343E+02
     -1.29476149E+03      9.18320935E+01      1.28630523E+03
      2.11323820E+02      8.54615701E+02     -1.38233030E+03
      6.66560435E+02     -2.57681153E+02      1.15262110E+02
      1.37371028E+03     -9.83315487E+01      2.06505247E+03
      6.09164926E+01      2.21626448E+03      1.88310179E+02
      6.99026984E+02     -1.54103294E+02     -1.72607258E+02
      2.10628517E+03     -1.99224819E+03     -1.41613090E+03
      1.55534018E+03     -2.29876061E+03      1.88808598E+02
     -7.51357112E+02      3.63889770E+02     -4.07349419E+02
      5.23505556E+02     -6.73681450E+02     -4.12413757E+02
     -2.65016188E+03      9.53686935E+02      1.94831293E+03
      2.37798983E+03     -1.36125452E+03     -1.42210443E+03
     -7.27701770E+02     -7.32566026E+02     -5.63689428E+02
     -2.35402017E+02      1.00021356E+03      3.72388181E+02
      1.67564829E+03     -5.55193440E+02      2.46881179E+03
     -9.16815019E+02     -3.96995676E+02     -2.70666232E+02
  }
}

Hamiltonian = DFTB {
  SCC = Yes
  SCCTolerance = 1e-6
  MaxSCCIterations = 200
  ForceEvaluation = Dynamics
  MaxAngularMomentum = {
    C = "p"
    H = "s"
  }
  Charge = 0.0
  SpinPolarisation = {}
  Eigensolver = Standard {}
  Filling = Fermi {
    Temperature [Kelvin] = 300.0
  }
  SlaterKosterFiles = Type2FileNames {
    Prefix = "../../pbc-0-3/"
    Separator = "-"
    Suffix = ".skf"
    LowerCaseTypeName = No
  }
  KPointsAndWeights = {
    0.0000000000000 0.0000000000000 0.0000000000000 1.00000000000000
  }
  Dispersion = LennardJones { 
    Parameters = UFFParameters {}
  }
}

ParserOptions = {
  ParserVersion = 3
}
