Geometry = GenFormat {
<<< "system.gen"
}

Driver = VelocityVerlet{
  Steps = 100000
  TimeStep [fs] = 0.2
  MDRestartFrequency = 5
  Thermostat = None {
    #InitialTemperature [Kelvin] = 300.0
  }
  Xlbomd{ 
    IntegrationSteps = 6 
    MinSccIterations = 2
    MaxSccIterations = 200
    SccTolerance = 1e-6 
  }
  Velocities [m/s] {
      1.99782045E+01     -3.54626355E+02     -8.24177459E+02
     -2.88963037E+03     -1.80696348E+03      7.68384151E+02
     -1.85628367E+03      2.28691561E+03      5.73201246E+02
     -1.30753994E+02      2.86458540E+02      9.00960131E+02
     -1.03039890E+03     -1.97520673E+03     -2.54819094E+03
     -1.23228746E+03      5.46081885E+02     -8.29358728E+02
      7.37011903E+00     -1.54541300E+02      6.41498966E+01
     -7.57339941E+02      1.49527858E+03      1.04468211E+03
      5.44625777E+02      3.49425685E+03     -7.35827645E+02
      5.57880589E+02      1.58399851E+01     -3.49918886E+02
      1.29830182E+03     -2.02113413E+03     -3.04701342E+02
      9.07539296E+02     -2.98826827E+03      8.36197324E+02
     -4.14314641E+02      4.15424985E+02     -4.75597237E+02
      1.11489026E+03     -2.40718079E+03      9.29766646E+02
      2.43713048E+03     -1.18565037E+03     -1.87782580E+03
      5.04540540E+02     -2.79982055E+02      7.99260484E+02
      2.98462803E+03      1.50985234E+03     -2.37632897E+03
     -1.21905306E+03      2.21039127E+03     -2.19471526E+03
     -5.20194022E+01     -5.75974794E+02     -1.91501044E+02
      2.48295990E+03     -3.58098740E+02     -1.20080681E+03
     -2.99349572E+02     -2.20604416E+03      1.65297262E+03
      1.30953415E+02     -1.69361401E+02      5.67071353E+02
      2.72857310E+03      4.91064232E+02      4.64448138E+02
     -1.37421757E+03     -1.79201715E+03     -1.57838237E+03
     -1.21691465E+02     -9.59687294E+02      3.51906699E+02
     -2.15944962E+03     -1.27585342E+03     -2.55365442E+02
     -1.95211100E+03     -1.03962102E+03     -3.04574042E+03
     -8.02991180E+02      2.88407212E+03      9.21530951E+02
     -1.65272657E+02     -6.37342246E+02      1.74802384E+02
      2.81562450E+01      7.17004541E+02      1.16229120E+03
     -2.90662973E+03     -2.18911253E+03     -1.37973105E+03
     -1.78734788E+03     -1.87327545E+03     -1.17486279E+03
     -5.11090749E+02      1.26731709E+03     -1.43189855E+02
     -2.19400517E+02     -3.14077701E+03     -2.52931110E+02
     -2.74127759E+02     -6.19524093E+02     -1.18568989E+03
     -4.53192277E+00     -3.38034725E+01      5.82477117E+02
      2.64343345E+03      1.48033241E+02     -2.50629289E+03
      6.89270432E+02      6.36998744E+02     -1.10744974E+02
      6.54268234E+02     -9.22534665E+02      2.35387206E+02
     -2.81498873E+03     -2.39321220E+03     -2.36169112E+03
      1.92763287E+03     -1.10179393E+03      3.42193400E+02
     -9.10723263E+02     -1.86101385E+02     -1.39075991E+02
      5.34795157E+02     -4.92331386E+02      1.00209627E+03
      8.17086696E+02     -1.62093968E+03     -2.58822946E+03
      7.11385287E+02      4.19225016E+02     -3.04258798E+02
     -8.33934478E+02     -1.87146088E+02      3.14155558E+03
     -1.49717705E+03      6.30206285E+02      2.66011854E+02
      9.63313589E+02     -2.04383297E+02      1.23673413E+02
     -3.15289298E+03      1.04688856E+03      1.39829105E+03
     -2.23723020E+02     -2.77060579E+03      6.58213121E+02
     -4.62541994E+02     -5.05142178E+02      7.25905603E+01
      1.89560684E+03     -1.21418955E+03      8.53241946E+02
      2.00759624E+03      9.82345273E+01     -1.84547047E+03
      2.76711762E+02     -4.82476377E+02     -4.21176239E+02
      1.19629155E+03      2.02377857E+03      1.50880999E+03
      1.05844614E+03      4.04352162E+02     -2.36508096E+03
     -9.95518123E+01      5.71124479E+02     -1.59155637E+03
     -1.97487199E+03     -3.93614347E+03      1.47449723E+02
      1.66998202E+03      3.56722573E+02      2.10299248E+03
      1.02137027E+03     -1.29177686E+03     -6.57069350E+02
      9.85198396E+01     -7.77491984E+01      1.06902617E+02
      3.02696596E+03      1.46022034E+03     -1.90162580E+03
      1.96878160E+02     -4.49396556E+02      1.68973126E+03
     -1.60960515E+02      1.11159509E+03     -5.65788340E+01
     -7.95864197E+02      3.86691199E+02     -4.00508823E+02
      1.11397427E+02      1.05299220E+03     -1.29187123E+03
     -1.27819370E+03      4.89328988E+02     -1.34103415E+03
      1.19515348E+02      1.86488974E+02      1.27588061E+02
      1.76499124E+03     -2.14904307E+03     -3.56492485E+03
     -4.29304074E+03     -1.23660233E+03      2.15112295E+03
      5.88998458E+03      3.06660632E+04      1.16332227E+04
      6.01826582E+02     -1.29154698E+03      2.23204076E+03
      2.31822525E+03     -3.46937682E+03      1.67828664E+03
     -7.24635279E+01     -5.50668176E+02     -2.11380745E+02
     -1.68287831E+03      7.63455663E+02      9.27093207E+02
      1.15365318E+01     -1.72326264E+03      4.82938670E+02
      3.15893812E+02      3.48100932E+02     -6.17439703E+02
      7.50266611E+02      4.01702372E+02      3.43473521E+03
     -1.50163723E+02     -8.55119871E+02      5.21078012E+02
      4.94424762E+01     -5.29769029E+02     -5.17055755E+02
      1.33403556E+02     -3.32232352E+02     -2.10892150E+03
     -2.48915774E+03     -1.06982294E+03     -3.16596164E+03
     -3.56570950E+02     -2.93339294E+02      1.99430337E+02
      8.54817793E+02     -1.24905254E+03     -1.49344021E+03
     -2.54098979E+02     -5.45115384E+02      1.30417210E+03
     -3.16896094E+02     -8.22974292E+02      1.54974540E+02
     -2.77202195E+03     -1.06072350E+03      7.51495568E+02
      1.03434364E+03      1.28453894E+03     -2.61047743E+03
     -1.96688015E+02      6.98221192E+01     -4.68091378E+02
     -9.57552603E+02     -1.30639676E+03     -1.34051260E+03
     -2.31362795E+03     -3.92729622E+02      2.09938846E+03
      2.09025178E+03      5.94575548E+02      1.75503737E+03
      2.24334131E+02     -1.57206055E+02      4.06443757E+02
      3.47737333E+03      1.96845166E+03     -2.02545455E+03
      3.32265835E+00      5.54516302E+02      4.71984632E+02
      1.31542898E+03      1.93540921E+03     -3.35727090E+03
      2.41913711E+02     -2.53367114E+01      4.30183086E+02
      7.69388068E+02     -4.29012372E+02     -4.65232562E+02
      2.13138629E+03     -7.44241456E+02     -5.09041603E+02
     -3.97312116E+01      1.68320897E+02     -4.25322246E+02
      2.69672658E+03     -1.00508996E+03     -4.79489568E+02
      6.75891296E+02      1.24201960E+03      3.39955939E+02
      8.29500952E+02     -9.21227959E+02     -2.89453501E+02
     -7.00896417E+02     -1.69588008E+03     -6.76284854E+02
     -1.35658705E+03     -1.26890387E+03     -1.80302902E+03
     -2.59569135E+02     -2.93667946E+02     -5.93470827E+02
      2.14331335E+03      7.67930529E+02     -3.35075241E+02
      1.92523746E+03      7.74334498E+02      9.49189234E+01
     -7.39651759E+02     -1.07416944E+03     -4.73427569E+02
     -1.11674286E+03     -1.84030680E+03     -5.12902482E+02
     -6.42528385E+02     -3.34865314E+03      1.60770840E+03
      2.21304484E+02     -2.83597367E+02     -5.75117817E+02
      1.31791328E+03      6.46995650E+01     -2.23858420E+02
      5.14721313E+02      1.29797158E+03     -2.24099979E+02
      9.99422083E+02     -4.20512838E+01     -2.58803693E+02
      6.23873218E+02     -2.12288016E+03     -4.31319908E+03
      1.99359551E+03      8.40626536E+02      2.18972782E+03
      7.93065274E+02     -4.26675720E+02     -1.49990401E+02
      2.20231705E+03     -2.10340010E+03     -1.59200719E+03
     -1.14351684E+02      1.25444665E+03     -1.83897127E+03
     -4.54006969E+02     -5.50420251E+02      5.96041860E+02
     -7.38016760E+02      5.60249139E+02     -5.53595388E+02
     -8.24443496E+02      8.27146148E+02     -3.25913101E+02
     -2.41374100E+03      1.49430602E+03     -2.03854870E+03
     -5.56806142E+02     -5.62399046E+02     -1.29074876E+03
      1.83568791E+02     -7.46651461E+01      1.18566599E+03
      4.80605067E+02     -1.34386245E+03     -5.99687364E+02
      9.74011288E+02     -6.32999190E+02      1.82726592E+03
     -4.80844970E+02     -5.26340314E+02     -1.25223888E+02
     -1.06131425E+03     -7.70211449E+02     -8.22998300E+02
     -1.67945366E+02      5.13940071E+02     -5.45344313E+02
     -1.11551079E+02     -3.12399459E+02     -1.38120800E+03
      5.72330852E+02      2.32263946E+03     -3.82508326E+03
     -4.33586863E+02     -1.81690786E+02      1.11105785E+03
      3.48078715E+01      5.53995774E+02      5.50274312E+02
      1.64718167E+03     -2.59364741E+03      1.97678466E+03
      1.15005652E+03     -2.37277184E+03      3.12040757E+02
      1.69685861E+01     -8.60931342E+02     -8.10165417E+02
      3.17673501E+03      4.48248370E+02     -1.62953588E+03
      1.92645991E+03     -7.60176595E+02     -7.05302121E+02
      4.55901363E+02     -7.99314938E+02     -2.54742112E+02
     -4.10757316E+02     -1.70968808E+03      1.08721016E+03
      1.36441894E+03      2.96205471E+02      7.58713553E+02
      1.94125041E+02      2.49899503E+02      3.66892826E+02
     -5.76791341E+02     -8.99964537E+02     -1.98543425E+03
     -1.55700065E+03     -1.52312201E+03     -1.28671409E+03
     -3.36037792E+02     -4.50124739E+02     -4.22269368E+02
      3.09745715E+03      8.81450461E+02      1.71632796E+03
      9.32987658E+02     -4.04690532E+02     -2.00269560E+03
     -3.13572219E+01      2.62676077E+02      1.09473159E+03
     -4.57546521E+02     -1.87308394E+03      4.77864601E+02
      2.77680887E+02      4.27731576E+02     -1.24277320E+02
     -2.61660656E+02     -2.31756670E+02     -7.54134420E+01
     -9.13360195E+02     -8.92441964E+02     -2.24708016E+03
      1.66937081E+02     -1.39026030E+03     -1.79492441E+03
     -2.65846447E+02      2.14685773E+03      3.05255646E+03
      2.39936315E+02     -9.22799359E+02     -2.43566949E+02
     -2.26854633E+03      2.08843038E+03     -1.02203922E+03
     -1.27686507E+03     -1.67375606E+01     -1.55850531E+02
     -1.24243445E+03     -9.44163410E+02      1.45143188E+01
      1.55946113E+02     -1.62395054E+03     -2.15916577E+01
     -1.65627553E+03      2.09425794E+03     -1.66949572E+03
     -1.24590600E+03      8.52679811E+02      1.32035701E+03
      8.10370034E+01     -7.57454068E+02     -3.55121863E+02
     -9.26583035E+02      1.18894627E+03     -1.65742788E+02
     -4.80314549E+02     -1.47844580E+03     -9.02436765E+01
     -6.58289963E+02     -1.50969507E+02     -1.88161427E+02
     -3.43702763E+02     -2.56750150E+03      1.43343595E+03
     -1.45508399E+03      5.65300825E+02     -1.16622202E+03
     -7.05719111E+02     -1.03440528E+02      7.18540175E+02
     -3.33918635E+03     -1.11216279E+02      1.42716872E+03
      1.79465883E+03      3.58687487E+01     -3.00107736E+03
     -1.18037113E+02     -2.93146381E+02     -2.24981406E+02
      1.55772578E+01      2.42617514E+03      1.52527433E+03
     -1.83852823E+03     -1.56216373E+03     -2.03262964E+03
      2.17890881E+02     -4.26503942E+02      6.38428950E+02
      5.69546944E+02     -2.38156349E+02     -1.71239308E+03
      1.82796114E+03     -1.73692985E+03     -2.78607939E+03
     -8.54370811E+02     -2.11081652E+02      1.14215775E+02
      8.35799296E+02      5.16647759E+02     -1.06155940E+03
      2.47244625E+03     -5.73431929E+02     -2.08686323E+03
     -9.12057579E+02     -8.89300677E+02      5.33538869E+02
      8.29986253E+02     -1.18657818E+02     -8.02468978E+02
     -8.96317194E+02     -1.71749485E+03      4.94001044E+02
      3.47311289E+02      3.09710445E+01     -5.46966099E+02
      9.20220075E+02      2.04242053E+03     -9.82776791E+02
      2.88677400E+03      3.45828918E+02     -1.82058124E+03
      1.19605656E+03     -1.13718069E+03      4.57522512E+02
      1.31648772E+02     -3.23624485E+02      1.95183791E+02
     -1.37432359E+03      6.50558920E+02      1.24706899E+03
      4.23539903E+02     -1.27810208E+03     -1.59682065E+03
      2.61044661E+03     -2.28144202E+03      2.05437729E+03
     -3.21819560E+02     -4.33240480E+01     -3.19165930E+02
     -1.25834884E+03      6.27506861E+01      1.58051669E+03
     -9.72788182E+02      3.59528979E+03     -1.25904548E+03
     -1.15732248E+02      2.62126781E+02      2.45686868E+02
      2.83884099E+03     -2.47703896E+03     -1.27537347E+03
     -1.23101547E+02      1.96570674E+02     -9.44835049E+02
     -1.49230129E+02      4.73744546E+02      1.71003162E+02
     -5.82386639E+02     -1.17940272E+03      9.27073680E+02
     -2.30988639E+03      1.03912036E+03      9.15072414E+02
     -1.36840634E+02     -1.03132180E+03     -4.69431378E+02
     -4.61275353E+02     -8.73278577E+02     -7.47134244E+02
     -7.86988126E+02     -8.59369786E+02      7.22583975E+02
      3.54526871E+02      3.23875914E+02     -3.60230858E+02
     -8.93365336E+02     -2.61338275E+03     -1.11743475E+03
      2.46291812E+03     -1.19236332E+03     -8.17231032E+02
     -3.13588771E+01      9.74748278E+01     -4.30186443E+02
     -1.39058802E+03     -1.06633839E+03     -5.88111368E+02
     -9.99024626E+02     -1.48755212E+03     -3.01928067E+03
     -2.37726258E+02     -4.17163217E+02     -5.23227645E+02
      2.44639458E+03      1.61890167E+03     -1.20971946E+02
      1.25848427E+03      1.31760265E+02      2.00096735E+02
      3.42318828E+02     -2.08310865E+02      4.32923409E+02
      2.72114490E+02      1.45596838E+03     -2.89434514E+03
     -1.05374383E+03     -1.54892393E+03      5.63555983E+02
     -5.81628763E+02      3.02494107E+02      5.29075109E+02
     -1.80422643E+03     -1.31250238E+03     -3.20557878E+02
     -1.08615232E+03     -2.74381254E+02      2.53676043E+03
     -1.89252370E+03      3.20096731E+02      2.56123554E+03
      2.04776021E+02     -6.36443041E+02      2.80889878E+02
     -8.94430952E+02      2.86063301E+03     -1.25391499E+03
     -1.94700234E+03      2.40090813E+03     -2.11839664E+03
      5.91364680E+02     -8.13331693E+02     -2.75901375E+02
     -5.02382014E+02      4.08196554E+02     -2.35235206E+02
     -1.47648538E+03     -2.53539066E+03      1.47966010E+03
      6.56810755E+02     -9.70185421E+02     -4.54134576E+02
      1.41816421E+02      3.72328328E+01      4.28854286E+02
     -1.12070828E+03     -2.12048140E+03      1.35462358E+03
     -1.12516096E+03     -8.77158720E+02     -3.55324577E+02
      3.57003088E+02      3.16748666E+02      6.44610765E+01
     -1.07793116E+03     -4.74401958E+02     -2.86730966E+03
      1.36277664E+03     -4.73669841E+02      9.90533728E+01
      6.32744206E+02     -5.81820812E+02      1.07946733E+02
      3.50683306E+01      1.94871033E+03      2.79156110E+03
      7.14271701E+02     -3.28298315E+02      2.66888301E+03
      4.77339582E+02      1.51645460E+02      2.62435548E+02
      3.83073199E+02     -9.77102306E+02     -6.76316178E+02
     -2.89051987E+03      4.06724214E+02     -2.53250182E+03
      2.22067980E+02     -2.40357088E+01      2.53521411E+02
      3.91105156E+02      2.36002850E+03     -1.56198744E+03
      2.75745593E+02      1.59486818E+03     -1.90695615E+03
     -4.54386306E+02     -2.97677570E+02      2.42263466E+02
      6.58679304E+01      1.35133294E+03      2.52535612E+02
     -2.21045998E+02      2.06880253E+03     -8.09829635E+02
     -5.19343468E+02     -4.74562166E+02      1.27736104E+02
     -2.45861977E+03     -3.00227280E+03     -8.57673239E+02
      1.14054284E+02      5.34288638E+02      3.42704045E+02
     -4.04652848E+02     -2.66876496E+02      1.63269976E+02
      2.09757039E+02     -9.79093444E+02      6.82902160E+02
      1.14467802E+03     -2.76092944E+02     -2.56764090E+03
      1.81427038E+03     -4.06496365E+02      5.68422479E+02
     -2.65166080E+02     -5.25949940E+02     -3.53396226E+02
     -7.61463872E+02     -1.47376665E+03      5.49461737E+02
     -2.07281015E+03      1.31320434E+03     -1.44026963E+03
      1.83301211E+03     -2.41486040E+03      8.39929935E+02
      8.06135591E+02     -3.57535138E+02      4.04715618E+01
      8.51056730E+02     -1.69947829E+02      1.70821957E+03
     -2.67747890E+02      1.38471150E+03     -1.59791387E+03
      9.37351679E+01      4.37294299E+02     -4.72109940E+02
     -7.18695178E+02      2.03624315E+03     -4.25908272E+02
      1.49273789E+03      1.79189118E+03      1.47988697E+03
     -5.63170278E+01     -7.86901488E+02     -4.86992536E+02
     -6.49716060E+02     -1.18948917E+03      1.09330506E+03
      1.54225540E+02      3.32643116E+02     -2.76807132E+03
     -3.55029963E+02     -5.41069323E+02      1.33854816E+02
     -2.50896769E+03     -9.96666060E+02      2.45976289E+02
     -3.03304081E+03      1.18443692E+03     -1.72987598E+02
      2.97987592E+02      3.06907142E+02      5.73698115E+01
     -7.61029608E+00     -1.53759215E+03     -2.75419580E+03
      1.38179507E+03      4.05409145E+02      1.92883782E+02
      3.16414551E+02     -8.06146221E+02     -5.83127285E+02
     -3.20019573E+03      5.70407926E+02     -1.67260749E+03
      7.59041790E+02     -1.19898711E+03     -3.57450483E+03
     -4.58412150E+02     -9.40604500E+02      5.74792319E+02
      4.30939129E+01      1.03815160E+03      2.89345966E+02
     -2.05563298E+03      6.34537752E+01      2.99437932E+03
      2.26164879E+02     -2.99579249E+02      3.47124137E+02
     -1.14997252E+02      1.34251021E+03     -2.14953715E+03
      8.70595232E+02      2.02136524E+02     -2.37413106E+03
     -3.58891839E+02      7.78577561E+02     -7.11171635E+01
     -3.35569922E+02     -1.19079347E+03     -1.10832011E+03
     -1.91291305E+01     -6.28167636E+02     -1.68023030E+03
     -4.22909274E+02     -3.18086137E+02     -3.37326774E+02
     -3.69160066E+02     -2.81609510E+02      2.25746522E+02
     -6.75337215E+02      1.96218128E+02     -2.29281941E+03
     -2.16441414E+03     -1.65088856E+01     -5.02024890E+02
      4.03958410E+02     -1.87833937E+03     -4.07678350E+03
     -2.36515517E+02     -6.69147610E+02     -1.58965541E+02
      1.44165343E+03     -3.25833676E+03      5.92133551E+02
     -1.30234263E+03     -1.44186591E+03     -8.74673739E+02
     -1.19277913E+02      4.08193201E+02      1.79064572E+02
     -9.79205007E+02      2.80243358E+02     -1.10848042E+03
     -3.98748783E+02     -2.80567597E+02     -4.93748961E+02
      6.50262193E+02     -5.04535699E+02     -1.95674908E+02
     -1.19059865E+03      2.13736081E+03      6.32123049E+02
     -5.12772927E+02      6.43593481E+02     -1.44758450E+03
     -2.16339254E+02     -4.94978459E+02      2.48880314E+02
     -1.61766973E+03     -1.62902042E+03      2.66920162E+02
     -9.66714200E+02     -1.71819480E+03      3.09855487E+03
     -7.79881940E+02     -2.74570837E+02     -1.60775063E+02
      2.54502347E+03      3.13273017E+02      1.29341726E+03
     -1.51082015E+03     -1.57615568E+03      1.08085555E+03
      6.68597722E+01      6.08239401E+02      4.55906458E+02
      1.45720926E+02     -8.49591402E+02      1.00078385E+01
     -1.04398411E+03      1.27791056E+02     -5.35152836E+01
      1.32297980E+03      3.81053584E+02      1.87386663E+02
     -1.67271028E+02      2.66698213E+03      3.46526873E+03
      4.69286011E+02     -1.88783612E+02     -1.94370980E+03
     -5.94749177E+02     -2.41584610E+01      1.98601430E+02
     -4.52438710E+02     -2.56318184E+03     -1.10884329E+03
     -1.54282962E+03     -1.06414441E+03     -1.05788355E+03
      3.79890584E+01     -4.16560828E+02     -4.06956400E+01
      1.21550663E+03     -8.85227744E+02      7.78895670E+02
     -1.45787164E+03     -1.88651645E+03      6.63029233E+02
      4.88772918E+02      2.11964038E+03      2.80098250E+02
     -1.33396460E+02      4.48494854E+02     -1.85813173E+02
      2.09663209E+01      3.39217918E+02      1.78617224E+02
      8.25654216E+02     -1.69384179E+03     -6.04344712E+02
     -1.97418411E+03     -1.02694156E+03     -4.81011819E+03
     -8.04753977E+02     -3.37679904E+02     -3.40155137E+00
      1.51074980E+03      5.92702199E+02     -1.18664411E+03
      5.41008743E+01      1.12734193E+03      2.60714674E+03
     -4.41131620E+02     -3.51716191E+02      3.53052336E+02
      2.96086109E+03     -1.12027339E+03     -4.31187449E+02
     -3.44567371E+03     -1.24121297E+03      2.75394184E+02
     -2.46662978E+02     -5.31944691E+02     -6.90893762E+02
     -3.58782423E+02      1.73880959E+03     -1.42442872E+03
     -5.79768684E+02      1.63217987E+03     -5.51490453E+02
     -9.13400474E+02     -8.28792469E+02      2.20318680E+02
      1.33100349E+03      2.16237052E+03     -1.52951426E+03
     -1.22895714E+03      8.40417691E+02     -2.99956009E+03
     -1.10531028E+02     -6.21522732E+02     -1.29110579E+02
      9.30687481E+02      6.18204486E+02     -3.84958370E+02
      4.51937281E+03      1.03491728E+03      1.69426580E+03
     -9.15893010E+01     -2.20303470E+02     -2.83923734E+02
     -2.03394755E+03     -7.06402217E+02      1.44410431E+03
     -4.30915298E+02     -3.31942705E+01      1.55300921E+02
      2.28860601E+02     -1.15656914E+02      5.01294575E+01
     -3.41332354E+02     -1.89926009E+03     -3.23727808E+02
     -3.60791093E+03     -2.07487881E+03     -2.53441593E+02
      5.44779215E+02     -1.13067389E+03     -2.91631298E+01
     -1.47924970E+02     -1.82420546E+03     -2.67495922E+03
      2.47722127E+03     -2.21729119E+03      9.37090856E+02
     -9.02999326E+02      3.40362335E+02      7.19710713E+02
     -9.79854275E+02     -2.26929330E+03      8.63323496E+01
      2.43810364E+03     -1.91400094E+03      1.98295100E+02
     -1.54492057E+02     -2.59288002E+03     -2.75102745E+03
      2.25973886E+02     -1.49143806E+02     -7.02862812E+02
     -4.65148267E+02      5.73085594E+02      5.18466105E+01
     -1.85775677E+03      4.24095058E+02      2.42216453E+03
      1.21611033E+03      6.45878701E+02      1.71539998E+03
  }
}

Hamiltonian = DFTB {
  SCC = Yes
  SCCTolerance = 1e-6
  MaxSCCIterations = 200
  ForceEvaluation = Dynamics
  MaxAngularMomentum = {
    C = "p"
    H = "s"
  }
  Charge = 0.0
  SpinPolarisation = {}
  Eigensolver = Standard {}
  Filling = Fermi {
    Temperature [Kelvin] = 300.0
  }
  SlaterKosterFiles = Type2FileNames {
    Prefix = "../../pbc-0-3/"
    Separator = "-"
    Suffix = ".skf"
    LowerCaseTypeName = No
  }
  KPointsAndWeights = {
    0.0000000000000 0.0000000000000 0.0000000000000 1.00000000000000
  }
  Dispersion = LennardJones { 
    Parameters = UFFParameters {}
  }
}

ParserOptions = {
  ParserVersion = 3
}
