Geometry = GenFormat {
<<< "system.gen"
}

Driver = VelocityVerlet{
  Steps = 100000
  TimeStep [fs] = 0.2
  MDRestartFrequency = 5
  Thermostat = None {
    #InitialTemperature [Kelvin] = 300.0
  }
  Xlbomd{ 
    IntegrationSteps = 6 
    MinSccIterations = 2
    MaxSccIterations = 200
    SccTolerance = 1e-6 
  }
  Velocities [m/s] {
      2.89485808E+02     -3.24003920E+02     -1.77893164E+02
     -1.23184280E+03      9.20527443E+02      1.44545841E+03
     -3.36422474E+02      2.62888727E+03     -8.43299196E+02
      5.17084389E+02     -8.46235673E+02      4.13535868E+02
     -6.81728960E+02     -1.40709991E+03     -1.40632648E+03
      1.26761864E+03      1.13718447E+03     -2.66949523E+03
      2.00382735E+02     -7.97686283E+02      7.74237356E+02
     -5.83342136E+02      3.24901535E+02      7.28298790E+02
     -1.60066546E+02     -1.09152718E+03      7.80324798E+02
      8.01568904E+02      5.21990012E+01     -7.72655998E+02
      8.71200000E+02      1.35010907E+03      7.16185004E+02
     -1.16685727E+03     -5.81417658E+01      3.50137024E+02
      1.39080577E+02     -1.00293675E+03     -2.37145447E+02
     -7.66505130E+02     -6.26838457E+02      8.01657424E+02
     -1.87946223E+03     -6.28842112E+02     -6.30246424E+02
      7.68472132E+01     -1.13082284E+01      1.28635809E+03
     -2.85084217E+03     -4.23133183E+01      2.55287058E+01
      3.03031906E+03      2.04353501E+03      7.59775099E+02
     -3.07797535E+02     -7.03710944E+01      7.08863665E+01
      2.17521403E+03      4.90668646E+02      1.59953786E+03
     -1.42608702E+02     -2.19860130E+02     -2.38428821E+03
     -2.75508316E+02      4.92425598E+02      5.72411774E+02
     -1.06040619E+03      4.51265685E+02     -1.92652107E+02
      6.26560078E+02      1.61376196E+03      2.42913864E+03
      9.27899691E+02     -1.01211142E+03     -3.98326109E+02
     -3.86744427E+02      1.78061234E+03     -1.24602830E+03
     -5.44254676E+01      1.48531979E+02     -3.17933644E+02
     -6.05538726E+02      1.49293760E+03     -1.99384563E+03
      1.83694015E+02      3.53202901E+02     -6.63078754E+01
     -4.28149709E+03      2.23394668E+03     -2.80036952E+03
      3.81273677E+03     -1.07979800E+03     -2.83340145E+02
      2.57975071E+03      7.64451243E+01      7.50360094E+02
     -2.19196025E+02     -4.95359342E+02     -6.90587230E+01
      2.31542612E+02      1.43140807E+02      3.33867866E+02
     -1.91233394E+03     -3.44156674E+03     -1.00955668E+03
     -3.87162956E+02     -4.45039266E+02     -1.63371856E+02
      2.81722882E+03     -1.44933816E+03     -4.26571405E+02
      8.05020052E+02     -4.52207447E+02     -1.22556339E+03
      2.26160767E+01      4.63442213E+02     -2.21313370E+02
      1.85931670E+03     -2.35079380E+02      1.87812189E+03
      7.22740916E+02     -1.11483581E+03     -4.17527789E+02
     -2.66086914E+02     -4.73277102E+02     -2.78604820E+02
      1.80853101E+03     -9.90992081E+02      7.80292693E+01
     -5.56087536E+02     -1.50294855E+03      2.85108412E+03
     -3.27612097E+02     -3.33606330E+01     -4.70029926E+01
     -1.16567654E+03     -4.60167471E+02     -2.01598162E+03
      6.64717302E+02      3.68700620E+02     -4.56197165E+02
     -2.55043655E+02     -6.91014396E+02     -8.15673583E+01
     -4.50846374E+02      5.59740638E+02     -1.03384425E+03
      1.66505511E+03      1.78372524E+02      1.01274210E+03
      3.02818832E+02     -2.49216320E+02     -4.03497072E+01
     -8.69328037E+02     -2.46442368E+02      8.79466865E+02
     -4.96516090E+02      3.32117514E+02     -1.71470556E+03
     -8.19210529E+01      2.67705611E-01      5.51881022E+02
     -1.30043115E+02      1.83510276E+03     -3.52715571E+03
     -1.46531081E+02      1.74528067E+03     -3.24518097E+03
      3.53755166E+02      4.21228926E+02      2.86776695E+02
     -9.07375976E+02     -2.33775523E+03      2.65520521E+03
     -2.66818678E+03      1.00743962E+03      1.74349282E+02
      1.94842372E+03      1.62593771E+03      9.83591481E+02
     -9.47601878E+02     -7.70715868E+02     -6.82565151E+02
     -1.79036827E+03      6.65073346E+02     -3.69039356E+02
     -3.02944139E+02     -1.01081412E+03     -6.99514741E+02
      2.09035890E+03     -3.99350445E+03     -1.17199440E+03
      6.25968106E+02     -1.86858630E+02      1.30010929E+02
      1.46237644E+03      3.10995578E+03      1.85662970E+03
     -3.46991384E+03      9.79368064E+02     -3.00206313E+03
      2.25652175E+02     -7.34593764E+02     -1.28910671E+02
      2.21396768E+03      2.21045295E+03     -3.33269744E+03
     -7.18334413E+02     -9.52489395E+02      6.63509183E+02
     -3.20373181E+02     -7.17311642E+02      2.71073429E+02
      4.84317257E+02     -1.99158245E+03      1.15177741E+03
      3.77306834E+03      2.29979406E+03      5.81531781E+02
     -3.37325488E+01     -1.44590130E+02     -1.52418068E+02
      2.10857012E+03     -1.66989734E+03      7.03527844E+02
      1.01235767E+03      2.05882765E+02      7.99438973E+02
     -1.97375931E+02      2.22222069E+01     -1.01460761E+03
      3.72948351E+03     -7.57088049E+02     -2.42443045E+03
      2.53320397E+03     -1.37902295E+03     -3.73668839E+02
     -4.70244018E+02     -3.93245079E+02      5.14231270E+02
     -8.35403880E+02      1.06804994E+03      7.88468061E+02
     -2.15970739E+03     -5.69517725E+02     -7.42599241E+02
      1.44682975E+02     -1.56082672E+02      1.16612132E+02
     -2.54216679E+03      2.25066165E+03     -9.39361780E+02
      3.20686635E+02     -9.87610833E+02     -1.42328848E+03
      4.23464121E+01      1.60349872E+02     -4.66214472E+02
     -9.62639057E+02      2.06870339E+03      4.61536072E+02
      1.22927196E+03     -7.01093226E+02     -2.96173192E+03
      1.37709161E+02     -4.46587140E+02      3.15792776E+02
     -6.35469710E+02      1.50854386E+03      1.17575479E+03
      4.40945439E+02     -1.33707878E+03      8.83630780E+02
      3.49018812E+03      4.32344872E+02      7.56074996E+02
      5.10675463E+02     -7.09961551E+01     -1.38661095E+02
      1.11257518E+03      6.82292773E+02      1.03606669E+03
      6.47529678E+02     -3.79541530E+03     -1.18248970E+03
      2.70200857E+02     -1.04134801E+03     -1.95195304E+03
      3.39778185E+02      5.13731731E+02      1.98210873E+02
      5.06618815E+01     -4.60826758E+02     -2.75657149E+02
      6.21215635E+02     -1.37693526E+03      7.51554570E+02
     -2.66440370E+02      3.01043984E+02      4.51372474E+02
     -4.28928411E+03     -1.12120321E+03      3.32353933E+03
      2.26468785E+03      1.77551295E+03      4.42406009E+02
     -2.56577520E+02     -2.01291324E+02      5.85101961E+02
     -3.31744388E+02      1.32928157E+03     -3.71536137E+02
      9.24975555E+02      3.15146104E+03     -1.50975592E+02
     -5.03870316E+01     -3.89794576E+02      8.71798056E+02
     -2.25055703E+02      1.79680231E+03      3.82959482E+03
     -1.35230556E+03      1.75349864E+02     -1.17981460E+02
      3.05842977E+02     -5.73335507E+02      4.60465632E+02
      3.79629129E+01      7.09335015E+00     -4.35379864E+02
     -2.56089369E+03      2.35195809E+02     -2.35678930E+02
      2.76230166E+01     -8.79150414E+00      6.37396869E+02
     -1.20109452E+03     -1.38780048E+03      4.70398220E+02
      9.26380436E+02      6.57685062E+01     -6.77435128E+02
      8.23136296E+01     -7.49666375E+01      6.07321721E+02
      3.40495589E+02     -5.92739969E+02      5.60556813E+02
     -2.37563309E+02      1.52148508E+02      2.93557425E+03
      3.78837754E+02     -1.07496611E+01      9.37805756E+01
     -1.29592124E+03      1.59464591E+03      1.06772083E+03
      2.29680308E+03     -4.49569315E+02     -6.30672137E+02
      1.76701064E+02     -3.62832881E+00      9.23958856E+02
      7.50921923E+02     -1.38276495E+03      2.98402386E+03
     -5.26494591E+02      9.83729014E+02      1.75303467E+03
     -2.87633010E+02     -2.65977053E+03     -1.84951760E+03
     -1.29449971E+01     -2.22290277E+02     -1.64199738E+02
     -1.13942557E+03     -2.46654744E+03     -5.73616860E+02
      1.06140265E+03      1.12073072E+03      1.17628362E+03
      1.36778826E+03     -6.41031907E+02      2.59830986E+03
     -2.88116461E+02     -4.93717497E+01      2.49249521E+02
      1.19441665E+03     -1.10457675E+01     -1.26611795E+03
      1.22263017E+03      1.55408706E+03      2.06126557E+03
      4.71098629E+02     -1.80538607E+02      2.36887371E+02
      1.10090898E+03     -1.38602387E+03      1.16765951E+03
      1.12473380E+03      8.51444780E+02      3.13609421E+03
      2.14999306E+02     -1.57861279E+02     -2.62739304E+02
     -2.54892232E+03     -1.15866128E+03      1.22891307E+03
      5.55572201E+00      1.04406450E+03      3.11269738E+02
      9.35698357E+02     -1.84314238E+02      1.03723773E+02
      2.09165889E+03      8.61759690E+02      1.39803531E+03
     -1.94165087E+03      6.80235577E+02      1.84763625E+03
      3.07116483E+02     -4.30631231E+02     -4.04329964E+02
     -7.50328085E+02      4.65996881E+02      3.51921645E+03
     -1.52615120E+02      1.05706047E+03     -2.10425427E+03
     -7.96931405E+01     -1.37405701E+02      4.78483983E+00
      6.96237860E+02      2.25762712E+03      6.41601651E+02
     -1.47632110E+03     -4.55292659E+03      3.85466090E+02
      5.18827505E+02      1.96927501E+02      6.28910871E+02
      1.31183347E+03     -1.44702716E+02      3.24314787E+03
     -9.81984763E+02     -5.98321779E+02     -2.74752912E+02
      9.62226535E+02     -4.27023331E+02      3.07154765E+02
     -8.21006293E+01     -1.58938488E+03      6.66170883E+02
      7.59588682E+02     -1.06178717E+03      4.73386115E+02
     -2.17493518E+02     -4.15760438E+02      7.87241194E+02
     -9.17845288E+02      2.32015941E+03      9.46094700E+02
     -2.29399901E+03      4.65671418E+02      5.44738756E+02
      2.15990628E+03     -2.37719473E+03      2.63028846E+03
      4.58598890E+02     -1.87126287E+02      5.84130674E+02
      3.30844451E+03      9.28981039E+01      6.68894485E+02
      2.50010460E+03      2.60591194E+02      2.24904682E+03
     -2.30878390E+03     -1.33211313E+02      1.06347113E+03
      6.55145854E+02      1.18382899E+02      6.02037186E+02
      3.68896168E+02      1.10411735E+03     -2.11676867E+02
     -3.31475286E+02      9.28587879E+02      1.68788961E+03
      7.47988975E+02     -8.44371852E+02     -9.46535913E+02
      2.91426974E+03     -2.03652541E+03      9.74348596E+02
      2.88599986E+02     -3.67271739E+02      4.42664002E+02
      3.32532149E+02     -9.05975474E+02     -7.10137756E+02
     -7.37344519E+02      7.19845350E+02     -5.41091621E+02
     -8.11960509E+02     -1.54501282E+03     -3.52783960E+03
      3.00643135E+02     -1.30074838E+03      4.42787659E+02
      9.66042963E+02      1.17393206E+03      3.47656196E+03
      1.79327809E+03      5.40938893E+02     -1.52255093E+03
     -4.20470279E+02     -4.64352964E+02      3.79980637E+02
     -5.25423269E+01     -4.55214599E+02     -9.37803788E+02
      1.76343598E+02      3.03456228E+02      1.54199151E+03
      8.85748893E+02     -7.20138086E+01      2.66998471E+02
      2.50891495E+03     -5.75906212E+02      2.04507818E+03
      4.58639793E+02     -2.24693529E+03     -1.01464449E+03
      1.51065862E+02      5.15632080E+01      2.01430136E+02
      1.68897268E+02      8.04672101E+02      3.55331922E+03
      6.79949870E+02     -4.34549238E+03     -2.94487848E+02
     -5.59822672E+02     -4.85660004E+02      1.41046549E+03
      1.16511033E+03      1.88464533E+03      8.95223284E+02
      1.19031535E+03     -5.89782388E+02     -1.71693700E+03
     -1.37238261E+02      1.73807998E+02      2.09346578E+02
     -1.19394908E+03     -1.38499347E+03     -3.28107505E+02
      1.69005289E+02      4.35321752E+03     -2.36053667E+03
     -1.63990600E+03     -1.36773578E+03     -1.55799272E+03
      5.99426129E+02      1.28549143E+02      4.63426926E+02
      1.13783740E+03     -1.01890172E+03     -4.14846655E+02
     -1.30676983E+03      7.84045094E+02      1.40921430E+03
      1.22907771E+03      9.36489031E+01      1.56191388E+02
      1.02093817E+02     -8.41659597E+02     -2.88641820E+02
      1.90990844E+03      1.18681191E+03     -7.62959136E+02
     -1.69869773E+03     -5.18905197E+02      1.61805042E+01
      5.76240610E+02      2.01959429E+02     -1.90721036E+02
     -2.08417097E+02     -4.48657008E+02      3.49861823E+02
     -1.17319414E+03      3.24736094E+02      3.20463670E+03
     -7.91248723E+01     -7.12050893E+02     -1.96592562E+02
      2.88147871E+02     -5.56869128E+02      8.06976052E+02
      2.45525669E+03      1.73427410E+03      1.33602777E+03
      1.01132607E+03     -1.23038297E+02      1.02751525E+02
      3.91916816E+02      1.10411498E+03     -1.73239776E+03
     -1.17956157E+03      1.86674665E+03      2.41558849E+02
      1.37917765E+01     -5.67521426E+02     -1.38201069E+02
      2.70358665E+03      2.72787905E+03     -2.60757081E+03
      4.53340735E+03      3.33213878E+03     -2.87710206E+03
      2.96094050E+02      9.40223317E+02     -7.91360997E+02
      3.70076435E+02      2.62289173E+02      5.70133840E+02
     -1.48672805E+03      9.30164814E+02      2.39072986E+02
      3.74739701E+02      5.38610421E+02      3.36313304E+02
      1.23367030E+03     -1.87924636E+03     -1.11880186E+03
      4.34574355E+02     -4.01279824E+02      2.38340277E+01
      1.07283891E+03     -4.33379404E+02     -3.30236536E+02
      7.40523462E+02     -2.98967165E+03      6.91712908E+02
      6.14442809E+02      2.79367696E+03     -2.72941898E+03
      3.48737612E+02     -3.06750888E+02     -2.03545872E+02
      8.31900975E+02      1.21865758E+03      6.77052127E+02
     -9.05600293E+02     -1.64537631E+02     -1.10603949E+03
      1.67582231E+03      1.40114706E+03      1.34812468E+02
      5.71677226E+01      8.28714698E+01     -1.23499883E+02
     -1.20190375E+03      2.10997680E+02     -6.13790449E+02
     -4.44797369E+02      2.80511512E+02      1.20394383E+03
      2.91143616E+03      8.07548684E+02     -2.07681003E+02
      7.93111716E+01      7.19136872E+00      4.86115489E+02
      9.57465393E+02      1.61251712E+03      2.28512525E+01
      2.49833202E+02     -1.12802740E+02     -2.56157673E+03
      1.09975335E+01     -1.14968570E+02     -6.12568278E+00
      9.17071279E+02     -5.81348721E+02      1.50758007E+03
      2.10509170E+03      2.06737539E+03     -3.41285308E+02
      1.75704438E+02      6.30515601E+01     -4.75364360E+02
      1.53663848E+03      4.39153408E+02     -3.02302536E+03
      1.89042053E+03     -1.15495629E+03     -1.74672392E+02
     -6.54040732E+02     -3.43572933E+02      5.13108974E+01
      6.66612907E+02     -1.19804426E+03      1.47764202E+03
      5.46222826E+02      2.19640265E+03      8.04777732E+02
      4.31437775E+02      6.58232163E+02     -2.47893678E+02
      4.42830855E+02      2.42299305E+02     -3.20601389E+02
      2.51327705E+02      8.01998696E+01      1.30044579E+03
     -3.74095027E+02     -9.27047952E+02      6.45525043E+02
      1.24464493E+03      2.15331674E+03      3.26807223E+03
     -8.70485488E+02      1.77750518E+03     -1.51294429E+03
      5.38671071E+02     -2.44381476E+02     -3.07389837E+02
      2.87812823E+02      3.20686840E+03     -3.30301891E+03
      3.12580222E+02      1.95514871E+03      1.61153883E+03
     -5.86476287E+01      8.23729018E+02     -5.74094579E+02
     -8.92640522E+02     -6.39702503E+02      2.42794489E+03
     -7.81670116E+01     -5.53250685E+02      8.98254690E+01
     -3.48049867E+02     -6.92824624E+02     -4.44215356E+02
     -7.12593353E+02     -5.86944297E+02      9.38198021E+02
      1.67556757E+03      2.01250898E+03      1.41480988E+03
      3.58798847E+03     -2.16396473E+03     -4.85731081E+02
     -1.39434341E+02     -4.51547124E+02     -3.16746920E+02
      1.05110440E+02     -6.11025428E+02     -3.97504399E+02
      1.85933698E+03      1.27393036E+03      1.23066371E+03
      1.62224113E+03     -9.13758924E+02      1.41875873E+03
      8.42264451E+01      6.75880986E+02     -4.32630854E+02
      2.11450250E+03     -5.46650899E+02     -3.06781227E+03
      2.04184436E+02      1.10784097E+03     -7.72946795E+02
     -1.41593440E+01     -2.85177496E+02     -2.30984511E+01
     -1.54805264E+02     -1.92012680E+03     -2.09507870E+03
     -1.66063365E+03     -3.55406748E+02     -7.24185989E+02
      4.86743182E+02      3.78288309E+02      1.08417332E+02
      1.54161978E+03      1.08608248E+03     -3.82035585E+03
     -4.95506705E+02      6.93538432E+02     -1.54792509E+03
      1.79385674E+02     -1.60767536E+02      3.44607627E+02
      4.98190116E+02      2.64193196E+03      5.84133994E+02
      2.52700089E+03     -4.38380753E+02      4.98435344E+02
     -4.13983913E+02     -1.18860694E+02     -2.71859179E+02
      9.11853403E+02      3.62196385E+03     -7.89633923E+02
      1.84088746E+03      3.01595105E+02     -1.00122779E+03
      1.29798267E+02     -7.00578438E+01     -6.81695382E+02
     -2.12560788E+03      2.48398182E+03     -6.34739161E+02
      6.00006100E+02      8.35632405E+02      7.06048672E+02
      1.64418730E+02     -4.06530454E+02     -3.86389067E+02
      7.94787270E+02     -1.45297694E+03      3.92482457E+02
     -1.52369969E+03     -2.80888080E+03      1.45367978E+03
      7.69375850E+02     -5.18545152E+02     -5.08913270E+01
      2.05188302E+03     -1.48853445E+02      1.40153534E+02
      2.80130752E+03     -3.91129445E+03      2.31365494E+03
      1.72700462E+02     -5.81559764E+02     -4.60652102E+02
      1.10288356E+03     -4.86012857E+02     -1.22317725E+03
     -1.10499884E+03     -3.11414646E+03      1.33100161E+03
      7.31687463E+02      1.78671744E+03      1.95750785E+03
     -2.19669669E+02     -9.57889394E+02      7.14883075E+01
     -2.99597139E+03     -1.48886901E+03      3.89401301E+02
     -5.49318886E+02     -1.99960881E+03     -1.99988201E+02
     -5.53887831E+02     -1.49593350E+03      1.69920900E+03
      8.69979545E+02     -4.49019130E+02     -4.04497677E+02
      6.54546812E+02     -6.96003363E+02     -2.65403191E+02
      5.51494348E+02     -7.43648106E+01     -5.75261255E+02
     -5.91538368E+02     -5.14484452E+02     -1.13733292E+02
      2.13689531E+03      4.56440056E+02     -6.47590757E+02
      6.21240243E+02     -5.88823681E+02      1.92143838E+03
      3.75019915E+02      2.45359817E+02     -6.19712639E+02
      4.36381628E+01     -1.12316802E+03     -1.88888813E+03
     -1.89971459E+03     -1.82717618E+03     -2.68541610E+02
     -1.99086690E+02      4.15649201E+02      5.60476891E+01
      2.34780317E+03     -3.63357108E+02     -4.64920872E+02
     -5.29340784E+02     -2.76122859E+03      2.69684445E+01
     -4.83933664E+02     -1.91634517E+02      3.80428533E+01
     -1.60343168E+03      1.87145396E+03     -1.16904237E+03
      9.56158920E+02      3.29883935E+02     -1.24646523E+02
      7.73163476E+02     -1.19898304E+02      3.95374232E+02
      8.41886652E+02      1.85880653E+03      1.72926262E+02
      3.38941749E+03     -2.06381676E+03     -1.14906281E+03
     -6.99196247E+02     -7.40263088E+02      3.10867716E+02
     -1.99302245E+02      7.22641609E+02     -2.02070275E+03
      3.36884558E+03     -1.26815805E+02      2.64018663E+03
     -9.70221480E+02     -3.02202453E+02      1.18719633E+02
      7.63722120E+02     -1.55661507E+02      3.18019906E+02
     -7.16769507E+02     -1.45455278E+03      6.63498753E+02
      6.05235194E+02     -5.52869366E+02      6.97617397E+00
      3.35777694E+03      1.26190692E+03     -1.31457931E+02
      1.72080728E+03      9.93166000E+02     -4.75650855E+02
     -2.92412441E+01     -2.63545925E+03      1.19436803E+02
     -8.97748241E+01     -5.52659537E+01     -2.94034423E+01
      9.69891485E+01     -1.53864972E+03      9.11898401E+01
      1.91441062E+02     -2.73785752E+02     -1.79733081E+03
      2.08294739E+03      2.02656297E+03      3.12803907E+03
      1.79823512E+02     -2.34917006E+02      3.10772126E+02
      9.43391037E+02     -3.28047842E+02      2.89505734E+03
     -3.90025936E+03     -1.39796526E+03      9.72164903E+02
      1.84990275E+02      8.65519256E+02      1.10976847E+02
      1.17986417E+03      1.12059111E+03     -5.09759050E+02
     -1.32271995E+03      3.71724749E+02     -4.30598259E+02
      1.71886900E+02      3.00307846E+01      1.09546503E+02
      6.92389061E+02     -1.72530231E+03      1.91755734E+03
      7.09260984E+02     -1.22152152E+03      1.18851725E+03
     -1.74543100E+02     -1.87811987E+02      9.00761906E+02
     -1.23099793E+03     -1.41585537E+03      1.17390173E+01
     -1.32528592E+03      2.63947518E+03     -1.89237200E+03
      2.07789901E+01     -1.65379550E+02     -5.64468364E+02
      2.23070495E+02      1.02365276E+02      8.95970011E-01
     -4.71014317E+02     -8.07987083E+02      2.68618756E+03
     -2.24016132E+02     -1.17887279E+02     -4.19098217E+02
      1.51214233E+03     -1.78694071E+03     -8.84972972E+02
     -2.17887870E+02     -3.13012189E+02     -2.07669347E+03
     -1.94912400E+01      5.31933319E+01     -1.33726127E+02
     -3.68945277E+03     -1.21210128E+03      2.70225296E+03
     -6.59861372E+02     -5.50723102E+02     -2.47365808E+03
     -1.80679848E+04      1.99159694E+04     -8.01285699E+03
     -1.37443618E+02      5.95192483E+02     -1.81472323E+03
      5.42665477E+02      9.17517193E+02      2.34049198E+03
      3.47702285E+02     -1.63623948E+02      3.70347300E+02
      1.71337273E+03      9.57142530E+02      4.11465315E+02
     -1.86778990E+03      1.56156037E+03      2.11263124E+02
     -3.97242151E+02      2.41238873E+02     -2.41004317E+02
     -7.09851924E+02      3.03563017E+02      7.51862573E+02
      1.87500474E+03     -2.98279190E+02      8.96659412E+02
     -1.82146958E+03      3.45087531E+02      9.72031256E+02
     -1.89498912E+03     -4.99877546E+01      2.74142572E+02
  }
}

Hamiltonian = DFTB {
  SCC = Yes
  SCCTolerance = 1e-6
  MaxSCCIterations = 200
  ForceEvaluation = Dynamics
  MaxAngularMomentum = {
    C = "p"
    H = "s"
  }
  Charge = 0.0
  SpinPolarisation = {}
  Eigensolver = Standard {}
  Filling = Fermi {
    Temperature [Kelvin] = 300.0
  }
  SlaterKosterFiles = Type2FileNames {
    Prefix = "../../pbc-0-3/"
    Separator = "-"
    Suffix = ".skf"
    LowerCaseTypeName = No
  }
  KPointsAndWeights = {
    0.0000000000000 0.0000000000000 0.0000000000000 1.00000000000000
  }
  Dispersion = LennardJones { 
    Parameters = UFFParameters {}
  }
}

ParserOptions = {
  ParserVersion = 3
}
