Geometry = GenFormat {
<<< "system.gen"
}

Driver = VelocityVerlet{
  Steps = 100000
  TimeStep [fs] = 0.2
  MDRestartFrequency = 5
  Thermostat = None {
    #InitialTemperature [Kelvin] = 300.0
  }
  Xlbomd{ 
    IntegrationSteps = 6 
    MinSccIterations = 2
    MaxSccIterations = 200
    SccTolerance = 1e-6 
  }
  Velocities [m/s] {
     -7.94527359E+02     -2.55140185E+02     -6.54620235E+01
     -2.68027708E+03     -5.25187406E+02     -3.06246959E+03
     -2.12259134E+03      1.66704033E+03     -1.29411683E+03
     -2.26173822E+01      5.76911189E+02      3.41235766E+02
      1.44187255E+02     -1.12347754E+03      1.41211787E+03
     -2.29720592E+03     -3.78324556E+02     -6.88101915E+02
     -8.83486558E+02     -1.76608398E+02      7.75705967E+02
      5.36004821E+02      9.02640285E+02      2.57749252E+03
      1.13081034E+03     -1.91090966E+03      6.60262104E+02
      3.26372855E+02     -2.84376338E+02     -1.52564980E+02
     -1.82192842E+03     -3.19266180E+03      1.96978309E+03
     -1.07940749E+03     -6.42859223E+02     -7.61732953E+02
      4.95409724E+02     -1.18966216E+03     -3.84689060E+02
      5.20055124E+02     -7.26986253E+02     -2.83374427E+02
     -1.57081395E+03     -3.27519311E+03      2.70514351E+02
     -5.59028509E+02     -4.64776197E+02     -9.00529112E+01
     -6.20788418E+01     -2.10264169E+03     -1.04938120E+03
      8.42762886E+02      1.67679323E+03      1.38225183E+03
      3.74749648E+02     -2.65277177E+02     -3.46918845E+02
      2.48276665E+02      1.60854675E+03      1.16814992E+03
     -1.07099290E+03     -2.07994087E+03     -1.22228317E+03
     -4.52992966E+02     -6.21855915E+02      6.84859105E+02
      9.79397853E+02     -9.60220978E+02     -1.14414032E+03
     -2.09233072E+03      4.96546375E+01     -2.61385497E+03
     -5.61541089E+02      7.68591788E+02     -7.56397498E+02
     -5.97547820E+03     -5.50259251E+02     -1.19992294E+02
      3.86605662E+01      2.59819854E+03      1.35524677E+03
     -7.64685103E+02      2.13940802E+03     -6.02993359E+02
     -4.97229696E+02     -6.45271903E+02      4.04195387E+02
      1.33890880E+01      1.71307356E+03      1.82222920E+03
     -8.36944960E+01     -9.87946630E+02      1.30456647E+03
     -2.47086720E+03      1.24111287E+03     -2.70638441E+02
     -3.24659592E+02     -2.10251642E+02     -3.54382455E+02
      8.41937185E+02      2.09449913E+03      6.06174203E+02
     -1.96034620E+03      1.82830125E+02     -1.68207105E+03
     -2.46039916E+02     -2.02839557E+02     -3.27308813E+02
      5.66259664E+02     -2.63820265E+03     -2.59385379E+03
      6.22605961E+02     -3.10098554E+02      3.49206331E+02
     -5.35870306E+02     -5.73127471E+01      6.53978737E+02
     -4.18496130E+02     -3.49889470E+01      2.34938260E+03
     -1.40825010E+02     -9.84419770E+02      1.48204611E+03
      2.30192357E+02     -1.10815735E+03      4.52247203E+02
      9.27309351E+01     -5.36904531E+02     -6.76232994E+02
     -2.36593243E+03     -1.73188611E+03     -1.18315623E+03
      2.44063963E+02      3.13046445E+01     -9.76866385E+02
     -1.17835910E+03      3.23869285E+02      2.61408339E+03
      3.13198093E+01     -2.08631857E+02      1.06544372E+03
     -2.76573245E+02     -1.83149398E+01      3.76570592E+02
      6.65143363E+02      1.44359789E+03     -1.49038797E+02
     -1.38572191E+03     -4.81269591E+02     -1.53432723E+03
      2.93901374E+01      1.37620110E+02      4.87659958E+02
     -1.53780282E+03      2.34750321E+02     -4.79448272E+03
     -1.85365817E+03      3.26986414E+03     -2.69764822E+02
     -2.16788790E+02      4.62253125E+02     -7.13580286E+02
     -7.66764046E+02     -2.35347357E+03      4.67007353E+03
      2.75972184E+02     -3.25181759E+03      5.80230248E+02
      3.96200396E+01      4.07940157E+00     -6.74873246E+02
     -4.17679365E+02     -6.20215651E+01      3.74187382E+02
      3.28962139E+03      5.26073409E+02      4.34329394E+01
     -2.12460739E+03      5.34601525E+02      4.86114617E+01
      3.75279883E+02     -1.19593772E+02      1.77562252E+02
     -7.23519787E+02      2.23468982E+03      1.29660833E+03
      5.61014080E+01     -6.23042527E+01      1.45507677E+03
     -3.77787227E+01      4.15792678E+02     -3.57558420E+02
      3.77118337E+02      6.55331116E+02      3.27991800E+02
     -9.07878998E+02     -1.44005026E+03      1.63175611E+03
     -1.52295829E+02      6.99241297E+02     -5.57256004E+02
     -6.45578291E+01     -4.40790836E+02     -5.33168923E+02
     -7.16680833E+01     -6.57362837E+02     -1.21208710E+03
      3.81930464E+03      2.46136236E+03     -7.80828944E+02
      2.94180902E+02     -8.10181293E+02      5.54483433E+00
      1.12845711E+03     -1.87193274E+03     -3.59962150E+03
      9.08776026E+02      4.77795107E+02     -1.09026750E+03
     -6.13017490E+02     -9.23046350E+02      1.44856363E+02
     -1.02634268E+03      1.24785272E+01      2.38344724E+02
     -1.49777708E+03     -1.43668701E+03      9.21378182E+02
     -2.34011016E+02     -6.04392778E+02     -2.58751777E+02
     -2.36984230E+03      8.18079611E+02      6.09463820E+02
     -1.48969886E+03      3.49677933E+03      8.21949603E+02
      4.53660863E+01     -9.79730511E+02     -2.18854991E+02
      2.51812956E+03      4.19475671E+03     -1.81655164E+03
     -7.21797951E+02     -3.51983620E+02      8.21436390E+02
     -2.59622400E+02     -4.92370271E+02     -4.62588662E+02
      1.80080811E+03     -1.99679721E+03     -4.98903489E+01
      9.42043966E+02     -2.19913636E+01     -1.41630028E+02
      2.05106692E+02     -3.49185827E+02     -1.44376352E+02
     -1.62404277E+03      6.33284185E+02      2.81863516E+03
      5.94061592E+02     -1.95894341E+03      1.18778654E+03
      4.72952806E+02     -7.28148358E+02      4.39428642E+02
      1.44037946E+03      1.42054340E+03     -1.36456333E+03
     -1.38231332E+03     -5.22971862E+02     -1.70353283E+03
      7.06684071E+02     -1.10464971E+03      1.37571432E+03
      1.23789979E+02     -7.62553093E+02     -2.42485362E+02
     -2.37797911E+03     -1.88690334E+03      1.27413289E+03
      2.02570766E+03     -9.20528270E+02     -1.84654364E+03
     -2.82316209E+03     -2.16319673E+03     -5.99459836E+02
      6.92959606E+03      2.03239491E+04     -3.95478032E+03
     -2.15649670E+03     -9.90896714E+02      4.33419343E+02
     -2.67802121E+03     -1.53342434E+03      7.32275003E+02
      7.77217424E+02     -1.79823953E+02      3.79269523E+02
      1.44196136E+03     -2.66872403E+03      1.38749445E+03
      4.52282844E+02      2.33995695E+03      1.23551227E+03
     -1.06438371E+03      2.10695401E+02      2.02008518E+02
     -8.37008357E+01      2.13607839E+02      4.42571128E+02
     -2.23840949E+02     -4.35964075E+02      3.97012777E+02
      4.63420159E+01      8.47789404E+01      1.06125317E+02
      1.37795379E+03      3.74026070E+03      1.37234803E+03
      2.22497964E+03     -3.86249632E+01     -1.31940724E+02
      2.34173786E+02      2.06742490E+02      6.54113572E+01
      1.01330744E+03      9.24851087E+02      1.54053867E+03
     -2.42659497E+03     -1.32470668E+03     -1.92365949E+03
      7.46822398E+00     -1.64341922E+02      1.20872666E+02
     -7.89442489E+02      6.95555745E+02      1.14604063E+03
      1.93155802E+03     -1.97810449E+03      1.90789048E+03
      1.26581449E+02      2.27069201E+02     -5.05481148E+02
      2.78418914E+03     -4.72767042E+02     -2.42235192E+03
      9.95765050E+02      1.46565518E+02      1.69435050E+03
     -4.33877673E+02      1.16703430E+02     -4.70957662E+02
      2.35701292E+03      3.58351886E+02     -1.44526468E+02
      4.80480690E+02     -3.02821423E+00      4.55642516E+03
      3.09578912E+02     -3.86066655E+02      5.10792379E+02
     -2.22299604E+03      1.94050983E+03     -1.31368537E+03
     -5.09641476E+02      1.54520767E+03      2.40056347E+02
      2.75127967E+03      2.47215031E+03      1.32664290E+03
     -6.74128328E+01      3.24177950E+02     -2.70090967E+02
     -5.46459433E+02     -1.44395883E+03      1.21129394E+03
     -2.79173351E+03      2.29166631E+03     -7.21506230E+02
      2.75110373E+03      7.34484859E+02      1.92406675E+03
      3.67319715E+02      2.71639523E+02      9.72578552E+01
      1.51598355E+03     -1.28692732E+03      9.09286696E+02
      1.93349955E+03     -1.29407490E+03      8.02373920E+02
      7.54850147E+02     -2.78771763E+02      6.28483126E+02
     -1.33237698E+03     -8.74258927E+02      1.73128348E+03
     -1.70178858E+02      2.12601599E+01      9.77746580E+02
      1.06641430E+03      2.29708154E+02     -9.00327675E+02
      1.25541495E+02     -1.24575131E+03      1.02002337E+03
     -2.18786314E+02      2.13266256E+02      1.97633460E+02
     -1.43124278E+02     -8.94945909E+02     -3.84620695E+02
     -1.00235727E+03      1.27681471E+03     -1.09901337E+03
      1.46962374E+03      6.55381443E+02     -3.09718360E+02
     -1.17994291E+03     -3.87646931E+02     -4.49274076E+02
      9.97204840E+02      3.43971750E+02     -7.85097591E+02
     -2.18035573E+02      2.49186197E+03     -1.84527857E+03
     -1.02667610E+02      3.35920073E+02      6.95547551E+02
      2.77070484E+02      2.64472708E+03     -1.32169274E+03
     -1.74089463E+03      1.40428200E+03      6.05657546E+02
      1.11385036E+02      4.37940633E+02     -8.49223919E+02
      1.36750688E+03      6.12370969E+02      1.29310031E+03
      1.24980829E+02      7.79336545E+02      3.73377141E+02
      1.97873879E+02     -8.01108667E+01      6.53214403E+02
      5.61719005E+02     -2.19657127E+02     -1.50015869E+02
     -4.68118261E+02      3.32729397E+03      1.85456048E+03
     -2.14414905E+02      2.33872149E+02     -2.61256269E+01
     -5.84313101E+02     -1.07892768E+03     -1.25744981E+03
     -9.26591757E+02      4.08204773E+03     -4.43720626E+03
     -2.19212601E+03     -1.54305340E+03      7.43227335E+01
     -1.78545112E+02     -5.61086621E+02      3.68217081E+02
      4.71220711E+02     -5.54172686E+02     -2.58005591E+03
      6.29285024E+01      1.28973034E+03      1.60117149E+03
     -2.04758419E+03     -7.94146154E+02     -9.42446869E+02
     -2.58530720E+02      1.30070080E+02      1.66659670E+02
     -3.05758091E+03      3.95992754E+02      4.22232828E+02
      1.66493339E+02     -3.77281793E+02     -1.03835701E+03
      7.07238344E+02      7.46578494E+02     -2.53434056E+01
      3.32656400E+03      9.45660263E+02     -7.63862889E+02
     -1.55832683E+03     -2.07233293E+03     -3.89322457E+02
      5.85312455E+00     -3.13248276E+02      9.47968555E+01
     -5.12902301E+01      3.24045124E+03      2.40497766E+03
      5.03795829E+02      3.17237309E+03      6.96165724E+02
      2.41215237E+02     -1.76896264E+02     -2.49814077E+02
      1.78589639E+03     -4.93102887E+02      4.50319034E+02
      2.76656500E+01     -3.77142409E+03     -5.64894102E+02
      1.05088919E+03     -8.21032460E+02      1.38748563E+02
      3.02968450E+02     -2.24963232E+03      6.11457614E+01
     -5.68557552E+02     -2.83795683E+02     -3.05434533E+01
      3.17386785E+01     -3.90228928E+02      2.44263037E+02
      7.16598981E+02      9.25396290E+02     -2.17618938E+03
      4.27264273E+02      1.45503162E+03      2.85542177E+01
     -2.75007115E+02      4.05410030E+02      3.87033586E+02
      2.60327874E+03     -8.25297003E+01     -4.14309096E+02
      1.80380375E+03      1.11955144E+02      1.24366937E+02
     -5.40166674E+02      1.16714830E+02     -2.17777805E+02
      4.27497986E+02      1.15712574E+03      7.35969943E+02
     -6.89482409E+02      6.79360143E+02     -8.49187481E+02
      8.61889036E+02     -6.31574977E+02      5.17335250E+02
     -8.87544586E+01     -3.38625452E+03     -7.13354226E+02
      7.47210725E+01     -2.03989922E+02      3.55796050E+03
     -1.39803833E+03     -2.59604629E+03     -1.14670524E+03
     -9.15881374E+02     -3.17281563E+02     -7.29221908E+01
     -1.60997992E+02     -6.61427826E+02     -6.34560685E+02
     -3.15025640E+02      4.20004981E+02      1.57447702E+03
     -7.24199012E+02      2.11318486E+03     -1.45583561E+03
     -5.45398446E+02     -3.81291395E+02      8.35007411E+01
     -7.76783847E+02      1.97209801E+03      6.41315484E+02
     -1.13247245E+03     -1.21964529E+03      2.38577288E+03
     -5.94733158E+02      1.31751253E+02     -3.93559650E+02
     -2.21752877E+03     -2.43871435E+03     -1.50251096E+03
      1.83362557E+03      1.92699825E+02     -3.96470203E+02
      2.29536420E+02     -6.20821575E+02      8.99851774E+02
     -1.90433199E+03      4.74190935E+02     -1.37390413E+03
     -9.49774730E+02     -2.21685986E+01      3.91502225E+02
     -1.29744119E+02     -3.08228287E+02     -9.00307026E+01
     -1.16497950E+03      7.35832873E+02      1.06335756E+03
      1.70263180E+03     -2.39613738E+03      6.31258317E+02
      2.49713015E+02     -7.14997675E+02     -1.83154853E+02
     -3.87510157E+03      3.30161497E+02      8.35073422E+02
      9.73135867E+02      1.92746676E+03     -3.22854830E+03
      7.44377871E+02     -5.80900264E+02     -1.86825550E+01
      3.53393122E+02      1.85787858E+03     -5.83880411E+02
     -2.43208675E+03     -1.05890835E+03     -1.21873382E+02
      7.63332333E+01      1.76733371E+01     -3.19416750E+02
      2.68832495E+02     -3.51195973E+03      9.15299539E+02
      9.33992554E+02      2.79015700E+03      1.13411715E+03
      4.79065649E+02      3.12790518E+02     -1.51506342E+03
      1.44921633E+03      2.49566684E+02      3.96688526E+02
      2.43450447E+03     -3.67045433E+02     -1.43861803E+03
      2.65932853E+01     -9.37478793E+02      9.14571137E+02
      6.98624020E+02     -3.86967624E+03     -8.10312876E+02
     -2.27630591E+03     -1.66622497E+02      3.51634630E+03
     -5.52311278E+02     -1.70392480E+03      1.92704345E+03
     -2.54605991E+02     -4.38078620E+02     -4.65436531E+02
     -6.65075989E+02      4.22973039E+03     -1.66970601E+03
      2.74552674E+03      1.77823604E+03      1.77283038E+03
      1.12605566E+03      1.56926215E+03     -3.40401216E+03
     -5.06031822E+02     -2.31252507E+02      3.26557261E+01
     -1.60467209E+03     -1.54862807E+03     -1.44027246E+03
     -1.43322719E+03     -5.41558032E+02     -2.40188803E+03
      1.50783271E+02     -5.69080891E+02      6.97935097E+02
     -1.69274679E+02      1.33587179E+03      5.31246515E+02
      1.65764722E+03     -2.70477861E+03      7.34165319E+01
      7.08465225E+02     -5.45831839E+02      3.00403031E+02
     -3.75124361E+03     -4.27693606E+02     -2.68150402E+03
      8.93438074E+02      2.54123900E+02      2.52220163E+03
     -3.18210593E+02     -5.77470466E+02      8.67283403E+02
     -1.04419801E+03      1.66246704E+03      7.30890097E+02
      1.47381378E+03      1.43331283E+02     -1.18562957E+02
     -1.25301802E+02      4.57686432E+02      1.56757473E+02
      1.16956179E+03     -2.85006743E+02      2.85904913E+03
      1.89709314E+03     -1.11920935E+03      3.49142104E+02
     -8.17008594E+01     -7.40395780E+02     -1.46850328E+02
     -7.03363823E+02      2.85968642E+03      3.08974058E+03
      8.56171392E+01     -1.92458052E+03      2.10123912E+02
      4.63768301E+02      2.30223968E+02      5.80862464E+02
     -1.97056273E+03      1.96739931E+03      2.31673825E+03
      2.11379572E+03      1.01443765E+02      2.38437946E+03
      2.49188950E+02      4.17293838E+02      6.47542185E+02
     -1.89849223E+03      1.53073364E+03      8.03741691E+02
     -3.00009232E+03     -2.16111957E+03      2.97176466E+03
      2.72728303E+02     -7.99471818E+02      3.92587607E+02
      1.29540620E+03      1.81775526E+03     -7.65900998E+02
      1.88888295E+03     -2.51227180E+03     -2.63515427E+03
     -1.23013141E+03     -2.23137767E+03      2.54036765E+03
      3.18321615E+02     -1.16610961E+02     -4.18163517E+02
      1.14333768E+03      2.62245842E+03     -1.74355672E+02
      2.56504893E+03     -4.99049675E+01     -1.33344238E+03
     -1.71630547E+03      8.73914183E+02     -1.59335621E+03
     -6.80978290E+02      6.67326338E+02     -6.60141395E+02
     -4.97006251E+02     -2.05237599E+03      1.49629024E+03
      3.21571902E+03      1.99867555E+02     -8.57892611E+02
      1.37354799E+03     -4.18413231E+02      1.68059239E+02
     -3.35070653E+03      7.05946584E+02      1.28851697E+03
     -1.84689067E+03     -2.63844316E+03      8.01786693E+02
     -8.62728431E+01      7.21569343E+02      7.79313377E+02
      5.99308290E+02      1.56308395E+03      2.42740407E+02
     -3.28663401E+02      1.16602578E+03      7.22812095E+02
     -4.12941030E+02     -7.33306679E+02      5.61729421E+02
      1.33657685E+03     -1.69713000E+03     -3.27830084E+03
     -1.77056044E+03      4.18636946E+02      4.58212252E+01
      1.45550322E+02     -4.67067044E+02     -5.84747624E+02
     -4.31212403E+02     -1.10810368E+03      1.37252680E+03
      5.08424999E+02     -1.11767739E+03     -6.13398469E+02
     -2.71057982E+02     -5.08170958E+02      4.37212042E+02
      1.07051170E+03     -9.34416839E+02     -1.84347484E+03
     -3.14532924E+03     -2.32785290E+02     -2.97980779E+03
     -2.53811214E+02     -7.79817324E+02     -4.42263375E+02
      2.06692902E+03     -5.46280924E+02     -6.73345948E+02
      1.35346809E+03     -6.92589179E+02      1.12360363E+03
     -7.77930659E+02      5.21857246E+02     -1.92049886E+02
     -2.11478676E+02     -2.52525620E+03      3.78683029E+02
      5.52059867E+03      2.10039484E+03     -3.33366829E+02
     -7.43806378E+02     -7.53332800E+01      1.29036158E+02
      5.62111272E+02     -2.00081488E+03      2.49679881E+01
     -1.30760781E+03     -9.12344060E+02     -7.09426034E+01
      6.53999415E+02     -1.47903480E+03     -2.70134396E+03
     -3.86070433E+02     -5.10212286E+02      4.46628239E+02
      2.32223133E+02      7.71354173E+02     -2.83489521E+02
     -2.71552543E+03      1.05108670E+03     -4.11448724E+01
      1.76118578E+03     -7.84672228E+02      2.72275123E+02
      6.85812193E+02     -2.14479464E+02      4.04552917E+02
     -2.64326768E+02     -7.12212338E+02     -1.17033491E+03
      1.02828000E+03      5.21627541E+02     -1.57113677E+03
      1.61182208E+01      6.42305449E+02     -5.99492314E+02
     -2.66330052E+03      4.81805818E+01      1.98400612E+03
      5.34770333E+02      1.89215435E+03      5.86865792E+01
     -6.81730363E+02     -2.48944708E+02      2.10261023E+02
      2.04699370E+03     -3.22291034E+02      7.50864129E+02
      6.44047119E+02      1.27689812E+03     -2.69061194E+03
     -1.28695115E+03     -2.20335310E+02     -2.27890594E+02
      4.21628664E+03      4.24215550E+02      3.11602995E+01
      8.81622555E+02     -2.18246677E+03      2.95153885E+03
      1.62498920E+02     -5.60206209E+02     -4.20196284E+02
     -1.70139700E+02      1.96843481E+02      9.83570205E+02
      2.07436638E+03     -8.67661627E+02     -1.69296257E+03
      4.46860440E+00     -1.68525737E+02     -3.69833192E+02
     -3.39482451E+03      1.62898910E+03     -2.36923236E+02
     -1.50061817E+03      5.50140380E+02      1.67626468E+03
      1.24877249E+02     -3.57597930E+02     -1.14623514E+02
     -1.91512966E+03     -4.09666394E+02     -1.10704893E+03
      1.16411798E+03     -8.40988288E+02      2.94839350E+02
     -3.67722868E+02     -1.14264217E+03      7.03134194E+02
     -3.35003786E+03      1.39042579E+03     -1.06322221E+03
     -1.89140180E+03      6.82029388E+02      2.07350398E+03
      6.61719624E+01     -2.40665132E+02     -9.65085097E+01
     -3.48283881E+03      8.15089245E+02      1.31850244E+03
      2.33532364E+02     -2.88804080E+02      1.06295847E+03
     -2.06533409E+03      7.75258726E+02     -1.41871315E+03
     -6.68084364E+02     -1.22823196E+02      4.40052165E+01
     -1.36370970E+03      4.70255564E+02     -1.46333496E+03
      5.39034766E+02      2.07508322E+03     -2.03601749E+03
      1.29757898E+03      2.48570349E+03      3.04775823E+03
     -3.62932690E+02      1.75530965E+02     -4.62469635E+02
     -1.08393449E+03      2.89104611E+02     -2.02378283E+03
     -2.61920443E+03      1.33646730E+03      2.18862590E+03
      1.50948071E+02     -2.63922572E+02      5.79366778E+02
     -2.95308261E+02     -1.67233880E+03      2.04936383E+03
     -4.38202191E+02     -5.01174688E+02      5.81794453E+02
      2.30366541E+02      4.21696236E+02     -1.20531004E+02
      3.60727818E+03     -5.28822267E+01     -2.16078582E+03
     -1.34022868E+03      8.06874662E+02      7.18834914E+02
     -6.61702626E+01      3.69170390E+01      7.35345562E+02
      1.71813351E+03      2.16645631E+03     -1.10237638E+03
      2.05587869E+03      2.67828818E+03     -1.57546634E+02
      4.95640715E+02      6.87278350E+02     -2.83770113E+02
     -5.60284826E+02      7.14784660E+02      4.48298594E+02
      1.08780558E+03      1.05167636E+02      6.70117715E+02
     -1.53200328E+02     -2.16519868E+02     -9.59773702E+01
     -9.58752724E+02     -1.04727505E+02     -1.37862752E+02
      1.63235304E+03     -1.08239959E+02      7.95659378E+02
      2.52295595E+01     -1.59922526E+03      7.08780096E+02
     -1.15627511E+03      1.21754698E+03      2.32018439E+03
      6.91857227E+02      3.12252292E+03      2.53430922E+03
     -6.59345391E+02      1.59713994E+02     -2.12196440E+02
     -4.76227317E+02      1.44938234E+03      4.94502975E+02
      1.19828943E+03     -4.41856557E+03      1.74236021E+03
      4.30055224E+02      3.54089217E+02     -3.18259966E+02
      2.00753106E+03     -1.45193897E+02     -1.76955912E+03
     -1.53730811E+03      4.44445970E+02      8.40271277E+02
     -1.57787337E+01     -2.41900356E+03     -1.75961091E+03
     -8.13262457E+02     -4.09817068E+02     -1.44789143E+01
      1.81959230E+03     -9.41609368E+02     -1.67164470E+03
      2.42947347E+02      1.29140829E+03     -1.32521103E+03
     -8.93891504E+02      1.37042610E+03     -9.39284182E+02
  }
}

Hamiltonian = DFTB {
  SCC = Yes
  SCCTolerance = 1e-6
  MaxSCCIterations = 200
  ForceEvaluation = Dynamics
  MaxAngularMomentum = {
    C = "p"
    H = "s"
  }
  Charge = 0.0
  SpinPolarisation = {}
  Eigensolver = Standard {}
  Filling = Fermi {
    Temperature [Kelvin] = 300.0
  }
  SlaterKosterFiles = Type2FileNames {
    Prefix = "../../pbc-0-3/"
    Separator = "-"
    Suffix = ".skf"
    LowerCaseTypeName = No
  }
  KPointsAndWeights = {
    0.0000000000000 0.0000000000000 0.0000000000000 1.00000000000000
  }
  Dispersion = LennardJones { 
    Parameters = UFFParameters {}
  }
}

ParserOptions = {
  ParserVersion = 3
}
