Geometry = GenFormat {
352  S
C  H
1 1    0.3594395483E+02    0.3018605376E+02    0.4333689780E+02
2 2    0.3584303806E+02    0.2904750469E+02    0.4352739524E+02
3 2    0.3607958547E+02    0.3054233248E+02    0.4433961609E+02
4 1    0.3729620811E+02    0.4585031254E+02    0.4265042118E+02
5 2    0.3798956789E+02    0.4654495269E+02    0.4329883639E+02
6 2    0.2184135931E+02    0.4662234925E+02    0.4182976537E+02
7 1    0.3787413911E+02    0.4459774413E+02    0.4205301128E+02
8 2    0.2177491098E+02    0.4407064238E+02    0.4140757323E+02
9 2    0.3822131896E+02    0.4382493865E+02    0.4273061816E+02
10 1    0.2389504331E+02    0.4485019122E+02    0.4118117399E+02
11 2    0.2467849174E+02    0.4534676704E+02    0.4171609896E+02
12 2    0.2365479324E+02    0.4533675627E+02    0.4016720168E+02
13 1    0.3981643615E+02    0.4346132025E+02    0.4092192807E+02
14 2    0.3897314633E+02    0.4290491928E+02    0.4045587484E+02
15 2    0.3993644341E+02    0.4295811771E+02    0.4188344512E+02
16 1    0.2580492884E+02    0.4333643284E+02    0.4019485642E+02
17 2    0.2574526050E+02    0.4388923647E+02    0.3927397787E+02
18 2    0.2588354089E+02    0.4218140258E+02    0.3998068448E+02
19 1    0.4235021767E+02    0.4400401585E+02    0.4092038616E+02
20 2    0.4204518051E+02    0.4421051105E+02    0.4192665871E+02
21 2    0.4244799987E+02    0.4510557278E+02    0.4053764482E+02
22 1    0.4361843119E+02    0.4324236708E+02    0.4069053634E+02
23 2    0.2906260045E+02    0.4403567450E+02    0.4095891255E+02
24 2    0.2841940350E+02    0.4312253834E+02    0.3963075042E+02
25 1    0.3477885226E+02    0.3065621366E+02    0.4257254247E+02
26 2    0.3469133193E+02    0.3034121510E+02    0.4151175581E+02
27 2    0.3383166400E+02    0.3030401681E+02    0.4299460613E+02
28 2    0.3482545041E+02    0.3178483604E+02    0.4259410950E+02
29 1    0.4371510143E+02    0.4195421503E+02    0.4146486029E+02
30 2    0.4319314667E+02    0.4198368354E+02    0.4245405265E+02
31 2    0.4337990476E+02    0.4115498653E+02    0.4091675562E+02
32 2    0.4475033971E+02    0.4170191267E+02    0.4176710306E+02
33 1    0.3031903258E+02    0.3099127359E+02    0.3441542002E+02
34 2    0.2957961361E+02    0.3016748195E+02    0.3448227516E+02
35 2    0.3115412913E+02    0.3031221118E+02    0.3419068388E+02
36 1    0.3038708156E+02    0.3213815514E+02    0.3343045619E+02
37 2    0.3039233285E+02    0.3157115947E+02    0.3242317713E+02
38 2    0.3119018768E+02    0.3272369144E+02    0.3377091598E+02
39 1    0.2914741397E+02    0.3305426734E+02    0.3311726617E+02
40 2    0.2852009633E+02    0.3325038308E+02    0.3406990825E+02
41 2    0.2849521582E+02    0.3242745887E+02    0.3248832491E+02
42 1    0.2929111124E+02    0.3456939009E+02    0.3303543882E+02
43 2    0.4533805067E+02    0.3497615137E+02    0.3233539450E+02
44 2    0.2968583428E+02    0.3496072917E+02    0.3411782716E+02
45 1    0.2793753019E+02    0.3519788160E+02    0.3249896540E+02
46 2    0.2770278316E+02    0.3465749816E+02    0.3156842661E+02
47 2    0.4309016104E+02    0.3631016828E+02    0.3243136321E+02
48 1    0.4066020092E+02    0.1728709671E+02    0.3034935415E+02
49 2    0.4239729769E+02    0.3508541970E+02    0.3325918724E+02
50 2    0.4024653202E+02    0.1683611212E+02    0.3135595299E+02
51 1    0.2960809054E+02    0.3130508787E+02    0.2500173505E+02
52 2    0.2894888875E+02    0.3122661475E+02    0.2410650694E+02
53 2    0.2934526823E+02    0.3086530464E+02    0.2593076855E+02
54 1    0.4638152555E+02    0.3109642255E+02    0.4006761215E+02
55 2    0.4710995499E+02    0.3104353616E+02    0.4093134316E+02
56 2    0.4680160843E+02    0.3205170226E+02    0.3938319327E+02
57 1    0.3020745164E+02    0.3176885584E+02    0.3600800406E+02
58 2    0.2942428773E+02    0.3259354855E+02    0.3587884276E+02
59 2    0.3005312204E+02    0.3097254600E+02    0.3684643644E+02
60 2    0.3116624378E+02    0.3221548821E+02    0.3627162742E+02
61 1    0.3127000492E+02    0.2979532640E+02    0.3933206060E+02
62 2    0.3098332366E+02    0.2898551124E+02    0.4001638334E+02
63 2    0.3069020538E+02    0.2985669967E+02    0.3840800855E+02
64 2    0.3236129927E+02    0.2971281021E+02    0.3909297263E+02
65 1    0.3377625429E+02    0.4328599005E+02    0.3546225505E+02
66 2    0.3472431619E+02    0.4377737903E+02    0.3500637075E+02
67 2    0.3307830334E+02    0.4288623744E+02    0.3466931601E+02
68 1    0.3435875472E+02    0.4216652884E+02    0.3631423563E+02
69 2    0.3474576481E+02    0.4142090362E+02    0.3549686426E+02
70 2    0.3363296696E+02    0.4160200553E+02    0.3686368994E+02
71 1    0.3554931921E+02    0.4249058254E+02    0.3730255354E+02
72 2    0.3548280430E+02    0.4165088423E+02    0.3804801068E+02
73 2    0.3530596992E+02    0.4340715504E+02    0.3787002609E+02
74 1    0.3696946498E+02    0.2723653456E+02    0.3677233995E+02
75 2    0.3708574945E+02    0.2813437747E+02    0.3606228772E+02
76 2    0.3706765375E+02    0.2640834090E+02    0.3590728308E+02
77 1    0.3803094878E+02    0.2722095015E+02    0.3780251094E+02
78 2    0.3766443847E+02    0.4209178917E+02    0.3869448066E+02
79 2    0.3820424472E+02    0.4357428320E+02    0.3816030728E+02
80 1    0.3936117891E+02    0.2660177415E+02    0.3743487727E+02
81 2    0.3972245958E+02    0.2611309586E+02    0.3833903857E+02
82 2    0.4002020577E+02    0.2745413768E+02    0.3728693239E+02
83 1    0.3980237528E+02    0.2561912781E+02    0.3628216249E+02
84 2    0.3945900814E+02    0.2451887641E+02    0.3639046005E+02
85 2    0.4093628701E+02    0.2537602608E+02    0.3650395507E+02
86 1    0.3964729772E+02    0.2617433031E+02    0.3488071913E+02
87 2    0.3941734633E+02    0.2720435181E+02    0.3486179365E+02
88 2    0.3866695957E+02    0.2578773238E+02    0.3443168787E+02
89 1    0.3314759982E+02    0.4428949230E+02    0.3646168423E+02
90 2    0.3255232154E+02    0.4496952044E+02    0.3580219659E+02
91 2    0.3245403913E+02    0.4375478529E+02    0.3724964310E+02
92 2    0.3390654434E+02    0.4469265581E+02    0.3707006695E+02
93 1    0.4080644563E+02    0.2583823384E+02    0.3388352932E+02
94 2    0.4069539232E+02    0.2636970323E+02    0.3294763471E+02
95 2    0.4169836784E+02    0.2586376227E+02    0.3449132370E+02
96 2    0.4070203311E+02    0.2480125691E+02    0.3351970080E+02
97 1    0.3261453858E+02    0.4199074058E+02    0.4083167480E+02
98 2    0.3216421014E+02    0.4221118863E+02    0.3984809151E+02
99 2    0.3220646792E+02    0.4258434284E+02    0.4166612902E+02
100 1    0.3256617496E+02    0.4049141215E+02    0.4100128144E+02
101 2    0.3305327206E+02    0.3992574976E+02    0.4021755339E+02
102 2    0.3143164137E+02    0.4015856156E+02    0.4087175391E+02
103 1    0.3291888504E+02    0.3993362261E+02    0.4240365446E+02
104 2    0.3394114687E+02    0.4022656473E+02    0.4275111958E+02
105 2    0.3302452321E+02    0.3878724816E+02    0.4231873605E+02
106 1    0.3187136536E+02    0.4026025383E+02    0.2810898106E+02
107 2    0.3079888617E+02    0.3992393993E+02    0.2789765547E+02
108 2    0.3168161770E+02    0.4134514879E+02    0.2830064776E+02
109 1    0.3220991443E+02    0.3956782699E+02    0.2944751028E+02
110 2    0.3306738501E+02    0.4008564328E+02    0.2995042657E+02
111 2    0.3270966974E+02    0.3858029332E+02    0.2942294092E+02
112 1    0.3106165861E+02    0.3947076384E+02    0.3051989949E+02
113 2    0.3076418730E+02    0.4047115028E+02    0.3076788123E+02
114 2    0.3150390169E+02    0.3898752027E+02    0.3139119180E+02
115 1    0.2994033232E+02    0.3861213143E+02    0.3008167111E+02
116 2    0.3030498797E+02    0.3753033825E+02    0.3023894694E+02
117 2    0.2974989000E+02    0.3882891732E+02    0.2902076757E+02
118 1    0.2875411128E+02    0.3877061126E+02    0.3099391348E+02
119 2    0.2919795176E+02    0.3867101345E+02    0.3200867802E+02
120 2    0.2799559618E+02    0.3790561018E+02    0.3082655072E+02
121 1    0.3407132244E+02    0.4252130076E+02    0.4063884687E+02
122 2    0.3459502426E+02    0.4207593005E+02    0.3973950641E+02
123 2    0.3415548620E+02    0.4360707281E+02    0.4047801483E+02
124 2    0.3458640375E+02    0.4236427958E+02    0.4164458127E+02
125 1    0.2814046653E+02    0.4010448348E+02    0.3102004652E+02
126 2    0.2878223522E+02    0.4093723958E+02    0.3145895552E+02
127 2    0.2797176523E+02    0.4046743097E+02    0.2995297454E+02
128 2    0.2727906495E+02    0.4025614365E+02    0.3160701345E+02
129 1    0.3734144660E+02    0.3645128363E+02    0.3023646130E+02
130 2    0.3757792693E+02    0.3726166472E+02    0.2948942984E+02
131 2    0.3827209223E+02    0.3608661119E+02    0.3057674015E+02
132 1    0.3656658335E+02    0.3685677884E+02    0.3147051669E+02
133 2    0.3707478789E+02    0.3755657311E+02    0.3216761012E+02
134 2    0.3638262862E+02    0.3589260435E+02    0.3196568792E+02
135 1    0.3520297762E+02    0.3751758021E+02    0.3127064767E+02
136 2    0.3483658029E+02    0.3803946428E+02    0.3035260989E+02
137 2    0.3498993794E+02    0.3836628791E+02    0.3192087260E+02
138 1    0.3407798542E+02    0.3649901708E+02    0.3149056310E+02
139 2    0.3438343006E+02    0.3554528570E+02    0.3195321904E+02
140 2    0.3367076431E+02    0.3625255551E+02    0.3056417947E+02
141 1    0.3292465707E+02    0.3692078036E+02    0.3244639202E+02
142 2    0.3248181309E+02    0.3593471047E+02    0.3283597204E+02
143 2    0.3215455443E+02    0.3754700499E+02    0.3197594473E+02
144 1    0.3338793367E+02    0.3761179200E+02    0.3381437316E+02
145 2    0.3423457319E+02    0.3838531740E+02    0.3382388328E+02
146 2    0.3390816696E+02    0.3668915252E+02    0.3427344274E+02
147 1    0.3218348277E+02    0.3803715194E+02    0.3473896690E+02
148 2    0.3129558996E+02    0.3746653375E+02    0.3449817239E+02
149 2    0.3193990146E+02    0.3908334928E+02    0.3437881602E+02
150 1    0.3259808308E+02    0.3796836629E+02    0.3623578433E+02
151 2    0.3193704837E+02    0.3856311394E+02    0.3684633135E+02
152 2    0.3350626221E+02    0.3854879504E+02    0.3637180701E+02
153 1    0.3650561623E+02    0.3549753006E+02    0.2939609745E+02
154 2    0.3727260823E+02    0.1953159170E+02    0.2882948758E+02
155 2    0.3582367086E+02    0.3492953448E+02    0.2997894091E+02
156 2    0.3589873218E+02    0.3606706517E+02    0.2870424673E+02
157 1    0.3271806488E+02    0.3655392326E+02    0.3676698066E+02
158 2    0.3280489768E+02    0.3655933842E+02    0.3781521614E+02
159 2    0.3180457181E+02    0.3600591129E+02    0.3653851470E+02
160 2    0.3350314144E+02    0.3601148538E+02    0.3628755367E+02
161 1    0.4501062603E+02    0.2577902562E+02    0.3417611305E+02
162 2    0.4466670748E+02    0.2463699219E+02    0.3413220972E+02
163 2    0.4414874259E+02    0.2633858666E+02    0.3355560251E+02
164 1    0.4515358924E+02    0.2615444099E+02    0.3563591000E+02
165 2    0.4611122468E+02    0.2571608692E+02    0.3603697476E+02
166 2    0.4420678952E+02    0.2569285348E+02    0.3604389126E+02
167 1    0.4478557999E+02    0.2768030056E+02    0.3592342097E+02
168 2    0.4542256632E+02    0.2844589477E+02    0.3538404264E+02
169 2    0.4478300269E+02    0.2769200589E+02    0.3700596222E+02
170 1    0.4029015376E+02    0.1856167002E+02    0.3008163622E+02
171 2    0.3953573320E+02    0.1894422428E+02    0.3080696930E+02
172 2    0.4375471050E+02    0.2803092622E+02    0.3565273968E+02
173 1    0.4081204100E+02    0.3459237988E+02    0.2893466130E+02
174 2    0.4176324033E+02    0.3414064162E+02    0.2851415777E+02
175 2    0.4091328389E+02    0.1668711030E+02    0.2934599013E+02
176 1    0.4034217350E+02    0.3602663055E+02    0.2865838834E+02
177 2    0.4029963797E+02    0.3664150228E+02    0.2965931216E+02
178 2    0.3934135501E+02    0.3605075573E+02    0.2826781364E+02
179 1    0.4098410069E+02    0.3683065305E+02    0.2758730112E+02
180 2    0.4033951512E+02    0.3684578180E+02    0.2669043026E+02
181 2    0.4206357300E+02    0.3668822663E+02    0.2733202629E+02
182 1    0.4080758076E+02    0.3848180069E+02    0.2782917485E+02
183 2    0.4131196161E+02    0.3878588842E+02    0.2875909270E+02
184 2    0.3964342716E+02    0.3850971314E+02    0.2828241666E+02
185 1    0.4623162375E+02    0.2607157856E+02    0.3333694415E+02
186 2    0.4679801105E+02    0.2694940672E+02    0.3382452637E+02
187 2    0.4696965545E+02    0.2514940687E+02    0.3344702044E+02
188 2    0.4606116067E+02    0.2615111109E+02    0.4763822729E+02
189 1    0.4089827889E+02    0.3958027373E+02    0.2669279468E+02
190 2    0.4077062347E+02    0.4052864940E+02    0.2706164261E+02
191 2    0.4189562812E+02    0.3957048548E+02    0.2609972380E+02
192 2    0.4012799831E+02    0.3933594613E+02    0.2590178516E+02
193 1    0.3821107692E+02    0.2512928022E+02    0.4499774421E+02
194 2    0.3844413436E+02    0.2411756909E+02    0.4452730463E+02
195 2    0.3926584178E+02    0.4094966605E+02    0.4513339027E+02
196 1    0.3746532201E+02    0.2605549156E+02    0.4402457349E+02
197 2    0.3820603478E+02    0.2649859085E+02    0.4334906849E+02
198 2    0.3709088828E+02    0.4235445120E+02    0.4457148637E+02
199 1    0.3638022040E+02    0.2542296847E+02    0.4316297625E+02
200 2    0.3563625834E+02    0.2623654739E+02    0.4299830075E+02
201 2    0.3582877884E+02    0.2465191492E+02    0.4365907617E+02
202 1    0.3701184293E+02    0.2488694821E+02    0.4183297377E+02
203 2    0.3809642788E+02    0.2454672936E+02    0.4189622326E+02
204 2    0.3706756450E+02    0.2582183886E+02    0.4112213155E+02
205 1    0.3628959476E+02    0.2368243619E+02    0.4122354098E+02
206 2    0.3526930199E+02    0.2367930868E+02    0.4146145401E+02
207 2    0.3673475869E+02    0.2272109715E+02    0.4152856457E+02
208 1    0.3627956728E+02    0.2384527601E+02    0.3971647469E+02
209 2    0.3731578253E+02    0.2401872817E+02    0.3927032046E+02
210 2    0.3583100105E+02    0.2483663834E+02    0.3934412782E+02
211 1    0.3570374840E+02    0.3792423653E+02    0.3907291278E+02
212 2    0.3460178064E+02    0.3790781437E+02    0.3928003038E+02
213 2    0.3602916440E+02    0.3700572773E+02    0.3965144627E+02
214 1    0.3604836474E+02    0.3760217655E+02    0.3760058156E+02
215 2    0.3508874964E+02    0.3734754499E+02    0.3704111990E+02
216 2    0.3675195315E+02    0.3673453951E+02    0.3760889423E+02
217 1    0.3752563215E+02    0.2482002448E+02    0.4633701025E+02
218 2    0.3817389807E+02    0.2423976573E+02    0.3170470852E+02
219 2    0.3736806422E+02    0.2567605535E+02    0.3166497745E+02
220 2    0.3662302329E+02    0.2416115994E+02    0.4624008662E+02
221 1    0.3670984921E+02    0.3850851194E+02    0.3657271522E+02
222 2    0.3660325993E+02    0.3809594807E+02    0.3558244253E+02
223 2    0.3647218514E+02    0.3955087260E+02    0.3646621287E+02
224 2    0.3779590691E+02    0.3852016444E+02    0.3669491901E+02
225 1    0.3442067781E+02    0.4397927947E+02    0.3139038452E+02
226 2    0.3496929828E+02    0.4464055529E+02    0.3210355687E+02
227 2    0.3405506407E+02    0.4326204807E+02    0.3212042820E+02
228 1    0.3322549281E+02    0.2934327760E+02    0.3067505881E+02
229 2    0.3365782645E+02    0.3017703607E+02    0.2998859763E+02
230 2    0.3246097838E+02    0.2983557871E+02    0.3132795281E+02
231 1    0.3247789440E+02    0.4369860732E+02    0.2973381446E+02
232 2    0.3244779360E+02    0.4270227181E+02    0.3015559796E+02
233 2    0.3316898648E+02    0.4359557253E+02    0.2884178623E+02
234 1    0.3116676987E+02    0.4427931789E+02    0.2925367287E+02
235 2    0.3128766509E+02    0.4432471632E+02    0.2813039288E+02
236 2    0.3096325819E+02    0.4532243055E+02    0.2954105437E+02
237 1    0.2996276957E+02    0.4342081030E+02    0.2961818529E+02
238 2    0.3001733786E+02    0.4280738062E+02    0.3057061701E+02
239 2    0.2979043841E+02    0.2726474698E+02    0.2880834472E+02
240 1    0.2862464152E+02    0.4430398444E+02    0.2958590711E+02
241 2    0.2857939225E+02    0.2952824020E+02    0.2856392950E+02
242 2    0.2853509117E+02    0.2989207749E+02    0.3026550385E+02
243 1    0.2738683612E+02    0.4343928890E+02    0.2988864037E+02
244 2    0.2729811656E+02    0.4309998854E+02    0.3096475688E+02
245 2    0.2728853684E+02    0.4266224049E+02    0.2912570719E+02
246 1    0.2612838772E+02    0.4441692138E+02    0.2985877696E+02
247 2    0.2615504701E+02    0.4499479715E+02    0.2889579574E+02
248 2    0.2624361335E+02    0.4524610980E+02    0.3059043021E+02
249 1    0.3538523370E+02    0.2792497349E+02    0.3057525745E+02
250 2    0.3637630612E+02    0.2845218555E+02    0.3055124441E+02
251 2    0.3564700718E+02    0.2689278132E+02    0.3094602361E+02
252 2    0.3511941957E+02    0.2766670350E+02    0.2949930328E+02
253 1    0.2478676016E+02    0.4379345603E+02    0.2997420671E+02
254 2    0.2415238874E+02    0.4463243599E+02    0.2956463088E+02
255 2    0.2478615650E+02    0.4285836279E+02    0.2932483052E+02
256 2    0.2445198230E+02    0.4354141847E+02    0.4633321557E+02
257 1    0.4106213452E+02    0.3387385315E+02    0.4012395755E+02
258 2    0.4172906164E+02    0.3297067379E+02    0.4022484116E+02
259 2    0.4148454447E+02    0.3449874968E+02    0.4098447223E+02
260 1    0.4109680211E+02    0.3457843569E+02    0.3872169529E+02
261 2    0.4119412356E+02    0.3562632798E+02    0.3892268644E+02
262 2    0.4004787770E+02    0.3446819105E+02    0.3845983602E+02
263 1    0.4211749417E+02    0.3407597700E+02    0.3776391267E+02
264 2    0.4221394927E+02    0.3296681661E+02    0.3788037104E+02
265 2    0.4310175192E+02    0.3448007939E+02    0.3799796094E+02
266 1    0.4170465701E+02    0.3435727214E+02    0.3624290044E+02
267 2    0.4248434856E+02    0.3375115119E+02    0.3563104460E+02
268 2    0.4172748228E+02    0.3542060202E+02    0.3586788723E+02
269 1    0.4035424676E+02    0.3387006487E+02    0.3579980448E+02
270 2    0.4038247417E+02    0.3389420616E+02    0.3473209097E+02
271 2    0.3951749069E+02    0.3449611799E+02    0.3612681376E+02
272 1    0.3990019939E+02    0.3247669680E+02    0.3631878300E+02
273 2    0.3888088070E+02    0.3241487273E+02    0.3582122732E+02
274 2    0.3976637405E+02    0.3265809743E+02    0.3736474355E+02
275 1    0.4078362535E+02    0.3133532922E+02    0.3578920526E+02
276 2    0.4166565666E+02    0.3138091188E+02    0.3641719434E+02
277 2    0.4102521346E+02    0.3139202376E+02    0.3468090355E+02
278 1    0.4000616707E+02    0.3010230275E+02    0.3611395148E+02
279 2    0.3977455276E+02    0.3010196430E+02    0.3717494268E+02
280 2    0.4067099262E+02    0.2920681487E+02    0.3603370028E+02
281 1    0.3969293878E+02    0.3341677718E+02    0.4058591127E+02
282 2    0.3985192042E+02    0.3279743395E+02    0.4149290895E+02
283 2    0.3911832905E+02    0.3434532532E+02    0.4081559678E+02
284 2    0.3924583122E+02    0.3286772007E+02    0.3978525498E+02
285 1    0.3869167367E+02    0.2990074721E+02    0.3529866456E+02
286 2    0.3806153853E+02    0.2946165472E+02    0.3604491924E+02
287 2    0.3828522637E+02    0.3085693074E+02    0.3497656287E+02
288 2    0.3883016771E+02    0.2922629950E+02    0.3438667705E+02
289 1    0.2825214983E+02    0.3719255914E+02    0.3777733127E+02
290 2    0.2892745967E+02    0.3691863418E+02    0.3697537645E+02
291 2    0.2796850482E+02    0.3622355239E+02    0.3809904575E+02
292 1    0.2889588168E+02    0.3792245580E+02    0.3896612096E+02
293 2    0.2868624017E+02    0.3900201989E+02    0.3890625298E+02
294 2    0.2996886432E+02    0.3781199034E+02    0.3890736901E+02
295 1    0.2857137641E+02    0.3742127067E+02    0.4037391528E+02
296 2    0.2743409409E+02    0.3751239197E+02    0.4042795747E+02
297 2    0.2897356400E+02    0.3817929577E+02    0.2571723810E+02
298 1    0.2922989189E+02    0.3599607315E+02    0.2527700673E+02
299 2    0.3010421210E+02    0.3582697902E+02    0.4000518738E+02
300 2    0.2848530044E+02    0.3521125779E+02    0.2493869189E+02
301 1    0.2948564915E+02    0.3576192398E+02    0.2676586741E+02
302 2    0.2841543107E+02    0.3584380506E+02    0.2726594873E+02
303 2    0.3013123497E+02    0.3656906705E+02    0.4257338375E+02
304 1    0.2995973103E+02    0.3432053635E+02    0.2691839220E+02
305 2    0.3095406986E+02    0.3411567123E+02    0.2646650133E+02
306 2    0.2928309595E+02    0.3369756071E+02    0.2620573363E+02
307 1    0.2986461271E+02    0.3369934289E+02    0.2831518201E+02
308 2    0.3021873012E+02    0.3274644746E+02    0.2824160992E+02
309 2    0.2880300236E+02    0.3363174881E+02    0.2850767467E+02
310 1    0.3059429699E+02    0.3436648280E+02    0.2947356568E+02
311 2    0.2997150595E+02    0.3432760564E+02    0.3040506857E+02
312 2    0.3057754944E+02    0.3545449780E+02    0.2918391694E+02
313 1    0.2704033006E+02    0.3787511238E+02    0.3720400547E+02
314 2    0.2698242070E+02    0.3893144721E+02    0.3753784764E+02
315 2    0.2702650036E+02    0.3772258548E+02    0.3607183800E+02
316 2    0.2599506513E+02    0.3764034552E+02    0.3750998938E+02
317 1    0.3204813883E+02    0.3400346554E+02    0.2969416190E+02
318 2    0.3240396664E+02    0.3472110473E+02    0.3047862654E+02
319 2    0.3224840701E+02    0.3299552087E+02    0.2996530033E+02
320 2    0.3268063536E+02    0.3397689849E+02    0.2885653907E+02
321 1    0.3371288161E+02    0.3450038649E+02    0.2600854964E+02
322 2    0.3270807417E+02    0.3459224313E+02    0.2550738643E+02
323 2    0.3381730428E+02    0.3374455241E+02    0.2680482221E+02
324 1    0.3480399014E+02    0.3419531438E+02    0.4029181941E+02
325 2    0.3581697561E+02    0.3434641377E+02    0.4085542259E+02
326 2    0.3472256856E+02    0.3495734239E+02    0.3950237072E+02
327 1    0.3493821096E+02    0.3280437888E+02    0.3956854227E+02
328 2    0.3418534990E+02    0.3217290431E+02    0.3986142950E+02
329 2    0.3586839311E+02    0.3228713279E+02    0.3976222563E+02
330 1    0.3495045701E+02    0.3300904051E+02    0.3798915747E+02
331 2    0.3420884719E+02    0.3381144081E+02    0.3765688555E+02
332 2    0.3438119783E+02    0.3217246915E+02    0.3749945426E+02
333 1    0.3627320425E+02    0.3322075496E+02    0.3732611216E+02
334 2    0.3714011644E+02    0.3266058995E+02    0.3778139474E+02
335 2    0.3666719964E+02    0.3425509619E+02    0.3771930782E+02
336 1    0.3629238412E+02    0.3304732554E+02    0.3580727470E+02
337 2    0.3595480315E+02    0.3191622732E+02    0.3569601416E+02
338 2    0.3731332273E+02    0.3318294147E+02    0.3539688758E+02
339 1    0.3537748048E+02    0.3378971826E+02    0.3492190633E+02
340 2    0.3561807659E+02    0.3484350456E+02    0.3469049390E+02
341 2    0.3431354226E+02    0.3372478969E+02    0.3524630692E+02
342 1    0.3541633865E+02    0.3310782408E+02    0.3352917702E+02
343 2    0.3641739926E+02    0.3257425308E+02    0.3338943558E+02
344 2    0.3519463424E+02    0.3381946568E+02    0.3275637236E+02
345 1    0.3399911708E+02    0.3582165584E+02    0.2678214424E+02
346 2    0.3397112091E+02    0.3671706122E+02    0.2611511541E+02
347 2    0.3320293909E+02    0.3590954973E+02    0.2751118173E+02
348 2    0.3497626557E+02    0.3568777745E+02    0.2728180502E+02
349 1    0.3446236847E+02    0.3194504260E+02    0.3338390897E+02
350 2    0.3489002288E+02    0.3126071838E+02    0.3267161613E+02
351 2    0.3447633260E+02    0.3130931622E+02    0.3426665294E+02
352 2    0.3341638280E+02    0.3210852574E+02    0.3302004089E+02
0.0000000000E+00    0.0000000000E+00    0.0000000000E+00
0.1532620600E+02    0.0000000000E+00    0.0000000000E+00
0.0000000000E+00    0.1532620600E+02    0.0000000000E+00
0.0000000000E+00    0.0000000000E+00    0.1532620600E+02
}
Driver = VelocityVerlet {
  Steps = 50000
  TimeStep [fs] = 0.2
  MDRestartFrequency = 5
  Thermostat = None {}
  Xlbomd = {
    IntegrationSteps = 6
    MinSccIterations = 2
    MaxSccIterations = 200
    SccTolerance = 1e-6
    PreSteps = 0
  }
  Velocities [AA/Ps] = {
4.73017214 5.55386347 -2.10726297
5.62897910 -2.39903050 9.46272141
-21.43747989 18.54254818 11.18465703
-3.49651647 -8.56760732 -1.59937587
33.27098482 -13.46497625 4.64368067
19.60850735 -24.64116622 2.71591714
-6.81220931 -2.44993634 -1.03730862
1.00597105 -7.30292307 -9.47468522
25.31513740 0.05765521 -14.76108215
3.04415882 -1.49533320 2.73999381
-26.37900388 26.86846032 -33.67361971
5.79814307 24.55458466 -1.26507130
1.77722815 2.12391654 -5.96119705
12.53391804 28.64324367 -5.83988704
-5.47806328 19.65373109 -14.67090799
-0.43860157 5.01103385 -5.12062884
-10.70365428 -23.57177810 6.80508124
-48.11070823 16.50651037 -29.18606603
-1.76334500 2.43548115 -5.99227868
-22.37447726 -5.96653221 -22.61731093
30.17040700 -13.39968291 2.24967374
-2.28888198 -4.64226157 16.48308733
-3.82171130 14.69404647 34.69760924
-45.00054895 -18.86515388 13.07738042
1.61685563 1.17285353 -10.72955563
-13.38311051 9.36334573 -24.65110594
-15.86397969 -25.57689421 0.37132775
13.10911595 15.65653867 -16.33026344
2.52564431 -16.30984196 -4.26081162
-19.78201552 5.66415031 -1.06955621
-5.09056949 18.08548484 -41.84700325
30.25421160 27.63938211 -13.64878224
-2.16801440 -10.19046181 1.50233759
24.49297687 44.88543084 15.18564145
11.07095092 0.01448461 -2.90262865
11.43463911 1.75794423 12.60664205
-11.91254585 54.23437972 -16.38338045
41.78071684 -6.29783377 0.95752113
11.55891238 -6.77412284 -10.73155425
18.75916119 -46.99584191 -43.05385680
-54.39637889 35.86697754 -14.11783794
-13.25974133 -6.58045761 -3.01544440
-30.64736761 -13.29862483 -37.35811538
1.11893557 12.78322530 -55.28020802
7.11960551 -3.67504717 -4.59728898
27.99297681 51.66328878 -4.64450847
-45.33753304 -28.26553256 -22.07544234
0.64082720 11.92657052 -4.26905205
11.81553262 42.13216703 32.96466320
-20.15070148 58.29032592 10.58015732
-9.82717343 -0.39445396 11.11359657
-50.69477558 -41.13344873 9.00784708
-4.64266653 -0.72734197 37.67968595
-0.32708860 -4.71151558 2.38101936
-5.93552731 10.28149877 -22.31969085
-9.02108831 -4.57339570 20.16673744
-13.83354803 4.09005029 18.74249552
-8.20445804 16.56840857 6.32609874
-10.67585685 -14.22431668 -21.88978065
-1.08131100 21.51290178 -82.20192068
-10.43723960 -8.91223290 -5.16966618
-19.16063210 8.47042788 14.19405596
-39.20661648 27.85550318 -24.23518740
17.56127970 22.42701367 -14.66093980
8.32638321 -3.51931679 -1.25535275
5.25950922 4.20216190 -4.10104061
23.13220133 22.68884670 -28.79660198
-2.27545188 -6.77281392 -0.55423549
21.81902412 -43.82962446 9.36686722
6.53015237 14.73332547 3.54390903
6.76442075 -0.01714056 0.38932553
-18.38885344 7.80783842 -32.60070540
11.80139772 21.16457430 16.90037563
-5.93560609 7.90022080 3.18166670
2.96058587 -0.07000711 22.53739918
-38.92679242 -13.48307070 -2.32217826
-14.64874657 0.77572132 5.66823319
30.03646518 2.94377558 44.55638048
-20.78537056 -33.86479729 26.40536522
11.72766894 2.08816678 -2.04265390
-43.22483055 5.92748480 8.69095729
6.14770971 -0.95336955 6.84102733
2.80913869 0.08316295 2.53459539
-23.60508678 21.47804581 29.91586864
30.45877970 -19.99851931 12.28305273
-5.07562703 3.24081013 1.42864109
-19.67920952 8.87567296 -9.28065741
-5.49261540 2.27075105 -10.17275840
4.43365927 9.09292276 -2.63960675
-2.96021247 -9.52117961 -21.23221046
5.27846121 2.01573003 -19.92253610
-15.54237579 32.91460120 16.70741735
4.45215610 7.85062796 -4.67143033
-11.51007971 19.71421556 2.51383458
36.40804151 29.27782649 -32.19509357
23.20654173 27.40844964 0.14278095
-5.52194840 9.59299548 -3.09461242
-30.99010736 35.60319013 -2.75279829
-17.78741828 44.06559278 -6.14604427
4.76267182 -3.19818039 -6.73787417
21.83059881 -38.06684260 -3.61659491
-51.51342800 30.16421955 15.69649681
7.48062299 -0.47528955 1.11981707
20.01706252 -3.91438589 -8.99544874
-33.72534105 -44.37252788 9.38722378
-11.36457983 -4.24162687 -0.23939563
-13.52078585 -3.89793942 1.93138273
16.66518363 -40.88640618 8.31367941
-4.28544584 -1.79840598 -2.76981620
0.22632679 -45.45443128 26.29459924
-8.63543871 -12.45948532 -17.50606739
-5.09847410 -1.50343040 -0.69726988
2.59306171 20.39853490 -24.31427270
7.44900039 22.05955384 -13.61458842
-6.95625405 1.14963589 8.31288109
-31.58213565 -2.65549613 -23.77856797
-3.09102090 -14.84231695 6.73352722
-2.64117373 -2.51738381 12.04412970
-12.27888197 -6.67527209 9.40985373
-2.50031323 -2.11865919 23.38131088
0.64019784 -1.02699252 3.97393958
-5.54900048 -10.59227577 8.85963698
19.43396272 -12.84299355 -35.42106934
6.87986982 24.34751190 18.42513911
-6.76148082 2.92100179 -2.14235507
27.56235750 29.45420729 -23.21195300
11.43494046 -1.46277182 -4.94092677
-15.09263450 -3.76720271 36.19566219
-2.23298471 -3.69563894 9.04735922
5.08121661 -18.42218251 -41.69517179
13.77607853 20.02574089 -0.67714891
2.61251457 -2.89737414 8.15440782
-28.58432744 10.31663182 -3.19717274
-20.56041730 6.40820646 -42.38965086
-0.93491278 0.39501251 3.09170001
16.23528676 -30.56613135 5.78729549
-17.50858168 4.55700889 17.42611527
6.44388650 7.02445974 1.11814517
-21.19601654 13.44065069 -6.72417388
5.46157896 -3.97337802 20.46637042
2.33908089 3.54549787 7.64930839
9.07782282 9.75347863 41.94514225
-20.74802807 18.13025891 -42.30352626
10.78919822 5.85151771 11.92802759
12.71600601 29.09322277 19.10230402
10.66244339 36.57978298 -35.60105596
-13.26288575 1.66051368 -8.98702387
-0.65062819 18.09440128 21.26944510
19.50440330 22.06630008 -31.96276687
0.25160301 -2.98594077 2.05452023
8.64867385 -2.09470350 -11.68669033
-68.24678817 -35.76991422 -3.96691985
5.88462245 4.09432808 13.25624296
-16.50742777 -37.33838426 -9.75249182
27.62158843 -25.67823481 -9.48484401
-10.59522546 10.35621618 30.44194020
1.87288129 -9.84098559 -4.32044433
-7.55292661 -22.34796597 -4.38991098
-33.35861731 24.30118441 7.37978898
-17.40060574 -38.60442702 -19.58106191
-4.47972621 -12.36235647 -14.53696531
1.01825103 -15.28405730 -9.76862499
22.23160675 -48.27643305 37.70076400
2.64611019 -5.82360285 -0.70286377
6.87635948 25.08719960 -0.26499137
-1.28148835 1.56372273 15.11393149
8.95334235 -4.64323344 -1.88180483
-21.14802238 11.35531644 6.64407572
16.35581658 -18.93949779 2.38918749
12.30038103 4.16130023 5.01634584
0.68599454 26.69418360 -34.85556288
-11.57593501 -8.42033920 -48.87154968
6.74771512 -2.75062872 7.49710718
26.21417671 21.41015712 4.21541391
7.70798149 -0.50127529 12.04799703
6.44861691 7.48121106 -4.49445284