Geometry = GenFormat {
352  S
C  H
1 1    0.3284901805E+02    0.2768531801E+02    0.3882982350E+02
2 2    0.3201466191E+02    0.2815649285E+02    0.3947979813E+02
3 2    0.3259570465E+02    0.2781645216E+02    0.3778711315E+02
4 1    0.3415987106E+02    0.4375610540E+02    0.3895924845E+02
5 2    0.3460413070E+02    0.4345863772E+02    0.3989455662E+02
6 2    0.1852094764E+02    0.4475132086E+02    0.3931648281E+02
7 1    0.3514889942E+02    0.4382312015E+02    0.3777199300E+02
8 2    0.1933507900E+02    0.4416342237E+02    0.3680960768E+02
9 2    0.3548884524E+02    0.4280659098E+02    0.3738731219E+02
10 1    0.2100801042E+02    0.4463324208E+02    0.3823450668E+02
11 2    0.2168083655E+02    0.4412581359E+02    0.3906514427E+02
12 2    0.2052097263E+02    0.4552833567E+02    0.3876750233E+02
13 1    0.3728387069E+02    0.4520880023E+02    0.3713464814E+02
14 2    0.3750517862E+02    0.4627046843E+02    0.3734756325E+02
15 2    0.3681074783E+02    0.4517876044E+02    0.3608829647E+02
16 1    0.2329329485E+02    0.4437970377E+02    0.3691127857E+02
17 2    0.2386839068E+02    0.4465855448E+02    0.3588900393E+02
18 2    0.2297315958E+02    0.4335450391E+02    0.3672342715E+02
19 1    0.3964497956E+02    0.4440016916E+02    0.3804800404E+02
20 2    0.4054457314E+02    0.4387875172E+02    0.3767015995E+02
21 2    0.3920841557E+02    0.4366749583E+02    0.3880931864E+02
22 1    0.4003247499E+02    0.4577968385E+02    0.3856023313E+02
23 2    0.2474994215E+02    0.4647211997E+02    0.3766169127E+02
24 2    0.2570693486E+02    0.4575355135E+02    0.3904205277E+02
25 1    0.3297062813E+02    0.2623405487E+02    0.3927043617E+02
26 2    0.3319473387E+02    0.2614131293E+02    0.4034588134E+02
27 2    0.3215611142E+02    0.2560754958E+02    0.3916497466E+02
28 2    0.3383128323E+02    0.2577699398E+02    0.3874470460E+02
29 1    0.3918699776E+02    0.4630713238E+02    0.3979250295E+02
30 2    0.3803212478E+02    0.4646422042E+02    0.3952168257E+02
31 2    0.3912313082E+02    0.4556078166E+02    0.4056482059E+02
32 2    0.3945339391E+02    0.4728358760E+02    0.4021377434E+02
33 1    0.2942863699E+02    0.3461379293E+02    0.3503098592E+02
34 2    0.3054052120E+02    0.3425002450E+02    0.3522358285E+02
35 2    0.2907070397E+02    0.3398960635E+02    0.3418685660E+02
36 1    0.2851973075E+02    0.3425009701E+02    0.3616727078E+02
37 2    0.2756932112E+02    0.3478378152E+02    0.3621644582E+02
38 2    0.2902984430E+02    0.3439194035E+02    0.3713053433E+02
39 1    0.2820411410E+02    0.3274512887E+02    0.3631722137E+02
40 2    0.2745141085E+02    0.3252012982E+02    0.3702305245E+02
41 2    0.2894153062E+02    0.3210915416E+02    0.3676719502E+02
42 1    0.2755900489E+02    0.3210963326E+02    0.3507628931E+02
43 2    0.4257152348E+02    0.3111995514E+02    0.3539519577E+02
44 2    0.2830897095E+02    0.3195904569E+02    0.3429304866E+02
45 1    0.2648738989E+02    0.3291703439E+02    0.3441617553E+02
46 2    0.2628089490E+02    0.3378487710E+02    0.3511574199E+02
47 2    0.4085091291E+02    0.3230142198E+02    0.3454997451E+02
48 1    0.4197621213E+02    0.3344914107E+02    0.3301975088E+02
49 2    0.4135498056E+02    0.3279376001E+02    0.3225175585E+02
50 2    0.4299623429E+02    0.3341401969E+02    0.3263767428E+02
51 1    0.2609375601E+02    0.3488015352E+02    0.3286014173E+02
52 2    0.2662169524E+02    0.3553672794E+02    0.3351733811E+02
53 2    0.2495986706E+02    0.3491361171E+02    0.3302831063E+02
54 1    0.4167619746E+02    0.3554086084E+02    0.4668761283E+02
55 2    0.4100772426E+02    0.3505767357E+02    0.4593251722E+02
56 2    0.4272193326E+02    0.3533271619E+02    0.4630437943E+02
57 1    0.2952044723E+02    0.3608274501E+02    0.3475937850E+02
58 2    0.3051391468E+02    0.3635627863E+02    0.3442850869E+02
59 2    0.2883043514E+02    0.3649171143E+02    0.3399977187E+02
60 2    0.2941104835E+02    0.3670711181E+02    0.3560898808E+02
61 1    0.2614530074E+02    0.3700397462E+02    0.4688889663E+02
62 2    0.2631572282E+02    0.3748922027E+02    0.4589193131E+02
63 2    0.2517651540E+02    0.3727162171E+02    0.4736649502E+02
64 2    0.2694004418E+02    0.3750560243E+02    0.4749349149E+02
65 1    0.4384421275E+02    0.3989426297E+02    0.3598901539E+02
66 2    0.4376704794E+02    0.4083968322E+02    0.3658511466E+02
67 2    0.4391135364E+02    0.3902879447E+02    0.3673171430E+02
68 1    0.4258377937E+02    0.3958088183E+02    0.3518352921E+02
69 2    0.4300365821E+02    0.3944701455E+02    0.3409659130E+02
70 2    0.4192120943E+02    0.4045975324E+02    0.3509292050E+02
71 1    0.4170117595E+02    0.3840975650E+02    0.3558121047E+02
72 2    0.4232984260E+02    0.3747613216E+02    0.3578408100E+02
73 2    0.4102108571E+02    0.3808871944E+02    0.3476479821E+02
74 1    0.4095860431E+02    0.2326756999E+02    0.3693019586E+02
75 2    0.4172185177E+02    0.2350846985E+02    0.3770527846E+02
76 2    0.4059177629E+02    0.2232304075E+02    0.3723254408E+02
77 1    0.3974868209E+02    0.2426507094E+02    0.3706483322E+02
78 2    0.4024791758E+02    0.4061323994E+02    0.3686090033E+02
79 2    0.3946208424E+02    0.3957108676E+02    0.3813642033E+02
80 1    0.3850290627E+02    0.2400040352E+02    0.3613909347E+02
81 2    0.3810124300E+02    0.2305974364E+02    0.3667644125E+02
82 2    0.3888445204E+02    0.2353892867E+02    0.3512599821E+02
83 1    0.3756397858E+02    0.2516389503E+02    0.3593097289E+02
84 2    0.3797454588E+02    0.2577458426E+02    0.3495817877E+02
85 2    0.3762622193E+02    0.2580298890E+02    0.3676415296E+02
86 1    0.3618682964E+02    0.2463215746E+02    0.3554889407E+02
87 2    0.3569150975E+02    0.2424083850E+02    0.3646847890E+02
88 2    0.3639838927E+02    0.2368191543E+02    0.3494827403E+02
89 1    0.4509482785E+02    0.3987794431E+02    0.3511553801E+02
90 2    0.4503084235E+02    0.4048319754E+02    0.3422733043E+02
91 2    0.4596139665E+02    0.4033134138E+02    0.3577036022E+02
92 2    0.4539649969E+02    0.3884360318E+02    0.3490644383E+02
93 1    0.3521610887E+02    0.2552549499E+02    0.3477101430E+02
94 2    0.3481207026E+02    0.2646054550E+02    0.3537222518E+02
95 2    0.3558030769E+02    0.2585444292E+02    0.3379155627E+02
96 2    0.3427258503E+02    0.2494972431E+02    0.3454183862E+02
97 1    0.3505304258E+02    0.4062143726E+02    0.4429903341E+02
98 2    0.3492770768E+02    0.3999655461E+02    0.4336633885E+02
99 2    0.3569789797E+02    0.4039254843E+02    0.4515438290E+02
100 1    0.3343636916E+02    0.3712602081E+02    0.3340634540E+02
101 2    0.3235428257E+02    0.3708765958E+02    0.3341545066E+02
102 2    0.3396023689E+02    0.3697761171E+02    0.3435204090E+02
103 1    0.3085741397E+02    0.3612732084E+02    0.4038752736E+02
104 2    0.2987545205E+02    0.3619624450E+02    0.3981299461E+02
105 2    0.3109638294E+02    0.3721993628E+02    0.4074008507E+02
106 1    0.3088976431E+02    0.3500566707E+02    0.2612259878E+02
107 2    0.3096523404E+02    0.3407809724E+02    0.2555700184E+02
108 2    0.2980910417E+02    0.3495148868E+02    0.2652101216E+02
109 1    0.3207958058E+02    0.3516332542E+02    0.2720576533E+02
110 2    0.3233142979E+02    0.3622752871E+02    0.2743586420E+02
111 2    0.3301029875E+02    0.3509576529E+02    0.2660749752E+02
112 1    0.3200884898E+02    0.3436612718E+02    0.2856669527E+02
113 2    0.3299599406E+02    0.3423367256E+02    0.2896790811E+02
114 2    0.3149773993E+02    0.3347392484E+02    0.2837097952E+02
115 1    0.3117752483E+02    0.3515778327E+02    0.2960857378E+02
116 2    0.3021307685E+02    0.3519637708E+02    0.2915984141E+02
117 2    0.3143867648E+02    0.3613954129E+02    0.2996903978E+02
118 1    0.3106405949E+02    0.3449275811E+02    0.3098006076E+02
119 2    0.3022282893E+02    0.3367243555E+02    0.3110343055E+02
120 2    0.3067252703E+02    0.3526742012E+02    0.3172672318E+02
121 1    0.3429239379E+02    0.4166712022E+02    0.4449968782E+02
122 2    0.3443669502E+02    0.4231097545E+02    0.4535933087E+02
123 2    0.3072694849E+02    0.4881380697E+02    0.2375441990E+02
124 2    0.3359261550E+02    0.4214679590E+02    0.4390836995E+02
125 1    0.3248223336E+02    0.3426818457E+02    0.3159926609E+02
126 2    0.3241028958E+02    0.3380511283E+02    0.3255875293E+02
127 2    0.3315243563E+02    0.3350052897E+02    0.3112254695E+02
128 2    0.3290733050E+02    0.3525825143E+02    0.3186040873E+02
129 1    0.3838657249E+02    0.3443634257E+02    0.2954497833E+02
130 2    0.3797763442E+02    0.3478907338E+02    0.2853349619E+02
131 2    0.3948375605E+02    0.3466669653E+02    0.2967729161E+02
132 1    0.3746359093E+02    0.3516395511E+02    0.3046093203E+02
133 2    0.3764634806E+02    0.3476806478E+02    0.3159878899E+02
134 2    0.3641613341E+02    0.3476622646E+02    0.3041031829E+02
135 1    0.3754355360E+02    0.3666469436E+02    0.3033466079E+02
136 2    0.3766079792E+02    0.3677406612E+02    0.2919930206E+02
137 2    0.3836542786E+02    0.3713951626E+02    0.3076072098E+02
138 1    0.3624360441E+02    0.3741637049E+02    0.3063559338E+02
139 2    0.3574053560E+02    0.3743513163E+02    0.2976028181E+02
140 2    0.3662667134E+02    0.3838586627E+02    0.3089826592E+02
141 1    0.3545912946E+02    0.3694462316E+02    0.3193235424E+02
142 2    0.3618229050E+02    0.3684885162E+02    0.3286908475E+02
143 2    0.3518744000E+02    0.3583926476E+02    0.3170945145E+02
144 1    0.3411649263E+02    0.3801039320E+02    0.3239847196E+02
145 2    0.3452650009E+02    0.3899049511E+02    0.3295563792E+02
146 2    0.3156795463E+02    0.3597390731E+02    0.3954202924E+02
147 1    0.3336698822E+02    0.3842292997E+02    0.3111851901E+02
148 2    0.3288658557E+02    0.3762473629E+02    0.3048921351E+02
149 2    0.3401967189E+02    0.3898588302E+02    0.3051678741E+02
150 1    0.3212973691E+02    0.3925082096E+02    0.3141115840E+02
151 2    0.3210482052E+02    0.3971861617E+02    0.3046611619E+02
152 2    0.3246876661E+02    0.3992861144E+02    0.3229321384E+02
153 1    0.3818689615E+02    0.3294714862E+02    0.2955931845E+02
154 2    0.3770618262E+02    0.1729773584E+02    0.2863033573E+02
155 2    0.3920425445E+02    0.3239136987E+02    0.2990382754E+02
156 2    0.3738329852E+02    0.3275960023E+02    0.3027455259E+02
157 1    0.3079048584E+02    0.3851330494E+02    0.3181429639E+02
158 2    0.3089035350E+02    0.3801859741E+02    0.3276746049E+02
159 2    0.2999460004E+02    0.3925460650E+02    0.3168372248E+02
160 2    0.3047184289E+02    0.3760554107E+02    0.3128634099E+02
161 1    0.3491646141E+02    0.2990961269E+02    0.3189079435E+02
162 2    0.3560624750E+02    0.3076866469E+02    0.3201544344E+02
163 2    0.3487712486E+02    0.2982374985E+02    0.3072435069E+02
164 1    0.3545363402E+02    0.2863966459E+02    0.3245938663E+02
165 2    0.3497251558E+02    0.2777612620E+02    0.3193396428E+02
166 2    0.3530573671E+02    0.2851988730E+02    0.3354480053E+02
167 1    0.3696934360E+02    0.2855885247E+02    0.3201795048E+02
168 2    0.3759971621E+02    0.2922893725E+02    0.3264232317E+02
169 2    0.3708075380E+02    0.2899871351E+02    0.3096832646E+02
170 1    0.3771274387E+02    0.2717392715E+02    0.3222124929E+02
171 2    0.3738871059E+02    0.2631684938E+02    0.3157227294E+02
172 2    0.3757197487E+02    0.2685632429E+02    0.3328607210E+02
173 1    0.3923339431E+02    0.4262094321E+02    0.3204190677E+02
174 2    0.3954407895E+02    0.4352720631E+02    0.3248593640E+02
175 2    0.3935992636E+02    0.2738406726E+02    0.3099009974E+02
176 1    0.3994633576E+02    0.4136390139E+02    0.3255202662E+02
177 2    0.3945034708E+02    0.4048210010E+02    0.3203709850E+02
178 2    0.3971795935E+02    0.4124909817E+02    0.3360582956E+02
179 1    0.4148421887E+02    0.4123345348E+02    0.3224794460E+02
180 2    0.4189534803E+02    0.4059667914E+02    0.3303136284E+02
181 2    0.4190987194E+02    0.4221311274E+02    0.3238757961E+02
182 1    0.4174767351E+02    0.4086375685E+02    0.3082911090E+02
183 2    0.4108279987E+02    0.4150521137E+02    0.3017583198E+02
184 2    0.4151150512E+02    0.3975924412E+02    0.3074381322E+02
185 1    0.3360315761E+02    0.3048831627E+02    0.3242681779E+02
186 2    0.3364835196E+02    0.3097941788E+02    0.3342297387E+02
187 2    0.3310053474E+02    0.3125209981E+02    0.3178313038E+02
188 2    0.3296491942E+02    0.2957463376E+02    0.4785943395E+02
189 1    0.4318679480E+02    0.4104660040E+02    0.3028414120E+02
190 2    0.4391550455E+02    0.4155572991E+02    0.3094429929E+02
191 2    0.4359111661E+02    0.4007101113E+02    0.2991949982E+02
192 2    0.4328332132E+02    0.4164628181E+02    0.2932967248E+02
193 1    0.3990601890E+02    0.2634177860E+02    0.4261559528E+02
194 2    0.4052089800E+02    0.2617194739E+02    0.4352563087E+02
195 2    0.3975162784E+02    0.4266139067E+02    0.4244795600E+02
196 1    0.4064889645E+02    0.2546523618E+02    0.4148084724E+02
197 2    0.3992774179E+02    0.2485643983E+02    0.4075631838E+02
198 2    0.4133476682E+02    0.4003445246E+02    0.4203512176E+02
199 1    0.4172099682E+02    0.2632681596E+02    0.4057539557E+02
200 2    0.4246290451E+02    0.2698887316E+02    0.4122039682E+02
201 2    0.4119648404E+02    0.2713227088E+02    0.4006743997E+02
202 1    0.4243240293E+02    0.2530122057E+02    0.3963578301E+02
203 2    0.4217103122E+02    0.2570704422E+02    0.3866497667E+02
204 2    0.4214553961E+02    0.2425122586E+02    0.3984162297E+02
205 1    0.4400282536E+02    0.2541156699E+02    0.3988311865E+02
206 2    0.4432943696E+02    0.2645401236E+02    0.3951519472E+02
207 2    0.4455351872E+02    0.2468254080E+02    0.3925168398E+02
208 1    0.4438241276E+02    0.2522360521E+02    0.4139823126E+02
209 2    0.4378316910E+02    0.2576649143E+02    0.4213375035E+02
210 2    0.4535972966E+02    0.2566302896E+02    0.4159303066E+02
211 1    0.4436315118E+02    0.3903979756E+02    0.4172236401E+02
212 2    0.4450641702E+02    0.3832397520E+02    0.4091109777E+02
213 2    0.4326826554E+02    0.3882962404E+02    0.4189477337E+02
214 1    0.4502435955E+02    0.3855802150E+02    0.4308763056E+02
215 2    0.4515803658E+02    0.3741133077E+02    0.4311236997E+02
216 2    0.4427136050E+02    0.3872144997E+02    0.4390421344E+02
217 1    0.3853084014E+02    0.2570424697E+02    0.4289281626E+02
218 2    0.3828554210E+02    0.2592689569E+02    0.2866615744E+02
219 2    0.3777619280E+02    0.2610593510E+02    0.2689618259E+02
220 2    0.3874900566E+02    0.2458946127E+02    0.4289870985E+02
221 1    0.4631235220E+02    0.3927321584E+02    0.4339126146E+02
222 2    0.4702073528E+02    0.3901260776E+02    0.4261374343E+02
223 2    0.4617150436E+02    0.4034461229E+02    0.4356947989E+02
224 2    0.4679466137E+02    0.3887042592E+02    0.4427808171E+02
225 1    0.3067359896E+02    0.4368746716E+02    0.3368181785E+02
226 2    0.3165810898E+02    0.4372798648E+02    0.3321049812E+02
227 2    0.3091072620E+02    0.4328647569E+02    0.3471834483E+02
228 1    0.3038842981E+02    0.2988803914E+02    0.3384182306E+02
229 2    0.3113484856E+02    0.3039286838E+02    0.3448713898E+02
230 2    0.2941587053E+02    0.3017586272E+02    0.3438057247E+02
231 1    0.3039593746E+02    0.4601030924E+02    0.3248616648E+02
232 2    0.3119655178E+02    0.4545929036E+02    0.3187759052E+02
233 2    0.3076585155E+02    0.4699842792E+02    0.3274088426E+02
234 1    0.2902821437E+02    0.4592336501E+02    0.3180899508E+02
235 2    0.2831758735E+02    0.4646220239E+02    0.3245837024E+02
236 2    0.2859820663E+02    0.4489972760E+02    0.3168763627E+02
237 1    0.2882406959E+02    0.4668226599E+02    0.3048995316E+02
238 2    0.2954803815E+02    0.4633030961E+02    0.2968649772E+02
239 2    0.2874175745E+02    0.3243670477E+02    0.3054814796E+02
240 1    0.2745483309E+02    0.4622471751E+02    0.2971679978E+02
241 2    0.2684585045E+02    0.3171225986E+02    0.2934448527E+02
242 2    0.2701774861E+02    0.3025903713E+02    0.3045236497E+02
243 1    0.2755742967E+02    0.4533094671E+02    0.2840810158E+02
244 2    0.2787722422E+02    0.4431275561E+02    0.2869990832E+02
245 2    0.2833599820E+02    0.4572676796E+02    0.2775479819E+02
246 1    0.2618794141E+02    0.4535936336E+02    0.2775343658E+02
247 2    0.2611352429E+02    0.4450941545E+02    0.2698874938E+02
248 2    0.2598094280E+02    0.4620350943E+02    0.2707510666E+02
249 1    0.2988736968E+02    0.2753028652E+02    0.3273776847E+02
250 2    0.2984147727E+02    0.2795329790E+02    0.3163488548E+02
251 2    0.3039173562E+02    0.2658282364E+02    0.3265120410E+02
252 2    0.2877762512E+02    0.2748040079E+02    0.3296899818E+02
253 1    0.2502084358E+02    0.4517405818E+02    0.2870600424E+02
254 2    0.2518808496E+02    0.4429295739E+02    0.2930021428E+02
255 2    0.2488352352E+02    0.4605950120E+02    0.2939492365E+02
256 2    0.2404759215E+02    0.4499872176E+02    0.4348015062E+02
257 1    0.4158668241E+02    0.3418036660E+02    0.4076000724E+02
258 2    0.4225105085E+02    0.3508283210E+02    0.4086863717E+02
259 2    0.4118888775E+02    0.3417633788E+02    0.4178345813E+02
260 1    0.4046279735E+02    0.3447649921E+02    0.3971508836E+02
261 2    0.3985555864E+02    0.3531539859E+02    0.4005703558E+02
262 2    0.3980876511E+02    0.3363118961E+02    0.3978350998E+02
263 1    0.4104108670E+02    0.3472628223E+02    0.3837701145E+02
264 2    0.4151371425E+02    0.3390392243E+02    0.3785286190E+02
265 2    0.4181129454E+02    0.3553936841E+02    0.3830129311E+02
266 1    0.3992849243E+02    0.3537262939E+02    0.3750345654E+02
267 2    0.4024001227E+02    0.3555019116E+02    0.3648571416E+02
268 2    0.3975220756E+02    0.3636666341E+02    0.3788008065E+02
269 1    0.3857168937E+02    0.3474777120E+02    0.3746125766E+02
270 2    0.3793623960E+02    0.3544609390E+02    0.3694665288E+02
271 2    0.3820827019E+02    0.3457575905E+02    0.3848283212E+02
272 1    0.3855728917E+02    0.3330661133E+02    0.3675848539E+02
273 2    0.3777305826E+02    0.3271561235E+02    0.3723829538E+02
274 2    0.3951820461E+02    0.3275975933E+02    0.3687727665E+02
275 1    0.3829261400E+02    0.3334839188E+02    0.3524478840E+02
276 2    0.3827845099E+02    0.3224501146E+02    0.3496220913E+02
277 2    0.3904140027E+02    0.3395308241E+02    0.3469867821E+02
278 1    0.3688390324E+02    0.3394239751E+02    0.3494926914E+02
279 2    0.3699029557E+02    0.3504118771E+02    0.3462929241E+02
280 2    0.3634541919E+02    0.3415378841E+02    0.3593186703E+02
281 1    0.4233797857E+02    0.3295223739E+02    0.4022956140E+02
282 2    0.4179188344E+02    0.3196767621E+02    0.4019604950E+02
283 2    0.4283016579E+02    0.3310323842E+02    0.3922023736E+02
284 2    0.4321773809E+02    0.3283453795E+02    0.4085752118E+02
285 1    0.3574662699E+02    0.3323162158E+02    0.3407504575E+02
286 2    0.3609098934E+02    0.3292341838E+02    0.3308827857E+02
287 2    0.3538380900E+02    0.3234693856E+02    0.3465396037E+02
288 2    0.3487708011E+02    0.3398369684E+02    0.3400984180E+02
289 1    0.2819995013E+02    0.2934765687E+02    0.3735675727E+02
290 2    0.2724191880E+02    0.2995502015E+02    0.3716485587E+02
291 2    0.2898506715E+02    0.2990365734E+02    0.3683354094E+02
292 1    0.2844019621E+02    0.2927125458E+02    0.3884568144E+02
293 2    0.2837161134E+02    0.2813833916E+02    0.3902006972E+02
294 2    0.2764810654E+02    0.2988211960E+02    0.3937909078E+02
295 1    0.2975715647E+02    0.2979711185E+02    0.3935246620E+02
296 2    0.2970765863E+02    0.3087638422E+02    0.3942954224E+02
297 2    0.3059410131E+02    0.2941295822E+02    0.2330607449E+02
298 1    0.3015546531E+02    0.2919674762E+02    0.2543087537E+02
299 2    0.3055595141E+02    0.2820823331E+02    0.4054946585E+02
300 2    0.2925104709E+02    0.2895125686E+02    0.2610931314E+02
301 1    0.3103745103E+02    0.3009575840E+02    0.2627495649E+02
302 2    0.3038700814E+02    0.3091700461E+02    0.2668767447E+02
303 2    0.3162393827E+02    0.3084163573E+02    0.4109236417E+02
304 1    0.3165716676E+02    0.2926664581E+02    0.2747827823E+02
305 2    0.3227604991E+02    0.2839422091E+02    0.2717360008E+02
306 2    0.3078659317E+02    0.2901400117E+02    0.2805652597E+02
307 1    0.3272535158E+02    0.3005814332E+02    0.2834945589E+02
308 2    0.3307098056E+02    0.2937759185E+02    0.2911835393E+02
309 2    0.3216807344E+02    0.3090058034E+02    0.2883938534E+02
310 1    0.3388676809E+02    0.3039320870E+02    0.2748207315E+02
311 2    0.3347274270E+02    0.3040819194E+02    0.2649084205E+02
312 2    0.3451587340E+02    0.2943531212E+02    0.2747203521E+02
313 1    0.2784584372E+02    0.2804715889E+02    0.3661722382E+02
314 2    0.2685567875E+02    0.2759660855E+02    0.3690886832E+02
315 2    0.2788780481E+02    0.2825327098E+02    0.3555208871E+02
316 2    0.2861592317E+02    0.2731160092E+02    0.3691183664E+02
317 1    0.3470027237E+02    0.3161861765E+02    0.2777279230E+02
318 2    0.3571296718E+02    0.3163773097E+02    0.2730733875E+02
319 2    0.3422629870E+02    0.3254097822E+02    0.2745404795E+02
320 2    0.3487093474E+02    0.3171387281E+02    0.2889084570E+02
321 1    0.3710574675E+02    0.3802320183E+02    0.2443243287E+02
322 2    0.3747030990E+02    0.3732643145E+02    0.2518605820E+02
323 2    0.3796513342E+02    0.3813652472E+02    0.2389341556E+02
324 1    0.3611870952E+02    0.3727187986E+02    0.3888439138E+02
325 2    0.3673800370E+02    0.3646970878E+02    0.3843335301E+02
326 2    0.3583904244E+02    0.3799985640E+02    0.3809395765E+02
327 1    0.3496584990E+02    0.3668970630E+02    0.3969005239E+02
328 2    0.3409553424E+02    0.3737192712E+02    0.3982274085E+02
329 2    0.3542109330E+02    0.3651011549E+02    0.4066210571E+02
330 1    0.3446959312E+02    0.3534906788E+02    0.3910718249E+02
331 2    0.3459075047E+02    0.3522625917E+02    0.3801002695E+02
332 2    0.3342931597E+02    0.3535168276E+02    0.3935659038E+02
333 1    0.3503509375E+02    0.3417824315E+02    0.3993231991E+02
334 2    0.3451718130E+02    0.3412799547E+02    0.4089084969E+02
335 2    0.3609204384E+02    0.3429250170E+02    0.4022104212E+02
336 1    0.3487972838E+02    0.3271064476E+02    0.3934561154E+02
337 2    0.3447711126E+02    0.3212759383E+02    0.4024501834E+02
338 2    0.3592035211E+02    0.3217986512E+02    0.3921634010E+02
339 1    0.3416900313E+02    0.3245395129E+02    0.3795127668E+02
340 2    0.3419641827E+02    0.3139238116E+02    0.3765635883E+02
341 2    0.3464583079E+02    0.3299321580E+02    0.3714411040E+02
342 1    0.3265232182E+02    0.3278560983E+02    0.3792696295E+02
343 2    0.3230874581E+02    0.3373949118E+02    0.3830495726E+02
344 2    0.3225781595E+02    0.3210741973E+02    0.3861204887E+02
345 1    0.3666787673E+02    0.3939897641E+02    0.2499978138E+02
346 2    0.3754799248E+02    0.3993586449E+02    0.2530909958E+02
347 2    0.3611260278E+02    0.3994253550E+02    0.2425591029E+02
348 2    0.3612071080E+02    0.3917211765E+02    0.2592564137E+02
349 1    0.3209337964E+02    0.3258164153E+02    0.3651489533E+02
350 2    0.3114354524E+02    0.3198034421E+02    0.3665446502E+02
351 2    0.3196315240E+02    0.3344979120E+02    0.3593861154E+02
352 2    0.3271708746E+02    0.3191506393E+02    0.3587735204E+02
0.0000000000E+00    0.0000000000E+00    0.0000000000E+00
0.1532620600E+02    0.0000000000E+00    0.0000000000E+00
0.0000000000E+00    0.1532620600E+02    0.0000000000E+00
0.0000000000E+00    0.0000000000E+00    0.1532620600E+02
}
Driver = VelocityVerlet {
  Steps = 50000
  TimeStep [fs] = 0.2
  MDRestartFrequency = 5
  Thermostat = None {}
  Xlbomd = {
    IntegrationSteps = 6
    MinSccIterations = 2
    MaxSccIterations = 200
    SccTolerance = 1e-6
    PreSteps = 0
  }
  Velocities [AA/Ps] = {
-2.79020798 -15.84110209 1.60250321
33.78735554 23.66429205 34.28271063
22.74998703 3.66543577 17.59522554
0.01233521 -3.15976970 3.61238795
-3.41388244 -19.79957093 10.06872150
2.48186917 -42.38901261 16.56221841
-0.31068435 5.08726605 -10.35560213
-6.59726518 -17.60060138 7.00053868
8.20197790 13.98536956 -11.59784150
1.62200141 -4.90275744 3.73483491
23.99264810 5.54114814 23.51661824
12.65142720 1.59052576 -4.65784294
-2.87736685 -4.06727777 2.77805946
-13.08351794 14.32718752 -8.55333463
-29.04413143 2.95973878 -13.34886591
-3.04863377 6.39108311 -3.75366599
-16.40605589 -58.82130842 -14.38356978
-8.48740808 -21.28865962 -5.51199487
4.60009831 6.68507253 -9.17319015
-13.72813873 17.93635723 -11.45602399
36.96568044 -0.13452901 0.72359647
-1.96800392 1.46544774 3.95973223
7.23006803 -13.54388807 -27.07028731
-12.99207753 2.14899003 10.79348739
0.90120262 -0.65784858 -1.79920753
21.15963830 -20.44688391 -1.15477794
43.19970434 17.83196983 14.42908222
-8.81066704 18.81801257 14.05498223
4.68976936 13.06719316 -9.51669334
-6.64965370 24.91535619 -7.43425779
32.78696228 10.46313997 26.96300527
-15.54070560 33.28969229 -4.15577480
6.12395991 -3.29411422 5.58477545
24.68792586 -13.74629444 -20.94094993
41.43497092 -26.56636462 -26.72567026
-1.99912309 1.53649412 0.35569837
33.90882108 -0.56742606 17.21714656
13.41455195 -4.93143286 13.49337544
-5.71825989 2.06943230 1.95265642
2.75430382 21.30359512 12.10662057
-0.97855079 -40.99276513 -5.21587984
4.64117449 -6.70040760 -2.56460643
9.09945654 33.55593554 18.05958198
29.17956342 13.14300419 6.78338493
4.73823622 0.45725899 -7.41037941
-19.89782568 -9.22045184 -35.19411144
1.31693192 -9.50372828 15.69374029
-1.50257521 0.66423226 3.55555325
-21.67777895 28.11833098 6.36883793
17.57558804 42.20417875 4.91518953
10.77482797 7.99132154 -2.70929072
-13.11588814 -2.87328775 14.07267605
16.41522096 -1.80815835 -8.98831568
-6.07238965 2.25628687 2.93990596
-35.11438851 16.50744272 4.48640782
36.84656875 -4.32497692 -19.89739664
-6.80404766 1.20089491 -1.97035620
0.27987436 11.59639237 -49.55182559
2.08092638 17.03854057 25.47518723
12.35451505 -4.12462827 24.87039960
10.41023533 -6.85378947 14.61089003
3.73142695 -27.19684696 1.00798634
-8.14256103 20.14109630 -18.38763493
2.78485749 -7.00552970 -41.40106401
5.70010318 -6.02809878 -4.53546888
-16.75839297 6.32301413 -3.43117568
-14.23904817 -7.37082056 32.41171443
2.77871180 2.45736885 -7.05198692
-29.26324988 22.73248255 8.13083476
-23.69546432 9.31081440 -9.12680540
-5.84494139 2.54398672 -3.44248065
-11.89743540 -13.15613603 -32.52749649
-4.69541578 -0.73297288 -18.10584595
2.08533340 0.44121826 -7.27131198
-19.25086088 -12.48917371 -22.08060473
4.00908767 3.96543564 -23.61112250
4.13209344 1.58237645 7.79857216
-19.47836014 -10.17039994 -24.92662931
-24.08080852 35.57576824 -8.26911729
-9.37862122 0.61740209 -0.70357405
-6.09722458 13.31393247 -2.61009633
18.18079706 21.05552816 -13.76096508
1.32054774 -7.13784546 9.44068588
-8.45992398 34.19206493 22.50321205
-28.02279311 30.57571503 27.50131842
-8.66896321 -1.04960261 -3.99485327
-2.15967170 24.42267062 21.88683723
25.25085816 4.19317177 -40.58938915
-8.23393965 -6.19914927 -7.89621023
9.02930450 20.39494570 24.84564583
-13.50242572 38.42273587 16.10314145
24.72152519 35.21959427 5.02632022
8.46582407 -11.85150797 11.64843650
-2.33186571 5.30603705 -9.12172362
18.57302688 -27.55855541 -31.29014550
-31.36468669 15.70295041 23.98622940
0.23465991 13.79332436 14.50752335
-8.85900744 -9.65811690 -28.48367198
-60.70321593 -27.30298028 2.37663216
0.04521338 0.04991701 -2.95969363
-38.45033908 34.28231874 26.12771291
-40.65948424 -2.61947586 -5.06992580
1.20148238 11.39050265 0.53766458
-2.24141460 -8.39341331 14.19625796
8.35800779 30.99986545 14.38036909
-8.01079896 -10.11221124 -23.27372152
-65.26903253 21.27043075 -3.57934596
44.81860611 23.87210525 -9.45821092
-1.81177182 3.90171975 -13.86039888
8.09649902 -7.19970603 12.53377280
39.37036166 4.84173754 -2.15993951
-5.54776695 -11.38645393 21.26152710
2.29773539 15.54953312 -11.84964263
-39.45606931 13.38256496 24.44825008
-7.76339827 6.52730938 -12.49228372
20.31158118 21.93813663 -37.92683115
15.10104967 14.22385676 44.24730857
3.49205651 -9.06643123 2.93429506
12.27958652 62.49421617 13.20496261
-44.75585649 14.75583653 14.48966854
-10.82834126 6.37103623 7.39146465
20.26582797 4.30659700 -7.56764707
22.82976326 -12.56745860 -4.79907980
13.40852898 -18.83146940 -15.48486295
8.00026510 -2.43933007 -6.26234329
11.25694707 -35.70045949 31.99200713
45.62124695 -9.30066392 34.04628164
51.01118851 -51.30205793 -25.47595711
-3.17966050 -3.72199583 4.31308217
-2.20971266 17.76076550 -22.10943137
-0.91229369 23.99783756 41.83523114
-4.83248837 6.60715007 3.64119821
34.34165974 0.93358693 -9.86373558
-43.35240648 -2.95261929 -17.46459199
5.00047934 -8.39468232 -2.80282764
59.50294400 7.87302635 -26.75706294
-4.96646023 19.90701540 7.10768189
5.39878665 -2.89622142 3.35917137
15.92888980 -41.71660973 -35.20117352
-5.24411713 -3.88650931 41.55524333
5.42661404 10.00415633 -4.97522847
-60.23205841 -21.02756303 15.18645686
-7.81736637 30.31660111 -9.69189435
-4.84909267 -7.61966560 -8.15837766
-2.41080619 -50.87156844 -15.14978108
-34.49066744 3.47591539 38.09628064
-11.46948765 -4.83014034 -9.99362619
24.60172115 -40.67405862 11.22088602
21.56227199 -11.25988568 -16.88794465
-3.74870663 -6.89273272 2.29921143
-9.84424911 -39.91505041 -0.84624427
40.18523858 10.39189116 37.40361043
2.87814028 1.36156717 9.07586005
10.44591211 -15.67399888 -15.05664272
-8.52569718 -40.59243638 -18.45575850
-18.86297137 -16.24478084 -0.79402507
-0.04610457 8.58381724 4.41342951
2.00733743 -6.92512715 14.74106927
-40.34902558 23.64409779 47.83388610
47.99807295 5.80846877 -29.76378863
8.02974624 -3.22089055 9.23412136
-9.32190189 2.62576743 -26.91022490
11.96164356 -16.20850148 0.49441160
-0.00384263 -5.93032982 5.91092391
46.12562923 -41.51965125 29.64747196
-19.00175925 -7.91583406 26.63559835
1.71882195 -1.10451946 8.29282734
-7.72985505 13.73870552 -15.23927572
-4.46142790 33.74045747 -10.14049616
-7.05536559 -2.13415055 -4.33129658
-12.28694246 -17.15603502 -5.49951357
-23.85167810 27.50595805 -13.70498201
-0.16928760 -3.66808505 4.77374005
16.15316294 -16.67436243 4.00107355
16.04414190 -1.39524659 2.65568750
3.45504859 -5.12002772 13.60043064