Geometry = GenFormat {
<<< "system.gen"
}

Driver = VelocityVerlet{
  Steps = 50000
  TimeStep [fs] = 0.2
  MDRestartFrequency = 25
  Thermostat = None {
    #InitialTemperature [Kelvin] = 300.0
  }
  Xlbomd{ 
    IntegrationSteps = 6 
    MinSccIterations = 2
    MaxSccIterations = 200
    SccTolerance = 1e-6 
  }
  Velocities [m/s] {
      1.02737983E+03      1.40419990E+02     -5.71503758E+02
     -2.42938495E+03      1.10644024E+03     -3.11642678E+02
      5.31499361E+02     -3.56176311E+03      1.17296574E+03
     -6.49653026E+02     -2.50676412E+02     -5.24146714E+02
     -2.98119850E+02     -1.17418527E+03      7.73039386E+01
      8.01992665E+02     -1.07374553E+02     -5.37804285E+02
     -1.73302315E+02      7.04708306E+02      2.52010251E+02
     -3.21386366E+02      1.43160700E+03     -1.25948090E+02
     -1.89262980E+03     -1.71021347E+02      1.59339332E+03
      5.68712657E+02     -1.65065410E+02     -1.41741410E+02
     -6.45036053E+02     -8.71183335E+02     -1.83501605E+03
      8.50296164E+02      1.50640259E+03      2.20119016E+03
     -1.07147669E+02      1.00097020E+03      4.48305899E+02
      1.22474088E+03     -2.21603080E+03      2.06395017E+02
     -3.26206115E+02      2.13265412E+03     -5.93683367E+02
     -4.39945651E+02      3.55163144E+02     -1.17150850E+02
      1.83089196E+03     -9.36015984E+02      6.93993966E+02
      1.33594229E+03     -1.78903439E+02      5.25376596E+02
      3.53292336E+02     -5.34159191E+02      2.75248309E+02
      2.32720602E+03     -1.06270611E+03     -1.41211832E+03
      2.68250051E+03     -5.54084932E+02     -2.20001172E+03
      1.79336707E+01     -9.16154181E+02     -2.23386045E+02
      5.83069295E+02      4.52260246E+02     -3.28981915E+03
     -9.02939338E+02      1.98831035E+03     -1.82420602E+02
      7.23416846E+01     -5.49192796E+00     -5.26959117E+00
      3.64133650E+02     -3.09325692E+02      1.14124438E+03
      1.72769598E+03      9.11026878E+02     -1.04705585E+03
      6.67971910E+01     -9.63502464E+02     -2.59196309E+01
     -1.07557040E+02     -2.76901336E+02     -1.33557105E+01
      1.40365586E+03      9.87548242E+02     -1.88907750E+03
      2.59963635E+03     -5.01492424E+02     -6.05742946E+02
      2.16031134E+03      1.88678140E+03      1.12714093E+03
      5.77134939E+01      5.70006530E+02      1.05898041E+02
      1.62392748E+02     -2.18794992E+03     -2.43711989E+03
     -1.85068190E+03      8.04234245E+02      8.55644109E+02
     -1.63187043E+02      3.68917223E+01     -6.11433877E+02
     -6.39178507E+02     -6.53688610E+02      2.32810105E+03
      2.10854272E+03      9.22114056E+02     -1.51798805E+03
      2.82376907E+02      3.95127230E+02     -7.19798819E+02
     -7.17610784E+02     -3.71121723E+03     -1.87899226E+02
      2.01361559E+03      2.60829934E+03      2.52976204E+03
      2.76203263E+02     -5.53913079E+01     -3.49695359E+02
      1.58388364E+02      6.72346331E+01     -1.18456041E+03
     -2.43993178E+02     -1.80729670E+02     -5.91504113E+02
      5.48908967E+02      1.02196908E+02      1.77106397E+01
     -2.86202938E+03      2.39979526E+02     -1.86626125E+03
     -8.78931137E+02     -1.36429032E+03      3.91073072E+02
     -2.21190567E+02     -1.02112264E+02     -6.18175425E+02
      7.78333080E+02      1.88644046E+03      6.23299573E+02
      4.49960848E+03     -1.09930167E+03     -1.46844039E+03
     -1.53904156E+02     -1.22744348E+03      4.20015671E+02
      1.53409495E+02     -6.41226226E+02     -1.11303224E+02
     -4.62917609E+02      6.10880257E+02     -6.06301666E+02
      4.34926057E+02     -5.41582105E+02      2.93124998E+02
     -1.74674327E+02     -3.03780797E+03      1.24804071E+03
      1.74708720E+02     -6.54215189E+02      8.27629587E+02
      2.56940739E+01     -3.94371964E+02     -6.73916218E+02
     -3.82690754E+02      3.06503914E+03     -1.30904130E+03
      1.66302907E+03     -2.14577484E+02     -1.82770620E+03
     -2.61494802E+03      1.26308860E+02     -1.92281027E+03
     -3.61601253E+02      9.96448520E+01     -9.21481011E+02
      1.26833555E+03      2.65466336E+02     -3.82337234E+02
      8.30201180E+02     -4.42014165E+02      1.74934377E+02
      1.41369823E+03     -7.62514529E+02     -7.78847828E+02
     -7.95609912E+01     -3.92772994E+02     -1.77705799E+02
     -1.84599803E+03      1.05289333E+03     -3.96205815E+03
      5.51252742E+02      1.94330169E+02     -5.63500435E+01
     -4.94285350E+01      4.69333432E+02      5.17538986E+01
     -1.48772666E+01     -1.86644005E+03     -3.68615717E+02
      2.35405822E+02      1.62052882E+03     -9.74587441E+02
     -1.34020594E+02     -4.97367989E+02     -5.59388225E+02
      6.23893432E+02     -1.71567389E+03     -2.62833867E+03
      3.03451613E+03     -5.30010576E+02      3.35507587E+02
     -5.07836867E+02     -5.45384840E+01     -1.42789479E+02
     -9.34145316E+02      9.25084091E+02     -1.02695853E+03
      3.77823281E+03      6.01418137E+02     -1.82456000E+03
     -6.54350412E+02     -2.74926827E+02     -1.36656501E+02
      2.11176074E+02      6.33451546E+01      2.81295066E+03
     -2.30466517E+03      3.35940957E+02     -1.59782156E+03
      1.53684614E+02     -2.04460220E+02     -4.00507122E+02
     -4.88559559E+02     -1.86762365E+03     -8.37017655E+02
     -3.13942028E+02     -1.61111745E+03     -1.94716207E+03
      4.63492460E+02     -2.11883691E+01      4.01807083E+02
      3.82608084E+03      2.35990025E+03      7.69282954E+02
     -1.19142299E+03      3.34676323E+02     -8.00888352E+01
      5.24601650E+01      3.41018730E+01      2.63704834E+02
     -6.93341888E+02      5.50345380E+02      3.64608948E+03
     -1.63818865E+03      4.66248456E+03     -3.10134778E+03
      2.98469101E+02      3.15443146E+02     -3.74133426E+02
      1.10351674E+03      9.54142517E+01      2.53781241E+02
     -3.03247886E+03     -1.75642840E+03      6.58877204E+02
      5.07647164E+02      5.48318151E+02     -2.27665434E+03
      5.17552380E+02      8.05476601E+02     -2.03342925E+02
      5.28190660E+02      3.28522447E+01     -2.44701739E+03
      1.44854538E+03      7.33362953E+02     -1.73716417E+03
      3.26776932E+03     -1.45772491E+03     -8.87982646E+02
      9.94635529E+02     -5.28393878E+02     -2.18280777E+02
     -5.93791983E+02     -1.11220764E+03     -5.91662206E+02
      7.85607744E+01      6.41956172E+02      2.23031853E+03
      4.90302549E+02      1.88081437E+02     -3.96823674E+02
      2.93438484E+03     -4.81923837E+02      5.29400066E+02
      8.97345305E+02     -1.22563249E+03     -1.08618169E+03
     -5.26150913E+01      3.60513086E+01     -8.28656121E+02
      4.66886665E+02     -2.97411663E+03      1.52662324E+03
     -1.81038985E+03     -8.72820222E+02     -1.55285411E+03
      1.60500986E+01      1.64154636E+02      2.09832443E+02
      2.50229352E+03     -2.36470811E+03      1.99969115E+03
     -2.12088647E+03      1.28737061E+03     -1.31575085E+03
      1.27917060E+01      1.07496229E+02     -2.66827947E+02
     -2.34494325E+02      2.57037874E+03     -1.15803366E+03
     -1.26791396E+03      1.94131397E+03      5.77470432E+02
     -8.96954009E+01      1.90970391E+02      4.66132820E+02
     -7.13255269E+02     -6.00306755E+02     -1.73218683E+03
      2.24657841E+03      1.23478484E+03      6.02120693E+02
      8.19000922E+02     -5.57408664E+02     -1.10945411E+03
      8.18089407E+02     -3.22211012E+02      2.12771738E+03
     -6.52520764E+02      6.10449834E+02     -5.65587330E+02
      6.27394887E+02      2.03324038E+02      5.61803293E+02
     -1.56211801E+03     -9.06658979E+02      2.55508334E+02
     -2.48360536E+03      8.97026132E+02      1.32562848E+03
     -1.04038785E+02     -2.08267491E+02      3.57708945E+02
      2.24167088E+03     -2.68410266E+03     -2.95574029E+03
      8.50707734E+02      1.78728842E+03      1.25221716E+03
      9.51865276E+02      1.15121603E+03     -2.41118598E+03
     -1.35101501E+02      3.50138097E+01     -4.88809687E+02
     -1.10831236E+03      4.49932738E+02      4.36632800E+01
     -7.45517125E+02      3.56138421E+02     -1.93912189E+02
      1.14394894E+02     -1.50575524E+03      8.02360386E+02
     -4.84462659E+01      2.36220913E+02     -9.42039608E+02
      5.30591988E+02     -3.26008031E+02     -2.31643247E+03
     -2.29901262E+03     -1.24590668E+03     -1.74856711E+03
     -6.71517320E+02     -2.51788843E+02     -1.57734373E+02
     -8.84555107E+02      1.30412693E+02     -1.77385812E+03
      2.37617689E+02     -3.02891230E+01     -1.27076156E+03
     -2.12005576E+02     -5.19858788E+02      2.52925383E+02
     -1.16392868E+03     -1.11531383E+03      1.68860958E+02
     -1.23392699E+03     -7.79208238E+02     -1.03239595E+03
     -5.11643870E+02      8.19141402E+02      2.15345448E+02
     -3.25065702E+03      3.41360026E+03     -2.38941602E+03
     -2.76033551E+03      2.06960412E+03      1.49797190E+03
      5.36158514E+02      3.75350174E+02      2.66205184E+01
     -4.52021340E+02     -2.48826483E+03      7.05982194E+02
      1.05538539E+03      4.10714049E+02      9.20607403E+02
     -4.56083621E+01     -5.48303847E+02     -1.86525491E+02
      1.66769553E+01     -1.59654562E+03     -8.06557155E+02
      4.30257847E+02      1.58001515E+03      2.18030614E+02
     -7.78445186E+02      7.41047527E+02     -1.79776422E+02
     -7.65821863E+01     -2.12521897E+03      2.41611010E+03
      9.28365550E+02     -3.62676575E+02      2.78808639E+02
      3.40202144E+02      1.28249532E+01     -3.89966410E+02
      3.37606950E+02     -1.03413494E+03      5.31058676E+02
     -1.19920546E+03     -6.82068409E+02     -6.00117743E+02
      7.87454209E+02      6.53784858E+02     -8.53333311E+02
     -1.06219256E+03     -5.98731020E+02     -1.03341792E+03
     -2.72242112E+03     -3.07761736E+03      2.68572529E+03
     -2.17010761E+03      4.60327498E+02      2.39858078E+02
      3.93800368E+02      3.42651365E+02      5.67870322E+02
     -2.14636326E+03     -1.38079154E+03      4.25883850E+03
      1.35807592E+03      1.63214316E+02     -1.70432778E+01
      4.00777983E+02     -1.82270836E+03     -1.02298072E+03
      4.96017740E+02      7.19195961E+02     -3.74598460E+02
      5.38399737E+02     -8.77318453E+02      1.19282428E+03
      6.41723085E+02      1.26923832E+03      9.98859643E+02
     -5.87012451E+00     -6.43825274E+02     -1.88588841E+02
      8.17514227E+02     -9.94491842E+02     -1.44369708E+03
     -5.08168175E+02      9.95755209E+02      9.51651474E+02
     -5.42320262E+02      3.22552858E+02      2.75112283E+02
     -5.54887821E+02      3.19173006E+02     -6.68631355E+02
      1.13889717E+03      1.93405801E+03     -1.24903561E+03
      1.09234357E+02      5.36816605E+02     -3.80304147E+02
     -2.62660606E+03     -4.40762175E+02     -4.42141073E+02
     -6.87932146E+02     -1.84022310E+03      6.52763097E+02
     -2.00614990E+02     -2.32892081E+02     -4.79169565E+02
      6.19344793E+02     -3.88485818E+03      1.19568433E+03
     -9.09685028E+02     -6.69271486E+02     -1.04172156E+03
      2.14078052E+02     -5.45507681E+01      3.24262342E+02
      3.12468194E+02      9.53060527E+01     -1.42026899E+03
      3.28235961E+03     -3.24445733E+02     -6.82309333E+02
      2.37685435E+02      1.85224056E+02     -4.30368189E+02
     -3.99052588E+03      1.95085386E+03      1.30903803E+03
      1.09651742E+03     -2.63928018E+03     -3.89969976E+02
      6.29965885E+02     -3.29471532E+02     -4.75974096E+02
     -1.36474842E+03      1.36680427E+03     -1.36587414E+03
      1.63339288E+03      1.34938773E+03      3.65837709E+02
     -5.41280771E+02     -1.66833472E+02     -9.65730152E+02
      8.98769437E+02     -1.03395398E+03      1.24185731E+03
      3.50399869E+03     -1.17516999E+03     -9.85768743E+02
     -4.59683195E+02     -1.20798641E+03     -9.31281996E+02
      1.88249097E+01     -2.44138498E+02      5.80135515E+01
      2.69467773E+03     -1.23418179E+02      1.60323192E+03
      8.74347128E+02     -9.31683889E+02     -1.08017270E+03
     -2.33356143E+03      1.84398876E+03     -1.84811927E+03
     -3.52581748E+00     -2.73502708E+02     -1.78848245E+02
      2.01278047E+03     -1.19961412E+03      3.08710408E+03
      8.74780223E+02      1.14983849E+02     -1.12306122E+03
     -4.98408620E+02      1.79720852E+02      7.37723016E+01
      5.13299498E+01      2.96383440E+02     -1.10583488E+03
      1.30485712E+03     -3.61128064E+02     -1.44250910E+03
      2.47796613E+02     -5.79774474E+02     -3.62283328E+02
     -5.02428639E+03      3.93871381E+02     -8.31238987E+02
     -1.97230318E+02      1.57650687E+03     -1.33005185E+03
     -5.20550199E+02     -2.43126628E+02     -4.67325222E+02
     -6.78449692E+02      2.10441281E+02     -5.29509911E+02
     -8.46611433E+02      2.22718296E+02     -8.56834892E+02
      4.57606972E+02     -1.24366113E+02     -2.15871185E+02
     -5.30545950E+03      3.90063764E+02      2.43116984E+02
      1.38335809E+03     -1.38212467E+03     -1.71046343E+03
     -2.23375454E+02     -3.79339861E+02     -2.73651397E+02
     -1.25977333E+03      2.23023444E+03      2.78843090E+03
     -1.99679877E+03      1.62292714E+03      6.98403716E+02
      2.53964834E+02      5.15771085E+02     -8.63911214E+02
     -2.71184636E+02      9.67937024E+02      1.58373010E+02
     -1.19898458E+03     -2.40480080E+03     -1.16802782E+03
      8.51114078E+01      1.99592520E+02     -4.64401151E+02
     -6.43476897E+02     -1.00098366E+03     -1.44981299E+03
      6.05645200E+01     -1.09782287E+03      3.34294989E+03
     -5.31614972E+01      1.61037609E+02      1.18329632E+02
      5.20213999E+02     -7.93429732E+02     -4.83349399E+01
     -1.72676746E+03     -1.16187607E+02     -9.15742958E+02
     -1.36627999E+03      1.77240234E+02     -1.01110189E+03
     -1.07016937E+02     -1.60511137E+01     -2.69699032E+02
     -1.32552239E-01     -7.18279860E+02     -2.71129245E+03
      1.12546386E+03     -1.76161702E+03      7.43609012E+02
     -1.39981174E+03     -6.79936233E+02     -1.75652456E+03
     -2.22034775E+01      1.21787951E+02     -5.12128691E+02
      2.61226249E+03      5.95349832E+00     -7.85440778E+02
      2.53874130E+03      5.34204886E+02     -4.87890110E+02
      7.62080436E+02     -3.21062786E+02      6.38185660E+02
      2.41849279E+03      2.14848445E+03     -2.73790169E+03
      1.87910721E+02     -8.93155607E+02     -4.05379675E+02
     -1.03801060E+02     -3.39844719E+01      2.76876205E+02
     -2.24664719E+03      9.82932642E+02     -3.89471627E+02
      4.77537524E+02     -1.53763525E+02     -2.03204880E+03
      1.74418372E+02      1.16658055E+03     -7.50327382E+02
      3.92756509E+01      4.81786126E+03      1.16153708E+02
     -1.48762627E+03      9.15165579E+02     -4.63916151E+02
     -3.96125480E+02      6.94121000E+00     -7.01602650E+01
      4.08576959E+02      1.25624378E+03      2.23017792E+03
     -8.44876241E+02      1.14782913E+03     -1.16514209E+03
     -2.52381938E+02      3.16809440E+02      2.47904940E+02
     -1.47254123E+03      8.92799850E+02     -1.13706151E+03
     -4.58158505E+02     -7.26130775E+02      6.57961939E+02
      4.83146878E+02      4.82729438E+02     -4.78326896E+02
     -1.56243824E+03     -1.08186034E+03     -3.97712410E+02
      1.62332940E+03     -1.64528435E+03      1.09511768E+03
     -8.72885063E+02     -5.30762998E+02     -1.50158625E+02
     -1.45536356E+03     -1.42629706E+03      2.94312325E+02
      2.01614876E+03     -1.32089897E+03      2.88013225E+02
      4.56212371E+02     -2.54046690E+02     -5.26770150E+02
     -2.72280119E+02     -1.84729523E+03      1.74818800E+03
      1.06741620E+02     -4.00168654E+02      8.33244019E+02
     -8.78983927E+02     -4.80922731E+02     -5.05619208E+02
     -7.76855788E+02      3.06430144E+02      5.05587168E+00
      1.85886554E+01     -2.58472585E+02      1.78367977E+03
     -8.71321392E+02      9.54274328E+02     -2.06712224E+03
      1.35299718E+03     -2.24233200E+03      3.11532994E+03
     -3.40346468E+02     -3.17103264E+01     -1.46345547E+02
     -6.11764302E+02     -2.65445207E+03      7.64262780E+02
      1.10407053E+02     -7.92366652E+02      5.52439614E+02
     -2.10215873E+02      7.62900920E+01     -3.01437814E+02
     -1.09463090E+03      4.42661682E+02      3.70674534E+02
     -4.31445074E+02      7.54522870E+01     -1.01926745E+03
      5.21846284E+02     -1.47119995E+03     -3.00879801E+01
      1.58605977E+03      7.40766367E+02      1.08421865E+03
      2.21453145E+03      1.47189738E+03     -4.08242656E+03
     -2.11632479E+02      4.46885721E+02      7.14895393E+02
     -3.09433842E+02      3.09882744E+03     -9.40413958E+01
     -1.45231709E+03      2.03776583E+03     -5.85699453E+02
     -5.45770984E+01      2.19870318E+02     -6.22504970E+02
     -3.99107797E+02      2.58840295E+03      5.45320663E+02
      1.97260426E+03     -2.53615986E+03      1.53726568E+03
      2.15815178E+02      3.36045134E+02      1.28942668E+02
      1.16199620E+03     -4.81234309E+02     -1.04460518E+03
     -6.62910190E+02      7.06974115E+01     -1.80193487E+02
     -1.44631083E+03      3.91815772E+02     -5.42548325E+02
     -6.11151875E+02     -7.08382662E+02      3.66183564E+02
      3.39113924E+03     -1.03408237E+03     -8.58177676E+02
     -5.93756225E+02     -8.12683650E+01      1.03571513E+02
     -5.23849367E+01     -1.12708114E+03      1.32101736E+03
      2.10201190E+02     -2.35812418E+03      1.32997386E+03
     -2.32439078E+02      1.19420785E+01     -4.86661298E+02
      7.87870305E+02     -2.78629951E+03      1.95734821E+02
      2.94905530E+03      1.26268871E+02      1.69015711E+03
      8.32455836E+02     -1.94950856E+01      7.41142713E+02
     -5.71104863E+01      2.23418064E+02     -2.70169921E+02
     -1.17919445E+03      8.92297859E+02      1.96773718E+02
     -1.53133236E+03     -1.79380481E+03      3.08139074E+03
      8.08821262E+02      3.94647262E+02      1.48381514E+03
      1.38662456E+02     -4.56227000E+02     -4.19059249E+02
      7.85791398E+01     -4.87713055E+02      2.66275193E+03
     -3.60022502E+02     -9.92422130E+02      7.34899238E+02
      5.20999483E+02     -2.83330867E+02     -3.24991659E+02
      1.43505261E+03      1.28194204E+03      7.54301914E+02
      1.55917394E+03      3.80569538E+03     -2.45954686E+03
      2.30679930E+01     -3.79004970E+02     -1.31820319E+02
      1.27328886E+03      3.88087703E+03     -6.58228627E+02
      4.18073131E+02      3.05406314E+03      2.59531492E+03
      1.09513434E+02     -3.38900246E+02     -1.09535949E+02
      2.82213096E+03     -2.00644428E+03      1.94734991E+02
      2.93839964E+03     -6.17017677E+02     -5.50008436E+02
      1.76169782E+02     -2.00404759E+02     -1.61990372E+02
      1.43934046E+03     -5.05181810E+02     -2.18564577E+02
      1.04433990E+02     -1.18299346E+03      3.47105802E+02
     -2.15428513E+02      1.89348061E+02      3.38632203E+02
     -2.54933183E+03     -2.47750603E+02     -4.07782365E+01
      8.80110647E+02     -2.05620516E+03      5.16170260E+01
      3.06716653E+02     -7.07278256E+00     -4.48977144E+02
     -6.97026002E+02      7.38003643E+01     -2.69041375E+01
     -1.30757835E+03     -2.46625867E+03      2.08807988E+03
     -9.39144250E+01     -1.61197665E+02     -5.03425206E+02
      2.14500253E+02      4.32974463E+02     -2.55757353E+02
      4.53661223E+01      7.68660444E+02      5.99186010E+02
      7.57083366E+01      5.39553239E+01     -2.02821946E+02
     -1.34431789E+03      5.47483586E+02      3.66619808E+02
      1.29816585E+02      3.55386685E+03      8.51385912E+01
      1.19840839E+02     -7.81162344E+02     -1.22192931E+03
      6.30816738E+01      5.34984530E+01     -3.22632491E+02
     -5.32929796E+01      7.84669819E+02      1.78070257E+03
     -6.64732349E+02     -7.96116939E+02      7.83652434E+01
     -9.01805406E+02     -5.79962223E+02      9.52029320E+02
     -1.08670680E+02      1.08012957E+02     -3.65249344E+02
     -8.79160296E+02     -1.12159707E+03      4.90229497E+02
     -4.25011857E+02      2.90436870E+03     -1.57136472E+03
      4.07254252E+02      3.01114616E+02      2.38206278E+02
     -1.33625512E+03     -2.70023882E+03      4.64909003E+02
     -2.15155657E+03      9.79353902E+02      1.16076672E+03
     -6.89870977E+02     -8.98207907E+01     -2.26979166E+01
     -5.44181249E+02     -4.42106179E+02      8.64467610E+02
     -1.44329454E+03      1.67138196E+03      6.33929611E+02
     -5.64024876E+02      3.66908690E+02     -1.69368058E+02
     -2.01303175E+02      1.74584475E+03     -1.01938581E+03
     -1.17063307E+03     -1.94153628E+03     -2.95289335E+02
     -5.89298339E+02     -2.22016808E+02      5.50178120E+01
      3.88364558E+02     -1.32887474E+03     -1.55411697E+03
     -3.85294199E+02      1.15063164E+03      4.51258560E+02
     -2.26331706E+02      9.84607302E+02     -2.04736823E+02
      1.49100978E+03     -1.68463434E+03      4.42476094E+03
      1.47397544E+03     -1.11012502E+03     -2.76703745E+03
     -2.06325746E+02     -6.92842048E+01      2.17887834E+04
     -9.51071617E+01      1.80531338E+03      3.11893984E+02
      1.80737829E+03     -2.40253639E+03     -8.21728724E+02
     -5.28853393E+02      2.23334131E+01     -2.93410769E+02
     -2.00652136E+03      7.21024776E+02     -1.50346014E+03
     -8.94048356E+02     -6.32156965E+01      1.10448308E+03
      2.35822296E+02      1.17464838E+01      3.26137224E+02
      9.02090308E+02      2.45851311E+03     -3.01544667E+02
     -8.61903737E+02      2.46207823E+02     -2.90196139E+02
      1.64564164E+03      5.83751086E+00     -1.27518275E+03
     -6.46837478E+02      4.15008574E+02     -2.17990971E+02
     -1.09000119E+02     -3.11287891E+02     -1.11649774E+03
      1.33661161E+03     -2.63879749E+03      1.46288002E+03
      3.87431961E+02      1.97554602E+02      1.01810924E+03
  }
}

Hamiltonian = DFTB {
  SCC = Yes
  SCCTolerance = 1e-6
  MaxSCCIterations = 200
  ForceEvaluation = Dynamics
  MaxAngularMomentum = {
    C = "p"
    H = "s"
  }
  Charge = 0.0
  SpinPolarisation = {}
  Eigensolver = Standard {}
  Filling = Fermi {
    Temperature [Kelvin] = 300.0
  }
  SlaterKosterFiles = Type2FileNames {
    Prefix = "../../pbc-0-3/"
    Separator = "-"
    Suffix = ".skf"
    LowerCaseTypeName = No
  }
  KPointsAndWeights = {
    0.0000000000000 0.0000000000000 0.0000000000000 1.00000000000000
  }
  Dispersion = LennardJones { 
    Parameters = UFFParameters {}
  }
}

ParserOptions = {
  ParserVersion = 3
}
